# vtk DataFile Version 2.0
Really cool data
ASCII
DATASET POLYDATA
POINTS 2181 float
10.0 25.0 0
9.499999999999998 2.5 0
15.5 2.5 0
15.0 12.5 0
20.0 12.5 0
19.5 2.5 0
25.5 2.5 0
25.0 20.0 0
13.625 5.0 0
12.5 6.125 0
11.375 5.0 0
12.5 3.875 0
23.625 5.0 0
22.5 6.125 0
21.375 5.0 0
22.5 3.875 0
13.625 21.5 0
12.5 22.625 0
11.375 21.5 0
12.5 20.375 0
23.625 17.5 0
22.5 18.625 0
21.375 17.5 0
22.5 16.375 0
12.5 15.5 0
20.0 15.5 0
20.0 14.5 0
12.5 14.5 0
9.991935483858025 24.63709677361116 0
9.983870967686876 24.27419354590941 0
9.975806451505594 23.91129031775169 0
9.967741935387979 23.54838709245913 0
9.959677419287308 23.18548386792893 0
9.951612903177157 22.82258064297202 0
9.943548387037561 22.45967741669023 0
9.935483870865918 22.09677418896629 0
9.927419354663494 21.73387095985724 0
9.919354838499428 21.37096773247424 0
9.911290322402236 21.00806450810057 0
9.903225806239442 20.64516128077486 0
9.895161290090327 20.28225805406479 0
9.88709677392396 19.91935482657819 0
9.879032257749005 19.55645159870528 0
9.87096774158539 19.19354837134259 0
9.862903225443695 18.8306451449664 0
9.854838709266936 18.46774191701208 0
9.846774193129884 18.10483869084486 0
9.8387096769655 17.74193546344752 0
9.830645160817648 17.3790322367941 0
9.822580644653016 17.01612900938582 0
9.814516128535823 16.65322578411198 0
9.80645161236424 16.29032255639083 0
9.798387096184427 15.92741932829917 0
9.790322580028553 15.56451610128487 0
9.782258063860747 15.20161287373363 0
9.774193547698067 14.83870964641301 0
9.766129031557885 14.47580642010487 0
9.758064515415136 14.11290319368108 0
9.749999999265055 13.74999996692745 0
9.741935483151023 13.38709674179607 0
9.733870967040986 13.02419351684439 0
9.725806450970376 12.66129029366696 0
9.717741934888643 12.29838706998896 0
9.709677418789838 11.93548384554277 0
9.701612902692275 11.57258062115251 0
9.6935483865711 11.20967739569949 0
9.685483870450787 10.84677417028545 0
9.677419354371613 10.48387094672266 0
9.669354838248523 10.12096772118364 0
9.66129032215358 9.75806449691109 0
9.653225806025599 9.39516127115204 0
9.645161289919614 9.032258046382696 0
9.63709677382252 8.669354822013439 0
9.629032257712137 8.306451597046282 0
9.620967741597934 7.943548371907037 0
9.612903225478219 7.58064514651981 0
9.604838709395764 7.217741922809518 0
9.596774193335289 6.854838700088075 0
9.588709677229938 6.491935475347274 0
9.580645161101724 6.129032249577598 0
9.572580644996847 5.766129024858337 0
9.564516128916669 5.403225801250091 0
9.556451612836 5.040322577620052 0
9.548387096737235 4.677419353175575 0
9.540322580608505 4.314516127382788 0
9.532258064471684 3.951612901225835 0
9.524193548396726 3.588709677852687 0
9.516129032273984 3.225806452329359 0
9.508064516148213 2.862903226669649 0
9.852941176575179 2.5 0
10.20588235384425 2.5 0
10.55882353096536 2.5 0
10.91176470721401 2.5 0
11.2647058842994 2.5 0
11.61764706100214 2.5 0
11.97058823810794 2.5 0
12.3235294170403 2.5 0
12.67647059214862 2.5 0
13.02941176563702 2.5 0
13.38235294061013 2.5 0
13.73529411351178 2.5 0
14.08823528775529 2.5 0
14.44117646397333 2.5 0
14.79411764123219 2.5 0
15.14705882094263 2.5 0
15.48214285710404 2.857142857919064 0
15.46428571423325 3.214285715335077 0
15.44642857135935 3.571428572812889 0
15.42857142846433 3.928571430713412 0
15.41071428559489 4.285714288102234 0
15.3928571427184 4.642857145631958 0
15.37499999986416 5.000000002716725 0
15.35714285692995 5.357142861400871 0
15.33928571401367 5.714285719726578 0
15.32142857106964 6.07142857860725 0
15.30357142814068 6.428571437186336 0
15.28571428519924 6.785714296015096 0
15.26785714229736 7.142857154052814 0
15.24999999944757 7.500000011048588 0
15.23214285665211 7.857142866957921 0
15.21428571381986 8.214285723602668 0
15.19642857098651 8.571428580269666 0
15.17857142818586 8.928571436282821 0
15.16071428546017 9.285714290796712 0
15.14285714268139 9.642857146372322 0
15.12499999988752 10.00000000224952 0
15.10714285709138 10.35714285817244 0
15.08928571426198 10.71428571476034 0
15.07142857140775 11.0714285718451 0
15.05357142859945 11.4285714280109 0
15.03571428572961 11.78571428540776 0
15.01785714284225 12.14285714315502 0
15.3571428591223 12.5 0
15.71428571719138 12.5 0
16.07142857423201 12.5 0
16.42857142974857 12.5 0
16.7857142846084 12.5 0
17.14285714112862 12.5 0
17.49999999772317 12.5 0
17.85714285297952 12.5 0
18.21428571083795 12.5 0
18.57142855939082 12.5 0
18.92857141386655 12.5 0
19.28571427430228 12.5 0
19.64285713574168 12.5 0
19.98214285709066 12.14285714181319 0
19.96428571422755 11.7857142845509 0
19.9464285713915 11.42857142782999 0
19.92857142850372 11.07142857007454 0
19.91071428566385 10.71428571327699 0
19.89285714274722 10.35714285494433 0
19.87499999981069 9.999999996213674 0
19.85714285679789 9.642857135957803 0
19.83928571385784 9.2857142771567 0
19.82142857094275 8.92857141885494 0
19.80357142811986 8.571428562397289 0
19.78571428518957 8.214285703791473 0
19.76785714222912 7.85714284458249 0
19.74999999927616 7.499999985523064 0
19.73214285649986 7.142857129997356 0
19.71428571378 6.785714275600116 0
19.69642857096893 6.42857141937854 0
19.67857142816632 6.071428563326299 0
19.66071428530542 5.714285706108507 0
19.64285714248335 5.357142849666927 0
19.62499999965938 4.999999993187642 0
19.60714285683545 4.642857136708982 0
19.58928571409201 4.285714281840209 0
19.57142857126215 3.928571425242887 0
19.55357142848666 3.571428569733251 0
19.53571428567042 3.214285713408467 0
19.51785714289288 2.857142857857421 0
19.85294117629201 2.5 0
20.20588235487999 2.5 0
20.55882352693214 2.5 0
20.91176470067818 2.5 0
21.26470587509772 2.5 0
21.61764704895601 2.5 0
21.97058822759501 2.5 0
22.32352940747382 2.5 0
22.67647058455666 2.5 0
23.02941176067775 2.5 0
23.38235293441871 2.5 0
23.73529410473613 2.5 0
24.08823527892097 2.5 0
24.44117645565941 2.5 0
24.79411763635966 2.5 0
25.14705881820279 2.5 0
25.48958333332585 2.864583333595161 0
25.47916666664597 3.229166667390891 0
25.46874999996687 3.593750001159383 0
25.45833333328636 3.958333334977398 0
25.447916666602 4.322916668929952 0
25.43749999991316 4.687500003039327 0
25.42708333324472 5.052083336434745 0
25.4166666665751 5.416666669871431 0
25.4062499998852 5.78125000401795 0
25.39583333321691 6.145833337408416 0
25.38541666653144 6.510416671399764 0
25.37499999984903 6.875000005283809 0
25.36458333316022 7.239583339392362 0
25.35416666645721 7.604166673997792 0
25.34374999977512 7.968750007870696 0
25.33333333308926 8.333333341876074 0
25.32291666640567 8.697916675801387 0
25.31249999972474 9.062500009634261 0
25.30208333305578 9.42708334304784 0
25.29166666633597 9.791666678240944 0
25.281249999644 10.1562500124601 0
25.27083333292552 10.52083334760698 0
25.26041666625816 10.88541668096443 0
25.24999999957175 11.25000001498879 0
25.23958333293401 11.61458334730956 0
25.22916666630316 11.97916667938932 0
25.21874999963477 12.34375001278308 0
25.20833333300986 12.70833334465483 0
25.19791666636482 13.07291667723147 0
25.18749999970019 13.43750001049318 0
25.17708333305312 13.8020833431408 0
25.16666666648339 14.16666667308115 0
25.15624999988681 14.53125000396162 0
25.14583333327724 14.89583333529646 0
25.13541666672773 15.26041666452946 0
25.12500000013395 15.62499999531171 0
25.11458333346292 15.9895833287975 0
25.10416666681642 16.35416666142532 0
25.09375000019333 16.71874999323352 0
25.08333333356111 17.08333332536115 0
25.07291666688319 17.44791665908837 0
25.06250000021687 17.8124999924095 0
25.05208333355612 18.17708332553584 0
25.04166666690528 18.54166665831552 0
25.03125000016995 18.90624999405174 0
25.0208333334352 19.27083332976814 0
25.01041666669018 19.63541666584358 0
24.65909090697006 20.11363636434331 0
24.31818181387862 20.22727272870713 0
23.97727272112545 20.34090909295818 0
23.63636362933978 20.45454545688674 0
23.29545454074166 20.56818181975278 0
22.95454545175678 20.68181818274774 0
22.61363635870555 20.79545454709815 0
22.27272726938004 20.90909091020665 0
21.93181817642107 21.02272727452631 0
21.59090908415283 21.13636363861572 0
21.24999999070893 21.25000000309703 0
20.909090898365 21.36363636721167 0
20.5681818062032 21.4772727312656 0
20.22727271532826 21.59090909489058 0
19.88636362288735 21.70454545903755 0
19.54545453222531 21.81818182259157 0
19.20454544067146 21.93181818644285 0
18.86363634917439 22.0454545502752 0
18.52272726008306 22.15909091330565 0
18.18181816691119 22.27272727769627 0
17.84090907624678 22.38636364125107 0
17.49999998161302 22.500000006129 0
17.15909089129634 22.61363636956789 0
16.81818180107666 22.72727273297446 0
16.47727271035784 22.84090909654739 0
16.13636362113641 22.9545454596212 0
15.79545453028867 23.06818182323711 0
15.4545454400335 23.18181818665549 0
15.11363634812483 23.29545455062506 0
14.77272725866684 23.40909091377772 0
14.43181816866006 23.52272727711332 0
14.09090907805834 23.63636364064723 0
13.74999998745307 23.75000000418231 0
13.40909089754563 23.86363636748479 0
13.06818180839043 23.97727273053652 0
12.72727271853859 24.09090909382047 0
12.38636362812021 24.20454545729326 0
12.04545453791708 24.31818182069431 0
11.70454544876188 24.43181818374604 0
11.36363635991656 24.54545454669448 0
11.02272727049761 24.65909090983413 0
10.68181818161208 24.77272727279597 0
10.34090909059876 24.88636363646708 0
13.53936447392977 5.430518861761812 0
13.29549512714208 5.795495130527656 0
12.93051886163336 6.039364473982978 0
12.06948113743464 6.039364473596931 0
11.70450486924562 5.795495126915347 0
11.46063552506678 5.430518859339278 0
11.46063552603309 4.569481138327832 0
11.7045048727207 4.204504869609567 0
12.0694811382365 3.960635526070925 0
12.93051886277896 3.960635526491545 0
13.2954951309342 4.204504873264463 0
13.53936447498188 4.569481140778189 0
23.53936447355998 5.430518862654571 0
23.29549512629944 5.795495131370292 0
22.93051885878755 6.039364475161753 0
22.06948113763989 6.039364473681951 0
21.70450486886492 5.795495126534648 0
21.46063552518245 5.430518859618539 0
21.46063552641138 4.569481137414567 0
21.70450487359473 4.20450486873554 0
22.06948114105052 3.96063552490532 0
22.930518862583 3.960635526410373 0
23.29549513128127 4.204504873611536 0
23.5393644748571 4.56948114047696 0
13.53936447365637 21.93051886242186 0
13.29549512687994 22.29549513078979 0
12.93051886148198 22.53936447404568 0
12.06948113686453 22.53936447336078 0
11.70450486830503 22.29549512597476 0
11.46063552461264 21.93051885824288 0
11.46063552634363 21.06948113757814 0
11.70450487312006 20.70450486921021 0
12.06948113851802 20.46063552595432 0
12.93051886313547 20.46063552663922 0
13.29549513169497 20.70450487402524 0
13.53936447538736 21.06948114175712 0
23.53936447334172 17.9305188631815 0
23.29549512485563 18.2954951328141 0
22.93051885758087 18.53936447566158 0
22.0694811368185 18.53936447334172 0
21.7045048671859 18.29549512485563 0
21.46063552433842 17.93051885758087 0
21.46063552665828 17.0694811368185 0
21.70450487514437 16.7045048671859 0
22.06948114241913 16.46063552433842 0
22.9305188631815 16.46063552665828 0
23.2954951328141 16.70450487514437 0
23.53936447566158 17.06948114241913 0
13.0357142863834 15.5 0
13.57142857334916 15.5 0
14.10714285783675 15.5 0
14.64285714470339 15.5 0
15.17857143070267 15.5 0
15.71428571720997 15.5 0
16.25000000702564 15.5 0
16.78571428904744 15.5 0
17.32142857412979 15.5 0
17.8571428511085 15.5 0
18.39285713616606 15.5 0
18.92857142211578 15.5 0
19.46428571101452 15.5 0
20.0 14.99999999601014 0
19.46428571160309 14.5 0
18.92857142040583 14.5 0
18.39285713577575 14.5 0
17.85714284336419 14.5 0
17.32142855637984 14.5 0
16.7857142655791 14.5 0
16.2499999775787 14.5 0
15.71428569556309 14.5 0
15.17857141150299 14.5 0
14.64285712475407 14.5 0
14.10714284117721 14.5 0
13.57142856006613 14.5 0
13.03571428124737 14.5 0
12.5 14.99999999867727 0
20.31018107269387 6.113092671572719 0
10.72348743414219 13.81960202536744 0
21.51654439050999 7.587864304604984 0
12.84920128418929 7.062216940410342 0
24.83555920840301 3.160871802435213 0
11.64219736925206 13.52331541947744 0
23.52977776424037 10.32927129591052 0
13.66345875928378 12.25415508097064 0
13.3690776895752 10.38156327230021 0
24.41236824983173 13.30907031340199 0
11.02975065448115 9.118364894858995 0
15.65873276409751 17.32008807090283 0
22.37999352024057 9.895506120394845 0
20.31263192248218 18.62962749344047 0
13.79643092962024 9.038482267179639 0
23.73238631594119 12.83982789502931 0
22.56758023715385 8.970281693268129 0
12.40859488765699 8.955572001663867 0
17.27576984487442 19.76600365137416 0
24.31229494699963 3.650659158229523 0
21.02282728575268 14.26955056362613 0
13.39891510179969 8.819770324728509 0
23.70170962470966 7.82776610895329 0
21.32378171917507 11.69584089638844 0
14.54145888266043 20.1359407942241 0
23.66392632931506 19.78430383962135 0
17.77482493224609 20.45043823669263 0
14.4337401905823 7.395423059511582 0
11.03828552387241 11.5273703245802 0
12.2172405365187 17.87269497636954 0
23.70935151784545 15.26601723145451 0
12.39241460109421 10.78906480714311 0
10.67135773270858 21.96328946707474 0
14.81167657781581 22.72351183852601 0
16.87269815869812 19.58416128293615 0
16.54312626397946 19.06119702883889 0
13.53447641534548 3.187886014040338 0
21.2107885215225 9.051530900176061 0
24.38891894356858 16.87096565517783 0
10.27530162307064 15.73161612534383 0
10.64195981071236 19.36640866152445 0
10.70404173195815 24.00911565940088 0
10.27912120964581 18.23216489217795 0
16.14496092316325 17.93097317898886 0
24.00977109392593 17.28198196750765 0
24.13040615353972 16.10183674515758 0
10.90183157228204 20.0146780064181 0
14.17367111337383 5.017842067220141 0
10.34673280774482 9.304389578135002 0
20.7905363832994 9.867083379632113 0
22.15072377686846 7.047438905745415 0
13.99254029114064 11.664600731436 0
10.36421806556681 23.69339024185635 0
22.05725142093379 15.66694622162737 0
23.16408694880781 13.42144456953644 0
13.35483230967542 7.159039453215891 0
24.19327624396707 5.075407848840033 0
21.94782853012092 10.73521952298441 0
20.17330438321643 3.155958018394966 0
13.43371971200194 8.105828180402048 0
14.45868435224875 21.13500943222787 0
21.65648103617546 9.647901530895787 0
19.30582495195257 20.5311112640032 0
23.29872461624009 8.508935981194645 0
22.050032996102 19.7488688810751 0
15.98925066617864 21.96283594682457 0
18.11341489684327 17.48728818007852 0
19.84488814481221 21.00373116803731 0
24.51559140871897 7.451179179787173 0
20.29228479634597 20.51526461831715 0
15.80059456085929 18.32247542327531 0
14.11741470136213 6.638695396190327 0
24.71609333168666 12.76204802831544 0
10.44843234853809 5.621676532033748 0
22.91204045321535 10.19599009800505 0
18.58055518269303 20.60449642880557 0
12.08609328675167 18.75147872129297 0
22.57249855632742 10.78487518896311 0
11.47220022807929 13.20318384580268 0
21.50866865072297 20.33518145699428 0
21.59148272033651 10.41874827949474 0
14.82669561526347 3.155958018735512 0
23.07788187581497 6.520701744486811 0
10.64372278846674 20.78948447458055 0
22.61482289049447 7.36275586392104 0
23.77194834527385 9.821144209846638 0
12.61608043350537 9.895396733207988 0
19.03489656722775 16.11925640457344 0
20.48860686170719 19.23088351469212 0
14.77218242362835 16.55728600385128 0
17.11963504026178 21.054538250242 0
10.8334712893011 15.5836700046659 0
13.14136249696921 8.466971417722972 0
23.80842843729113 13.41541886976279 0
19.05430725708413 18.74176764515758 0
11.98847326585061 23.56825615121354 0
12.9446883324099 12.42084396835288 0
10.96443947005648 4.217202755633802 0
20.38026398275558 11.11341578961602 0
14.50757591253512 11.23666089171503 0
24.33660866347423 10.85925401014244 0
24.34519189924609 17.60532787206623 0
14.29445491949907 12.60995778973305 0
20.3801356891835 16.62403114024507 0
14.29835903356781 3.641292146706736 0
20.70164096721003 3.641292146590056 0
13.15259449102518 11.30286458506652 0
16.41207438559085 17.42340344209748 0
17.88283261615297 13.34754481112354 0
22.64963968650567 12.95892849660705 0
10.70924177048511 18.35084072353578 0
13.88709354807904 23.12291313296345 0
21.57338517359694 14.9771179452239 0
15.6573881637878 20.9615580308055 0
10.74121708504818 22.60094314862648 0
22.86054478751631 14.09863492926566 0
19.23955969887395 19.23212425039256 0
11.45064000739852 3.201698948810825 0
12.6803801204525 13.0774956381516 0
23.90640783303292 9.135989918651099 0
13.50144775108098 7.674824765440554 0
11.41617067523877 10.33847940606966 0
20.49686831398293 13.48153948692867 0
12.51886993107021 11.35220954217025 0
14.32028795828371 18.76174586910255 0
11.12315487090257 14.67447640833423 0
19.69432133635175 17.69511608612038 0
24.41797579741559 8.297987793764046 0
18.0470129203567 21.38262333672601 0
13.65641905648388 22.64541520005109 0
11.14486760730246 23.34560118990508 0
10.60249301340228 16.817256405042 0
20.53184576016712 4.554551642766139 0
15.02044802175866 22.42660949289094 0
13.6767948209438 17.1410023188851 0
16.94042471482459 21.38945602295801 0
24.49109987291468 4.585586127022275 0
20.59856195700144 7.374041659363363 0
12.40874168720328 7.839782267634923 0
11.70280758778667 12.33401965624065 0
20.96204197548779 18.09391665997487 0
18.63037313396984 19.91901196498744 0
20.81366242294027 12.5087806992769 0
18.70520525286162 13.56499114410844 0
10.61139187742943 10.85493398899219 0
18.85737649988619 16.72049822666325 0
12.460941266246 16.76756324062621 0
20.79711777245097 17.16127566324144 0
10.42910731904504 20.45281100641723 0
10.60103703697048 9.91835260410521 0
10.68290156440064 3.65388781864058 0
16.38101810178093 20.8903589423798 0
15.10710043016305 18.6348975751683 0
20.91831516772683 19.68676371174432 0
12.99874144358182 19.03071916003621 0
23.91763114155049 11.57439433319294 0
19.9885380892293 13.86596989040671 0
11.79635467089041 9.617909195337011 0
22.62401132081072 20.16238701417652 0
11.32657407675362 18.96605438910972 0
21.14048166930847 7.175240026918584 0
11.28512149897674 7.725025958870355 0
21.28002780570882 8.368750227046618 0
16.59362408767196 18.14830283609784 0
19.58063241783961 21.37134755905276 0
13.9168892997528 6.001387624528158 0
14.67729898724829 6.854219410688222 0
14.27245398282678 8.22572163671694 0
10.5028997526153 4.594899646404191 0
19.50706306782334 18.54164653875241 0
17.02208545153932 13.5883793562974 0
20.05942766912441 19.67465544540057 0
16.39859446878649 21.54725498546431 0
10.7764615904745 6.622028810677756 0
11.30215337300246 16.49503012885065 0
10.64187454171515 12.58099207629066 0
15.84636032454724 13.54212887237246 0
21.83492307669752 14.03217975750215 0
24.03579792718081 13.95191566318001 0
11.71253791095569 13.95193515299065 0
24.60792707149405 18.55565958844112 0
14.18734606947845 22.59290728272023 0
10.54933473621338 8.278519150557985 0
22.61113481298672 11.84152163404378 0
21.51919805953161 13.10484682820587 0
12.38407770470355 11.84245321717647 0
10.27656593482999 12.06924289558006 0
14.41528500753828 5.566029369883893 0
20.3346371413454 9.746899748890682 0
17.96221623757586 19.06260091851653 0
16.8634814026179 16.82528285123378 0
24.18035595077059 6.662616701165559 0
20.84733731071454 6.574137085093916 0
11.91276983159946 6.935402863418647 0
23.07339811470533 6.945071617304849 0
22.57572592497392 7.84852203492109 0
14.13784350275823 13.25519045906583 0
21.36492652938286 12.23775989431052 0
10.9575576906196 17.52847522827714 0
14.02303732618622 11.25090789637277 0
17.20430004429258 18.89392594286543 0
15.48596046989949 16.81356200381775 0
14.36468689788113 10.6162642985598 0
18.44020598157929 21.18908931514645 0
21.53561052257327 19.15491339797489 0
20.72634683032494 8.222330479387077 0
16.94230284943389 18.01492650166569 0
21.10642315112878 16.9265691051845 0
15.45068624914344 22.45835257189591 0
20.58160272356174 5.493435015766406 0
20.60880248411646 4.044029225868616 0
21.11739172566594 9.5319404150269 0
16.61265666493456 20.26543505301443 0
21.46552356469912 3.18788544503875 0
12.10267829638341 19.50252890868749 0
14.87257620632683 21.99629723272356 0
21.21622756487425 15.8468328641095 0
20.62647236710353 11.56797249492934 0
13.96828228486824 20.50350479783931 0
10.43857228306686 7.428106731622298 0
19.15311878811157 21.20605401285361 0
22.4141936990582 13.5894872791911 0
21.8812422532176 12.31840089155909 0
24.6193502748057 9.301934117819993 0
12.29774231651509 12.46703662481802 0
24.39640125599795 9.907804547133196 0
13.63563647682145 19.80039991416285 0
11.78468801592904 11.2976689897979 0
20.45495806783647 12.89319538794246 0
14.16913876439599 9.914171152759142 0
15.38447159645217 19.30463363908924 0
21.12909971427564 20.06177638591664 0
11.23573011156019 10.98506948513024 0
19.62551933272763 13.34841152652001 0
13.83820637326943 9.552917212486792 0
10.41623519282222 14.67356651389976 0
11.41251185444896 19.65752311873327 0
23.74245585268557 10.96867754835451 0
15.77201862817835 20.15243726902098 0
24.39798036838994 14.67379617871099 0
12.93767220479345 17.41573398601364 0
18.903868926914 17.47275626193726 0
12.33206599733355 17.30907539494681 0
12.48510144470476 13.85664660665822 0
20.31593135186575 6.824972964351357 0
24.75039577558637 6.198928843316639 0
23.13486403017665 11.2690377172396 0
23.5480122710244 3.198866378432457 0
14.46815424072062 4.554551642409077 0
24.93335986465289 9.08424108928283 0
14.61834883370629 6.232400812540178 0
11.18821232739624 9.803424825206264 0
10.16149719953535 3.162271074365266 0
14.11696477515165 18.12148718879355 0
23.50629676290069 14.524543307492 0
13.58633724014818 11.66781424602873 0
23.13705060320672 10.77078604314895 0
17.69043979337604 21.30127562349356 0
17.8649621703259 16.59046488144593 0
10.54759608079462 23.35396022678383 0
14.98626851152956 13.33162935909376 0
24.20523749377234 3.048701699304702 0
24.59560367998066 2.845197528062887 0
13.05711774677228 13.25375883377987 0
11.58094885725077 9.058267646677685 0
23.92279706264127 19.19849060385679 0
25.08883245241964 2.897895267385282 0
23.1420606916876 15.72745364116134 0
22.31969821909505 14.54275983329555 0
13.83025754979274 7.156187954640297 0
21.06955783312552 10.39524451704818 0
13.70637128804552 8.367127733001716 0
22.5208257252494 19.31685585618886 0
18.25735494962557 18.41880667910658 0
10.84135369659255 10.37905014045725 0
22.55600838626289 15.15970084379806 0
22.84838088933003 12.36469645984237 0
17.62391855777256 18.34085184196308 0
23.11660810240783 9.037123835957264 0
13.45706224665594 12.97175271506759 0
16.65975393662677 22.08135591605646 0
13.33291427832042 9.679871086394128 0
14.4868499338007 9.25675826971287 0
23.4440446810327 13.92152461687127 0
12.56535869892251 12.20433524342656 0
24.24962987124352 18.33659655966894 0
15.35556873390878 20.11003750508983 0
14.69093578423367 7.881658972974969 0
10.22524437712784 6.185117603287283 0
19.77782794212669 20.33320478705584 0
11.38270226934331 15.74274353131283 0
20.84140653545361 10.92470131020806 0
13.28239985941916 23.18397251472481 0
24.12556058543785 12.80297527835207 0
10.1187054837084 17.90937241488878 0
23.31834878766822 19.07402297880572 0
15.27944316844294 17.95608594158611 0
23.36546496326925 12.17719519936011 0
24.37496436961717 12.33428071899086 0
14.19277866946034 21.96861804055406 0
23.04299479881201 19.60474500255801 0
24.86592371564107 4.038881492625993 0
13.78422919228408 13.82578849789096 0
16.12450445576827 22.37041834157423 0
11.09272136317736 8.4923536918492 0
15.40034178939218 21.56932540957724 0
15.39287373028855 13.89797103483783 0
21.3278780923987 11.13805727167977 0
22.09700782999261 11.41939845673362 0
23.83954752655215 16.65839141655745 0
13.01396491549921 16.86522338338445 0
24.5320264703637 5.628707302262589 0
21.06306512325617 18.65411076544003 0
23.87794616128632 8.507434315216306 0
19.12870625415076 13.06152500462523 0
24.80421232932346 7.915997023429073 0
13.07515240010762 9.062501438899137 0
14.93554757345534 7.651799586220347 0
23.69718851983932 18.5936351469717 0
15.57201732772993 13.02496566302892 0
24.67316326332933 17.24216671616311 0
11.45164301507332 18.09637193605452 0
11.6266253743485 10.01786633693308 0
17.28269021038436 13.02203855497644 0
17.68817853665754 21.58391432464259 0
23.26620197110834 10.00402655544299 0
13.21955167377887 2.965505479701678 0
12.43984942404735 19.07503866475696 0
20.4248165785444 15.96593238870933 0
10.69640185819911 4.347807508539632 0
12.63702980033931 23.40312686080931 0
10.37916695614809 11.48266674652881 0
10.73594078475718 9.402857681116679 0
24.71637391845842 11.94732953184891 0
12.05979594549552 12.12006451561111 0
23.21129859363096 9.600217051605572 0
11.67804251913188 8.456570997267136 0
20.77100295838042 16.22246206934003 0
17.23231883271213 16.21102668272532 0
10.39565522300331 19.83562209382535 0
21.84558474174947 8.459532347552168 0
10.97350554143201 6.025207940786114 0
21.8705908793967 3.555774982597167 0
11.46318700409 6.453245372507788 0
21.13469569533819 13.62300888528805 0
20.55272175181118 17.8021920944633 0
10.8446997747876 15.11539005512249 0
19.58599077442032 16.32647134143785 0
23.56418529753645 16.18063991171905 0
12.84633366019149 19.75886312021676 0
17.9186177011298 19.90634727481451 0
11.82906335880005 14.69670726948234 0
18.86102476229969 18.24722686173394 0
10.65034985969091 8.760842263242754 0
21.43128657411636 6.929394000243488 0
11.98538920861506 13.37352234977248 0
20.33061837886516 8.68548804148882 0
13.70563930889321 19.08219836720207 0
21.1980273421888 2.932620420219481 0
10.46530390876342 16.15974998306235 0
20.77057121448149 13.82613963138678 0
24.49304233478184 18.91324010183445 0
18.25756188254589 17.03888689935109 0
20.77115226777168 5.129305109881905 0
18.77331462822335 21.56940699284286 0
20.18894716004514 5.049262363615321 0
20.99602992745434 4.184066966505558 0
11.74435545875914 3.288152698802826 0
22.17975167575811 10.4060512717959 0
22.58388175856213 6.698789909819148 0
19.98746006212321 18.0935669278125 0
21.61598701010644 6.603985879273305 0
14.00397007222617 4.184066966954105 0
12.85294117889281 3.183543522344354 0
11.73734288879163 17.17348311712479 0
24.06889013345441 13.53766789361567 0
23.87691289433531 12.18062089156793 0
14.41791151623996 20.63171957916992 0
21.43777392665826 6.344165189519778 0
10.18805975188188 6.846402262255857 0
22.14610863602299 14.99568388254744 0
14.65443161943546 17.72714226591272 0
12.04657390810516 10.21462144082541 0
13.85745739000617 18.55989087668266 0
11.19651906183942 7.079621537758375 0
13.48689278930476 18.18150846122205 0
20.96345475395886 19.13008183428715 0
10.79486134374112 7.827970597374069 0
24.78313167358231 8.745552067031214 0
21.88257265026395 11.16478114438019 0
16.40472666174269 13.12032318521547 0
10.44658098874077 18.82756261925059 0
24.59509859058326 13.96519550069752 0
18.40752062601763 16.18378291316142 0
24.06884664051632 7.317648039685356 0
12.80891368761768 10.4062103067564 0
17.83542864540762 21.03672380829137 0
24.84800945822336 5.103690018005199 0
13.08967439417113 13.68340006462979 0
17.44164963496835 13.89008620859283 0
10.51585192285049 21.36505624523301 0
22.52828733030906 15.81515009691683 0
19.02186408770157 20.21573433125172 0
15.17613260388898 22.85286710175673 0
14.62809347986266 16.09960648397077 0
15.1254352243817 16.64712841821564 0
24.44481784126145 15.37447860851569 0
14.34361935915158 11.82907633564569 0
24.18207460072256 7.895063291650158 0
24.60213479025983 11.4208547408908 0
10.38940592826609 13.19116729147202 0
14.18602304843454 19.20563521693051 0
13.32646228796818 11.97898406852059 0
13.90027830674106 10.36047608956546 0
24.0288726282832 4.211553127134056 0
12.27203289102952 9.466174670833874 0
23.90269624122011 3.429044480301465 0
12.0968003390592 3.222573476299029 0
14.58629927265763 13.90379982657902 0
20.08111306273771 7.312780814877991 0
24.67940151412762 13.61020075217333 0
24.96558008069191 10.70258002549765 0
22.14705881753443 3.183535057143208 0
22.29025460502378 7.605424952507382 0
24.18154454508366 16.49990679096369 0
12.78656567869402 7.461672524528171 0
11.6393604976082 15.34019808420837 0
11.54347927849952 6.816616673740748 0
23.71900697885103 7.086455375371865 0
22.90317955659033 3.222027234911564 0
14.14674751982372 17.55191194756668 0
20.82226007556748 8.737595726620393 0
13.38104115735811 6.563545349619072 0
13.76890814254957 20.80854347117463 0
10.04846501760375 12.43260472061813 0
20.22468396792228 8.284128327893052 0
21.59295690480331 8.823293936115421 0
17.47182895054089 20.48949587358888 0
24.78169897366415 16.82278262348768 0
21.47762283265318 14.49158891964557 0
10.42257925236913 22.30076627321946 0
20.51835700627519 9.264355548718683 0
20.9831607892724 13.0512294971963 0
10.24185395289134 10.42614156450949 0
15.02437557713621 20.63719105904601 0
15.99174493352272 16.47659856811278 0
10.30024273063362 12.67784057364198 0
21.09910032567552 13.94170108922283 0
12.49518602566207 3.417599009667592 0
10.89275115505969 13.07225233382752 0
23.426415027861 6.825904176288308 0
20.29241075544947 11.46531765584359 0
21.34132551631739 10.6912127691516 0
13.85333660696658 12.75757124295275 0
22.50341130504926 2.918392571955407 0
17.51777073255419 20.81114252281752 0
22.80710885000805 11.16986833550586 0
23.22638147056815 2.983282739356922 0
15.12899281711484 19.90140600841382 0
19.84883154273186 19.05955799945876 0
23.50637009099113 14.92695959801681 0
11.09665331198765 18.52958427182243 0
18.32185663922076 13.88890997200087 0
9.912421194031428 4.444471121204507 0
20.84443275530028 20.32585304916763 0
24.017832284383 11.88202317099733 0
13.2567329023342 16.39911678568096 0
10.24742446094119 16.54827616396994 0
21.49716003322336 19.752089494365 0
14.81796174715288 5.019315743167203 0
14.8694329882153 5.786799728603443 0
11.71484596500011 23.90794808005383 0
20.53023904851583 20.96517474850551 0
15.08217014297763 4.769699904751366 0
23.17202814873612 15.21049344199889 0
12.6844650046534 8.589020493982368 0
24.06331731089867 10.38650218754895 0
10.1687308984157 11.06223680787278 0
10.17239608641214 8.670148299267211 0
14.10989780242226 21.39891057428158 0
21.89887119521492 9.051512164812289 0
20.95284574714971 20.70707628790622 0
20.40569592645001 2.841098742854877 0
16.42857142937082 13.87244898555864 0
11.16686392677644 20.61094664234582 0
21.8381711978077 6.938005424169353 0
13.0060024876845 10.83548074012339 0
14.10860819415727 16.27110852196751 0
10.05399759410661 10.0271032441809 0
12.3866322822877 23.69123472431676 0
24.40584516670955 19.56640767051527 0
11.77282759532683 2.984341199862024 0
22.59359079895947 14.80250725912507 0
13.43028489827679 9.242020185919753 0
19.50667865540503 12.90726177183355 0
23.51748913418489 6.461754435924423 0
12.20252633110485 8.401251923120071 0
23.6281454246053 8.775557656066395 0
20.8102591125692 15.16119459824091 0
13.47177101563375 17.62125195254503 0
17.11825116427934 20.67655490899537 0
9.899247908980291 5.894094970665317 0
11.26676480515847 12.69465058714503 0
10.12414114132875 4.039300865755313 0
11.34194204353159 3.826722965347834 0
14.18564676213052 9.538462871975192 0
20.47887790671799 10.42670549631863 0
11.269118920483 13.73289635555112 0
14.62498794188086 19.38938110426618 0
20.16034045593609 4.019636861647224 0
15.16648149998076 4.156400447058792 0
10.07192903396934 8.31334826107054 0
14.94612160193889 3.591894058426982 0
14.83965954407737 4.019636863178831 0
11.93251542126239 9.303754626089408 0
16.82656233679489 13.02589973354478 0
19.12938536306865 20.83025214625029 0
16.05685408653172 20.55630381923261 0
18.61345913559355 18.88777243421315 0
23.91330479408105 14.84009182888427 0
13.89138652552415 3.417213715945076 0
20.3331551119033 11.88107118196418 0
24.73125153812954 12.35049681993988 0
24.35971299232811 18.01846931675876 0
11.97248325318713 16.03377942069054 0
10.28521274993078 14.13754989494232 0
13.6276874578561 3.808716510226106 0
11.99964566154609 8.884318889066757 0
13.53091787790851 6.140132933773438 0
15.87010515957755 22.66859414886904 0
15.5183266518435 18.83433312020335 0
11.49235467156483 24.21547544540433 0
12.66492074235682 8.151011710068568 0
10.84823340769642 16.42291702114027 0
23.65154686380332 3.822442577701016 0
21.55193147926368 8.121079871565964 0
24.76588854284582 9.73219870309921 0
16.07556607757805 17.04061330711221 0
12.99071419645916 17.96804721849681 0
11.35421477928039 23.91547883333899 0
10.9515580891532 4.648192154270906 0
24.51209287491905 4.933803286458361 0
13.47865402429826 11.29953564563379 0
17.86413903902963 21.99168306361701 0
17.97885060931029 12.97964211206219 0
10.45113374544093 24.35890259532891 0
14.66899204338067 9.694902605013535 0
22.32755882836001 11.65072189367856 0
24.31384512940323 8.787436233315224 0
21.63182045645381 11.97165914640526 0
10.37967238074653 15.18855088757832 0
22.01390390710361 11.74174324117383 0
14.62158022792046 8.700220022490788 0
13.17282100792404 15.92451136126689 0
24.07401357769376 9.982671024397174 0
12.92053148194744 22.90342608108197 0
24.00958313134506 6.031056330197115 0
10.99902575050448 18.06087785647697 0
14.15948469222832 9.061116061363395 0
21.78363653237758 19.47375050052129 0
19.44695454768023 19.808261404025 0
13.32938776040011 22.70118885715105 0
23.63676478673023 8.144316618304153 0
14.85944624449255 7.310987278132001 0
24.04841928637084 18.86695857706754 0
23.04526371231754 8.280680454827133 0
11.00980419008836 5.556348031915585 0
24.14847829326014 9.520003249284064 0
19.29231361841829 17.99823426197656 0
24.79241078405889 6.87212453534751 0
12.26149274857498 12.84525869121111 0
17.29504652380786 21.64312311961113 0
20.7428537186398 14.67093716758102 0
20.26368442141751 19.94205662242392 0
16.9617686862284 21.83353614670829 0
12.73242808504208 18.40765796524483 0
11.38169171059755 14.1456044705818 0
23.60879799057815 12.41897772096167 0
20.97823042784507 5.943106110400724 0
10.01467884952177 8.926430123866304 0
20.83207654627525 9.062466347183296 0
15.82247855581856 21.36203375542267 0
10.79381590751001 3.050525498169717 0
16.00280124887716 12.99621951332008 0
15.95289064261133 18.6715636778906 0
22.79515700923194 8.454395254595045 0
10.06922208661479 11.76417303813304 0
17.25435582680421 21.97092419594598 0
10.23925717695809 20.79687091346098 0
24.37964510732199 7.039695048876544 0
20.72146131973683 6.188896339324634 0
20.48915000462117 19.6381725112205 0
20.79874435433851 3.043638446526212 0
24.89993033457159 8.357680024929026 0
15.66909940870291 17.85266586030493 0
14.20125564099675 3.043638446839527 0
10.21208353136106 19.3658099459016 0
21.10861381435351 3.417213688872794 0
13.5561436050833 10.94274155672131 0
14.25942987683078 10.25733143739621 0
10.44321927411673 18.53724801499423 0
14.30686079453198 11.47624552295809 0
13.76869052120854 6.76102710728948 0
11.89480968029217 7.975906830125462 0
16.45059733475662 16.19385951363768 0
20.05246072922849 7.682208959746918 0
22.85944292232134 6.744594211019455 0
14.64791584007451 18.2987095627407 0
22.09005362542876 9.725644605373942 0
10.13695863718683 5.100041771873626 0
21.6247186706467 10.93951125806521 0
11.28528957693326 22.60255166710681 0
10.43659799760599 17.81685589243616 0
21.37231254178258 3.808716506507029 0
18.76309608270329 12.82896290709313 0
13.9634981480727 10.81226448362612 0
9.908452485603041 2.898078263498658 0
12.16274020907731 11.40135170184563 0
14.17100313917081 8.735452016790052 0
15.04613343606688 17.22453434773316 0
17.51932976676286 19.30979789394707 0
12.9748882120076 7.870472460928859 0
10.59999022325513 12.02395638402063 0
24.68609730338097 14.32394444347847 0
13.31588528824845 12.55116729728196 0
24.69606823826543 10.38880974510279 0
21.35858988121214 12.68529988068268 0
20.58182502011102 8.480073560212386 0
11.29228459606828 8.830946301919006 0
24.22832193032241 11.26423201113399 0
23.0845992389062 7.984459688656092 0
14.38488232107837 17.13469256612129 0
11.81222517955453 10.78051054768175 0
11.76826230772142 10.37209724479619 0
9.977407611140155 9.336171993798223 0
11.99019690049722 20.02010902862759 0
22.03067920889146 12.87323347192093 0
11.09371026155122 3.432513645709706 0
14.54520260099715 22.33694442370187 0
24.44573161241065 16.16098450444118 0
12.42441820464266 19.92177750612002 0
24.04231658270735 13.133528532295 0
11.34622842008545 8.136600327446152 0
17.39628891266277 21.23430779901191 0
11.00186741034172 12.4863441733615 0
13.82676132921221 8.076904777643625 0
16.29919641801508 19.67940736002996 0
22.43197080925434 11.3076643792475 0
24.07465189698309 19.89449892770437 0
10.79210681871867 24.40773743502625 0
10.20737392854019 20.11307424560819 0
22.01132191942679 7.848976632079681 0
9.889969672966378 8.03776912009122 0
13.45421317504293 8.505650110980413 0
11.64116913486919 22.98120047565534 0
22.07422519291003 20.38196972830765 0
14.7583516108008 19.79745714170818 0
11.69950110956769 6.177557629945309 0
20.7294243813385 7.01531652043347 0
21.66232710681427 11.51834285189621 0
24.82239859659595 15.4031181340705 0
10.83787361365743 20.44361427814335 0
19.8997596430013 5.146083383037359 0
14.80691116826535 20.90707335158087 0
10.46197245776385 22.99650410683952 0
20.51441484026477 12.11227371571444 0
13.04965451048889 9.390050674171672 0
20.31944707021498 7.84985614487453 0
17.3073491172106 16.76495821843143 0
20.05387839751881 3.59189405724973 0
20.51184730151771 4.892500292975051 0
23.16626412022857 12.81230413550539 0
11.05427957048417 21.78335079933629 0
18.40252258229487 13.07097760975938 0
23.01968481572949 20.31938507793224 0
14.67637668599651 11.97253077690118 0
13.66349833042668 9.886173332923946 0
10.23424810746477 5.830835841665315 0
10.58314314880704 4.055113036082957 0
20.18508899166057 9.040086764137984 0
16.93807591204989 18.43656232437674 0
18.9601934817248 21.76694412876439 0
15.24658198575038 12.81193810648915 0
14.9494931842057 5.346178929258492 0
21.79251667351783 20.35410881535365 0
12.20055868233499 3.616639859957058 0
10.81910295809397 15.98413930818048 0
18.95849901619131 19.56963914153082 0
25.05273731342566 7.406180871196129 0
14.99321192922624 18.22542664932599 0
12.92856800531703 11.80274433381228 0
12.73590450400417 13.50190801324441 0
20.94243566637453 11.29365692163518 0
21.09955427845621 16.55264302267806 0
22.37502724176174 20.49999398853276 0
11.2719660613672 17.31229735773949 0
24.99289154516415 4.492356427753262 0
18.35436270965247 19.4064325335692 0
20.78229894014538 10.22403324659762 0
19.91925454812203 13.0692733190863 0
20.09377263336363 5.451556350422228 0
13.78531902986102 16.61190012691665 0
11.40867204898077 11.90777634431364 0
10.85827200766027 23.0486504836228 0
22.78636601624581 15.48484790815277 0
10.81164450830544 9.721694428635445 0
20.49049755905956 14.00874688243453 0
19.23414752622111 17.07442956968924 0
11.1029277459894 12.21867980397709 0
21.45679297867434 15.48270698050564 0
25.00020241337999 3.603844294304376 0
15.54938479658643 22.84596276648286 0
10.49260365000973 11.13806809719363 0
10.15464973915077 7.918055760752917 0
16.96627131093164 14.04672706222914 0
20.73544371141479 2.727184532521694 0
21.1476841630957 14.81705655841241 0
11.83702596672273 11.82620759295939 0
23.80217295577066 2.938102241246968 0
14.70537654627413 10.90629404426978 0
23.25513842893319 3.278174444747109 0
13.36307354694509 18.71345231867193 0
17.33921256653777 17.33693301590325 0
23.7289080436044 14.17773786045794 0
19.4329314210684 20.92946520554167 0
10.91768655203134 13.49619297939619 0
10.98062616434304 2.744074506278801 0
22.50498507199817 3.417416163300871 0
11.58358013059514 9.358754261136209 0
13.89615242273116 22.29887830677652 0
22.94494039811856 14.6816946674397 0
14.6252459173986 10.16960581604336 0
9.978723581838235 12.83709640001146 0
25.06537562028482 5.958102943286601 0
22.33981715815662 12.45662687213922 0
10.54910681099335 5.951448420951754 0
22.72258763686338 9.469299933786104 0
14.68741674571288 11.56853257910878 0
13.10027734158949 10.06582002731788 0
20.06315995041039 8.014134561354254 0
18.24001201567426 21.69949755730542 0
22.00381591173288 8.13982727134298 0
13.20919609661259 19.47784277062608 0
11.85278679247667 12.84792171942054 0
22.57907712110432 12.23730236189312 0
16.50012716975787 18.46084065053347 0
22.85710178500015 18.98758261250284 0
16.79617051339349 20.98953705304287 0
11.14065411332188 10.16750384901844 0
14.56545598152453 8.145274682306729 0
16.01338536715029 15.96667646639638 0
14.97133496998296 21.58791932455727 0
14.03085205097569 7.760817245712668 0
10.84947810265287 23.60264598340369 0
10.39922727598579 17.20775932785034 0
24.51529660220692 11.08205091343423 0
12.07937218515282 7.626299691190973 0
10.64877272557312 6.281880253386735 0
21.96728802075415 8.756779809652542 0
20.98336877225958 7.781149648074662 0
12.44539025080008 10.24019992999343 0
11.1509012596116 16.96976021829164 0
24.9560436841001 6.531632316872502 0
20.2900258632968 10.7576741887118 0
10.8091131896753 5.076962308260689 0
10.38429465003458 3.491030286681428 0
15.42574189056839 19.7688329542323 0
23.97579376119531 5.56949060797491 0
11.19748946757188 19.9331704641327 0
10.1780033305095 9.64312641473434 0
24.42941869646964 12.96278447981935 0
23.6255668461753 6.102706185705032 0
15.42421630070212 21.19418080375349 0
14.09397581108547 7.432784805614622 0
19.73549063780446 16.902850877615 0
20.59360920018938 6.720811017843602 0
22.39008431810703 8.15569854309613 0
22.26232218279284 12.06857326899127 0
9.855725693242679 6.755241220535962 0
23.93709323524195 6.38482151360718 0
19.83454747066505 3.853586271276547 0
13.22509556061322 11.62504686498387 0
24.5737360694237 6.564619540061611 0
23.57327261862682 15.65965076857774 0
10.48649548241334 7.858230651249471 0
22.77000538158401 7.04782479757456 0
23.8143157669038 10.16640104615049 0
10.40400514052565 2.846414546571031 0
22.79908238019528 11.51468828189852 0
10.98985318580341 3.855379852529361 0
24.96401992062884 10.02724308803341 0
15.92440990053728 18.99544031515135 0
21.85673104796204 15.36223765239825 0
24.32451930521287 6.297558860729866 0
19.21979695485541 13.9421980255244 0
13.72861141904753 13.39590021962554 0
10.15605079788464 14.95555298681317 0
12.37262786241736 7.307925059738463 0
22.31391402418504 13.17872082545589 0
12.76698095803794 9.434034572536735 0
15.2633376503844 16.21143799603972 0
24.63321156101261 19.2597256621498 0
11.01165229451361 13.96144505593336 0
10.02972647347322 13.22487884996353 0
12.3984900780535 6.683056383667345 0
13.80197265017499 2.932620424416231 0
24.89618060906778 13.97516160135967 0
11.89283590977972 6.513863128582909 0
20.04659210381197 8.739482849856238 0
23.89840565048117 11.24345400493504 0
24.0445211168452 14.40856949299385 0
20.14168356511808 11.20870534731561 0
23.13981273038438 3.563267445994729 0
21.87840761647989 13.5276663659488 0
24.61577184805253 15.89850348898876 0
13.94011094247446 10.07360630941526 0
23.2602674709407 20.07310028189166 0
11.13770701462587 10.62722184715181 0
24.58413506461862 16.49165215499793 0
12.03843248398255 15.09104785946777 0
23.79600568315591 9.46525761259365 0
20.12120703900033 6.452424220025586 0
20.8285575907069 9.496468908914641 0
13.55535624289701 19.36584128843909 0
19.9665430721011 20.61091108166869 0
13.30185483868804 17.17289173161536 0
21.24067897265319 19.43157453416403 0
22.39514596194285 14.06870572745453 0
10.4971022458122 15.48692595190543 0
19.21632836235591 18.36023089544636 0
24.7270609301858 7.215125551759296 0
17.46521947136638 13.42129834321541 0
23.32639499814633 11.01258866597036 0
23.90929057495514 4.922062350701723 0
14.27723116591261 11.23095361095107 0
21.77787878884027 12.62895571750877 0
12.41817946786043 18.67787963503646 0
10.1862640909869 17.53921237750767 0
19.92038056346043 21.37273715300666 0
21.29324967232301 10.00615688363059 0
11.37046418762286 22.28047802241234 0
20.16396410741684 12.80492163608853 0
25.19544412443079 3.86541159095402 0
23.52041681074785 9.64217854504637 0
14.38104271300967 8.511513443380753 0
14.76458289444498 12.94232727513745 0
19.79189501976149 19.93080962020913 0
16.24237770490944 12.75741588558154 0
12.76832004371299 16.11684673130717 0
24.81545924001169 19.05652438072495 0
16.92659616246715 20.35977694431253 0
21.62003253438786 16.09794574748752 0
10.08427255902774 5.527183361872257 0
11.693259708007 14.96711046425433 0
19.29315883775084 19.55740622685758 0
23.0053190547649 13.08186153272318 0
24.0034800872108 19.50814567488618 0
11.1862457744818 20.26547939042767 0
10.50730140245575 14.91069388279752 0
17.65166853665363 19.72746617244713 0
20.88585455698492 13.38739280701762 0
23.39197745196137 13.08620790721282 0
15.02510366146015 15.89528817108175 0
20.22405539984071 18.94323246753413 0
21.7691001135144 20.62977484783493 0
9.941527398087043 10.34647605025535 0
23.0249496636911 11.79492658946126 0
22.84695536974024 19.33739016015285 0
12.36712077447812 11.58951698740437 0
24.84642766326677 14.70789990792398 0
24.04453201279843 12.47863883118212 0
13.92692715427483 9.799449049996522 0
23.2489530079137 7.451023065244126 0
18.91119615234771 17.86947097739492 0
14.4959360358056 23.07414396825676 0
11.59850084431423 7.157749305047599 0
13.81913457872499 8.714703604187605 0
11.87102826971372 16.58108382123837 0
11.04797572073067 6.367066340229485 0
10.56465274990635 10.53068925236964 0
22.21842318199596 3.598472345589313 0
11.73510361173078 7.440695812817634 0
22.94242102378129 13.72193025979641 0
11.90773616241945 18.26718958960529 0
22.55421329016039 11.05766369474552 0
20.65569981945939 14.28559090354686 0
17.75222593320533 16.0378523729213 0
14.20892754565302 13.67956476202099 0
24.8004765955605 11.03160599185851 0
21.82314124178207 3.252401960434621 0
22.20154970627604 9.432864896274536 0
24.28408905179766 11.59026929504453 0
11.71718702161294 15.76559986816491 0
24.96100656106808 5.526917596830106 0
10.22594543697292 13.57278101221763 0
10.78465118625321 11.29782774478474 0
20.75268236815868 12.80364548084203 0
14.858075720611 23.07006711431097 0
11.54488296335195 20.09769019789156 0
25.2759774158096 2.722073357999682 0
21.86957436385192 9.981414266291544 0
12.16484998721001 14.17964421503968 0
15.03845299687084 21.1734011940318 0
16.32797692407281 22.12362440471409 0
24.88367403895401 15.80054544411613 0
10.28215813113102 24.59970002415924 0
20.05586593418797 4.439173650619887 0
15.2060553553605 4.454499198927274 0
14.94413406684312 4.439173653187722 0
24.05096231095595 16.92900354703571 0
10.10878716410355 15.40054445694833 0
19.91843026937397 4.781801781790247 0
24.97855488855604 12.86971250901552 0
14.15162603755242 23.28720641781855 0
22.22740992718536 8.53184932507948 0
14.80374115325299 9.050391183750337 0
14.08021150066189 4.605648046110927 0
16.94283647556224 20.00542058767838 0
25.04871286697422 8.079372614534124 0
21.57719857918879 10.05616304102894 0
14.22448011723275 19.69724903536304 0
20.46924760118723 12.50735441513903 0
11.54003247962105 23.55635559020827 0
23.96224289468524 15.67833052736321 0
20.31820174236292 5.759797334353829 0
21.9778865115673 6.505761698387611 0
15.8066642684028 19.57786065130689 0
24.61040707769932 15.05879824390277 0
20.14963111138861 10.96782121908313 0
19.90895411856575 18.58731108772951 0
12.21801901111963 22.93631909699698 0
10.02910252627225 3.605194619373072 0
11.9418095619336 8.27344371260281 0
23.51929531473392 11.65150257322168 0
19.21890663525226 13.43289641305568 0
23.80621985966243 15.97817964088054 0
25.10189104191443 8.861379616695805 0
12.71711340572732 18.77177810169637 0
21.01734032243555 3.829131938172478 0
20.94572354684997 11.99928002212707 0
15.17090172320696 3.30599706221574 0
19.57726590326791 17.26672563575227 0
11.23708592618615 22.99203954574671 0
20.24488060170248 17.29550463258182 0
14.96508976641746 14.08485088693662 0
21.50094571164781 7.261067941697751 0
16.86428942875008 17.51925273308578 0
13.00922917837206 8.771919170831834 0
24.78324704545307 18.80446368680093 0
24.94485040459733 11.33084311229641 0
23.43936585108529 9.225428508151314 0
12.32089759241308 18.36006408562318 0
11.91535459676323 17.57944041115383 0
17.25729744205258 20.23892139026448 0
25.20111576077258 4.191363334041236 0
21.78044688404486 2.965503942034742 0
24.47000271221377 9.591706848208275 0
10.96800869040235 21.20429719457276 0
12.38060873730586 11.08511994904996 0
20.34430429631692 4.320426602089529 0
16.20721246836799 20.14671472934423 0
13.83321231007259 23.43145515436546 0
10.67724747307942 9.077045542410131 0
10.8467146587048 17.16005854508965 0
12.62802558832805 12.63882440915272 0
24.68989532051996 17.93515203772659 0
24.76873343003908 17.60861265549076 0
16.06208436187886 14.00822261990457 0
23.80197772124649 18.26632623949665 0
18.21630724118582 20.28457273207825 0
23.99794340613089 17.57891901335379 0
12.49660229039047 2.918442686951572 0
13.21385549999718 7.514987776364222 0
10.72662164739646 14.24802955638597 0
19.83351850012153 4.156400442509642 0
13.65708062499152 5.787421799180898 0
22.08652537999548 2.793049839402958 0
24.95034387861613 9.432735368922984 0
24.42441730020413 12.61723833908945 0
13.1637536162075 23.58848921265842 0
12.79001300826456 23.72291288356831 0
23.29764842905645 8.80105521566395 0
20.40861546680329 14.54870141845248 0
14.96283048794345 16.28214941463183 0
24.0462148264606 11.01719887624773 0
11.53328131014681 17.63471513114251 0
10.40603329819623 11.80450142906104 0
24.27435643459813 9.127029594550189 0
22.8712778708238 16.05657632873682 0
25.11623079339072 6.774293774211321 0
22.2716173348177 8.91771127470336 0
10.25459136886198 22.63012793459605 0
13.10670990159957 6.882194714928427 0
22.03893074093481 19.05215750154509 0
10.39800411947083 6.543892843844409 0
21.55599240735265 3.514435734452798 0
23.32092903707093 3.866409856618442 0
11.03701960566126 23.87525887838034 0
10.74513600344072 8.091364697992029 0
14.63469949988361 12.31276417449558 0
17.9377277755512 19.53479826580779 0
14.56716536323682 21.58792612199237 0
14.0017562333015 5.597490037089478 0
24.2731755463362 3.354520694856442 0
20.52296347132978 9.981988028007995 0
10.76003750286107 7.167109056690107 0
14.58071198077436 13.40141303425999 0
11.18982413437581 15.41824747752364 0
20.57249116824859 20.61295764004598 0
24.2958252215657 11.88154435569254 0
17.29684979545143 22.29260581486334 0
10.00278378991052 7.389658624526623 0
22.29671379183709 10.68762042729763 0
23.37539780889584 18.67104980328 0
23.41671587580966 15.39061173599491 0
11.96334748291736 12.54209018332502 0
12.30287671137756 8.62728099938058 0
21.91954847493039 7.417442086215646 0
24.25660950405839 19.2289746759947 0
11.00981564718728 22.20899411118127 0
12.61797664675483 17.72677077975876 0
14.32958787828315 5.927308870520707 0
17.56262814690851 22.1513470868784 0
14.82434674524189 8.381786478985552 0
25.07362097337473 8.603873200731636 0
20.45784124046358 8.109754036158586 0
11.50447643355333 2.797794962486782 0
15.89285714571177 12.70836442132424 0
11.19826118993338 2.93989103894774 0
16.58266733302061 21.29556157685122 0
23.49513739885877 2.797070905336311 0
10.45555677159176 7.099077798537539 0
10.70556784208058 7.552603480161437 0
21.4466843369466 13.99803115855102 0
20.92650874431992 21.08030759979125 0
19.28305824121878 17.59562416424131 0
10.01778976316469 14.20754688181528 0
13.76504822321201 11.41352987535792 0
15.53573485247198 22.0128672812075 0
18.58546758875389 21.81995914675241 0
12.92758927798794 6.52452309471084 0
13.68227492112055 20.20298704680389 0
18.26503125651737 20.71806083624676 0
15.57787612837001 16.39192786029053 0
14.09455817563832 8.048669207285172 0
17.25641665066186 18.25080709064693 0
9.95913326586596 13.56381134270268 0
14.81969252964742 9.4019966926191 0
13.64522858067623 10.25090535257512 0
14.24229079365207 6.285794542751444 0
14.11201396258042 12.95244277423426 0
13.75185660086361 16.01610947544073 0
23.6613202153996 4.167196832466726 0
11.66249242579073 12.05806045039281 0
21.71023499864653 7.822820664068538 0
17.94297777059893 20.72894157190813 0
21.37896738933606 20.68518772246496 0
16.54020543480356 17.81490402529956 0
23.05606159255199 8.562553600670828 0
10.14093607641991 19.00600785608992 0
11.78923231327654 19.11421404341733 0
16.58702974805607 19.88070357762149 0
19.39905657700666 15.91951294186246 0
11.01421626501694 8.12236047501375 0
18.49951366716967 17.73305297255671 0
13.08928334654971 10.52357763196176 0
11.30669882829058 9.388156131586495 0
11.36134600786898 11.35549943618209 0
12.51524720749843 6.995564936573305 0
21.07807404710015 12.33895283012003 0
10.17026909686663 16.91381733778893 0
14.44581510908441 8.931547236488807 0
11.0458381265528 21.51518239750323 0
12.48315727849482 19.47626243136023 0
10.70522129013313 11.68246808104267 0
18.26130800664006 18.78173244260363 0
9.992358605324634 11.36234901715302 0
12.12155321433378 10.55412660024015 0
13.1294191403778 3.555781826693324 0
14.48889429768889 21.9881744358749 0
20.38302774800082 14.9235949844104 0
23.80463059617656 6.736389120181192 0
13.30422989922468 3.864623574613674 0
16.65243800119818 21.66182952414443 0
24.63144139962664 10.08394801626114 0
12.24438011156247 8.092835722089541 0
11.59816950437915 11.59833973857043 0
24.70737675054265 19.78792136186246 0
21.58868517513275 9.21400093476673 0
10.55030130924679 6.830628275079888 0
13.78185087781067 11.09956559548595 0
16.52498542574558 14.19354092341248 0
22.73056629705235 13.40524469951111 0
20.98172883924702 11.67872618949242 0
10.13111666167769 19.73239094273408 0
23.23527511053306 11.57063196318848 0
20.52866310512766 9.587052729672232 0
18.26551675840052 19.74874634171928 0
12.57585141143757 18.06704700509862 0
10.51289561151921 21.06779025674487 0
13.17686058983637 3.252404998543842 0
15.36114409673931 20.44687240426006 0
11.6839247913978 8.14536154619369 0
24.34612596783759 13.66974556465116 0
24.05817055956979 15.33685373166892 0
11.86664066461021 3.569305490174999 0
22.81284467410867 9.151578580081127 0
20.66926111974854 21.21232885163196 0
11.08006190547179 11.23998078914918 0
24.01181063135153 17.92836621384127 0
14.47749006668021 6.597195201469458 0
18.78678212776951 20.97602084759614 0
14.28416580536373 4.330662889607576 0
22.07161194767369 20.68389013571214 0
10.66476248170066 13.24481773660693 0
15.16545252916414 3.853586274438181 0
11.10081316408459 24.23885073777134 0
14.75804181273448 21.30312880819019 0
11.33489482034179 4.172989172674861 0
21.71405715730483 12.89591481714942 0
11.98402348910282 8.55769809087403 0
14.01826279453136 2.740688680816641 0
14.47360366958838 22.72424367879816 0
10.9630201971505 8.769909937310485 0
12.11896371409718 23.97862399569364 0
21.0797786024972 6.83907720023652 0
10.67521763326183 18.03101340454565 0
10.13197095048289 2.75492965966251 0
22.64169027162806 19.72352749887452 0
20.30127642158594 13.16014486735164 0
13.34373320580298 19.12613979527293 0
22.16452823119209 19.38672722651252 0
14.92493362511754 8.72647954035583 0
13.30280565353736 20.23331025606119 0
10.32152182640445 4.3618749046603 0
12.09187898202299 11.05968125128979 0
15.55657700710115 12.70905363816846 0
23.46968926207272 3.526367530632536 0
10.85019036515591 18.97131367656066 0
12.11128223680734 9.805777943102777 0
17.98055057307532 21.71552985885753 0
22.8881156771218 9.80401468364385 0
13.57456073294523 9.500493945113524 0
11.2938978762785 5.753345451962007 0
14.08354563509327 12.27791846700336 0
24.42951891196985 5.961880394200122 0
16.99757304129645 17.14079668602957 0
20.78472882150615 19.40162965801668 0
14.45781721052032 9.864530593674226 0
19.82902288583617 2.996418945100232 0
15.26270788196621 2.725155821832577 0
9.904174107727304 7.037055332073244 0
15.17097711323983 2.996418945768236 0
13.74424758245885 11.92139720041325 0
10.98178093336502 19.63423703925296 0
25.12914929098851 4.831555076674737 0
10.49655136261485 9.650411778286358 0
12.97687064083309 8.190117288718085 0
24.03928557679779 4.646324844716696 0
22.8247313985268 10.54425283768856 0
22.28812408797151 7.882916156784438 0
12.36023164005173 16.30291713035648 0
13.61914534227526 12.56387108327977 0
15.00188126505175 17.67244663741345 0
13.90954007775581 5.206168581407885 0
22.24241684068174 10.99270783225497 0
10.01933137749403 6.513481073950871 0
24.80213654300416 16.17503763982277 0
20.48174375683874 6.468817501495667 0
21.00288035954514 5.440293131726039 0
23.80010095538169 14.5590646555041 0
10.6107413624819 17.50988986902346 0
15.79241054192058 13.23587423544694 0
10.48759941479788 21.67701317005424 0
18.47597629380986 21.49501605970979 0
18.71365748062388 14.07921982832674 0
11.18824552201771 17.74236926896457 0
14.29659654111938 7.014067293571564 0
14.91299054299314 6.557993753075017 0
16.530672558629 22.43944343159308 0
19.8290982761457 3.305997060777329 0
14.33990033936156 18.40358590213155 0
11.6137002927345 18.61529438210604 0
17.76236765856927 17.13234691188506 0
12.0757442549133 2.80336578513568 0
20.28122051964506 21.21029733064553 0
18.42634311733005 16.61237509742862 0
23.28101096768172 6.189975636399075 0
19.63697932052879 19.45455902459934 0
21.70625691137533 15.75645543519391 0
24.01924570186904 2.743210479780087 0
13.213112460406 6.212612196522796 0
24.823800850784 13.20384318017417 0
16.00306186602489 17.52301098006155 0
21.4682891490322 20.02266629850615 0
12.73815390698066 10.67980812291136 0
14.25260155679896 20.32798957429596 0
22.80052126138167 3.615651532341332 0
11.21270869712868 13.01406811156829 0
22.53284071719419 10.24281614642438 0
17.30948155668689 12.70633165963715 0
13.0184913130933 12.81797628895615 0
12.62287616262148 11.6445324922275 0
20.23228594937991 10.10646082336176 0
24.16137166032132 12.15583507021913 0
20.9641037167605 4.6653428653287 0
13.80899125369776 6.409452836038477 0
17.41471710073008 17.88458347451585 0
20.05327537768934 13.46491470493869 0
23.24943096542434 13.69060512048679 0
20.11854600642616 16.95241400920828 0
23.50487530454618 13.48908314836942 0
11.61790302992131 7.770472495821377 0
13.24752171789037 11.0305482159268 0
11.67514550622538 3.866541042161065 0
16.70395305390474 18.77495358212184 0
12.78161304154233 3.598511977039363 0
14.74418097254978 4.68191777025562 0
14.5739746872043 19.0227034193013 0
16.26552265200957 18.77643951671661 0
21.47088827972903 18.69522318920605 0
23.05756941667614 9.330636630485078 0
24.27959012601556 15.05803087548121 0
10.14262891140558 22.27676019562946 0
10.35037688732765 10.78551537274998 0
14.59430406767049 2.841098743470402 0
22.95873060822769 9.56171817445312 0
21.22576977114696 11.98156684122093 0
13.61640574132458 23.25204643554549 0
16.94089555549393 15.92238025761713 0
12.83245152222686 11.40931604201896 0
11.46853310325108 20.4927767536345 0
11.02334769921057 7.514995006857791 0
23.25492594138823 14.25708461257818 0
13.53816546257681 7.407782729080333 0
21.16280285135693 20.42301498048995 0
23.383707348391 19.47445133984594 0
22.28790420991989 7.291929543721857 0
23.44335524736007 12.69556970637083 0
10.50182763965325 3.196528344955317 0
18.25982908833022 21.97749778483964 0
24.54014462187784 11.74303250989697 0
23.58053213165484 9.992604330479402 0
17.00817413063507 22.22712141579544 0
20.3072996214111 18.0015409530594 0
23.58822087800888 8.464016140582563 0
14.75691268704563 20.50687102346631 0
21.81807273692392 20.06950922827776 0
14.39119751561266 4.04402922632775 0
23.1447586055299 13.9394980720691 0
20.7239866649011 4.331955232876333 0
12.68985577700891 11.01171764474393 0
13.40907123656999 16.82124701724857 0
11.45957785661724 14.59628631749143 0
16.39193607742444 20.4942730651162 0
21.91197134024279 14.63306554873612 0
10.77974707082386 8.43799452725658 0
23.98870420352713 8.78604351300489 0
22.9468049895843 7.684718842361517 0
14.22884224164126 22.28004336760405 0
11.11745394579406 5.225222251795121 0
10.02302819531338 10.70102252556218 0
14.08537134390989 20.95217426609022 0
14.32964139654996 16.67931088111244 0
13.86092118203306 19.45270634165353 0
19.99877671994058 5.882293807418246 0
13.36690692445296 14.03980068193295 0
11.90235856810857 22.85138624888317 0
14.97954202917781 19.07273567890178 0
21.16414713169221 8.082730388827233 0
12.03664104569889 13.11554560333439 0
14.7338638770906 5.547739639240115 0
9.864188190581597 4.871573645026595 0
11.78337342026807 14.37238219534234 0
24.41027558643984 4.051553187000506 0
10.78606424532466 21.57308159610387 0
9.796732076698412 4.119256244935431 0
20.52255107091133 18.23014102703338 0
12.68616109596805 17.08939900124278 0
24.48206362413945 12.08312284654024 0
22.71738103775286 20.49180776209748 0
20.31254943791054 13.77447579123278 0
22.46417130228234 7.026585910219804 0
21.03591919150767 12.72673688069587 0
17.91884467966305 13.71263021938895 0
19.62550114104528 18.19207902861455 0
13.12528755577957 18.36276084136627 0
16.70193906550701 20.61255278160996 0
22.88808608137901 8.807035389738298 0
22.63431040304796 9.950073713653188 0
12.97924201475416 11.10802017057497 0
14.2823982227767 10.95852228775624 0
10.25547636686903 21.93757163368622 0
11.38401886027204 8.533103270956483 0
12.91347664232856 2.793059869991801 0
22.92412283749837 2.802921167514122 0
13.47685187626366 23.49873748712632 0
11.89759485998562 11.57247005037426 0
12.82387085550592 9.20235468141035 0
9.774623502730698 5.574547980493142 0
11.36749662728848 6.085820048123565 0
11.75908311028073 13.15821596129545 0
21.54089714452745 8.506295852885117 0
21.38911036474008 5.998906383565381 0
9.862635700386765 6.242732274565669 0
20.65823680120955 18.85126898996134 0
20.18713850526152 9.458505828406606 0
10.5661087313427 15.84589371556326 0
19.93989179194601 15.98336275813634 0
21.69577240210195 3.864621823266428 0
19.27401834941304 21.57205509341139 0
19.83937308320389 12.75074297785009 0
23.96207176009629 8.14117075426584 0
12.44801858383466 8.375101241201303 0
14.77623879411155 10.49452507163544 0
14.26508612860121 3.347808935953632 0
24.36238045274647 14.23303012060333 0
20.9328025151662 17.58373321034857 0
12.99499923430302 12.0935140609341 0
21.50327595322213 13.50167789437192 0
10.19706011496895 4.718063410890435 0
11.33486897142738 15.01077856048753 0
10.41517623432497 8.503329480417575 0
12.89636519067161 9.742570974517305 0
23.19680670586645 12.48018973713122 0
22.03050592141971 16.08206314503521 0
20.71732896395415 15.66750186882962 0
23.3592104540327 7.17628685722743 0
18.72388230140175 17.06461909570417 0
23.46515926967417 10.703138630348 0
10.12661694362662 14.47704938330838 0
22.68571976859144 14.43199131030539 0
24.47997080217796 7.881701476243028 0
15.80654116432958 22.26982972631894 0
23.56440013200653 11.30624032984241 0
23.64172704030207 7.466525365753155 0
22.33124736568583 6.43003746445822 0
22.55839519383654 8.675478742068258 0
22.15840103230909 10.09750526513006 0
13.99656680887394 20.09382421313762 0
10.22077438611076 12.99077568236776 0
24.03986702001586 10.73712018233573 0
11.03046614895697 22.8110462112757 0
20.69647951071472 11.88780628278582 0
17.99575333522026 18.022625778822 0
9.909965554161124 8.554611032918709 0
12.34241287748584 9.972522774839206 0
24.23916368316639 5.392715439241567 0
18.51355091629173 18.14420778086617 0
11.57867223672792 11.02800140716753 0
13.69312348170171 10.57959728339285 0
21.36493635747962 16.74126981683386 0
10.73458313275841 2.729955994276549 0
14.91215892958556 13.72100294751882 0
12.02826722935043 15.59288879328831 0
18.6127482548201 18.54245500680746 0
16.41432438940757 16.66127427232772 0
10.45050051401392 5.27416893354852 0
17.72509311158013 17.57275547224094 0
20.71265295278428 18.50156306222836 0
15.41026813452913 13.42839037627277 0
22.22434698546229 6.774436552133257 0
21.17949867184582 17.85341917927339 0
20.08025513857343 9.81071938057227 0
11.1555362988604 6.703737219521328 0
18.26205818938138 13.46248349914593 0
20.56995532208166 17.42980268664112 0
17.62304972230123 18.77654170042026 0
11.79112737762936 2.706196042495048 0
25.03177149624124 10.35929440137849 0
20.39245981702687 3.488242409366706 0
16.02315759488661 19.87869514923607 0
14.60754018281636 3.488242409168047 0
16.82195184104612 22.44915856980227 0
10.10496819293947 16.08387172252555 0
24.88890442136602 11.73195061314692 0
21.6191040979104 20.87052997499904 0
24.61410672137362 3.488967092799453 0
21.03250159390399 10.69225013449729 0
23.19229410604913 16.21588304739016 0
11.01843707742147 9.489950275725649 0
18.77098077246157 19.22402722148121 0
24.33282423566616 17.19136668620285 0
11.37302552831093 10.00869969328897 0
9.821395439519208 3.26198854160156 0
23.18916024332862 10.42457757675735 0
22.3258303002353 15.42134798709316 0
10.55800042123683 13.53306663107698 0
20.16500745819399 17.67466317124932 0
12.79600726053853 10.09763302726148 0
22.82991050002297 12.07184258420796 0
19.94921941446064 16.54659193996103 0
12.08841047363572 16.95605234100108 0
25.13465378945855 3.282240791963808 0
22.95757693031755 19.94172851234438 0
20.63361888404383 11.26054236938534 0
25.07202913458789 7.055657027764269 0
24.95536435614933 12.60340631041601 0
22.0576061025084 12.56149032545475 0
14.96902670530753 6.129188022896042 0
18.77536704770797 21.32059169494372 0
20.88124868666933 7.45700843885539 0
17.40817775267779 15.87196908087376 0
10.56596835190931 12.93140944726193 0
23.6686560434676 20.14322610359398 0
24.28064797239585 18.63956781054132 0
11.76939141625838 17.9027688830513 0
11.28038089277398 11.65758517494661 0
22.48235768742208 9.646453621213638 0
20.83761784956392 5.695576560505904 0
24.74766466785456 5.854907415979212 0
14.9939062909262 20.22243033331061 0
13.7603026664017 7.800959581366795 0
24.3586444333964 10.21538127263924 0
24.96171004177679 12.10273687303412 0
10.66574997009605 19.69019268970843 0
11.3153133310487 9.115983296930382 0
12.74625088833037 8.921332178826185 0
11.49296947269963 16.83725533178387 0
12.10535060381985 11.73878222869796 0
23.34223077872081 19.76116183295947 0
19.62289800421973 20.62212986422918 0
20.78533845443555 10.57509658903225 0
19.12255333608558 12.75954993671038 0
20.60667556225473 5.858608826589546 0
10.29581419243167 24.04937847204944 0
15.73762454439317 21.71800373330243 0
24.4330293070168 19.91794741062651 0
9.90478493278709 9.63192548415532 0
23.05032120777122 11.02155762616004 0
12.49301808653149 7.573270657883031 0
21.20364790430345 15.18845794044126 0
24.22830114934815 8.108297949952401 0
14.36409271236835 7.894831686953485 0
19.48414454171337 18.90443416711297 0
21.30264517232233 18.27691629391894 0
21.88393984804865 13.18723818742883 0
17.65757472132978 12.80125532176316 0
12.87170768628858 14.06705645149954 0
14.19087660688073 14.08683343315339 0
24.49627334868892 3.194745613747834 0
15.99363779018284 20.97494061920134 0
21.07697749410994 15.48477004936599 0
12.0892929233362 13.74644226633705 0
22.27350679882887 20.03030053939521 0
23.76830363587783 13.74632841840306 0
20.01846918288446 6.966290462028767 0
16.57153596375642 17.07605358038871 0
14.44071108046708 18.0133169705482 0
11.23214674584218 13.39407810366327 0
10.15080663374391 18.64456876851237 0
12.70730320095671 6.762511153083745 0
21.91973557722075 9.383153716509007 0
25.13543471403716 5.226190994985367 0
11.10219371002233 19.30271725867922 0
11.86778707123551 23.2040375463821 0
17.60689759494988 20.12038377629211 0
10.20924680623664 21.54606690817337 0
16.73186178393451 13.77869864282531 0
18.64249638366133 15.88596545623455 0
13.88370244209881 12.46550049852145 0
12.50596473486804 9.65234714299295 0
9.827562124223949 5.253798772042662 0
20.24186126406797 20.83193967398775 0
15.05871532634505 19.53751837436742 0
20.6523921009226 7.825127058930688 0
16.55435116189474 19.43727151425766 0
20.31076600347939 15.65518221242453 0
19.13305419555966 19.87901623640174 0
14.96526213158172 6.958942066666394 0
16.14974987875518 19.25307478434128 0
10.99094069774012 20.86521433716746 0
9.707195606566174 2.741094692530865 0
21.10416274621539 6.267150544303636 0
19.36995271938392 13.18752367900862 0
10.19763747891836 21.18324245587706 0
11.16173369406757 16.11920067779453 0
20.03347375108839 2.786273699910723 0
20.39077195247067 15.317164348847 0
22.33148783166565 19.62584743652221 0
14.09074967375209 10.56414042065921 0
14.39898903106126 13.05383084998982 0
10.05785887642325 13.88847240748673 0
21.24175852159441 13.27979755888743 0
14.54043299306089 5.240308519499698 0
16.87430650386455 19.16508505177818 0
21.26391406328692 18.96708920890048 0
10.20325463172915 7.650005743475972 0
22.09563806678531 13.79867348725186 0
14.67343432845692 12.59126230984152 0
18.51123879838696 17.37851423515512 0
12.11836702619711 19.1681906300967 0
24.25046460585563 7.627616786889114 0
11.56312185857563 16.11838951132451 0
22.75714884009622 8.113537661915636 0
20.12707115234772 19.30074571992258 0
10.48059452712902 4.947355276554743 0
19.71811613114638 14.11670304873726 0
13.98265969245761 3.829131939433434 0
10.90298855381424 10.98384467881433 0
16.21382954924262 21.284938199797 0
16.23083215771354 22.66559654792402 0
22.87347485838836 12.7069084713465 0
24.33999215543527 10.55423608236317 0
19.21648747618389 16.59414409331051 0
15.20233577361421 21.87153830237831 0
13.25197847867737 7.85504442411704 0
16.60997673795889 12.76728702964477 0
15.69079303066614 20.65870843198008 0
11.45824952542184 10.6989376599951 0
14.64490571297788 5.945157115217784 0
13.06835864818293 7.223069724497358 0
10.90605719407574 12.78514452993959 0
14.0032398283707 6.892494437922918 0
13.81848357636781 14.20244308096267 0
23.10695968766379 19.29951323407627 0
16.25692278573603 13.52916306034217 0
18.62296159249476 19.5793098436239 0
21.45356395601048 16.45315095230235 0
10.72447245108641 3.356968883313122 0
19.44747555006415 20.20404434975787 0
24.00398390823913 3.849726094096757 0
13.80227642747212 17.91590708284933 0
11.17788197639614 4.40196630522685 0
9.917393177336963 7.744604458718666 0
11.37951627253942 7.408879985783059 0
21.33779173948566 9.727606565632605 0
24.2652886761451 2.729248458348761 0
17.85714285031339 14.06498105623528 0
10.23500111046824 23.32799127527964 0
18.01527601371657 12.70574848559247 0
12.38032347456305 15.87902147231033 0
23.65853527058043 11.96101835106093 0
21.08676046643118 9.816187620312776 0
14.26455628021797 2.727184532827446 0
20.18307651741664 10.46679757993881 0
25.06132436062814 7.765825337846962 0
12.50128513216528 10.53388195340889 0
24.03503753232394 6.978097802486182 0
12.32445336854702 13.35280929497235 0
14.94643040396731 8.022133653910995 0
15.39429955305634 18.3625464700032 0
22.48130722792872 10.53312317443391 0
11.49346515124926 9.716224049217416 0
13.89444255425786 21.77913475669296 0
18.94076215526323 20.53759752693755 0
13.49236387496493 2.792373084794801 0
21.50763548586403 2.792372380909905 0
13.18347287263825 19.8694382585639 0
20.774205365213 16.75060118797006 0
16.10049031877877 21.63349236961814 0
21.20543668727567 19.766928153214 0
10.41259161627437 12.3724698845844 0
24.31941901783623 15.73996845650523 0
23.65076822306406 18.97817884923056 0
11.48428614973787 19.34387607797809 0
13.41827587126595 10.05860987650195 0
10.73984886603777 14.62040897057388 0
15.34123198712495 17.54523956378241 0
17.05436665169053 13.25278355044581 0
14.01365158417699 18.8930115433422 0
22.62371791046314 13.83780311772357 0
20.54827386845248 8.905871821004435 0
10.49396069391065 10.18169919514586 0
15.30371541857682 20.86013844936003 0
14.48815269871903 4.892500292058196 0
19.961032966154 6.189562136344279 0
9.964334478545403 12.09997831397259 0
24.78792285832429 4.727373181951719 0
12.29087853563851 23.30037294061858 0
12.83865194401223 20.10897902186077 0
13.32860164552933 10.7195597849432 0
12.58623706457303 23.07492515701692 0
18.67332847451882 20.29018521133418 0
22.10431389968755 14.26586455729966 0
14.8290408691074 9.949019165299815 0
23.96964698673802 7.694088555524957 0
13.59753171233129 20.49407611925921 0
14.0370228842377 8.380043765914083 0
12.53659855653867 9.249952331912757 0
22.45989324297603 9.247771395369 0
21.72110836842263 13.77382244214741 0
21.3510247851024 4.133864485826939 0
13.64897545713872 4.133864689179839 0
19.00464017710215 21.48747694306946 0
11.7550578853927 19.65019061869496 0
10.846925555156 10.04287419956493 0
24.67220530591684 4.357215481278297 0
21.18477560357216 4.404215257574183 0
23.76817607024669 10.58930763253748 0
24.33132562895332 13.94856982980388 0
13.8415726074462 21.17332884214114 0
10.39007891666473 8.898921058723841 0
20.94788609266272 8.378326488616175 0
21.16762052963877 8.721156204040465 0
20.5105209617364 3.190179428272085 0
14.48947903605974 3.190179428428872 0
14.72585170861989 16.93320054552902 0
12.83648594304935 16.49742250195275 0
21.26739806661763 20.96897706016583 0
22.34937690498987 12.77854782574707 0
21.04651959196407 10.09808146954658 0
13.85777354760174 13.06657148218919 0
14.65569570527662 4.320426602968007 0
14.71073552944788 18.66180268033008 0
21.34026929877597 10.28565466206519 0
10.70630657286155 18.65306749221739 0
24.61447936472913 10.74093743391206 0
24.57721237970122 8.962596491092178 0
18.1830028524275 15.89525647955788 0
15.11635358622606 5.098467488258931 0
13.20628557738961 2.695896726065772 0
14.60306471864416 7.139324734254777 0
11.64435184409386 22.61821769651731 0
11.61705384417273 12.62321351436799 0
20.68539452604377 19.98579108526057 0
19.91116060050879 17.32217896114788 0
22.37196464724706 18.94921537878114 0
21.12362942658081 10.92565562249646 0
21.23207625842184 16.23460693118349 0
14.0277274516312 12.0238979931772 0
23.66856537986051 19.34767491454114 0
20.9817371967436 2.740688679853477 0
24.54904461201615 5.273867427267463 0
20.49440961975949 17.01477502129694 0
21.27896454428534 11.42103806153168 0
20.34976265297126 7.174064397625274 0
20.64580008630355 13.12952458787978 0
10.80270504094639 12.27791499599694 0
21.05689666826004 9.289939294840309 0
25.1180720156095 6.269410536898169 0
13.79043420233774 7.533873695740706 0
10.81161877847369 10.67514798155704 0
20.35507598199973 7.5509839646967 0
21.94317754257526 12.03986297496215 0
13.93785970447139 9.293659626865272 0
23.31780118907793 8.1866858111699 0
16.06064431256474 13.28474177333943 0
23.69392283500838 5.771404176253721 0
23.8838227928854 5.228481149284099 0
16.86816110536645 16.42979696599551 0
21.59460472220471 12.3978029541261 0
20.25952923651283 12.24136484125668 0
22.98477678465679 7.287774183846818 0
12.00392365654815 7.264454772766047 0
18.32764963774099 12.76296209408856 0
21.72667009438092 6.224113085867312 0
21.64750315401083 10.67290964023716 0
12.25931819936982 6.397905325705262 0
24.18711460562322 8.457532622789282 0
21.85310572222517 10.33828732670896 0
14.2676876992288 15.89017182939013 0
20.25671299590987 4.686923542325267 0
17.53286961464155 21.86819835813903 0
22.84618755731833 10.88550736893543 0
17.8791618673779 20.19043550496937 0
11.47815922624805 23.22431243351311 0
10.92641794974009 16.7453779543427 0
12.1525196974279 14.66411574646815 0
21.56840988942083 11.23592928392419 0
14.18310930219544 22.93701206248163 0
24.92340867682448 15.06735998936498 0
22.7259767168767 6.395779277474991 0
23.36678687180176 7.819666131075347 0
13.24909878044267 12.25973289521203 0
24.70904577050722 18.25938197326325 0
14.81458470623755 11.24129624310885 0
12.79545558058561 19.36374522939924 0
10.081797253862 17.21119005786538 0
15.23065841258209 22.16414749408276 0
9.801285471433566 3.860814861828468 0
17.14055198305841 19.42343082363372 0
20.78192377435361 12.2322658960406 0
21.81008880145416 18.77313898760669 0
17.64058275111338 13.13931499400375 0
11.81491631567093 24.1818463572307 0
10.37162577681261 3.793461542056655 0
10.5798451597848 20.09895754173598 0
18.15133559224465 21.02439666098006 0
16.67579664886212 13.44076831624037 0
24.86704880913213 2.754073984850499 0
24.54978250441731 8.541946392445645 0
20.4040024675104 3.788236599851424 0
14.5959975321443 3.78823659991926 0
11.21407951413354 23.6570520803707 0
24.87317744965934 16.51247781459344 0
14.25447167582987 21.7203307726631 0
19.65394282458792 13.72402934796376 0
10.71254267966815 22.2905306394712 0
12.68646699479262 7.774711355871835 0
15.22243721124649 13.13315954551497 0
20.293013286503 16.26847605927836 0
24.61703635073779 3.802885542870575 0
19.73729211767493 2.725155822419609 0
13.61234359411312 22.95516323548997 0
11.39375428641041 12.32953520369335 0
18.48803586906119 20.90937824850887 0
11.66678017399174 8.739778920298619 0
10.12727125516083 20.458641273931 0
23.70476822651068 13.15526597191802 0
18.81044379002114 13.18061331994233 0
14.63291190821735 7.603984249132987 0
23.84566557738471 16.31854375639938 0
18.72938863129519 16.36115343372393 0
24.77348285740999 7.606001573376941 0
20.56300478084935 10.85592428585647 0
23.55052873702526 16.50070713552851 0
10.36471000362242 9.884138647290534 0
21.2045454002874 7.528281304420271 0
21.22934564036242 12.97251289605728 0
20.43821801317142 5.201122496084786 0
10.40938798319449 19.13278710991068 0
12.69917596117352 11.91751586951538 0
11.75551979574766 20.35514327506364 0
17.94451414253406 18.57760075300045 0
21.24650551833531 6.56973422465586 0
22.88741244521087 15.0071997000426 0
20.10881961967805 20.27321728289848 0
10.54086369770082 16.48704989330364 0
20.19528646614508 14.18088060366911 0
23.24744391792517 14.70698073832422 0
15.11250886004984 5.881964735042295 0
21.23270883766391 5.693733890931608 0
24.29520387725232 4.34210167252733 0
15.52071011490359 15.90228309236672 0
24.75553669567804 19.50406093802785 0
10.78196949949601 5.776643194793228 0
10.99543137876862 11.89894003108667 0
21.13439579308085 17.2482118231186 0
14.69683545001405 17.35625105614031 0
11.82104215000788 11.0429529479857 0
22.59500462538219 12.60181954046496 0
10.29239793650045 8.16353280280412 0
12.22987748360673 9.171954503913332 0
23.3994542131015 20.3119990225016 0
10.19782934083566 7.160060149803112 0
12.61130082456753 6.426809100674949 0
24.21006115017716 5.769076714758379 0
10.4295210943504 13.86658358791284 0
14.06467701765138 17.02376356812043 0
23.31934420713806 11.89112718124827 0
11.53009957954943 12.92354228993333 0
13.38810193880802 13.49980593884981 0
9.89174989179344 11.02373169936397 0
15.72606556231454 19.23982023322732 0
21.32800581104038 9.41048660688973 0
13.45864343284657 6.880457288961746 0
22.142259113253 13.45018614345052 0
12.21965878704683 7.032661044854292 0
15.0806106675804 5.612664544122694 0
14.88905697035231 10.20420107496995 0
24.68050297087282 8.182753037045593 0
16.17168793613196 18.33189785504825 0
16.96428571286855 12.70836442144615 0
9.99934766460544 15.74141231864757 0
11.05715151844348 14.33884759866275 0
11.52873899034601 3.530822465167875 0
21.77121052215415 19.78791786216387 0
21.80877723179848 14.34127425504426 0
17.32915217741563 18.53973778005449 0
13.90374399884685 22.75871487008047 0
18.13156599928488 13.21516200802276 0
12.2426430514808 20.19156786355843 0
10.75037739522398 5.38482083046883 0
23.09586307167982 12.14800962284586 0
13.00329837397728 18.66101578695877 0
13.44401000469409 3.514437773343726 0
24.60578585129305 15.62986116220191 0
23.41242678454639 15.93354896587837 0
14.4819527750447 9.534236595405671 0
14.50640037155551 10.3844316559087 0
19.79394464644079 4.454499191225761 0
21.10523263649849 5.149400013936559 0
14.96652624640731 2.786273700039068 0
14.20813708500606 5.325567715020219 0
10.1626161342844 22.99602773999434 0
20.03823603278177 8.498962697085373 0
10.85005344960256 23.33771447092885 0
22.17205590552825 9.190090098484506 0
21.75700651860246 16.38803166366207 0
12.9509635583933 23.28130596259473 0
23.20873894594415 2.705472674973407 0
10.46208431417241 14.41011606754157 0
12.03671178046756 9.559416417130162 0
20.90373371812788 8.01821090854714 0
23.11223908597919 18.81806044453856 0
19.96045532190848 6.688989634000594 0
14.34340392520921 12.17102425615934 0
20.73491390433372 3.34780893234236 0
11.0974522681324 4.918021658795478 0
13.58078618673037 22.36625452508186 0
21.35512869544323 7.820654363593608 0
18.07530652968864 16.263941128424 0
12.12885404138501 6.726422368683324 0
20.22912127465615 18.3251214123619 0
21.79371441228001 2.695896038583314 0
24.0155726742192 18.54061686674923 0
13.81836877807775 18.22653667662418 0
14.31111453464583 7.617568209385069 0
13.85716859409843 4.800559182327509 0
20.46304184643392 20.27136172056317 0
15.3830146642972 17.22585599655904 0
10.40931303937009 19.59808486673878 0
22.09683304785014 12.2889908666213 0
25.05480046829651 9.682185436268878 0
12.49109066546863 23.95594754519064 0
11.89815452843833 9.998873981453103 0
16.37141886770226 21.82381249682832 0
11.06616141632964 15.76529586690845 0
25.06878807176431 11.06238205480089 0
24.97306774124573 14.34357575018026 0
24.37804692871943 9.38516845246563 0
23.81721072383442 4.398638986198609 0
24.9650949337048 13.60824548298192 0
11.04993036175981 7.855690851021566 0
22.99360077105791 14.42551052596166 0
10.80354814908443 17.77342849180646 0
13.81912877901405 4.424079962027435 0
17.53371086390997 16.40886059047151 0
22.54563905769142 8.38619190535091 0
10.91747066727897 6.876782420597042 0
18.3924653723847 19.07251311007674 0
16.496615264221 15.80131036503089 0
12.77041329985241 15.77231785910904 0
25.2547374799576 4.499837740175932 0
9.694218200998456 3.040307696682 0
13.71546852771662 9.325514647512994 0
POLYGONS 4016 16064
3 509 1287 1688
3 50 51 821
3 751 1247 1977
3 845 471 1380
3 1455 798 1765
3 540 976 1906
3 385 1489 1431
3 1325 727 802
3 188 189 620
3 776 808 1081
3 1489 986 1431
3 771 1325 802
3 835 818 1589
3 815 464 911
3 808 783 1081
3 195 196 1247
3 826 835 1388
3 821 51 1728
3 471 1382 1380
3 965 468 1373
3 1686 422 2058
3 660 530 1321
3 815 513 1492
3 308 838 1585
3 491 1819 1987
3 264 265 1228
3 601 811 1384
3 83 84 817
3 933 72 1699
3 1148 497 1288
3 936 1382 991
3 1199 3 1036
3 1150 55 1684
3 1200 927 2071
3 904 700 1182
3 236 237 1002
3 573 1138 1841
3 120 121 1377
3 1274 378 1693
3 532 1799 729
3 1455 1765 640
3 818 835 1362
3 1546 217 2167
3 55 56 1684
3 422 1686 1846
3 1002 237 1758
3 170 171 1503
3 105 106 1506
3 1906 976 1982
3 1819 491 1755
3 340 341 1148
3 813 1542 1788
3 502 437 942
3 1323 429 1396
3 549 438 1612
3 1123 402 1510
3 1072 601 1384
3 347 348 660
3 530 660 1714
3 1323 1396 1409
3 563 717 1523
3 620 189 1747
3 779 1151 1422
3 438 549 777
3 392 1172 792
3 1555 633 617
3 1377 121 1486
3 344 753 1882
3 816 342 1882
3 842 69 1782
3 480 724 1639
3 647 369 1224
3 1138 573 1386
3 491 1012 1755
3 1072 615 770
3 794 468 1345
3 355 1079 1156
3 967 951 1349
3 874 880 2120
3 1356 541 1375
3 551 980 1423
3 1542 470 1788
3 588 1030 1496
3 774 1546 2167
3 54 1150 1264
3 1030 635 1496
3 734 622 846
3 701 1128 1858
3 679 428 1495
3 923 943 1136
3 1463 20 1324
3 519 1560 882
3 764 1248 1157
3 1287 509 1886
3 770 888 1491
3 380 1323 1409
3 375 368 847
3 1012 514 1755
3 391 790 1442
3 657 419 1257
3 1561 560 1300
3 468 1018 1345
3 384 873 1458
3 663 325 2060
3 601 770 1491
3 71 72 933
3 419 657 1687
3 853 488 784
3 873 1576 1458
3 163 164 1054
3 378 1274 1010
3 1199 1036 2044
3 1092 362 1419
3 497 1148 1529
3 951 567 1349
3 390 874 2120
3 1115 1772 1049
3 717 563 2064
3 689 679 1495
3 1275 496 1250
3 749 1092 1419
3 390 680 1900
3 1309 567 1901
3 357 779 1422
3 835 826 1362
3 978 633 1555
3 861 533 930
3 1205 570 1543
3 395 406 1107
3 613 1018 1057
3 593 1281 1576
3 670 375 847
3 838 308 1825
3 205 206 603
3 790 834 1442
3 1371 1299 839
3 463 1446 1152
3 593 873 1164
3 369 647 995
3 485 1108 1424
3 780 644 1361
3 935 659 1126
3 1252 590 1939
3 3 1199 1843
3 1281 760 1576
3 1159 949 874
3 946 712 951
3 305 17 1284
3 603 206 1331
3 1559 14 2126
3 1423 980 1637
3 1382 471 991
3 468 965 1696
3 525 927 1200
3 518 574 1078
3 629 734 846
3 858 991 2110
3 449 1276 1809
3 347 660 1321
3 675 815 911
3 672 315 1322
3 496 1423 1637
3 467 935 1126
3 533 861 359
3 597 27 1255
3 170 1503 1534
3 1506 106 1294
3 415 1880 2099
3 519 1356 1375
3 145 875 1996
3 793 374 1387
3 473 1304 851
3 1206 963 1711
3 1274 862 1010
3 700 445 1182
3 497 816 1719
3 753 524 1185
3 406 613 1107
3 522 894 1850
3 1772 728 1049
3 1076 1561 1300
3 1442 415 2099
3 578 924 1369
3 567 712 1901
3 1159 390 1900
3 68 69 842
3 402 1123 988
3 815 1492 1960
3 315 672 1367
3 943 545 1136
3 524 753 1068
3 27 597 1792
3 1693 378 1550
3 1809 1276 2010
3 913 822 1180
3 860 1776 2059
3 766 609 1507
3 623 409 2100
3 991 471 2110
3 129 130 1091
3 601 1072 770
3 1281 593 1223
3 810 600 1142
3 446 829 1511
3 735 784 2083
3 816 497 1529
3 421 518 1078
3 1079 861 1156
3 497 1027 2054
3 1128 701 1745
3 1729 213 1768
3 831 685 1430
3 509 1688 1163
3 700 479 1675
3 296 14 1559
3 496 1275 2026
3 1323 704 1451
3 361 766 1507
3 758 443 1617
3 305 1284 1621
3 1148 341 1529
3 519 882 1329
3 961 735 1043
3 1311 754 1453
3 314 20 1463
3 1142 600 1449
3 1457 532 729
3 1170 379 1758
3 543 1051 1354
3 1268 694 1095
3 2019 639 877
3 404 1371 839
3 899 395 1003
3 1512 490 895
3 449 843 1478
3 716 420 1537
3 1018 468 1057
3 772 349 1793
3 145 146 875
3 143 144 848
3 131 3 1353
3 558 913 1180
3 1117 860 2059
3 1247 751 1807
3 422 748 943
3 1679 1205 1543
3 1247 665 1977
3 448 470 1735
3 365 555 891
3 841 758 1617
3 570 1063 1543
3 688 493 1407
3 900 124 1929
3 894 1118 1850
3 825 893 1276
3 415 1254 1273
3 921 579 908
3 1446 575 1152
3 374 793 1070
3 520 1531 1464
3 439 921 908
3 562 757 487
3 402 686 1510
3 1909 1414 1939
3 685 831 1066
3 158 159 773
3 958 799 1104
3 862 1274 765
3 500 1231 1515
3 395 899 1779
3 1092 635 1910
3 1321 530 1870
3 924 1097 1369
3 1054 719 2064
3 338 25 1662
3 1304 632 1335
3 528 1115 2011
3 1354 1051 1451
3 921 473 1341
3 403 1358 1450
3 712 567 951
3 390 1159 874
3 1531 425 1464
3 1902 1487 1924
3 757 387 487
3 50 821 1424
3 717 1559 2126
3 656 1620 2096
3 1319 2019 877
3 129 1091 2020
3 414 1355 833
3 457 691 1903
3 1285 86 1738
3 1027 497 1719
3 1001 1142 901
3 825 449 1478
3 1108 485 1317
3 592 871 1862
3 396 966 1480
3 555 973 759
3 1043 735 1517
3 227 228 674
3 409 623 1588
3 593 977 1223
3 363 774 1457
3 229 230 1319
3 828 621 1058
3 1886 509 819
3 437 1311 1453
3 1053 587 848
3 608 1587 1077
3 555 365 2155
3 493 688 1369
3 1495 1643 1762
3 1414 568 1939
3 1487 311 1924
3 1247 196 1087
3 724 1283 1639
3 17 909 1926
3 575 1446 1915
3 724 480 1742
3 636 859 912
3 635 1030 1910
3 596 594 1374
3 931 651 1886
3 190 1064 1747
3 618 881 868
3 774 746 1457
3 793 466 1070
3 1482 512 1798
3 410 1512 895
3 1359 738 1586
3 2012 705 1627
3 730 931 1886
3 973 555 2155
3 803 1552 1803
3 377 1013 903
3 342 816 1529
3 753 344 1068
3 614 1199 2044
3 872 448 1735
3 124 900 1401
3 23 755 1342
3 704 1323 2009
3 784 985 2083
3 916 376 1666
3 96 97 1325
3 179 180 808
3 711 1075 737
3 1231 528 1847
3 1090 1495 1762
3 644 780 1246
3 1446 1236 1915
3 268 269 1333
3 759 973 1951
3 1767 830 908
3 853 784 1876
3 1620 752 2096
3 1327 879 2092
3 1372 844 1210
3 1698 1561 1712
3 728 596 1306
3 631 1561 1698
3 247 1539 1461
3 17 304 909
3 1587 637 1077
3 449 825 1276
3 871 505 1795
3 691 457 2045
3 1176 795 934
3 1083 535 2114
3 666 740 1659
3 1023 169 1534
3 107 866 1294
3 495 1323 1451
3 249 250 518
3 555 799 891
3 117 118 917
3 538 980 1473
3 612 716 1537
3 963 1206 1816
3 1255 2012 1627
3 1018 613 1883
3 912 859 1989
3 473 921 1174
3 941 1597 928
3 415 1273 1880
3 756 495 1822
3 216 217 1546
3 260 261 883
3 309 308 1585
3 851 1304 1335
3 977 746 1160
3 743 1519 662
3 338 1662 1416
3 870 1465 1899
3 427 1206 1711
3 903 576 1995
3 1135 1044 1584
3 45 46 396
3 2049 1056 1407
3 755 23 1679
3 325 324 2060
3 621 828 1368
3 1205 1679 2133
3 29 899 1259
3 1597 634 928
3 262 263 757
3 534 639 2019
3 1519 1001 662
3 899 276 1259
3 746 774 1160
3 829 886 1511
3 383 596 1374
3 700 904 1212
3 1270 602 1919
3 486 1559 1024
3 829 371 1370
3 355 1327 2092
3 1079 803 1803
3 1673 538 1790
3 579 890 1438
3 1455 592 1862
3 951 967 1292
3 880 874 1852
3 799 958 1710
3 1176 934 1983
3 596 383 1306
3 581 1421 1703
3 1465 429 1899
3 1421 586 1703
3 1536 675 1237
3 1149 550 1241
3 1130 1268 1095
3 594 596 1632
3 890 577 1331
3 1414 513 1536
3 1537 1076 1022
3 890 579 1310
3 1231 500 1746
3 407 755 1679
3 1700 1493 1815
3 719 1054 1016
3 750 997 809
3 1209 463 1856
3 554 1839 1569
3 483 1083 2114
3 971 581 1489
3 407 1679 1543
3 514 708 1299
3 70 71 988
3 1115 528 1772
3 71 933 988
3 163 1054 1619
3 837 1321 1870
3 1528 557 1754
3 577 890 1310
3 922 480 1639
3 420 716 1844
3 686 364 1734
3 1256 659 1105
3 384 1277 1137
3 325 663 1263
3 755 407 1740
3 1231 878 1515
3 1493 769 1815
3 957 1110 1439
3 797 842 1917
3 247 248 1539
3 379 1170 1774
3 1075 739 737
3 495 1041 1822
3 143 848 1777
3 989 1252 1939
3 815 675 1536
3 75 76 1365
3 387 992 487
3 757 263 1251
3 740 666 1840
3 948 424 1895
3 622 734 1609
3 1565 1215 2053
3 54 55 1150
3 1917 842 2061
3 466 793 1609
3 200 201 1042
3 1361 700 1675
3 893 825 885
3 393 713 1728
3 382 1249 1462
3 980 538 2063
3 529 800 1906
3 1013 905 903
3 1013 1979 2013
3 989 568 994
3 49 50 1424
3 1612 984 1848
3 879 1327 2136
3 1091 761 955
3 844 1002 1210
3 1062 1056 2049
3 475 1171 1102
3 1542 813 1849
3 343 344 1882
3 342 343 1882
3 921 439 1174
3 906 1377 1486
3 442 740 1501
3 1666 376 1930
3 1055 820 1405
3 1171 628 1102
3 1559 717 1024
3 401 1270 1919
3 1167 1673 1790
3 863 1260 1328
3 1262 867 864
3 614 1714 1707
3 525 1542 1849
3 748 422 1846
3 734 466 1609
3 774 363 1546
3 1128 1061 1858
3 1220 1142 1449
3 539 638 688
3 579 921 1310
3 1220 537 1142
3 1176 403 1450
3 710 789 981
3 472 924 1318
3 1230 375 1007
3 1680 570 691
3 1172 392 778
3 760 1281 1014
3 388 372 1271
3 260 883 1855
3 873 593 1576
3 853 739 892
3 878 1231 1847
3 349 772 1298
3 1377 906 1198
3 1013 377 1979
3 558 1347 913
3 1157 1248 1400
3 686 402 1316
3 743 411 1519
3 735 961 1802
3 656 1149 1241
3 374 926 1239
3 1123 842 1782
3 1142 537 901
3 369 931 1224
3 832 865 1676
3 888 770 1875
3 115 116 1532
3 800 529 1757
3 841 1055 1405
3 1005 1371 777
3 734 629 1740
3 596 728 1746
3 374 1070 926
3 1532 116 1823
3 997 678 925
3 1999 898 1884
3 368 375 1230
3 1092 749 1743
3 212 213 1729
3 740 442 1659
3 1199 456 1843
3 364 686 1316
3 61 788 1086
3 543 974 1721
3 875 146 805
3 428 679 1739
3 977 1160 2164
3 1164 532 1670
3 991 858 1143
3 20 325 398
3 528 1231 1772
3 679 360 1739
3 276 899 1003
3 1482 1798 1833
3 980 1189 1473
3 437 502 1015
3 1161 547 781
3 590 1508 1808
3 1676 865 2086
3 594 853 892
3 445 700 1361
3 274 275 1470
3 1560 519 1403
3 553 969 1645
3 195 1247 1807
3 30 31 406
3 83 817 1626
3 424 397 2106
3 146 147 805
3 1307 372 1810
3 1677 440 1815
3 708 514 1479
3 551 903 1995
3 817 84 1630
3 464 396 1480
3 977 593 1670
3 679 689 1197
3 264 1228 1251
3 563 1054 2064
3 1304 689 1575
3 430 1414 1536
3 899 29 1779
3 956 623 2100
3 1030 588 1225
3 1160 774 2167
3 308 18 1311
3 1714 660 1707
3 1018 1883 2129
3 395 1470 1003
3 1170 1748 1774
3 635 1092 1677
3 714 374 1239
3 992 569 487
3 632 1304 1575
3 552 1317 1049
3 659 1256 1126
3 761 405 955
3 734 1740 1146
3 579 1767 908
3 1317 1115 1049
3 697 1161 781
3 687 1729 1768
3 505 871 1608
3 736 1114 1431
3 716 612 1540
3 790 1948 1656
3 1034 554 1569
3 771 845 1538
3 1249 382 1428
3 694 889 1095
3 1818 584 1120
3 397 424 948
3 1001 810 1142
3 980 551 1995
3 1231 728 1772
3 1202 820 1952
3 1553 428 1513
3 685 1249 1428
3 386 794 1646
3 562 1392 1687
3 1228 265 1267
3 590 1252 1122
3 472 1555 617
3 1323 380 2009
3 475 676 987
3 413 446 1511
3 366 962 1762
3 441 337 1416
3 127 128 1073
3 1419 840 1549
3 974 554 1721
3 659 935 1780
3 1073 453 1645
3 556 1073 1645
3 494 699 1671
3 1091 453 2020
3 587 1053 1562
3 1013 743 662
3 413 1511 1860
3 1185 462 1638
3 1553 1513 1896
3 537 1220 1744
3 1283 724 2148
3 811 783 1649
3 362 1092 1910
3 492 886 1439
3 477 971 1312
3 227 674 792
3 416 756 1874
3 450 978 1555
3 1022 1076 1500
3 682 1680 691
3 406 395 1779
3 905 1013 662
3 1153 1677 1815
3 678 997 611
3 425 1560 1403
3 966 396 648
3 207 208 1144
3 785 1916 981
3 1110 957 1566
3 1439 886 1667
3 398 325 1263
3 935 467 1795
3 1095 889 1408
3 818 585 1589
3 379 1002 1758
3 583 859 1502
3 790 391 1948
3 307 1373 1026
3 1304 473 1174
3 1224 652 1332
3 1446 463 1209
3 1073 556 1668
3 1050 655 1308
3 207 1144 2158
3 1254 415 962
3 1502 859 2123
3 927 525 945
3 873 384 814
3 361 978 2018
3 374 714 801
3 621 1342 1058
3 1150 904 1264
3 638 578 688
3 766 361 2018
3 680 727 1648
3 1066 831 1578
3 776 1309 1330
3 548 436 804
3 1173 24 1708
3 1242 1109 1961
3 889 516 1623
3 1654 697 1232
3 1181 469 1685
3 1283 523 1639
3 945 525 1849
3 809 997 444
3 1109 454 1961
3 763 1242 1303
3 753 1185 1638
3 585 818 1969
3 399 1277 1907
3 643 1200 2071
3 713 821 1728
3 625 413 999
3 1242 763 1109
3 456 1199 1835
3 854 1101 1641
3 597 1045 1792
3 681 508 2021
3 513 815 1536
3 1948 516 1656
3 843 684 1334
3 514 1012 1479
3 981 789 1379
3 651 931 1678
3 371 829 1771
3 625 1230 1007
3 460 1135 1584
3 1045 752 1792
3 1130 549 1848
3 239 1028 2088
3 1110 492 1439
3 1249 685 1066
3 871 592 1314
3 361 1507 1974
3 1387 698 1673
3 580 1274 1693
3 456 807 1814
3 1410 433 1218
3 731 414 1616
3 1377 1198 1103
3 1405 328 2005
3 493 2049 1407
3 807 633 1516
3 784 488 2093
3 1054 164 1016
3 828 1058 2070
3 829 446 1301
3 436 849 804
3 570 1205 1973
3 593 1164 1670
3 557 1465 1754
3 1748 654 1774
3 1130 1848 2173
3 863 1023 2036
3 866 867 2037
3 308 1311 1825
3 985 784 2093
3 122 123 1269
3 744 869 2033
3 447 1565 2053
3 857 817 1630
3 597 1797 1893
3 881 371 2087
3 153 154 1033
3 997 750 611
3 1342 755 1058
3 996 515 1566
3 962 1244 1762
3 1916 710 981
3 674 392 792
3 241 242 1048
3 549 1612 1848
3 650 948 1895
3 718 1528 1754
3 584 1622 884
3 376 916 2017
3 713 393 1661
3 1387 531 2112
3 1235 1110 1566
3 1554 677 2107
3 340 1148 1851
3 984 1612 2017
3 150 151 1557
3 500 596 1746
3 1275 1019 2026
3 894 284 2143
3 677 869 2107
3 673 1490 1381
3 836 946 1949
3 949 1579 1950
3 284 894 1877
3 623 1531 1127
3 353 24 1173
3 582 1275 1250
3 885 825 2029
3 1425 972 1198
3 937 673 1381
3 1027 898 1999
3 912 368 1230
3 477 1605 1584
3 728 1231 1746
3 645 1046 1749
3 921 1341 2165
3 706 448 1709
3 971 1489 1312
3 1248 764 1741
3 1668 556 2124
3 820 1202 907
3 86 1285 2024
3 1060 714 1239
3 498 1066 1578
3 1498 361 1974
3 1273 1193 1880
3 965 1008 1296
3 440 1677 1743
3 507 585 1969
3 1584 1605 1644
3 1228 387 1251
3 857 1285 2030
3 1358 542 1450
3 464 815 1960
3 1539 826 1461
3 2033 869 1913
3 633 978 1516
3 569 1355 1105
3 430 1536 1237
3 883 562 1687
3 994 568 1427
3 1285 857 2024
3 647 1224 1332
3 972 912 1230
3 239 240 1028
3 622 1181 1685
3 760 1907 1458
3 572 731 1616
3 327 328 1405
3 391 934 1948
3 606 1285 1738
3 694 1268 1112
3 854 1641 1204
3 1463 639 1322
3 301 1512 1187
3 1321 837 1445
3 590 1808 1909
3 1279 293 1690
3 1249 1066 1853
3 254 255 897
3 969 952 1704
3 1066 498 1853
3 541 1625 1864
3 1064 655 2046
3 867 1262 1957
3 1260 863 1313
3 1048 242 1467
3 2017 916 1990
3 962 366 1692
3 1622 506 884
3 1590 649 1975
3 1285 606 1119
3 676 511 2160
3 1347 317 1971
3 934 785 1948
3 169 1023 1134
3 866 107 1469
3 952 969 1444
3 1383 489 1437
3 1799 447 729
3 86 87 1738
3 674 228 1320
3 655 1050 1941
3 784 735 1802
3 947 742 2035
3 969 553 1444
3 229 1319 1320
3 189 190 1747
3 1113 1819 1755
3 1373 386 1026
3 975 779 1326
3 258 259 1533
3 558 1180 1840
3 773 159 1800
3 881 618 2051
3 996 1566 1456
3 1064 190 1196
3 489 997 925
3 518 250 1664
3 1277 384 1458
3 1149 656 2096
3 1199 614 1360
3 1023 863 1134
3 867 866 1469
3 372 1307 1271
3 1373 307 1194
3 849 1125 1133
3 978 361 1516
3 832 933 1699
3 1612 1226 2017
3 645 1749 2059
3 1740 407 1146
3 876 426 1332
3 293 1279 2000
3 761 1091 1029
3 1421 382 1462
3 1180 740 1840
3 1498 456 1814
3 556 1645 1834
3 1679 322 2133
3 788 800 1086
3 660 348 1298
3 1645 969 1834
3 1431 1114 1891
3 699 494 1631
3 1064 358 1747
3 691 1047 1903
3 615 616 1794
3 1141 936 1593
3 806 624 1959
3 946 836 1069
3 1579 949 1888
3 412 1023 1534
3 866 435 1294
3 746 977 1670
3 375 670 1301
3 591 1688 1186
3 754 1311 1629
3 655 1064 1196
3 434 806 1959
3 1511 975 1860
3 1274 580 1618
3 649 1908 1975
3 358 1064 1731
3 1073 128 2020
3 420 1418 1698
3 1735 1051 2175
3 413 625 1007
3 573 1359 1386
3 61 62 788
3 924 578 1318
3 576 903 1988
3 502 942 2052
3 652 876 1332
3 596 500 1632
3 1325 97 1648
3 179 808 1330
3 1333 269 1334
3 1531 381 1127
3 1023 412 1724
3 435 866 1726
3 682 691 2045
3 516 889 1656
3 574 518 1664
3 429 1323 1927
3 312 311 1487
3 1586 738 1879
3 268 1333 1650
3 96 1325 1538
3 808 180 1649
3 1842 1181 1928
3 689 1304 1197
3 441 701 1858
3 1375 541 1864
3 446 413 1007
3 595 1061 1389
3 1371 1005 1408
3 1810 372 1213
3 1311 18 1426
3 793 1387 2112
3 834 790 1112
3 1206 427 1031
3 1418 420 1844
3 996 658 1417
3 889 694 1656
3 21 316 1100
3 782 748 1689
3 1140 830 1943
3 408 1215 1565
3 987 986 1863
3 704 1354 1451
3 442 945 1849
3 430 681 1845
3 728 1339 1049
3 446 375 1301
3 533 359 1797
3 420 1698 1712
3 413 474 1766
3 1051 543 2175
3 828 2070 2074
3 1339 675 1530
3 1046 645 1972
3 1907 1277 1458
3 411 722 1366
3 414 833 1616
3 661 1046 1972
3 2078 1104 1397
3 1008 965 1967
3 906 1425 1198
3 515 996 2168
3 356 1371 1408
3 749 1419 1549
3 514 1299 2062
3 117 917 1823
3 1446 408 1236
3 169 170 1534
3 106 107 1294
3 1555 472 1318
3 1823 917 1966
3 359 709 1797
3 554 974 2025
3 158 773 959
3 371 881 1370
3 531 1842 1928
3 537 1131 901
3 153 1033 1660
3 883 657 1855
3 392 674 1736
3 1104 799 1397
3 887 713 1040
3 790 694 1112
3 1131 905 901
3 1025 1209 1856
3 943 748 1892
3 817 857 1488
3 1347 558 2027
3 424 884 1895
3 448 872 1709
3 762 1666 1930
3 274 1470 885
3 406 31 1883
3 716 1540 1682
3 821 485 1424
3 1319 230 2019
3 616 615 1881
3 792 1172 2039
3 26 1336 1434
3 1998 1235 1229
3 829 1370 1667
3 936 1141 1706
3 745 1492 2065
3 1005 1095 1408
3 377 903 1581
3 871 1795 1862
3 28 277 0
3 468 794 2042
3 1088 1098 2085
3 364 1420 1734
3 812 1818 1120
3 448 706 1183
3 875 1019 1996
3 584 1280 1120
3 1083 302 1898
3 667 916 1666
3 789 710 2130
3 1492 394 2065
3 346 1321 1445
3 1098 630 2085
3 854 1307 791
3 1392 419 1687
3 45 396 1804
3 1365 76 1505
3 1277 399 1289
3 372 388 2025
3 547 1161 2147
3 598 1175 1522
3 833 1355 2040
3 794 386 2042
3 131 1353 1029
3 21 1100 1971
3 1323 495 1927
3 375 446 1007
3 396 46 648
3 200 1042 1750
3 280 1394 2090
3 917 118 671
3 873 814 1524
3 63 64 940
3 1677 1092 1743
3 665 1247 1764
3 453 1091 955
3 127 1073 1668
3 692 1022 1994
3 1797 709 1893
3 466 734 1146
3 1512 301 2166
3 1220 2094 2118
3 756 416 1899
3 741 1138 1386
3 387 1228 1476
3 826 1388 1461
3 79 80 855
3 761 1029 2141
3 1307 854 1204
3 947 2035 2105
3 494 666 1713
3 470 448 1788
3 987 676 2160
3 1000 1280 1824
3 196 197 1087
3 1058 629 2070
3 341 342 1529
3 1371 404 1591
3 360 679 1596
3 279 882 1545
3 1033 795 1660
3 411 743 964
3 609 766 1135
3 1839 554 2025
3 694 790 1656
3 1353 3 1843
3 1311 437 1825
3 676 475 1737
3 1508 394 1808
3 156 789 2130
3 722 411 2004
3 638 450 1318
3 575 1181 1842
3 394 1492 1808
3 1874 756 1822
3 605 1102 1940
3 66 67 1615
3 636 1269 1401
3 124 125 1929
3 150 1557 1889
3 520 1823 1966
3 1540 499 1682
3 1387 374 801
3 605 1420 1897
3 789 156 1093
3 387 757 1251
3 1170 1758 2088
3 1767 979 1857
3 979 1961 1857
3 405 553 955
3 455 674 1320
3 400 2031 1769
3 681 430 1190
3 947 203 1378
3 1319 455 1320
3 679 1197 1596
3 479 700 1911
3 1683 610 1739
3 638 2066 1672
3 1316 707 1477
3 1382 93 1380
3 360 1683 1739
3 344 345 1068
3 520 1532 1823
3 814 608 1524
3 1071 688 1407
3 835 1410 1953
3 818 1362 2154
3 1059 605 1940
3 1325 771 1538
3 766 1044 1135
3 1791 139 1884
3 695 1654 1232
3 460 896 1135
3 547 1998 1229
3 748 782 1892
3 773 1800 1980
3 471 845 721
3 1819 1021 1987
3 824 1753 1864
3 783 808 1649
3 511 676 1897
3 571 1046 1447
3 578 638 1318
3 349 350 1793
3 727 1432 1570
3 696 776 1234
3 1410 835 1589
3 884 424 938
3 454 983 1338
3 1091 130 1029
3 183 1072 1384
3 896 609 1135
3 364 1316 1477
3 799 555 1397
3 1053 1195 1483
3 1560 425 956
3 845 771 721
3 1284 17 1926
3 653 1083 1898
3 1227 706 1702
3 249 518 1192
3 453 1073 2020
3 1071 1056 1440
3 695 1111 1089
3 93 1382 1080
3 811 601 1074
3 1339 728 1306
3 607 784 1802
3 473 851 1611
3 902 1341 1611
3 1341 473 1611
3 450 638 1672
3 518 421 1192
3 574 1465 870
3 997 489 444
3 854 809 444
3 1670 532 1944
3 1355 569 1433
3 1686 762 1846
3 1288 587 2041
3 1028 1170 2088
3 783 811 1074
3 1683 591 1186
3 436 548 960
3 162 163 1619
3 1063 466 1146
3 744 937 1201
3 814 828 2074
3 443 759 1951
3 1254 962 1692
3 28 29 1259
3 680 390 1454
3 567 1309 1243
3 684 843 1923
3 1336 26 2073
3 448 523 1788
3 823 1037 1838
3 433 1410 1589
3 860 1557 1358
3 1353 456 2141
3 983 763 1245
3 1333 1334 2134
3 1508 400 1769
3 1359 573 1385
3 337 338 1416
3 141 142 968
3 509 983 1245
3 1022 544 1994
3 564 459 1292
3 458 1602 1852
3 619 1372 1210
3 1072 183 1544
3 1269 123 1401
3 1371 356 1299
3 280 279 1545
3 562 883 1065
3 1427 681 2021
3 1056 1062 2081
3 685 940 1430
3 1181 575 1915
3 1373 468 2042
3 995 647 1124
3 363 995 1124
3 706 922 1183
3 12 301 1187
3 1394 786 1346
3 727 1325 1648
3 808 776 1330
3 466 1063 1785
3 976 540 1340
3 296 1559 1942
3 727 680 1454
3 1533 259 1855
3 1309 776 1243
3 1681 1226 1997
3 887 528 2011
3 100 1159 1900
3 712 176 1901
3 284 10 2143
3 1552 432 1803
3 508 681 1291
3 3 132 1036
3 90 91 1141
3 474 413 1860
3 1533 657 1257
3 978 450 2018
3 1056 2081 1761
3 386 1373 2042
3 276 277 1259
3 372 974 1213
3 666 494 1789
3 840 1605 1549
3 1874 643 1775
3 826 1817 1362
3 733 1520 1348
3 483 915 2144
3 482 557 1528
3 1333 646 1650
3 675 911 1530
3 360 1140 1943
3 1094 482 1528
3 763 983 1109
3 661 806 964
3 1382 936 1080
3 996 1417 2168
3 687 876 1633
3 1418 1227 1702
3 1414 430 1845
3 684 1923 1926
3 990 1152 1790
3 185 186 616
3 876 652 1633
3 931 730 1224
3 631 1698 2068
3 1195 582 1483
3 1689 748 1930
3 412 1503 1831
3 1506 435 2127
3 736 987 2160
3 969 1704 1834
3 1698 627 2068
3 1533 634 1727
3 42 43 950
3 1355 414 1471
3 1048 1009 1798
3 654 1482 1221
3 634 1533 1257
3 511 1493 2160
3 737 739 2151
3 441 1858 2057
3 848 668 1777
3 1817 423 1362
3 1147 910 1499
3 1519 411 1366
3 897 255 1376
3 1704 767 1834
3 843 449 1923
3 2081 382 1761
3 469 1181 1915
3 807 456 1404
3 1432 727 1454
3 776 696 1243
3 1191 1108 1525
3 337 441 1813
3 1116 923 1136
3 346 347 1321
3 1171 586 1853
3 1115 1317 2011
3 786 1560 956
3 1389 1061 1295
3 783 1166 1551
3 996 690 1647
3 1744 1220 2118
3 658 996 1647
3 1052 860 1358
3 1520 642 1348
3 777 1371 1591
3 495 756 1927
3 615 1072 1544
3 983 509 1163
3 455 398 1736
3 1336 2073 1239
3 38 39 942
3 966 1191 1525
3 657 883 1687
3 1100 626 1971
3 757 562 1065
3 1159 100 1475
3 176 712 1976
3 868 881 2087
3 983 454 1109
3 1387 1673 1935
3 1459 771 1039
3 512 1048 1798
3 470 1041 1735
3 1753 824 2075
3 1334 684 2134
3 992 387 1476
3 675 1339 1760
3 226 227 792
3 532 1164 1077
3 1051 1735 1871
3 1148 1288 2041
3 1054 563 1278
3 903 551 1581
3 613 406 1883
3 2004 411 2001
3 1838 1037 1625
3 1056 1071 1407
3 1327 355 1156
3 711 737 1914
3 915 303 2144
3 1125 910 1133
3 1918 1256 1017
3 455 1319 877
3 839 1279 1715
3 1392 562 2023
3 548 1681 1997
3 922 706 1227
3 891 461 1547
3 1029 1353 2141
3 1408 889 2145
3 173 174 836
3 102 103 1579
3 1418 595 1227
3 626 1485 1971
3 1428 382 2081
3 1429 543 2068
3 414 731 1017
3 120 1377 1894
3 1314 1000 1415
3 1470 893 885
3 674 455 1736
3 365 891 1547
3 1143 858 1472
3 1800 598 1980
3 606 970 1481
3 75 1365 1878
3 618 868 1082
3 203 947 1272
3 599 1116 1136
3 475 987 1863
3 1546 363 1124
3 399 1907 993
3 543 1721 2068
3 916 667 1599
3 634 1597 1727
3 1317 485 2011
3 489 928 1437
3 620 358 2034
3 317 1347 2027
3 26 1851 2073
3 999 413 1766
3 872 1735 2175
3 421 1078 1775
3 1085 953 1502
3 1042 201 1890
3 1678 931 1592
3 115 1532 1753
3 451 1143 1472
3 1858 499 2057
3 1023 1724 2036
3 1726 866 2037
3 1602 726 1852
3 720 564 1292
3 581 971 1651
3 404 839 1715
3 480 922 1389
3 138 139 1791
3 940 64 1430
3 976 1428 2081
3 1032 504 1143
3 519 1375 1403
3 810 1001 1238
3 1327 1911 2136
3 373 1628 1875
3 1299 708 839
3 1270 2153 2171
3 1532 520 1464
3 381 917 2055
3 851 667 1611
3 370 1642 1460
3 690 996 1456
3 415 1442 1806
3 513 1414 1909
3 1138 1067 1841
3 494 1671 1716
3 830 1140 908
3 669 1686 2058
3 1485 1347 1971
3 949 1159 1475
3 712 946 1976
3 888 1875 1406
3 327 1405 907
3 971 477 1222
3 152 153 1660
3 836 412 1831
3 435 1579 2127
3 1503 412 1534
3 435 1506 1294
3 600 810 1783
3 855 80 1653
3 426 1546 1124
3 970 606 1738
3 211 212 1303
3 914 1874 1822
3 932 944 1778
3 701 441 1416
3 534 231 1302
3 1009 1601 1798
3 1391 896 1444
3 914 1542 1200
3 1894 1377 1103
3 573 1365 2089
3 646 1333 2134
3 998 856 1866
3 847 368 2180
3 1463 455 877
3 1152 990 1954
3 397 461 1411
3 463 1152 1954
3 1078 574 870
3 1542 525 1200
3 1574 318 2027
3 1063 570 1796
3 1875 768 1406
3 646 909 915
3 1141 606 1481
3 1442 834 1806
3 847 635 1020
3 587 1562 2041
3 695 1089 2080
3 604 1532 1464
3 920 695 2080
3 535 992 1476
3 382 1421 1761
3 738 1359 2174
3 1642 632 1460
3 958 1104 2176
3 695 920 1497
3 1482 626 1221
3 1979 661 2013
3 358 616 2034
3 1088 1131 1098
3 317 21 1971
3 358 620 1747
3 641 1894 1103
3 1657 294 2000
3 974 1354 1213
3 30 406 1779
3 1164 873 1524
3 1075 711 1484
3 324 1733 2060
3 917 381 1966
3 508 1075 1484
3 1365 573 1841
3 2153 289 2171
3 1166 783 1074
3 1300 461 1801
3 323 23 1342
3 612 1537 1022
3 419 1392 1780
3 277 28 1259
3 670 847 1020
3 688 578 1369
3 152 1660 1717
3 1911 589 2136
3 1851 510 2073
3 594 664 1179
3 814 384 1368
3 771 1459 721
3 632 1642 1335
3 504 991 1143
3 1144 890 2158
3 798 1918 1017
3 461 397 1547
3 1420 605 1734
3 456 1498 2141
3 1594 897 1494
3 1046 571 1749
3 1615 67 1219
3 400 1508 1122
3 356 1408 2145
3 1861 136 2107
3 512 1482 1748
3 1421 581 1440
3 16 833 1898
3 1427 568 1845
3 786 1394 1545
3 1470 275 1003
3 1300 1801 1500
3 1375 604 1403
3 896 952 1444
3 910 1121 2091
3 434 2004 2001
3 856 1552 1866
3 953 583 1502
3 236 1002 1781
3 254 897 1594
3 776 1081 1234
3 9 280 2090
3 802 727 1570
3 1359 1586 1386
3 1041 495 1871
3 315 314 1322
3 456 1353 1843
3 862 765 1572
3 1923 1284 1926
3 913 1347 1485
3 212 1729 1303
3 1237 383 1305
3 1252 989 2067
3 126 127 1668
3 568 1414 1845
3 1175 354 1522
3 363 1457 729
3 892 929 1452
3 770 373 1875
3 1002 844 1781
3 1094 1594 1494
3 1447 377 1581
3 841 1405 2005
3 500 664 1632
3 339 26 1434
3 1155 715 1203
3 1055 841 1617
3 484 1057 1296
3 1046 661 1979
3 398 455 1324
3 1121 910 1992
3 798 1455 1918
3 451 1032 1143
3 1293 1447 1581
3 1137 1289 2122
3 924 472 1893
3 523 448 1183
3 926 1336 1239
3 1110 1151 1784
3 1059 503 1510
3 779 975 2043
3 1045 597 1893
3 1070 466 1785
3 1628 768 1875
3 1824 1280 2098
3 437 1015 1825
3 123 124 1401
3 664 594 1632
3 1171 1853 1986
3 412 836 1949
3 1579 435 1950
3 1292 967 1936
3 880 1852 1937
3 820 664 1952
3 609 405 1507
3 369 995 2053
3 891 799 1710
3 1394 280 1545
3 852 1070 1785
3 1396 429 2050
3 865 73 1006
3 388 1271 1415
3 324 323 1733
3 1178 421 1775
3 701 1662 1745
3 450 1555 1318
3 1880 565 2099
3 1181 622 1928
3 1041 470 1208
3 659 1392 1859
3 813 1788 1283
3 876 214 1751
3 1044 766 1672
3 1539 248 1192
3 681 1427 1845
3 715 1302 1203
3 1420 364 1770
3 886 829 1667
3 633 807 1956
3 352 27 1792
3 550 1149 1956
3 1322 639 2150
3 686 1059 1510
3 606 1141 1593
3 657 1533 1855
3 742 947 1378
3 1852 726 1937
3 720 1292 1936
3 828 814 1368
3 1539 421 1817
3 1161 697 1011
3 326 327 907
3 635 847 1496
3 231 534 2019
3 668 1288 2054
3 911 464 1480
3 589 1150 1684
3 749 1114 1743
3 924 1893 1624
3 1114 440 1743
3 157 959 1093
3 1361 644 2162
3 478 737 1535
3 559 981 1379
3 1470 395 1351
3 1255 27 2012
3 869 744 1861
3 1795 467 1862
3 1508 590 1122
3 989 310 2067
3 595 1418 1844
3 1482 654 1748
3 590 1909 1939
3 1641 505 1608
3 354 1175 1920
3 785 934 1916
3 616 358 1794
3 1731 1064 2046
3 853 594 1179
3 1531 623 1867
3 318 317 2027
3 1601 418 1798
3 209 210 775
3 558 1574 2027
3 1335 1642 1412
3 781 738 1718
3 1002 379 1210
3 222 223 1014
3 739 853 1876
3 1285 1119 2030
3 1562 510 2041
3 1075 508 2119
3 1465 574 1754
3 370 1344 1691
3 636 1401 2123
3 252 1393 1035
3 1388 835 1953
3 1175 161 1920
3 912 972 1425
3 1897 1420 1082
3 1299 356 2062
3 848 144 1665
3 1911 1327 2109
3 630 1678 1856
3 1328 1260 2125
3 1262 864 1261
3 789 1093 1379
3 1015 838 1825
3 35 36 1646
3 1170 1028 1748
3 1081 783 1551
3 639 1463 877
3 771 802 1039
3 642 1520 1658
3 893 1470 1351
3 393 1264 1182
3 1392 659 1780
3 932 1778 1763
3 1499 910 2091
3 1119 1593 1873
3 1675 1607 1207
3 883 261 1065
3 1344 370 1934
3 874 458 1852
3 459 951 1292
3 585 433 1589
3 1093 1021 1379
3 2106 397 517
3 526 1383 1437
3 586 1421 1462
3 850 1439 1667
3 1268 1130 2173
3 540 940 1340
3 566 1314 1415
3 1117 149 1889
3 73 865 1699
3 1698 1418 1702
3 982 1647 2051
3 1269 636 1425
3 7 235 1441
3 408 1446 1209
3 1678 1025 1856
3 1061 595 1682
3 849 436 1541
3 1116 599 1984
3 472 617 1045
3 713 887 2072
3 1012 546 1479
3 234 7 1441
3 371 1771 1933
3 736 1431 987
3 1962 902 2035
3 436 292 1541
3 697 1718 1232
3 1431 986 987
3 918 715 1372
3 47 48 1191
3 403 1176 1887
3 699 1742 1720
3 1114 736 1700
3 1176 565 1887
3 214 876 1768
3 161 1175 2140
3 1151 779 1784
3 391 1442 2099
3 624 806 1732
3 1344 1268 1691
3 780 1173 1708
3 1417 658 1610
3 906 1269 1425
3 975 886 2043
3 664 500 1952
3 886 492 2043
3 594 892 1374
3 861 930 1156
3 1495 428 1643
3 1503 171 2047
3 105 1506 1504
3 426 876 1751
3 1489 581 2084
3 940 685 1340
3 416 1874 1775
3 1788 523 1283
3 633 1149 2096
3 228 229 1320
3 929 892 1640
3 806 661 1972
3 898 1791 1884
3 1839 388 1820
3 868 511 1082
3 2070 1084 2074
3 304 303 915
3 396 464 954
3 1289 702 2122
3 135 136 1861
3 1342 621 1733
3 806 434 2001
3 23 322 1679
3 909 646 2134
3 848 587 1828
3 703 1902 1924
3 1044 1556 1584
3 114 115 1753
3 172 1831 2047
3 2127 104 1504
3 1191 48 2022
3 984 2017 1990
3 1794 1731 1357
3 314 1463 1322
3 613 1057 2131
3 1356 519 1329
3 1137 1277 1289
3 488 853 1179
3 269 270 1334
3 97 98 1648
3 178 179 1330
3 1540 612 2146
3 737 607 1535
3 1643 366 1762
3 736 1493 1700
3 652 1224 1558
3 872 1429 1709
3 250 251 1664
3 553 405 1391
3 267 268 1650
3 95 96 1538
3 992 535 1613
3 180 181 1649
3 869 677 1913
3 1189 980 1995
3 1566 957 1456
3 1660 542 1717
3 292 436 2016
3 1344 1934 2132
3 492 1110 1784
3 1079 355 1741
3 1538 845 1722
3 580 1487 1902
3 1180 507 1501
3 851 417 1599
3 739 1075 1640
3 940 540 1921
3 281 1161 1011
3 667 851 1599
3 857 1032 1488
3 673 937 1526
3 302 1083 2144
3 1733 621 2122
3 1114 749 1891
3 20 398 1324
3 1280 592 1120
3 405 609 1391
3 504 1119 1873
3 1275 4 1996
3 943 923 1184
3 625 999 1932
3 600 1688 1449
3 617 633 2096
3 26 340 1851
3 500 1515 1952
3 203 204 1378
3 389 1839 1820
3 231 232 1302
3 970 89 1481
3 1137 621 1368
3 1749 452 2059
3 1131 537 1098
3 1175 598 2140
3 1435 782 804
3 1008 1809 2010
3 1070 852 926
3 765 478 1572
3 422 943 1184
3 1688 1287 1449
3 64 65 1430
3 122 1269 1486
3 1435 849 1133
3 18 307 1026
3 678 897 2007
3 795 1033 1916
3 1574 666 1789
3 743 1013 2013
3 187 620 2034
3 455 1463 1324
3 262 757 1065
3 252 253 1393
3 1454 390 2120
3 567 1243 1349
3 389 1824 1573
3 965 1373 1194
3 2031 693 1769
3 592 1280 1725
3 925 678 2007
3 1848 939 2173
3 1206 855 1653
3 697 781 1718
3 909 304 915
3 811 1649 2135
3 569 992 1433
3 1472 858 1568
3 369 1215 1592
3 1607 705 1207
3 1215 1025 1592
3 671 119 1894
3 1096 580 1902
3 703 994 1427
3 892 739 1640
3 515 1586 1879
3 1560 786 882
3 1033 154 1162
3 1742 1297 1720
3 1724 1949 2142
3 1950 1726 1669
3 1824 1145 1573
3 765 1274 1618
3 1557 860 1889
3 628 1917 1940
3 1933 1771 1652
3 1033 710 1916
3 2083 973 1517
3 884 506 1895
3 1587 2074 2169
3 887 485 2072
3 4 1275 1195
3 421 1539 1192
3 876 687 1768
3 63 940 1921
3 433 585 1548
3 1269 906 1486
3 642 1111 1348
3 680 1648 1965
3 1330 1309 2149
3 1631 494 1713
3 1646 794 1577
3 329 758 2005
3 1798 418 1833
3 421 1178 1817
3 1061 1128 1295
3 758 329 1216
3 1288 497 2054
3 1731 373 1357
3 393 1728 2108
3 352 1792 1620
3 1562 1053 1483
3 118 119 671
3 417 851 1335
3 855 642 1658
3 316 315 1367
3 487 569 2023
3 509 1245 819
3 255 256 1376
3 577 603 1331
3 1131 1088 2157
3 1245 1363 819
3 1014 1281 2015
3 318 1574 1789
3 1745 1662 2045
3 710 1033 1162
3 243 1218 1467
3 1280 1000 1725
3 461 891 1801
3 1740 629 1058
3 157 158 959
3 2055 1787 2152
3 1147 599 1136
3 1765 378 1010
3 541 1356 2128
3 641 1787 2055
3 499 1061 1682
3 89 970 1826
3 544 1022 1500
3 1141 91 1706
3 780 1361 1675
3 1907 1168 993
3 620 187 1253
3 1918 1455 1862
3 361 1498 1814
3 1506 2127 1504
3 1831 1503 2047
3 812 1765 1010
3 778 392 1263
3 711 765 1618
3 598 1012 1980
3 1100 649 1869
3 1662 701 1416
3 1587 608 2074
3 941 928 925
3 78 1520 1132
3 1429 627 1709
3 664 820 1606
3 82 83 1626
3 599 1087 1984
3 1628 655 1941
3 1520 78 1658
3 1161 281 2002
3 1111 527 1348
3 376 1689 1930
3 617 752 1045
3 1623 516 1947
3 1576 760 1458
3 1417 1610 1352
3 1370 850 1667
3 529 1906 1982
3 459 1724 2142
3 1726 458 1669
3 1553 722 1692
3 1515 1202 1952
3 1020 1153 1652
3 1116 198 1343
3 185 616 1881
3 366 1553 1692
3 1012 491 1980
3 950 43 1413
3 1753 604 1864
3 198 1116 1984
3 1513 428 1739
3 643 1178 1775
3 619 918 1372
3 1264 904 1182
3 1495 1090 1580
3 740 1180 1501
3 610 1513 1739
3 1677 1153 1020
3 293 13 1690
3 1022 692 2172
3 732 1657 2000
3 545 1147 1136
3 862 1622 1818
3 38 942 1829
3 295 294 2076
3 1465 557 2050
3 405 761 1974
3 532 1457 1944
3 2073 1060 1239
3 467 1918 1862
3 905 1131 1988
3 313 312 787
3 888 1406 1350
3 319 1789 1716
3 784 607 1876
3 335 1240 1756
3 927 1969 2154
3 813 1283 1217
3 1537 420 1712
3 689 1495 1580
3 755 1740 1058
3 1789 494 1716
3 429 1465 2050
3 833 16 1945
3 986 1703 1863
3 193 194 1509
3 775 210 2163
3 731 378 1600
3 1790 1152 2101
3 1532 604 1753
3 1025 1215 1209
3 928 489 925
3 618 982 2051
3 485 821 2072
3 283 920 1614
3 1622 584 1818
3 248 249 1192
3 836 174 1069
3 102 1579 1888
3 890 1144 1438
3 1280 584 2098
3 1360 772 1241
3 737 478 1914
3 394 1508 1769
3 849 1435 804
3 863 1328 1134
3 864 867 1469
3 933 402 988
3 68 842 1219
3 531 1387 1935
3 722 1553 1896
3 779 357 1865
3 425 1403 1464
3 857 1630 2024
3 773 1980 1987
3 959 1021 1093
3 930 533 1627
3 843 1334 2159
3 1492 513 1808
3 550 1360 1241
3 1492 745 1960
3 975 1326 1860
3 1005 777 1514
3 592 1455 640
3 490 1512 2077
3 1457 746 1944
3 1659 442 1217
3 1216 330 2078
3 505 1101 1383
3 1623 1947 2138
3 1009 1048 1467
3 130 131 1029
3 42 950 1448
3 278 1356 1329
3 568 989 1939
3 539 688 1773
3 821 713 2072
3 1625 824 1864
3 903 905 1988
3 1076 1537 1712
3 506 1622 1958
3 485 887 2011
3 937 744 1991
3 402 933 1946
3 775 1242 1961
3 428 1553 1643
3 1765 812 640
3 188 620 1253
3 742 1962 2035
3 933 832 1946
3 607 737 2151
3 528 887 1830
3 831 1615 1578
3 1121 290 1993
3 580 1096 1177
3 112 1037 1964
3 383 1237 1760
3 443 758 1337
3 74 75 1878
3 1012 598 1129
3 1061 499 1858
3 1053 848 1665
3 1839 389 1569
3 532 1077 1799
3 571 875 805
3 110 111 827
3 165 166 1265
3 312 1487 1931
3 1932 999 1398
3 201 202 1890
3 2094 651 2118
3 1750 1042 1184
3 230 231 2019
3 310 989 2116
3 1394 1346 1805
3 1346 357 1805
3 805 452 1749
3 571 805 1749
3 1660 795 1450
3 1027 968 2054
3 1145 884 938
3 295 1523 2126
3 898 1027 2115
3 294 1657 2076
3 331 332 1104
3 416 1078 870
3 894 522 683
3 351 352 1620
3 245 246 1388
3 628 1233 1917
3 942 39 2052
3 354 944 1522
3 800 788 1906
3 1776 645 2059
3 703 1096 1902
3 968 142 1777
3 688 1071 1773
3 388 1415 1820
3 1185 524 1913
3 285 1472 1568
3 141 968 1999
3 1215 408 1209
3 257 1597 1364
3 797 1615 1219
3 51 52 1728
3 1520 733 1132
3 1710 958 1994
3 1242 775 2163
3 432 359 1803
3 995 363 729
3 545 943 1892
3 1459 286 1568
3 859 583 1225
3 985 1617 1951
3 1619 354 1920
3 931 369 1592
3 506 1958 1043
3 1792 752 1620
3 588 859 1225
3 591 1683 1943
3 826 1539 1817
3 378 731 1550
3 220 221 1223
3 1489 385 1312
3 923 1116 1343
3 298 696 1234
3 1432 287 1570
3 348 349 1298
3 986 1489 2084
3 1602 867 1957
3 863 564 1313
3 920 283 1497
3 1488 1032 683
3 1200 643 1874
3 622 1609 1928
3 1077 637 1799
3 333 334 1583
3 1101 505 1641
3 299 1166 1350
3 731 572 1550
3 1393 718 1035
3 1695 591 1943
3 8 289 2153
3 1812 1068 1445
3 1275 582 1195
3 1512 768 2077
3 1487 580 1395
3 440 1700 1815
3 889 1623 2145
3 663 778 1263
3 1036 132 1490
3 367 1659 1217
3 1198 521 1103
3 379 1590 1975
3 667 1666 2003
3 918 619 1908
3 927 945 1969
3 287 1432 1436
3 696 298 1663
3 334 335 1756
3 2035 481 2105
3 29 30 1779
3 875 571 1697
3 1000 1314 1725
3 536 1676 2086
3 1034 560 1399
3 585 507 1905
3 1980 491 1987
3 865 832 1699
3 73 74 1006
3 1096 703 2021
3 936 991 1873
3 715 1155 1372
3 149 1117 1282
3 220 1223 2164
3 1404 456 1835
3 1958 961 1043
3 524 2033 1913
3 897 678 1494
3 563 1523 1763
3 772 1360 1707
3 294 293 2000
3 1019 875 1697
3 2106 1573 938
3 560 1561 1399
3 553 1645 1188
3 1308 655 1196
3 1688 600 1186
3 626 1482 1833
3 1356 278 1518
3 149 150 1889
3 59 60 1157
3 1695 454 1338
3 882 279 1329
3 1028 512 1748
3 860 1117 1889
3 1055 1617 2093
3 1050 1922 1941
3 1646 36 1811
3 25 339 1832
3 523 1183 1639
3 275 276 1003
3 677 1185 1913
3 1922 490 1941
3 1166 299 1551
3 641 671 1894
3 1184 1042 2058
3 886 975 1511
3 1730 244 1953
3 1304 1174 1197
3 698 1387 801
3 758 841 2005
3 1218 243 1730
3 1149 633 1956
3 451 894 683
3 1087 599 1764
3 286 1459 1039
3 1067 865 1006
3 837 1812 1445
3 508 1096 2021
3 1037 112 2103
3 1406 300 1350
3 290 1121 1992
3 1111 642 1089
3 1057 484 2131
3 271 272 1478
3 263 264 1251
3 1155 844 1372
3 627 1698 1702
3 944 546 1522
3 599 1147 1499
3 1108 1191 2022
3 1360 614 1707
3 1090 1460 1575
3 1019 1275 1996
3 569 1859 2023
3 1099 2106 517
3 1597 257 1727
3 770 615 1357
3 869 1861 2107
3 1001 1519 1238
3 1893 709 1624
3 1519 431 1238
3 898 462 2028
3 974 543 1354
3 1099 1573 2106
3 1151 1110 1998
3 1628 1941 2077
3 33 34 1345
3 914 1200 1874
3 1189 576 1752
3 430 1237 1305
3 359 861 1803
3 1276 893 2038
3 865 1067 2086
3 1890 202 1272
3 1936 967 1663
3 880 1937 1436
3 1493 736 2160
3 1228 1267 2014
3 258 1533 1727
3 830 1695 1943
3 489 1101 444
3 583 953 1169
3 642 855 1031
3 1167 1842 1935
3 598 1522 1129
3 953 767 1169
3 1447 1046 1979
3 1214 796 1837
3 76 77 1505
3 608 1077 1524
3 710 1162 2130
3 1401 900 2123
3 1771 829 1301
3 554 1034 2113
3 1432 1454 2120
3 741 1586 2168
3 1243 696 1349
3 422 1184 2058
3 84 85 1630
3 1675 479 1607
3 626 1100 1221
3 312 1931 787
3 1969 818 2154
3 476 714 1635
3 973 1912 1517
3 1244 962 1806
3 1183 922 1639
3 1178 423 1817
3 586 1171 1863
3 199 200 1750
3 1146 407 1543
3 603 577 1962
3 202 203 1272
3 306 305 1967
3 1096 508 1484
3 1014 223 1258
3 990 1189 1752
3 1017 731 1600
3 222 1014 2015
3 267 1650 1315
3 191 192 1308
3 82 1626 1816
3 584 884 2098
3 1271 1307 1204
3 742 603 1962
3 672 918 1908
3 440 1114 1700
3 948 650 1912
3 1586 515 2168
3 359 432 1655
3 1403 604 1464
3 930 1607 2109
3 546 944 1827
3 1531 520 1966
3 1286 957 1439
3 431 1519 1366
3 1430 65 2097
3 549 1130 1514
3 524 1068 1812
3 965 1194 1967
3 769 1493 2137
3 1654 695 1497
3 1404 550 1956
3 1861 744 1201
3 1090 1575 1580
3 1757 803 1468
3 1607 479 2109
3 479 1911 2109
3 72 73 1699
3 1509 194 1807
3 935 1854 1904
3 1923 449 1809
3 237 238 1758
3 381 1531 1966
3 859 588 1989
3 89 90 1481
3 887 1040 1830
3 1493 511 2137
3 1415 1000 1820
3 172 173 1831
3 103 104 2127
3 1107 484 2038
3 1057 468 1696
3 868 769 2137
3 186 187 2034
3 534 715 1759
3 182 183 1384
3 874 949 1669
3 946 951 2142
3 831 1430 2097
3 897 1376 2007
3 670 1020 1652
3 1410 1218 1730
3 1034 1099 517
3 93 94 1380
3 1359 1443 2174
3 99 100 1900
3 176 177 1901
3 445 1361 2162
3 1145 1824 2098
3 1172 778 993
3 511 868 2137
3 1405 820 907
3 1561 631 1399
3 768 1512 2166
3 884 1145 2098
3 765 711 1914
3 1557 151 1717
3 604 1375 1864
3 842 797 1219
3 4 145 1996
3 330 331 2078
3 566 1271 1204
3 1478 272 2029
3 542 1557 1717
3 546 1012 1129
3 1617 443 1951
3 226 792 2039
3 1063 1146 1543
3 698 1214 1837
3 33 1345 2129
3 256 257 1364
3 1664 251 1035
3 603 742 1290
3 715 534 1302
3 1714 673 1526
3 167 168 1328
3 108 109 864
3 354 1619 1278
3 35 1646 1577
3 1816 1206 1653
3 1130 1095 1514
3 478 765 1914
3 242 243 1467
3 666 1574 1840
3 984 919 1848
3 1703 586 1863
3 1223 977 2164
3 1117 452 1282
3 1306 383 1760
3 1957 1262 1571
3 1260 1313 2006
3 452 1117 2059
3 1147 545 1133
3 1605 477 1312
3 385 1605 1312
3 397 1411 517
3 1305 383 1452
3 527 1111 1232
3 367 1631 1713
3 1523 717 2126
3 1562 476 1635
3 1641 566 1204
3 328 329 2005
3 329 330 1216
3 1050 1308 2178
3 669 1272 2105
3 535 1083 1613
3 1110 1235 1998
3 111 112 1964
3 484 1276 2038
3 1512 410 1187
3 646 915 2048
3 560 1034 517
3 2003 1666 1786
3 511 1897 1082
3 365 948 1912
3 1674 817 1488
3 319 318 1789
3 904 1150 1212
3 512 1028 1634
3 1101 489 1383
3 1095 1005 1514
3 190 191 1196
3 1842 531 1935
3 910 1125 1992
3 565 1176 1983
3 67 68 1219
3 544 1710 1994
3 423 1178 2071
3 85 86 2024
3 944 354 1778
3 542 1660 1450
3 40 41 1004
3 214 215 1751
3 1615 797 1578
3 1197 439 1596
3 1272 947 2105
3 1255 533 1797
3 1283 367 1217
3 165 1265 1016
3 660 1298 1707
3 462 898 2115
3 1026 386 1629
3 769 868 2087
3 14 295 2126
3 923 1750 1184
3 1557 542 1358
3 1081 15 1234
3 11 802 1570
3 15 1081 1551
3 1334 270 2159
3 709 359 1655
3 1509 1050 2178
3 778 399 993
3 1341 902 1962
3 1154 2078 1397
3 502 1004 2031
3 216 1546 1266
3 44 45 1804
3 802 11 1039
3 1648 98 1965
3 178 1330 2149
3 1268 1344 1112
3 894 451 1877
3 1218 1009 1467
3 282 281 1011
3 1244 1806 2132
3 944 932 1827
3 194 195 1807
3 1055 488 1606
3 1078 416 1775
3 1150 589 1212
3 803 1079 1468
3 107 108 1469
3 168 169 1134
3 224 225 1521
3 1104 332 2176
3 1602 1957 1466
3 1313 564 1604
3 638 539 2066
3 1546 426 1266
3 649 1100 2139
3 1612 438 1997
3 522 1674 1488
3 1237 675 1760
3 377 1447 1979
3 36 37 1811
3 161 162 1920
3 244 245 1953
3 475 1102 1737
3 639 534 1759
3 77 78 1132
3 1649 181 2135
3 95 1538 1722
3 81 82 1816
3 257 258 1727
3 198 199 1343
3 297 1936 1663
3 1937 288 1436
3 1647 690 2051
3 1599 417 1990
3 1276 484 2010
3 1097 924 1624
3 159 160 1800
3 952 896 1567
3 602 1270 1466
3 1559 486 1604
3 896 460 1567
3 116 117 1823
3 1236 469 1915
3 155 156 2130
3 1622 1572 1958
3 507 945 1501
3 682 1662 1821
3 418 913 1485
3 1680 852 1796
3 910 1147 1133
3 1004 693 2031
3 1178 643 2071
3 1947 559 2138
3 974 372 2025
3 844 1155 2079
3 1194 306 1967
3 635 1677 1020
3 1601 1548 2111
3 1118 894 2143
3 714 1060 1635
3 1111 695 1232
3 289 288 1937
3 297 296 1936
3 602 1957 1571
3 1313 486 2006
3 991 504 1873
3 1615 831 2097
3 78 79 1658
3 1542 914 1208
3 66 1615 2097
3 1105 659 1859
3 1626 963 1816
3 1590 379 1774
3 292 291 1541
3 197 198 1984
3 1025 1678 1592
3 1205 1872 1973
3 1284 1923 1809
3 708 1479 2069
3 162 1619 1920
3 515 1879 1566
3 2051 690 1474
3 283 282 1497
3 37 38 1829
3 842 1123 2061
3 915 483 2048
3 160 161 2140
3 74 1878 1006
3 684 1926 2134
3 1850 1118 1711
3 668 848 1828
3 668 968 1777
3 751 1509 1807
3 1224 730 1558
3 764 1757 1468
3 316 1367 2139
3 597 1255 1797
3 1827 932 1657
3 1099 1034 1569
3 1583 334 1756
3 384 1137 1368
3 1108 1317 1525
3 1659 367 1713
3 476 1483 1981
3 112 113 2103
3 569 1105 1859
3 92 93 1080
3 900 1502 2123
3 510 1562 1635
3 367 1283 2148
3 183 184 1544
3 777 549 1514
3 100 101 1475
3 175 176 1976
3 1729 763 1303
3 1355 1433 2040
3 1374 892 1452
3 265 266 1267
3 1155 233 2079
3 968 1027 1999
3 193 1509 2178
3 1083 653 1613
3 1733 702 2060
3 530 1714 1526
3 399 778 2056
3 732 1827 1657
3 79 855 1658
3 809 854 791
3 53 54 1264
3 395 1107 1351
3 373 770 1357
3 730 1886 819
3 1218 433 1038
3 962 415 1806
3 1226 1612 1997
3 1087 197 1984
3 1479 546 2069
3 936 1706 1080
3 57 58 1836
3 266 267 1315
3 538 1673 1837
3 1263 392 1736
3 1574 558 1840
3 1654 282 1011
3 261 262 1065
3 1553 366 1643
3 1622 862 1572
3 1388 246 1461
3 46 47 648
3 278 8 1518
3 673 1036 1490
3 945 442 1501
3 624 1776 1052
3 164 165 1016
3 1240 612 2172
3 654 1590 1774
3 291 290 1992
3 90 1141 1481
3 56 57 1390
3 1257 419 2161
3 750 809 1409
3 1009 1218 1038
3 756 1899 1927
3 1030 1169 1402
3 953 1085 2124
3 557 482 2032
3 1083 483 2144
3 852 1680 1832
3 301 300 1406
3 1689 376 2017
3 1879 1235 1566
3 1270 726 1466
3 720 1559 1604
3 1811 37 1829
3 1210 379 1975
3 1152 575 2101
3 43 44 1413
3 1140 360 1596
3 707 1316 1946
3 1265 719 1016
3 15 298 1234
3 287 11 1570
3 110 827 1261
3 1265 166 2125
3 1154 1216 2078
3 299 15 1551
3 282 1654 1497
3 156 157 1093
3 1881 615 1544
3 303 302 2144
3 1157 60 1086
3 1780 935 1904
3 825 1478 2029
3 982 364 1477
3 1345 1018 2129
3 470 1542 1208
3 1048 512 1634
3 11 286 1039
3 44 1804 1413
3 612 1240 2146
3 1601 433 1548
3 662 1001 901
3 1279 725 2000
3 458 874 1669
3 951 459 2142
3 1214 476 1981
3 285 284 1472
3 658 982 1477
3 788 62 1921
3 1015 502 2031
3 616 186 2034
3 725 708 2069
3 941 925 2007
3 1433 992 1613
3 476 1562 1483
3 953 556 1834
3 767 953 1834
3 1040 713 1661
3 881 2051 1474
3 576 1189 1995
3 1882 753 1638
3 504 1032 2030
3 1171 475 1863
3 564 863 2036
3 867 1602 2037
3 19 994 1924
3 649 1367 1908
3 1662 25 1821
3 213 214 1768
3 837 1870 2033
3 838 1015 1211
3 445 1040 1661
3 697 1654 1011
3 1523 295 2076
3 59 1157 1400
3 1693 572 1395
3 1362 423 2154
3 291 1125 1541
3 1688 591 1163
3 1101 854 444
3 1926 909 2134
3 1728 52 2108
3 1367 672 1908
3 1605 385 1549
3 891 1710 1801
3 692 1240 2172
3 599 1499 1764
3 459 564 2036
3 1602 458 2037
3 1037 823 1964
3 916 1599 1990
3 545 1435 1133
3 62 63 1921
3 1082 1420 1770
3 1552 856 2095
3 1264 393 2108
3 1626 817 1674
3 1899 429 1927
3 1597 941 1364
3 1267 266 1315
3 844 1441 1781
3 1019 1697 2026
3 1810 380 791
3 1351 1107 2038
3 1697 1293 2026
3 618 1082 1770
3 1808 513 1909
3 235 236 1781
3 994 703 1924
3 972 1230 1932
3 91 92 1706
3 1221 1100 1869
3 1271 566 1415
3 1032 857 2030
3 533 1255 1627
3 749 1549 1891
3 425 1531 1867
3 1628 373 2046
3 1711 1118 2117
3 419 1780 1904
3 1226 1689 2017
3 1718 527 1232
3 1240 335 1963
3 148 149 1282
3 1028 240 1634
3 447 995 729
3 1077 1164 1524
3 184 185 1881
3 1015 400 1211
3 1854 526 1904
3 778 663 2056
3 763 1729 1595
3 725 732 2000
3 1799 637 1565
3 154 155 1162
3 1806 834 2132
3 1729 687 1595
3 286 285 1568
3 173 836 1831
3 1579 103 2127
3 1673 698 1837
3 995 447 2053
3 273 274 885
3 31 32 1883
3 809 380 1409
3 636 912 1425
3 398 1263 1736
3 1428 976 1340
3 233 1155 1203
3 121 122 1486
3 852 1785 1796
3 1316 402 1946
3 2066 1044 1672
3 1844 716 1682
3 1813 747 1963
3 174 175 1069
3 101 102 1888
3 785 1947 1948
3 1230 625 1932
3 1548 822 2111
3 1435 545 1892
3 546 1827 2069
3 290 12 1993
3 1967 305 1621
3 1100 316 2139
3 1317 552 1525
3 970 1738 2179
3 1776 860 1052
3 655 1628 2046
3 1068 345 1445
3 209 775 1723
3 775 979 1723
3 767 1704 1402
3 10 283 1614
3 1089 642 1031
3 820 1055 1606
3 1898 833 2040
3 1704 362 1402
3 598 1800 2140
3 1004 41 1448
3 1214 698 714
3 1247 1087 1764
3 855 1206 1031
3 1308 192 2178
3 336 1813 1963
3 1125 291 1992
3 362 1704 1925
3 723 1690 2016
3 1050 1509 1922
3 119 120 1894
3 300 299 1350
3 1888 949 1475
3 946 1069 1976
3 482 678 611
3 1704 952 1925
3 788 540 1906
3 537 1744 1098
3 1167 1790 2101
3 1307 1810 791
3 610 1683 1186
3 1300 560 1411
3 1758 238 2088
3 1366 722 1896
3 505 1383 1854
3 1947 516 1948
3 1169 767 1402
3 653 1433 1613
3 476 1214 714
3 302 16 1898
3 403 1052 1358
3 1684 56 1390
3 934 795 1916
3 1189 990 1473
3 1601 1009 1038
3 1586 741 1386
3 47 1191 648
3 482 1094 1494
3 208 209 1723
3 827 1262 1261
3 1260 1265 2125
3 1917 503 1940
3 243 244 1730
3 224 1521 1258
3 1590 654 1869
3 521 1932 1398
3 400 1015 2031
3 917 671 2055
3 935 1795 1854
3 431 2008 1238
3 1410 1730 1953
3 480 1389 1295
3 1359 1385 1443
3 548 804 1681
3 488 1055 2093
3 2008 810 1238
3 1561 1076 1712
3 1326 474 1860
3 621 1137 2122
3 1248 1741 2092
3 434 1273 2004
3 1125 849 1541
3 1236 408 1563
3 955 553 1188
3 1847 644 1246
3 1385 573 2089
3 1339 1306 1760
3 427 1089 1031
3 1273 1254 2004
3 1144 208 1723
3 1742 480 1970
3 167 1328 2125
3 864 109 1261
3 945 507 1969
3 13 292 2016
3 472 1045 1893
3 553 1391 1444
3 812 1010 1818
3 540 788 1921
3 233 234 2079
3 1521 225 2039
3 1607 930 1627
3 1695 830 1857
3 1240 692 1756
3 1804 745 1413
3 40 1004 2052
3 781 547 1229
3 49 1424 2022
3 609 896 1391
3 878 1847 1246
3 1126 1256 1918
3 433 1601 1038
3 454 1695 1857
3 1079 1741 1468
3 1778 354 1278
3 754 1811 1829
3 678 482 1494
3 419 1904 2161
3 735 2083 1517
3 562 487 2023
3 1708 878 1246
3 726 1270 2171
3 1559 720 1942
3 1010 862 1818
3 240 241 1634
3 861 1079 1803
3 469 1236 1603
3 461 1300 1411
3 905 662 901
3 1198 972 1932
3 543 1429 2175
3 1521 1172 993
3 998 1062 2049
3 750 482 611
3 241 1048 1634
3 1256 1105 1471
3 522 1488 683
3 1735 1041 1871
3 1605 840 1644
3 370 1460 1934
3 878 1708 1885
3 1128 1564 1970
3 279 278 1329
3 311 19 1924
3 733 1505 1132
3 1443 527 2174
3 1671 699 1720
3 1202 1515 1885
3 1609 793 2112
3 281 9 2002
3 1460 1090 1934
3 1270 401 2153
3 1433 653 2040
3 665 2091 1701
3 1744 630 1098
3 438 777 1591
3 1685 1084 846
3 1441 235 1781
3 634 1257 2161
3 1326 779 1865
3 1174 439 1197
3 1619 1054 1278
3 288 287 1436
3 298 297 1663
3 81 1816 1653
3 336 337 1813
3 782 1435 1892
3 670 1771 1301
3 1215 369 2053
3 1836 1248 2092
3 2074 1084 2169
3 623 1985 1588
3 24 326 2177
3 474 1326 1588
3 521 1198 1932
3 1750 923 1343
3 1172 1521 2039
3 1254 1692 2004
3 206 207 2158
3 1690 13 2016
3 1168 1521 993
3 1692 722 2004
3 1127 1106 1985
3 797 1233 1578
3 837 2033 1812
3 1671 22 1716
3 637 1587 1603
3 218 219 1160
3 462 1719 1638
3 1957 602 1466
3 486 1313 1604
3 1499 665 1764
3 465 1267 1315
3 1267 465 2014
3 397 948 1547
3 320 22 2082
3 1941 490 2077
3 1982 976 2081
3 501 1671 1720
3 394 950 2065
3 1105 1355 1471
3 572 1616 787
3 1836 58 1400
3 1521 1168 1258
3 622 1685 846
3 605 1059 1734
3 1441 844 2079
3 780 1708 1246
3 488 1179 1606
3 335 336 1963
3 1718 738 2174
3 1616 833 1945
3 1631 367 2148
3 693 1004 1448
3 871 1314 1608
3 1642 370 1691
3 1004 502 2052
3 482 750 2032
3 1662 682 2045
3 368 912 1989
3 205 603 1290
3 41 42 1448
3 979 775 1961
3 22 319 1716
3 1741 355 2092
3 503 1917 2061
3 1793 656 1241
3 882 786 1545
3 171 5 2047
3 2 105 1504
3 1683 360 1943
3 16 313 1945
3 1424 1108 2022
3 215 216 1266
3 900 1929 1502
3 1929 1085 1502
3 556 953 2124
3 673 1714 2044
3 1314 566 1608
3 1140 439 908
3 1849 813 1217
3 1024 717 2064
3 401 1919 1838
3 1673 1167 1935
3 982 658 1647
3 410 895 1977
3 1610 536 1352
3 1062 1982 2081
3 963 1626 1674
3 982 618 1770
3 1832 339 1434
3 1199 1360 1835
3 859 636 2123
3 53 1264 2108
3 650 1043 1517
3 1642 939 1412
3 1636 723 1139
3 1365 1505 2089
3 1185 677 2028
3 1191 966 648
3 6 188 1253
3 1618 580 1177
3 1623 1113 2145
3 934 391 1983
3 669 1890 1272
3 1344 834 1112
3 1113 1623 2138
3 856 998 2049
3 1440 1056 1761
3 5 172 2047
3 104 2 1504
3 572 1693 1550
3 685 1428 1340
3 1376 256 1364
3 364 982 1770
3 628 1171 1986
3 746 1670 1944
3 623 956 1867
3 1958 478 1535
3 134 135 1201
3 879 1836 2092
3 307 306 1194
3 795 1176 1450
3 88 1 1826
3 1587 469 1603
3 1326 409 1588
3 1248 1836 1400
3 608 814 2074
3 624 1955 1959
3 1288 668 1828
3 1017 1256 1471
3 1014 1258 2121
3 571 1447 1697
3 948 365 1547
3 742 1378 1290
3 1955 1193 1959
3 1791 898 2028
3 484 1107 2131
3 999 1106 1398
3 1804 396 954
3 125 126 2104
3 1144 979 1438
3 950 394 2156
3 1564 1297 1970
3 552 1049 1530
3 69 70 1782
3 785 981 1947
3 1102 628 1940
3 939 1642 1691
3 1223 221 2015
3 1211 1252 1585
3 1447 1293 1697
3 1678 630 2118
3 1265 1260 2006
3 1262 827 1571
3 1883 32 2129
3 1476 1228 2014
3 1173 705 2012
3 142 143 1777
3 522 1850 1674
3 956 425 1867
3 273 885 2029
3 140 141 1999
3 251 252 1035
3 132 133 1490
3 733 1348 1443
3 852 1832 1434
3 649 1590 1869
3 719 1265 2006
3 827 823 1571
3 803 1757 1866
3 27 353 2012
3 942 437 1453
3 964 743 2013
3 1088 1954 1752
3 1583 692 1994
3 1530 911 2170
3 1032 451 683
3 1305 929 1190
3 414 1017 1471
3 137 138 1554
3 401 1838 2128
3 1139 723 960
3 126 1668 2104
3 1925 952 1567
3 840 1925 1567
3 981 559 1947
3 726 1602 1466
3 564 720 1604
3 747 1540 2146
3 1106 999 1766
3 223 224 1258
3 1668 1085 2104
3 1360 550 1835
3 1908 619 1975
3 22 1671 2082
3 187 6 1253
3 958 1583 1994
3 979 1144 1723
3 699 1631 1598
3 968 668 2054
3 624 1052 1955
3 850 1286 1439
3 1 89 1826
3 2080 427 2117
3 961 1958 1535
3 1119 606 1593
3 1107 613 2131
3 1393 253 1594
3 128 129 2020
3 1507 405 1974
3 1954 990 1752
3 1708 24 1885
3 253 254 1594
3 989 994 2116
3 271 1478 2159
3 768 1628 2077
3 941 1376 1364
3 738 781 1229
3 1296 1008 2010
3 378 1765 1600
3 1040 445 2162
3 895 490 1922
3 144 4 1665
3 570 1680 1796
3 1345 34 1577
3 114 1753 2075
3 1646 1811 1527
3 580 1693 1395
3 827 111 1964
3 1281 1223 2015
3 218 1160 2167
3 386 1646 1527
3 1850 963 1674
3 852 1434 926
3 1448 950 2156
3 418 1601 2111
3 661 964 2013
3 385 1431 1891
3 994 19 2116
3 1724 412 1949
3 435 1726 1950
3 572 1931 1395
3 1160 219 2164
3 48 49 2022
3 358 1731 1794
3 1363 1595 1633
3 577 1341 1962
3 225 226 2039
3 495 1451 1871
3 147 148 1165
3 1515 878 1885
3 1509 751 1922
3 493 1369 1968
3 718 1393 1528
3 1988 1131 2157
3 1393 1094 1528
3 484 1296 2010
3 666 1659 1713
3 1745 457 1564
3 1847 528 1830
3 1157 1086 1694
3 1671 501 2082
3 929 1291 1190
3 1173 780 1207
3 587 1288 1828
3 1620 656 1868
3 913 418 2111
3 416 870 1899
3 1645 453 1188
3 1233 797 1917
3 1297 1742 1970
3 39 40 2052
3 1684 879 2136
3 769 1933 1815
3 151 152 1717
3 498 1233 1986
3 644 1847 1830
3 1049 1339 1530
3 1346 409 1865
3 1233 628 1986
3 503 1059 1940
3 822 913 2111
3 1314 592 1725
3 1933 1153 1815
3 919 939 1848
3 345 346 1445
3 563 1778 1278
3 902 1611 2003
3 964 806 2001
3 1128 1745 1564
3 1565 637 1563
3 1985 1106 1766
3 246 247 1461
3 1710 544 1801
3 1119 504 2030
3 60 61 1086
3 1331 206 2158
3 1611 667 2003
3 350 351 1868
3 705 1173 1207
3 1851 1148 2041
3 1485 626 1833
3 1094 1393 1594
3 2091 1121 1701
3 1785 1063 1796
3 690 1286 1474
3 1813 441 2057
3 1714 614 2044
3 928 634 1437
3 1122 1252 1211
3 462 1185 2028
3 259 260 1855
3 113 114 2075
3 804 782 1681
3 1376 941 2007
3 959 773 1987
3 1027 1719 2115
3 1719 816 1638
3 2050 557 2032
3 70 988 1782
3 2103 824 1625
3 535 1476 2014
3 1037 2103 1625
3 1161 2002 2147
3 786 956 2100
3 2002 1158 2147
3 747 1813 2057
3 1451 1051 1871
3 447 1799 1565
3 1483 582 1981
3 752 617 2096
3 741 1417 1352
3 501 1903 561
3 1903 1047 561
3 1664 1035 1938
3 1934 1090 1762
3 1244 1934 1762
3 1279 1690 1715
3 323 1342 1733
3 373 1731 2046
3 471 721 2110
3 750 1409 2032
3 357 1346 1865
3 1233 498 1578
3 800 1757 1694
3 381 2055 2152
3 58 59 1400
3 353 1173 2012
3 1946 832 1676
3 204 205 1290
3 1052 403 1955
3 65 66 2097
3 1552 803 1866
3 18 1026 1426
3 238 239 2088
3 589 1684 2136
3 453 955 1188
3 1801 544 1500
3 1478 843 2159
3 902 2003 2035
3 1680 682 1821
3 950 1413 2065
3 794 1345 1577
3 1202 1885 2177
3 1417 741 2168
3 2016 436 960
3 481 2003 1786
3 1409 1396 2032
3 823 827 1964
3 707 1946 1676
3 723 2016 960
3 332 333 2176
3 1158 1422 2102
3 417 1335 1412
3 1513 431 1896
3 1477 707 1610
3 460 1584 1644
3 2003 481 2035
3 1703 986 2084
3 922 1227 1389
3 410 1977 1701
3 19 310 2116
3 1595 687 1633
3 310 309 2067
3 1286 690 1456
3 1724 459 2036
3 458 1726 2037
3 552 1530 2170
3 798 1017 1600
3 658 1477 1610
3 1369 1097 1968
3 1610 707 1676
3 760 1014 2121
3 432 1552 2095
3 1085 1668 2124
3 1787 641 1103
3 714 698 801
3 1036 673 2044
3 4 1195 1665
3 1721 631 2068
3 536 1610 1676
3 630 1856 2085
3 612 1022 2172
3 1396 2050 2032
3 1928 1609 2112
3 1629 1311 1426
3 651 1678 2118
3 210 211 2163
3 1757 764 1694
3 1348 527 1443
3 322 321 2133
3 521 1787 1103
3 321 320 1705
3 431 1513 2008
3 1829 942 1453
3 87 88 2179
3 1666 762 1786
3 217 218 2167
3 751 895 1922
3 591 1695 1338
3 630 1744 2118
3 1513 610 2008
3 52 53 2108
3 134 1201 1381
3 979 1767 1438
3 219 220 2164
3 631 1721 2113
3 32 33 2129
3 138 1791 1554
3 1878 1067 1006
3 221 222 2015
3 1961 454 1857
3 166 167 2125
3 109 110 1261
3 1074 601 1491
3 856 1968 2095
3 493 1968 2049
3 574 1664 1938
3 721 1459 2110
3 796 1214 1981
3 805 147 1165
3 703 1427 2021
3 389 1573 1569
3 272 273 2029
3 467 1126 1918
3 232 233 1203
3 34 35 1577
3 94 95 1722
3 1419 362 1925
3 920 2080 2117
3 1490 133 1381
3 181 182 2135
3 136 137 2107
3 351 1620 1868
3 133 134 1381
3 137 1554 2107
3 840 1419 1925
3 192 193 2178
3 672 1322 2150
3 939 919 1412
3 80 81 1653
3 98 99 1965
3 177 178 2149
3 417 919 1990
3 140 1999 1884
3 383 1374 1452
3 270 271 2159
3 1853 586 1462
3 665 1499 2091
3 469 1587 2169
3 1249 1853 1462
3 1719 462 2115
3 1279 839 725
3 380 809 791
3 1021 959 1987
3 653 1898 2040
3 1767 579 1438
3 1284 1809 1621
3 1034 1399 2113
3 1630 85 2024
3 331 1104 2078
3 1102 605 1737
3 445 1661 1182
3 191 1308 1196
3 839 708 725
3 1661 393 1182
3 1089 427 2080
3 1423 1293 1581
3 1118 1614 2117
3 139 140 1884
3 1556 477 1584
3 1227 595 1389
3 1968 856 2049
3 135 1861 1201
3 1853 498 1986
3 1158 2102 2147
3 807 1404 1956
3 289 1937 2171
3 1936 296 1942
3 1363 1245 1595
3 551 1423 1581
3 1757 529 1866
3 780 1675 1207
3 1250 796 1981
3 1060 2073 1635
3 846 1084 2070
3 1778 563 1763
3 581 1703 2084
3 1437 634 2161
3 1614 920 2117
3 1573 1099 1569
3 965 1296 1696
3 671 641 2055
3 1383 526 1854
3 1380 94 1722
3 1296 1057 1696
3 1522 546 1129
3 182 1384 2135
3 582 1250 1981
3 645 1776 1732
3 1510 503 2061
3 1298 772 1707
3 1123 1510 2061
3 576 1988 2157
3 2076 932 1763
3 1201 937 1381
3 99 1900 1965
3 1901 177 2149
3 442 1849 1217
3 1166 1074 1491
3 1810 704 2009
3 527 1718 2174
3 1720 1297 1978
3 715 918 1759
3 1059 686 1734
3 477 1556 1222
3 411 964 2001
3 409 1326 1865
3 541 1838 1625
3 988 1123 1782
3 452 805 1165
3 1062 998 1982
3 1505 733 2089
3 1993 410 1701
3 234 1441 2079
3 1523 2076 1763
3 561 320 2082
3 1738 87 2179
3 1795 505 1854
3 2073 510 1635
3 1910 1030 1402
3 1341 577 2165
3 595 1844 1682
3 1286 850 1474
3 1830 1040 2162
3 998 529 1982
3 566 1641 1608
3 990 1790 1473
3 1291 681 1190
3 245 1388 1953
3 1121 1993 1701
3 1721 554 2113
3 439 1140 1596
3 702 2056 2060
3 966 1525 2170
3 508 1291 2119
3 577 1310 2165
3 1842 1167 2101
3 1193 1273 1959
3 629 846 2070
3 1385 733 1443
3 1120 592 640
3 895 751 1977
3 1273 434 1959
3 2063 796 1637
3 1021 1819 1379
3 1328 168 1134
3 108 864 1469
3 1076 1300 1500
3 1879 738 1229
3 1895 506 1043
3 575 1842 2101
3 1859 1392 2023
3 589 1911 1212
3 1742 699 1598
3 907 1202 2177
3 1870 744 2033
3 539 1556 2066
3 724 1742 1598
3 830 1767 1857
3 963 1850 1711
3 918 672 2150
3 1047 691 1973
3 1315 1650 1582
3 1421 1440 1761
3 1195 1053 1665
3 1819 559 1379
3 1548 585 1905
3 692 1583 1756
3 510 1851 2041
3 1291 929 2119
3 1505 77 1132
3 677 1791 2028
3 550 1404 1835
3 1067 1878 1841
3 706 1709 1702
3 1709 627 1702
3 691 570 1973
3 1878 1365 1841
3 1787 521 1398
3 1572 478 1958
3 929 1640 2119
3 838 1211 1585
3 1047 1872 1705
3 1354 704 1213
3 1650 646 1582
3 561 1047 1705
3 627 1429 2068
3 1556 1044 2066
3 1287 1886 2094
3 845 1380 1722
3 199 1750 1343
3 929 1305 1452
3 1890 669 2058
3 1886 651 2094
3 1440 581 1651
3 879 1684 1390
3 1042 1890 2058
3 457 1903 1978
3 1384 811 2135
3 388 1839 2025
3 501 1720 1978
3 822 1548 1905
3 1245 763 1595
3 623 1127 1985
3 1900 680 1965
3 1309 1901 2149
3 1776 624 1732
3 1617 985 2093
3 1832 1680 1821
3 1310 921 2165
3 650 1895 1043
3 772 1793 1241
3 1460 632 1575
3 457 1745 2045
3 1008 1967 1621
3 980 2063 1637
3 1434 1336 926
3 644 1830 2162
3 745 1804 954
3 1885 24 2177
3 1327 1156 2109
3 1106 1787 1398
3 1791 677 1554
3 1071 1440 1651
3 1235 1879 1229
3 1824 389 1820
3 732 725 2069
3 1856 463 2085
3 796 1250 1637
3 1919 602 1571
3 486 1024 2006
3 1689 1226 1681
3 1193 1887 1880
3 1765 798 1600
3 1911 700 1212
3 1657 932 2076
3 610 1186 1783
3 538 1837 2063
3 787 1616 1945
3 1929 125 2104
3 426 1124 1332
3 823 1919 1571
3 1024 719 2006
3 1180 822 1905
3 782 1689 1681
3 1480 966 2170
3 507 1180 1905
3 1266 426 1751
3 301 1406 2166
3 1897 676 1737
3 464 1960 954
3 1124 647 1332
3 465 1315 1582
3 754 1829 1453
3 957 1286 1456
3 702 1289 2056
3 605 1897 1737
3 1827 732 2069
3 654 1221 1869
3 766 2018 1672
3 423 2071 2154
3 1974 761 2141
3 1208 914 1822
3 313 787 1945
3 812 1120 640
3 890 1331 2158
3 1837 796 2063
3 893 1351 2038
3 1179 664 1606
3 744 1870 1991
3 1156 930 2109
3 2056 663 2060
3 1399 631 2113
3 1067 1138 2086
3 1163 591 1338
3 1685 469 2169
3 1250 496 1637
3 919 984 1990
3 1472 284 1877
3 326 907 2177
3 764 1157 1694
3 983 1163 1338
3 365 1912 2155
3 1771 670 1652
3 1887 565 1880
3 362 1910 1402
3 1931 572 787
3 1429 872 2175
3 1912 973 2155
3 1741 764 1468
3 1041 1208 1822
3 380 1810 2009
3 704 1810 1213
3 2071 927 2154
3 1919 823 1838
3 719 1024 2064
3 424 2106 938
3 1193 1955 1887
3 919 417 1412
3 539 1773 1222
3 1773 971 1222
3 1000 1824 1820
3 1686 669 2105
3 806 1972 1732
3 430 1305 1190
3 1498 1974 2141
3 559 1819 2138
3 754 1629 1527
3 834 1344 2132
3 1790 538 1473
3 1289 399 2056
3 211 1303 2163
3 1303 1242 2163
3 57 1836 1390
3 1564 457 1978
3 1556 539 1222
3 1811 754 1527
3 1934 1244 2132
3 1558 1363 1633
3 400 1122 1211
3 1169 1030 1225
3 1413 745 2065
3 1960 745 954
3 409 1346 2100
3 652 1558 1633
3 1690 723 1715
3 1370 881 1474
3 463 1954 2085
3 819 1363 1558
3 730 819 1558
3 1972 645 1732
3 1367 649 2139
3 1629 386 1527
3 840 1567 1644
3 733 1385 2089
3 1800 160 2140
3 1567 460 1644
3 1153 1933 1652
3 1933 769 2087
3 1138 536 2086
3 1186 600 1783
3 711 1618 1177
3 1787 1106 2152
3 1097 1655 2095
3 702 1733 2122
3 1819 1113 2138
3 1346 786 2100
3 536 1138 1352
3 1955 403 1887
3 2062 1113 1755
3 850 1370 1474
3 2008 610 1783
3 1872 1047 1973
3 1168 1907 2121
3 911 1480 2170
3 1655 432 2095
3 1907 760 2121
3 1655 1097 1624
3 1258 1168 2121
3 418 1485 1833
3 427 1711 2117
3 1138 741 1352
3 501 561 2082
3 1158 2002 2090
3 555 759 1397
3 1084 1685 2169
3 474 1985 1766
3 321 1872 2133
3 1809 1008 1621
3 2026 1293 1423
3 961 1535 1802
3 816 1882 1638
3 514 2062 1755
3 1706 92 1080
3 656 1793 1868
3 1838 541 2128
3 1870 530 1991
3 693 1448 2156
3 619 1210 1975
3 496 2026 1423
3 1535 607 1802
3 1836 879 1390
3 184 1881 1544
3 637 1603 1563
3 1872 1205 2133
3 499 1540 2057
3 1963 747 2146
3 2048 465 1582
3 1603 1236 1563
3 531 1928 2112
3 1295 1128 1970
3 215 1266 1751
3 1686 481 1786
3 1069 175 1976
3 101 1888 1475
3 535 2014 2114
3 759 1154 1397
3 1583 958 2176
3 481 1686 2105
3 1872 321 1705
3 1240 1963 2146
3 1691 1268 2173
3 1640 1075 2119
3 1759 918 2150
3 320 561 1705
3 709 1655 1624
3 939 1691 2173
3 1977 665 1701
3 1954 1088 2085
3 762 1686 1786
3 1436 1432 2120
3 1983 391 2099
3 696 1663 1349
3 371 1933 2087
3 2002 9 2090
3 1903 501 1978
3 880 1436 2120
3 1663 967 1349
3 431 1366 1896
3 1162 155 2130
3 88 1826 2179
3 1158 2090 1805
3 739 1876 2151
3 1876 607 2151
3 1540 747 2057
3 971 1773 1651
3 1826 970 2179
3 1127 381 2152
3 1106 1127 2152
3 1549 385 1891
3 333 1583 2176
3 1297 1564 1978
3 1636 404 1715
3 1573 1145 938
3 705 1607 1627
3 1518 401 2128
3 529 998 1866
3 1912 650 1517
3 1378 204 1290
3 25 1832 1821
3 1989 588 2180
3 465 2048 2114
3 1773 1071 1651
3 583 1169 1225
3 1356 1518 2128
3 1904 526 2161
3 451 1472 1877
3 1302 232 1203
3 1085 1929 2104
3 1636 438 1591
3 1459 1568 2110
3 759 443 1337
3 1113 2062 2145
3 723 1636 1715
3 452 1165 1282
3 1525 552 2170
3 1411 560 517
3 1026 1629 1426
3 1406 768 2166
3 1968 1097 2095
3 1086 800 1694
3 888 1350 1491
3 1350 1166 1491
3 2018 450 1672
3 565 1983 2099
3 2090 1394 1805
3 404 1636 1591
3 1593 936 1873
3 1793 350 1868
3 779 2043 1784
3 762 1930 1846
3 1422 1151 2102
3 2043 492 1784
3 2083 985 1951
3 1568 858 2110
3 1422 1158 1805
3 408 1565 1563
3 615 1794 1357
3 1575 689 1580
3 438 1636 1139
3 588 1496 2180
3 1930 748 1846
3 810 2008 1783
3 949 1950 1669
3 1949 946 2142
3 357 1422 1805
3 1151 1998 2102
3 2048 483 2114
3 1035 718 1938
3 394 1769 2156
3 2014 465 2114
3 1752 576 2157
3 1088 1752 2157
3 2094 1220 1449
3 1931 1487 1395
3 1287 2094 1449
3 1754 574 1938
3 720 1936 1942
3 1937 726 2171
3 1998 547 2102
3 410 1993 1187
3 401 1518 2153
3 1997 438 1139
3 1216 1154 1337
3 1496 847 2180
3 1985 474 1588
3 1096 1484 1177
3 1614 1118 2143
3 758 1216 1337
3 1484 711 1177
3 480 1295 1970
3 548 1997 1139
3 2033 524 1812
3 368 1989 2180
3 1769 693 2156
3 1993 12 1187
3 1526 937 1991
3 2075 824 2103
3 10 1614 2143
3 646 2048 1582
3 113 2075 2103
3 2062 356 2145
3 1518 8 2153
3 973 2083 1951
3 548 1139 960
3 1598 1631 2148
3 639 1759 2150
3 718 1754 1938
3 2102 547 2147
3 530 1526 1991
3 1154 759 1337
3 526 1437 2161
3 724 1598 2148
3 1516 361 1814
3 1165 148 1282
3 1585 1252 2067
3 309 1585 2067
3 807 1516 1814
CELL_DATA 4016
SCALARS Von_Mises float 1
LOOKUP_TABLE default
55849260.68238346 15624606.436593363 24916157.442348313 23139831.33823066 58555770.361139655 51198729.5650266 58670294.805509664 38253313.00370894 1130415.5659544098 38080903.24003358 58701079.61389658 36755009.42779323 61434338.58270234 37388370.69056944 36666705.38877981 15627928.089123536 86802047.32486378 16078156.610902328 15610919.03951959 33196608.354280356 57418158.586108856 9040849.893886445 47371559.77507544 105470827.1872079 62598227.322427265 30355369.59907836 23048154.071289077 2335410.748605379 56398686.38137956 85954897.901015 8992698.17823259 62351276.30393315 38138131.8362315 46485004.24129829 24599937.861397862 27402557.405613158 56132010.140354685 68119220.5471463 75998030.24162915 44582730.224767804 55602560.94764395 73738425.80014053 65785049.06167451 43263905.91185748 58422949.69542108 11477831.321350947 1405001.2354475325 1428733.018831268 52480746.093541674 64042363.80221627 37752800.05868962 30564688.856695276 41154604.81799551 60949034.12584387 54931927.52337965 55191477.068726964 15567294.915760137 6422133.452236592 26495532.305534065 60586345.05830419 52017264.80660398 1754523.5460848503 54922715.302350245 55370121.4986948 56957021.43171951 85953596.09867029 65995293.04015798 22739780.641977537 20972063.847736068 55471376.80625083 60745821.49234034 55735121.31464391 57359593.73703677 63382517.661186226 8884893.003593883 26582951.814875074 43802827.557190716 14847592.548832832 14804272.21430158 58028790.53318824 94466873.55842465 42815834.27309563 60274716.82867684 64107366.0025859 32921714.020349745 60061907.00278717 24280455.376632717 159469581.35297468 53045065.347083844 57413687.69953444 35590163.57028789 80522099.41735986 45115777.69448123 55791292.24099725 15281134.749315407 51723723.43798773 58596953.9471186 65773274.581870966 56770409.29341305 44794095.6664711 47746953.76457819 21004673.933525752 14356374.735387258 81913359.62622799 4346962.846810198 57278215.983611874 39514179.421614215 52729107.04378453 13735274.437816761 16330880.842807613 71895629.93030247 40570522.6756259 59354140.70167115 31074716.58979379 3713418.6935555297 3618928.006057862 25487914.479759775 47178828.95834883 53413260.79154979 132571674.25975777 59561706.570322014 24013960.840835948 23795188.00976236 58503043.79765466 78028577.82004006 79698516.63983084 43002326.99137314 25339383.467560697 1974841.3228527035 16775371.532389266 42485810.239266984 58502252.025182724 80733386.51600116 60432552.05867783 56725804.43265904 61353853.335036285 59162955.65594805 28498095.01748727 53397951.56901255 10026323.967211904 12215292.257157126 42076547.99658598 80379271.51258962 60175077.48679292 42848838.64210803 8736851.162207793 8662051.874799117 66343671.17272151 59410053.20691537 63093694.86087189 109832532.93416245 8373132.348215969 21117167.32772178 51313022.89371605 82011180.71953858 9500131.04378899 15534285.290025426 30157240.578416392 11272883.3367367 40629513.25528196 69823594.66670188 117242194.89215781 39885198.73287891 54750376.26659816 140978115.40675628 1252125.5584473722 1243021.9624634031 58039945.72758708 76230373.06818675 65982274.85621763 79824288.0344442 54463686.301785074 25295499.748015784 69433116.97450274 21127837.80388459 56824346.15764572 33785968.50655947 8672282.285644935 30572031.712101642 27882246.298118886 50206181.43153142 56117479.455801174 71812435.12376446 15317081.316262031 15439360.376192216 55435434.300563715 55345091.26259276 46260431.18592768 90742343.92304625 61577535.678089276 22903399.128660597 136131949.20668173 79274865.87950753 6862297.786562525 25493604.50010655 68774747.35376821 67492962.39115053 67140509.85752608 4410519.025726909 73671678.2105806 8424976.554901002 53787938.53406602 54678460.977225795 55948919.950396374 48139753.081974246 34526971.58290487 79445290.98978013 42396116.180673905 104049369.58510572 162133898.9872441 64875281.63631648 53592556.09184648 57067168.33826594 32650674.46726247 89115661.08090533 127411279.62865388 48343077.790084995 68586395.06197181 40585209.46547666 44257074.00055138 36972960.20359887 91680120.88323133 52607213.21242251 35678479.47282405 77851761.14201492 55943966.379049264 44664502.395724006 20734949.53985831 50249838.24722589 54945731.12027421 17939712.981704954 62048901.494035736 3730193.3146584164 30985703.438256197 33595226.97080096 63461919.42923193 23103813.37180237 33399147.43218254 106496743.66258492 235646507.76581237 78748964.35380659 41319812.38719945 69204721.22305116 28199764.568054803 60078421.260362856 22947764.405779634 40258997.49884684 49308973.99413174 40227835.996657744 40381801.11636218 11798569.317516781 62005924.55886808 67418088.18820056 46539664.58441417 25455245.236541394 55886545.27526943 56436649.563621536 54003771.4214265 69133017.07408597 62557096.087646335 56363329.05450306 30357240.646888614 55072963.55826224 64283146.712147504 53518314.16557767 62914001.3348388 36956855.44675594 68469398.65814024 54302255.79293324 2091942.7238786146 59212671.71825748 21193641.33267993 67706875.68722372 25752132.77679345 254928988.05845606 53910990.70483151 17363347.718994513 46600599.25749905 56358139.77396188 66101917.074594736 9102304.402771387 9185128.004151689 66433167.41398947 79499582.76551087 29876864.05901824 1070828.3159671517 50677276.93436202 79068850.39760832 17579549.953388 68407959.4896831 40561601.34493874 106895093.18481277 2257186.7957918765 58804738.384059526 57162140.60852103 37741565.00540942 7800636.895907658 51608296.79132103 27378958.295470297 40825725.83478173 48455440.11962691 60614859.802543946 65545927.625600025 58201108.906809315 55009871.04515868 19687993.592314884 43471973.683672264 57265352.74199882 47906071.66177965 150829677.68238762 17652808.769337445 42657913.63737376 65250396.003554925 52932447.81387717 68108546.3576291 75794402.63648684 32227021.023472518 40735762.107103094 32967867.22450371 51081415.299128786 59327812.4234743 62421306.6911054 59424253.38924091 49943746.6341559 55428402.07789597 3127021.203144524 55163543.86480179 57710473.43865471 56505319.539133675 29534327.921489313 47291641.60510004 62070494.027102314 51741722.00194219 54753974.15210254 42416844.7637883 50586598.62322941 64755589.84341057 20731010.51729533 22651755.131588038 52624925.94310234 42567915.36040374 66467313.23539514 37446379.729024306 55817816.22010429 48300917.26519405 57057775.09986795 78999362.0897223 78646692.4002503 57472779.234132044 17202280.05296732 52893792.25290639 8949186.4350364 45734472.49488674 52186885.57782437 41163974.38566758 56625906.70708038 50507428.81963125 80362229.90701814 41530619.56939857 11587709.801913833 58055375.841161385 41062362.03549102 49840764.930382445 97351794.17959327 56474742.56652556 29376425.63895957 20504884.13413094 48793510.51751704 135793811.96691442 62430135.51716127 43789091.38539831 20927869.132352736 2169213.540049493 2144067.367492323 52522633.76476405 103459090.70367618 39737042.63152036 63283919.542514615 94032575.8606679 64037596.096633516 27990411.789916933 67407078.81570509 16080978.78852538 62528397.28208498 55224115.95582114 59579059.04510081 56222811.476181254 48265319.84846215 70320434.95058572 49398975.86991001 100254143.89780858 54531102.473379776 58977628.81008246 55551213.61153787 178186030.46048245 72161831.4040052 40415692.3852298 77368633.98248719 66267586.549931735 32791841.513663027 58351341.07538157 53337737.09622698 105962144.70068371 40058562.87776497 36772076.448133014 1096504.294387164 52375502.79522515 41817010.27235366 25202971.046721287 56506410.75436027 785381.9768033492 59823065.356190585 56220660.58712931 49633821.45746802 33370211.648674194 31360901.86154561 31112520.80963218 55794410.439842574 39608953.46775527 47317682.210622914 89213615.37703174 59137521.64871429 48234420.7705431 17571093.914553292 17964686.72565097 39548788.36540317 62447492.627409376 47294154.01753312 57930996.21146033 60467951.581686705 56884474.394531816 47505053.99498245 65728477.40450392 55375990.94124127 54235341.76171281 58958096.828745686 53414725.19745819 51833358.072991595 57657254.45487168 41759571.415612094 12620914.068759875 56754101.41799141 28767861.364288174 61400523.374566466 57107002.315043814 46889275.28957043 43329485.03116464 60414070.259946 13703960.805615248 66448757.62298167 56702519.90398929 15605518.349503353 55951063.28119032 33812147.89536183 16695144.339963134 75060556.93490405 58341806.073980674 62105883.676843934 73618056.43053946 54761497.31242062 37508862.71623791 8916907.364690516 40198991.54137027 5672972.1260015005 31842069.887311716 55791191.44611275 55557403.655439265 54658951.23835141 111126486.46174404 38405576.84412488 56989765.888009235 52822426.23637204 163409161.82966188 78762923.22965345 44320196.552515075 54980245.99006331 27629851.949416343 28088354.24330336 27499049.0047255 50157504.43931016 30246041.682506416 45325891.703005075 42195049.93524937 54894464.22382607 49699871.18819632 56855065.72234951 18343102.39343307 22081055.221846025 18868884.050531797 55544276.27746091 108722531.72573183 50670261.564155534 64704259.40700131 60568331.2034247 73257632.96641219 7128880.165832608 54877628.688659765 37323947.30017434 63376466.033159815 10494447.921760477 57779652.02021462 55370715.83656212 38127849.16977794 23224166.902731344 23224166.902731344 55169173.1782165 65347676.530341044 20341596.71097526 58197891.08615312 47741208.201515615 55324786.41526315 49729766.26775294 48050838.6552874 82113164.42958991 13518764.409065908 13471817.694526082 40765718.838123605 36567361.3147704 59569114.13976844 39113859.06524023 61403840.73932514 126594898.55175097 54828937.80135621 67452103.22613366 57617631.33945695 57488597.939440005 63194924.36963552 65367296.45904452 78996663.04377875 58407388.917496845 64407720.962379485 48383984.335388474 55571147.3622063 49570879.029357545 44037176.68187827 34647765.9590886 54025515.47787191 28534233.17100508 35324071.879114546 64866118.560933776 63587591.979397535 3451414.7514132573 45910559.121687144 54926844.21027531 55832055.31558095 51727075.66941106 71983628.95076665 106871320.01107249 55165074.0014453 56587922.400599346 53181169.882622086 56205159.6279021 17808818.934902314 50571969.16840995 49233469.80648907 46246629.218975104 57574920.9678335 6614194.957686098 42799440.38212071 85162663.32112312 55613686.79817525 63633022.33730139 114465684.20779659 60271969.05050047 58437893.68875613 67419851.88662915 28763042.799511813 64812234.324138395 55056775.41383852 48791858.3562769 50384827.81099784 77242350.27795799 53500382.503833555 66010391.322268 36692101.175011426 17812657.11372894 33125822.142268643 21928301.19875166 53755574.05060727 4846362.13179821 18341985.680613086 90560316.670386 50183610.66494206 65751572.94847378 61036021.99134186 55461523.856707335 52922814.76819308 24119668.318130746 12346485.738622025 79352530.54428086 62949382.92500916 18030833.45599284 8500761.89901655 11102147.767335793 48697121.91569972 97982247.8523358 52646413.7364085 57057672.01686619 69324831.02923441 81799357.12335517 6280220.4137937715 32404523.732694004 45716093.41512617 53569662.626312934 24769907.453687653 38501291.718149506 53682070.24185239 55637090.64547337 3324006.3732573437 70949270.93806754 60819924.02921145 65418923.023950785 118294322.89154443 20573308.124570306 17004610.6894082 10550847.12336021 24546512.034285333 58701936.115713656 109040468.18161933 28941280.265752602 53457972.993359394 23392091.954607267 36937894.119162016 64699503.07021824 18900901.93814119 57667566.502209425 21589314.52184572 74834312.41476063 64829079.37296079 45172183.41085845 57410310.95642144 69332179.71032445 57285493.050836675 50779982.01090386 35486345.52015445 54625736.83603871 57094658.22662859 57902132.3541475 46071240.02208881 55231990.50893446 88805457.93854383 34135025.977810755 60446328.13508307 52890901.58461307 54089467.09505059 25439584.783590753 39479420.297833115 15892414.357378881 72612045.81822044 84768800.33527729 56660559.160189696 55911289.135989144 58287862.850037575 53107707.39061151 109212531.98917277 70592136.90403481 60639711.966714494 45919576.20876194 32056724.36729779 65871528.40693534 64828510.70856159 30960383.243957452 67003354.51038371 140123300.5692881 59607589.26746499 57506628.22705873 48368477.40812537 53419073.12677699 56486032.59839551 36030628.558862366 35399102.35939043 59966638.91132194 55000232.08090044 61618996.60297996 61509700.05208792 54994605.65841312 79428565.84463562 51810025.83219049 75311043.33511472 5941686.42421925 59267728.97346111 56963062.89284356 58551427.786985725 71981287.9569853 30005104.52604205 61530171.57616732 63295681.04445098 57274819.11124411 56088659.10270559 40387347.32014384 41856170.28861354 57131892.17624225 60030135.63438038 22703090.46440729 62873981.34845284 59367924.16454937 37565032.15402447 55107194.587476 59713532.81287032 52152834.921820864 67486751.71343562 13299642.670204416 60232604.572034284 54803493.65725503 64523163.302843064 36185957.78969293 5567435.020748122 74513873.16191044 97314976.11147673 56643530.653794065 34923856.67242947 69464626.14368805 72044179.39841253 33990739.16320665 54192248.388630986 33739779.799153425 64826101.368678585 5715781.941128567 60185440.18524703 59926595.03619124 82117491.37219043 28391919.499071863 48278752.77635553 41432511.078994825 51872641.19043999 60075977.49744469 61802499.99427938 33953835.748584054 47105230.5419069 11853857.688136376 59525204.44534981 11249783.037683254 60570567.05161308 60947333.25241016 74428708.80047481 49571994.009301126 104180847.35576725 53259676.77549829 51850757.112939954 59075770.38482888 42545516.82564179 67391290.25120747 62847236.96085128 55233400.05066385 55514195.12961688 59783354.38462484 64606707.10154535 104380113.49807303 54062354.3692774 4989258.661554205 56509684.712929204 54053622.92441891 47912379.22631501 68160125.31380886 93142035.04025692 79842772.11505362 75241173.48270352 68558491.80305658 59469866.33833631 62895262.77767983 40042899.2478347 61004329.218089335 78729591.23828728 48398165.01859911 17532642.60645013 20322640.99510544 57325359.98108859 74436992.11649968 35783324.121798076 46088756.29217591 70030817.33047405 44507048.36052015 54891915.68016355 11903364.293047113 11770850.210951226 64537135.81829675 46927022.10636259 68574607.05724987 43826237.619626135 47150489.73832146 10390888.82583517 85524645.4477226 55576021.911655076 69990330.86550437 56279443.008043386 50099280.54769672 58151600.234756336 53695297.40001897 63280523.909269705 56495262.02703181 60180941.395557076 55713567.36176673 47689345.09212963 76115553.04614972 56102678.77411511 57829897.25398212 14440798.5300382 67113797.83206505 58485407.75955242 72106720.13809618 92870882.4824925 56491493.8937612 75181267.59053531 48854183.760132805 102152501.90571761 65696004.102839656 59831460.85297012 49798411.065913364 6086588.986794713 6121777.102076772 29222889.87557607 66057350.45001285 12542554.286615213 152638466.27022463 32580038.134495515 62973212.01848527 37071911.50271304 96470319.62732317 60051807.79511882 62675777.91459712 36424729.955861524 63751382.870345496 56523866.00575141 54800859.236544475 60658631.18852642 45797380.07439561 65509640.749988995 57027102.43243196 3797063.8759129634 112763012.87356013 54138339.8187992 68751511.18460146 57948060.64329683 14215496.381191265 58021384.60958008 51209655.950268105 62751629.38230337 28980841.231633373 11414040.961928707 66131269.42663081 40862036.97736178 99785929.64018035 46244942.1197993 79290919.36536564 28221463.51309871 50217868.85655173 33715889.755182505 59562267.74495649 9446172.219843136 55100262.70011478 61888689.95127958 12928175.915923018 33412017.783980154 29319164.02778515 82514819.63877214 41874812.38310366 59288590.77413849 6287647.049238497 55744532.89052845 50839396.939489365 42887811.43866424 64662767.03419606 13354891.247973269 67271632.16011871 66240514.96632279 54659322.70029202 78053117.48001972 61866163.17459206 54582908.25210596 46062216.58995168 11807242.710067991 12656921.445011467 12704611.413613625 60253822.052775614 55956388.980005965 53610244.89921135 56792723.22188083 60646064.86923898 5781915.007768237 55595463.15925604 10112631.953191927 61774224.73439869 3747324.1156909764 3719381.5171579053 62841468.44022839 51385622.56023407 43324675.52525493 1399582.1117259874 24726664.04432088 12449462.289835036 49362419.848236494 58480933.34668146 63459038.577734396 17833383.133761905 1425683.314461428 62347604.2557465 33119856.146676846 58480131.093438014 57723647.927253015 23421811.72827365 58633800.88505756 54770096.08628824 56347656.62338002 3704022.865158803 52063283.16489886 88719403.31416237 5165929.767027825 71916305.06721655 55700380.63970175 9436540.812937222 9373476.89553852 48150985.55115608 10250987.910444215 82429822.60126892 75190070.57583576 56408133.909152165 57902637.44875943 66717940.48703846 20404871.13686996 63213767.27278273 65946513.06326998 66476303.654183455 55885721.27290171 21927722.27670635 71225828.59714788 64280678.036826774 96953555.08417144 49274643.11828224 14622931.716879865 63831460.91639096 58212416.63618199 37715537.46237722 5957452.0256908545 120520975.75398186 6199365.055708707 6227995.377156902 57621329.77209092 3342806.3727310775 3347868.7006629016 6517439.577946604 6520201.60022684 56444654.31461359 57366830.99156739 55153263.29898525 46116628.99342278 8752057.787313465 57780922.4832259 57580947.97610667 73209343.21266702 53546971.98981412 5593031.527362429 68429963.06104444 62852287.410679445 48378133.37742868 58334179.80190126 58467810.141399786 49368027.97544594 73275369.21900807 68969282.85885897 33791544.377305396 59339243.301118106 53643701.43803361 47844233.15692928 47575270.85830382 33164387.163323488 63773389.62619754 5846097.379813476 5862746.366100165 148685270.52067563 57482794.61542059 88167225.65474248 53453573.197776034 101235467.83218305 62923845.903823026 19615309.75156015 46507953.55013217 46329262.92270165 49073945.85274733 53894379.181376584 124290149.94492264 55373273.65723018 58313480.29131549 95290638.62197524 56881234.43412198 47156866.89865372 54801172.31081006 67823609.0822676 55420675.82376617 38231363.40769148 69792406.25366814 56388098.70766939 57426134.90673529 72548376.66219182 62869991.825833574 55505171.173150346 47223265.452962235 57025679.236504726 51248797.71871304 30275852.564729564 57755434.86558659 34941100.9881769 56809045.58908555 54577258.35086625 55606117.93549215 59894803.339888 45495439.62359515 11995111.17770731 38092457.10400515 61300502.01848662 17268417.215244327 54346346.34495896 65726162.580990925 61945515.24688897 35654114.56637451 15658848.548266038 62989613.14606147 57504354.02234257 59710470.105604574 59235771.639997825 65387646.624515675 58667401.21420085 42182273.97386628 1775419.3155854507 1820334.4513788663 81560212.87502259 61995213.8406781 68932435.4881609 51121203.88846934 62327046.34581155 55046668.73004273 59099621.86553658 60189533.693703406 67903888.04438147 45755434.26623837 41366959.03894159 37385325.14286407 4094150.9536683997 55492550.87196965 60821980.36643661 51925320.569484636 63277836.073787265 12135264.114536779 32321281.551556945 49819292.64671623 48874069.49478721 57655532.27506197 16909563.586109534 12444255.773142518 85489453.59312679 3749811.2096732883 7127826.468853887 3459091.279011457 71192009.69582836 179951628.39735913 61512761.26908277 55076997.582478225 3503138.594381447 44901684.1192072 57086604.25154344 72576416.11375344 43740371.34220984 319.08337238864186 26496200.244893175 62766133.80244822 54803134.053109065 61201246.34750776 45864667.16037835 90088094.31129126 57244994.97306949 46930499.755025394 56749120.61097318 64635170.51662725 49900465.66909904 13432962.997297537 58957074.51128271 54598695.25554892 33307468.506920375 35868555.605237246 51914788.73044846 19063618.166767534 49501130.706210464 66759005.420211546 58588314.59748547 46853661.5114848 33085977.863350976 63977579.676194645 50789172.66478264 56398673.68129435 58750866.46743677 24870399.629691258 54082297.922759496 67361199.55636306 62743841.68918865 18335775.868278597 51885118.056932285 57812484.60013731 38555666.32025268 66045129.0215615 67443934.71625656 47597231.47278383 73318006.83399725 34030102.09992524 29324245.51475366 55241667.48387395 63902602.800303794 57379759.933471665 30819533.34729304 92307988.01238771 24308514.158995416 63029309.92675087 47150474.60874105 57293448.6854305 26807630.921661533 37488894.21659553 56181165.40350092 52548443.56695504 24833399.154985707 22814436.490417074 2389945.353287918 56710317.60260859 54350312.826294996 80061381.18076561 67943029.58591437 55283777.37605942 67016725.10610727 47392086.18750007 57493080.08079111 73035414.99330384 63912124.23171084 55537484.366549075 59155071.9137995 67145845.9482149 54142725.034776814 74782846.3190041 54110617.36793741 50122636.91097154 58689927.588891216 55041227.96857623 54268151.77457515 66245516.693331465 68953102.241261 72947820.1318969 59976571.61762854 86475537.26247695 92372669.16622747 54866956.07838826 64741533.256938174 34372508.024774946 14554483.616824616 58228880.64464025 60054919.00539803 63272308.82452839 32737027.432154812 54544751.08794804 52636342.055914246 59313387.33366341 10058659.214011222 54193009.06257339 29245595.412961364 53920728.99881305 69864870.08247545 55305084.01428844 26703648.674773663 54392793.29438381 19016838.634958174 55287001.312685825 7521767.14409473 62239502.119903274 74792420.66789912 59988574.072139844 54879050.57584595 47696815.788837545 67509608.34622398 103157792.80431142 75029088.71685751 64454046.73808832 60512929.88396498 64814609.33144086 61129531.07936781 14444366.784463076 62830291.282384805 41160425.03932294 47496566.50315061 55494409.91955985 63869971.57535869 73020255.3272794 41154750.54509311 21192898.59069356 20998304.22496465 76829096.85817991 52226187.9125137 58608556.73505875 65908405.267845824 26540264.306562085 65196631.624455094 54865589.53712055 37946175.43944019 163402585.40547925 75272383.99132468 18616095.818519037 44476813.97317436 48496027.19894756 60712734.401838645 91923251.06566328 67571285.96758966 59363335.79161941 59982047.24601813 13567029.938232377 14428307.085190339 37810973.79241064 53108273.92573872 55714812.66262719 56810622.64582541 55624004.59318175 73157046.96702933 93438491.25587891 69055117.49267752 58379533.039952055 55110030.63094589 48646938.79430632 34062647.86463773 58071398.20982505 135563585.02284682 23769301.469733533 18455591.770416852 55094369.118376985 65782811.7565981 25927887.062613737 29549718.008984268 40708900.769623816 12312970.20400653 40546267.743276976 53710646.19316666 542135.6665228171 14009586.453309469 13796330.014699468 25014843.283260055 270293016.56934154 41495482.038705915 24488169.99528965 58123329.03590188 68315056.20096797 67312392.45148957 58790090.982320815 33619265.883546695 61760702.86106563 58452606.72080408 146055615.4212373 180299976.1442702 58824622.54232396 44170175.05450848 20795761.278550476 21125052.91849705 20519124.77260488 13500323.937815761 66242925.207845196 62445341.54306161 83127439.70449646 41088566.90116957 58235150.95092038 55580192.569587514 52510174.37745744 47072966.723040044 25389507.55200089 54270718.92237213 57754188.096684195 55860093.026211314 96148145.26632226 68591593.28901593 50026454.97757844 49757650.02481032 29385038.785898615 52622607.1108767 30764963.247419152 22654231.336712483 47971213.56430272 22375829.464127827 60903690.86787865 8343949.914438823 26364802.282614123 26180087.53934633 95921091.41666085 50654038.42405095 56109568.873183616 61452076.02833002 1451038.8060989685 60362097.43416441 47626611.43761801 74557781.61812991 56983752.97167928 31904623.381340373 1001569.0914712904 51949353.23486624 57907841.94976464 60337275.37668312 58584538.53367587 77061390.96985023 52171916.08021294 38435995.7285769 69390438.04839139 13739309.383706309 34592074.01637766 55495747.70180534 72057937.58221333 60532962.01038871 58403152.35923568 10731938.253035974 56927980.44849725 63362956.7151342 62660223.855898514 56652223.73561009 32644545.782879036 74277396.31174241 1413325.5469669832 60698384.475810334 56584909.215275735 53122316.01669401 161482739.26710686 61075193.74795682 1166681.0433413999 1173593.0687532872 56245860.63724327 62799106.69607122 55800771.818448715 54431273.3539463 46569812.876860976 44719099.77316838 42485149.62240622 53260146.606220976 47720889.68433135 55799514.72191365 54293120.87662585 126630046.03552182 157610093.86547026 72882583.28059912 61470281.911681995 53693791.320102215 67686589.31073321 62203062.05263731 37612522.254358284 55469586.95031681 41071517.29787733 71527803.59582275 25440080.419796262 25062293.6591127 12761839.56533481 108638270.09020147 53667242.01557635 7829945.464068385 55729308.89650763 12675474.552357009 77303028.1919744 96802778.40334943 19135551.902715165 55632342.129297264 57277258.26911615 55403316.720923714 67956307.3340214 48929385.9193369 56448150.52934401 56262258.1661697 10720489.042720176 56793277.31329662 35125407.56381693 133760128.17578332 17783067.069879167 23284981.338711444 42920645.93777762 34121091.05446353 36802462.17668126 13148735.458692752 13089211.16926034 54876482.7205635 58625561.23057417 83291100.95144644 19001573.069076348 20660193.688831545 41860024.184802584 43024449.536874 13875928.768765138 36542544.58564666 39476102.14378201 93426453.06050687 37297621.7143778 45221949.85575955 95341804.3734975 41383079.022959284 75112562.0221616 9106112.645897254 54992938.18288032 37617994.24246086 60266602.25990701 39758284.130585 60679310.80680602 4223718.939687122 75835993.66674061 45158087.55097045 15327715.284751596 64408569.31982054 27539860.126700174 59847631.82400764 64523690.2620495 43587200.09380296 63891662.05371463 59482245.58205816 1563645.08264462 1585493.5077456401 73831063.49158843 24805860.76860598 55040610.403844185 48940258.350740775 61675906.758324966 64960639.69137216 51822006.26819327 19784918.92577502 30497134.132169764 42613281.281683154 21663562.64803541 60173672.921722345 2155554.0916752373 54960369.34271571 54867526.88221132 58250024.32164627 50433187.50379455 56100786.3217504 57566607.52706304 42821985.20804717 48643366.26936049 55674825.741069525 57376058.798319906 14104116.052453114 49399319.606169954 1959430.8727083667 43814067.92703517 400376735.33870643 60534886.566793665 50572993.98271918 78637946.17679994 64665641.09241785 56393288.55481988 53670710.233143896 47105084.498349 25325420.377798565 101553765.71326193 13429208.894555923 13510425.135101974 28708682.097818162 27396172.698847808 60523792.56170305 59292417.70290101 74850422.39334427 99709248.82011612 52783488.64800963 53943525.95843708 20665664.407203738 67035877.119650446 55176470.27412308 36083730.651008405 20715392.320443697 67673643.26610473 55290940.09896845 60081391.40153698 63486792.63928968 55505069.963544995 53431176.962584235 56146217.92367836 56221086.91038541 62921648.30758596 55869528.73784285 45323290.59523404 56611584.22691248 57287371.259655975 21704722.591396738 10915642.142063744 10880646.859837424 21621355.72757647 45122831.141401656 63151053.92143536 71260673.12716582 3203090.312484369 3219788.5030253353 1249063.8827494134 1243703.8981304246 54944977.756692 22587982.539635126 63530742.80087199 1355151.9833655348 66095941.47896063 48494044.53297997 63739507.584292635 169225061.81043008 28552310.960835446 31256873.86403901 63554009.3549269 49530947.23123594 65657086.04351327 54525025.91607248 6352128.557717328 53174051.01968199 60173579.782274805 30585267.397808038 67521445.42955096 46519786.81339992 62168453.20126951 74712498.78272069 39513471.84244081 40378245.80094508 3349279.482884294 25360926.58569255 21180526.33647328 3111764.901971728 54949074.38902618 58877629.9363041 152652421.84613138 65959680.70010765 56877313.639543414 72311995.80632427 29921550.28084585 56964335.1039769 64480400.99521994 53261466.43822074 38135811.26714494 72936487.08431439 37121275.44775343 60339236.3587068 2991390.9849649095 62086760.43573245 59599880.08002688 1381987.2269942246 62953403.67310789 80004566.64810105 48336942.291865416 4267433.357204157 21231934.81249248 59485186.00517257 102698648.55981928 60837621.59589765 57613410.052502796 56126380.897536285 48195844.04702324 24073874.29263095 45473190.423536055 69503700.2939856 57859879.21702766 39357229.69794007 213789.20660443933 57324560.91944266 66721456.58555084 70300360.8408483 37572034.13177349 205313401.7107946 55066122.06033643 15794595.265292276 24374974.928738926 54011089.09206549 21323730.07230856 60363586.2362283 52060445.065182574 42976505.900293626 54947595.534021825 66537987.482687965 75713575.36343758 66986151.487780154 54549150.66592086 64311817.84344163 59858764.42989385 64212220.74893734 25155188.208453037 58491642.1451363 65002355.216774754 62806270.84224787 73103869.1248458 6811476.073675213 43618760.127547115 63963920.52474062 62456981.52620602 73092904.644572 55293474.52474629 53296673.40253125 63898977.94828209 6789960.685254172 73394072.2786576 33555404.79097298 82964145.34357814 33776882.75382319 59351711.74390437 46541401.37841422 146739264.19006133 74027278.7036645 64429556.5434403 27023849.44928635 16763993.23127974 63771189.05614865 49345215.806113124 87904209.33885668 69987421.5273257 60197313.3642256 53862275.90588712 54178872.70374484 51291249.37109343 21204968.714386955 6493977.699030946 72346282.86459297 68123333.62378311 40192919.58696702 53006969.19823115 39283461.33992987 7931291.308919578 45408846.11472376 8555373.99627885 59049950.72929061 12181713.626007456 74117550.13644305 48330695.43714157 28208419.280705556 77278812.54808845 21113627.046223372 80439290.14143394 49563336.64501122 147255812.35153565 54677772.262340784 54874837.2210896 55975820.069879666 97392930.50023496 37403632.876280144 28192866.474094387 52242352.65464959 58087758.957507595 68857766.5794911 53599366.51531192 55071268.048321426 2522092.8197375797 2556359.73137276 21728300.677911486 21750229.145726617 54765344.54882402 65395636.80863678 50432484.8911056 38593905.42629282 62945433.15000605 30211202.777417164 58677107.897940926 56354383.07780817 49305916.576541714 122177970.71604635 67858675.02576643 208890475.29064983 77928809.59109074 58101190.09998346 39961943.13773814 47210239.213527404 30931120.16323777 35587375.391352996 66379715.23855199 70187963.71947798 94590303.6354864 56122821.268093795 28508924.772693396 54887978.5247781 55925828.254170544 76678560.85510886 89964751.56993072 77013684.26118363 40755263.6771669 54837017.69415351 2800500.3174992427 48663801.91553671 58083088.64428074 26416352.732838433 24870222.51330289 19204314.34838069 83293702.27683891 76643145.81152442 50882328.53139397 58537033.40415294 13248346.080673078 108863380.53823769 34548905.82580161 38174056.10709378 58512140.9867028 77085303.78921564 57366626.87150586 64157546.22941271 16149308.450618539 57389175.85797206 63703543.956190206 7062708.532322059 88807264.2816084 49114216.251644574 46164374.54054918 71519847.64462323 68709392.50417325 73245049.44672802 34751108.04237473 69625324.51980706 49462030.03933826 51741590.41393282 61654923.869205296 2735667.894861128 13427458.496613933 54720001.83351449 66498080.58624415 98634088.78412423 29283804.017541543 63520835.20439639 34486769.16502872 53647914.03532631 69718485.18255393 19008668.10244273 95736861.66125618 53767025.04899555 13633729.761477025 170272983.00455707 54364283.9783696 77818965.4331465 53418982.36270845 64389953.74357093 83411630.42886922 93129664.33605018 43208684.18743337 61678283.4594168 55087171.73139433 61760813.99163585 171185537.45560133 36284282.45350382 55659456.26163322 5300429.760400866 5351618.34974587 65721210.06790301 64725481.858597726 15693395.234214963 21359038.60693633 37454344.881936975 22771428.57199987 37538417.67650981 46223664.95159819 13746724.568564303 25340254.32339831 35621366.32774205 70212604.99785744 66690472.50028524 8612601.80613487 35043265.60717746 36971335.35018263 53696859.766317874 21149147.369796813 20549936.813156325 56841656.44597673 62855655.15524004 47219609.51121324 46777622.13940318 56465231.11645196 54965762.07253362 54097594.49439644 51788289.510600746 48565257.67520476 74484110.50759457 56673643.03147864 62142551.02556252 55131732.0640794 64029871.81756407 5612175.472135537 50723260.23128753 55689815.5383272 88585011.99305177 75776974.97975431 48153038.78704434 90401915.05126849 5441567.904550347 68966732.81365421 8823531.40369929 56157402.50782056 57144608.73817651 57455379.6992913 67884293.33734758 73942982.2456848 57166041.29013795 12959527.399336087 14431756.802701076 62672027.01750725 54908282.393647276 57142104.7540432 60478812.456014626 65609308.014174394 52556444.429109916 56935256.23620952 58636786.350812 60609767.29429277 54345037.775717884 9743577.3822154 55739523.29223424 64783139.07595173 56201236.17099805 60740419.074118815 56438214.94992747 53684447.618925236 45790989.62904135 52983691.68472162 6562.745246862212 8214.82558424776 62764842.37626737 58583496.58348139 53043506.41186858 66310432.59623829 38518507.05698859 82101485.38738026 17860973.048098963 54360701.928032264 57659786.62672859 93151449.07751259 48491638.90855272 55337501.06005902 4863014.091371934 13802335.224898398 37214372.81426741 50808951.90865933 63762732.653820165 59617512.24929806 56263378.720583566 37072355.7774974 13884616.763003342 125008421.99367103 64246004.242945366 65820986.683070965 39916913.08138283 226221.9063681163 222970.7790627293 9147668.502016425 56318510.59708233 8623158.349053724 61522841.0773714 9467904.621247549 75152823.71513541 20639950.690175164 50817648.52886032 65752041.41128341 76634977.61801013 76221184.9609144 71384592.58933674 56681439.45116711 53053121.33552336 56273743.20457211 57422629.20268006 50158474.57599001 101529347.38990806 63710459.04185464 29410676.317076102 75642678.81765565 38415006.74608606 75359198.31484331 58842378.67220211 90750049.98709588 56757456.02669897 69157693.75856608 67881927.52690007 53638935.619893 56577775.37904795 42397138.10028419 45141723.8230926 71385897.59407999 26491640.171416573 55290901.98162324 53771313.85134769 51818326.16310169 69010467.0204019 55437861.24298243 21729394.326893587 37318623.85207509 45680234.11406533 68252861.48914996 58367527.04386161 14769201.52651115 52923087.95647008 64732953.05456173 15318858.665054372 164537287.44384095 57335237.16303314 60112875.33172107 54561305.556608416 84356866.41332062 130116295.28631727 52502708.71193382 60330052.1583046 49267770.35299722 52156998.31981374 710911.3827160159 27166465.875616644 67222186.90935117 61059021.175524965 52408221.36731378 69622900.42176086 15543591.442635244 49348550.984630235 62974182.885808125 58840813.499763794 56145257.12638373 52789733.00991424 66303894.85350113 74396298.43102077 78843113.94907755 66782772.40611991 64796462.61507131 42419984.60654074 58059082.05430215 764438.6640497905 38086878.36565028 33724944.696178235 90242244.13183472 11870776.24441745 11669825.955471605 51537162.54679551 11537335.541170763 52686268.44178518 54499606.219579235 59467790.93246075 53961777.76843028 29292017.86105448 74058309.37175389 22202228.222324766 45005702.9015778 30325752.02030548 21590971.335798606 50387704.20837501 36115779.190472625 51417225.86064902 64312001.270676374 68915296.0487798 65397397.51791606 53103190.35618635 59820660.576101534 81531288.29686369 67462439.50488971 81973668.06598584 8403870.781643538 8516291.646170182 49347001.78898163 69923650.78050104 72213295.49349298 54865337.81369542 56039601.156292446 65651514.23243257 45278455.33737705 53726955.98717206 14689539.232734818 2817157.422885178 149696959.75906247 93109006.80010341 62893406.719548285 51189205.73910133 46567927.61350603 65903686.175802775 54416622.100229695 44938888.19710346 44652907.13042033 25359519.49666794 24803106.216218904 36748004.87072992 23157241.99543586 82116310.11716463 112551682.59385957 36740011.138451666 82432123.43443418 15139970.345583903 21685156.679969165 86290343.04358049 162487303.26711693 66590845.3173815 54288439.873061016 35350761.263015814 133164907.9009074 29522055.236515068 57311052.286715426 73979735.41945755 59383132.54133613 66988033.90849944 59175908.75301751 70200539.48708364 69679716.23578306 219507226.13791728 67050558.01565148 64319433.621575 50877671.15838309 41263796.67048577 8703147.104480896 66200352.24759536 63111150.373103864 55885117.23104834 67005013.86454304 61352063.16490327 62820529.72851668 104107210.2819576 217491.80690574873 44632418.55968158 6352937.378975704 25962816.953662567 40892169.27869861 205834.73232357053 51516742.20280229 70095961.6901903 696465.1918834407 702594.2378486572 63129155.13994266 36349382.4528057 64270339.2187249 62312181.6202745 58843786.924814194 164841246.00319597 14418769.976983937 54346131.7140284 46775669.7625915 50406402.120002866 56613974.26321066 2621172.0707233865 37698636.28151063 21637381.34880858 38623497.87196553 67812425.85011978 62356351.65148307 58710994.100104146 92730527.8735147 59543316.59012088 35236078.667540826 56405046.22679646 55726571.33256128 51020385.19969835 14831656.169218263 15039801.265541224 53500848.19903735 65910560.59418774 56637222.93594998 48417123.91316178 6303252.663012192 53097728.79713306 63238511.00686732 43348244.20799606 52108043.937195994 40319689.76291116 53277618.92199237 70574330.4523947 30168410.145715162 28973656.177869007 53063411.47667304 38131424.46981349 53651925.184765294 57623935.036618106 83163148.30508985 47013454.407266535 85314104.05201831 63365650.59780231 62740361.655791685 27878926.708413195 114807488.53348371 69622813.32799214 63786248.11753626 50365124.84903021 139824485.9518104 42996540.2255104 66493921.11919935 93177024.31288198 21366935.57753093 57642793.856688105 52790710.29303611 56248950.80516007 46628502.03487605 32794735.37402953 59358334.960653126 53122448.68094012 27035713.102340665 47630763.99519541 67800221.44037956 80240006.40428941 57037034.61899221 2808268.588913899 63009164.409777015 68550907.38652089 68715606.26812565 50305471.70089757 51893302.81237973 58705465.555446096 55136157.85774462 422115.2918714257 82657328.68126197 60328857.62044834 108741788.09617104 6075568.1618497325 6083136.438843674 59175066.19808625 54146727.59710973 47001072.755768225 59324096.157864444 54586234.61160162 73913033.09214146 4686852.770590906 4669735.167857823 55943550.30834862 54788042.805258915 75789831.28743842 53088693.84798072 57509406.88488173 68484466.93941 4879064.177598883 61441374.622866 64741886.71517851 51141412.28993279 37355906.09078915 55818747.92800454 67449176.4129842 41387005.67127496 58427745.80417013 55036570.4127966 56019852.015738264 29626756.48090062 50304062.582463935 18374867.93376593 35193170.51237051 47794963.45368366 61622391.642650165 41826886.12674589 76557373.4306612 44091170.1116743 90478228.77504337 69939414.6869935 64293485.05774088 8415453.795077678 43165335.362298906 67999172.53367451 56109484.74655566 55706767.16020936 4687653.9096377855 40934341.660509676 55429269.40190056 61631843.61834595 53069748.80937169 60856586.09923776 588175.454645627 57368386.65583204 55818874.11028748 53934362.285778314 4201044.706598574 53893697.737888135 82222146.5322779 67750527.57005212 15028183.122932335 46084810.115947805 38850899.96934254 57181469.352697425 62763342.635002084 118273200.68455435 159875808.42275095 50769348.0664108 34705723.93069417 75898763.15910305 2284960.0510062114 2582072.632093204 77385480.67625678 61803306.27751083 59268609.89032123 56414032.77157993 55282572.145561635 44530895.87168213 84433835.32631564 61888077.09218983 60448111.40560599 75116418.2780091 66125331.791142076 65520147.07406668 99409379.4993921 50907130.24526543 84980314.71829183 96292958.90654777 80681830.82433109 35443455.62548454 71470631.11682662 29431695.949850716 67720588.40190296 110465483.73519833 54681675.92074929 33974902.647672676 59811506.6015173 49667328.29968321 64038524.877503626 65385625.827662475 156960007.2445779 64034504.17155456 49718862.13418694 44959443.57342424 15815509.741286656 128565439.0243948 45907825.68670451 61638678.73113088 54349236.86419832 26330515.104337927 46766545.23079065 39466784.38781833 62385300.29849642 54686177.68712479 50057204.66614176 65004923.56429692 16209417.957537241 62973040.06127497 44656589.977426834 40144684.36089047 55114058.361876264 55702657.552004226 85256536.22361052 61580909.78282237 55720837.52933164 86834916.01558575 75741373.0828803 78956575.08064702 60345767.560416184 48380226.1467231 37910563.16565121 38224392.48917542 19336483.36015737 58331332.832601964 21501167.168834247 21892780.35774107 85109465.00249438 21400567.58565127 55813488.51165388 40475464.53437573 34596569.315893635 41856770.023965895 48012961.400716215 15751861.408318898 79156232.07482778 86996311.9972263 55689457.77527889 104103120.23081006 16668214.966937779 184624926.2232791 43364334.24025785 85953386.00225224 56542255.35273887 59312098.32016581 53524561.41218633 47487787.0967437 24836548.895351935 63362511.83064515 34348203.433471605 56217758.06841651 30214499.022840526 51667124.10131521 16516724.341684908 16130365.270997781 48044983.69671107 57911304.50531941 2345287.150418735 71639778.88984074 47949852.20458035 56093907.087447785 47943137.72410868 35888499.64412304 62673170.250346154 55887597.59304876 57950018.43046372 56981566.761669084 8236849.93583329 5748127.800799012 79710075.07010984 67531571.2386026 72695864.36039521 53119134.15340485 36012825.30612028 69182352.45839576 62247799.39284294 49100669.11538781 85530818.89966072 71169448.13636084 50133453.410635844 47480098.986319974 64423992.772192165 4392575.038877468 55358637.74265529 33215230.829305347 82057370.47327648 79301558.53339317 46693182.44719312 57158058.81996715 81369430.02900806 25725661.09639212 73864498.70312247 45319358.812070765 22460231.165401306 22829546.583871618 50655205.11055184 46476431.86739893 4341171.491364746 47496290.57350965 19930856.655127294 37862640.486663066 64678847.62341247 56311714.735607065 56854941.62875767 92685095.46317196 54237003.03238694 98967741.76929054 40588368.90205115 88044095.06424895 79140290.83210985 43408704.01271398 45005058.22791986 38128481.22234097 55945971.20995144 19765961.56253533 58871095.323605 25438173.63021586 15928057.94703107 86810910.31349368 56756467.75566187 9899059.912215266 54635164.36987644 39212775.23555729 3730918.5757767446 52682456.80820026 67777987.48903883 58061202.77408174 14345772.400178894 41418186.28923756 53093011.47457005 96834264.99729191 24781231.100337774 46739625.054643065 57943070.881470956 8208173.115980815 60644286.87011625 54506901.68213399 71853056.24145402 54409251.09410181 70057831.5904884 47477560.02565917 47614868.10745043 58167554.87646122 21417033.63894959 24675976.191881876 49361323.458316855 76574366.0014267 51100391.66822383 47971058.02211679 11018866.47210395 56012471.81737074 57728490.704075105 20581211.738580782 20438345.39666032 56497445.86465076 33447074.71764171 53829274.54160338 56906549.46139272 51045185.873465456 63465000.022997476 43460862.724369325 69732346.60068974 61548763.941946186 62118893.37664757 63554033.938343816 122310777.74233398 50873175.42364472 26198905.402568746 67262003.52021982 66237608.60426468 56064043.539777905 45877807.49560755 10320807.106213845 58023528.23841592 9993549.874060806 56957861.17798007 3418196.177861846 28444725.899130356 66709061.83266216 87521602.28528404 62087695.51319281 138618553.5781779 45883898.87962292 54074533.25997487 59092012.13281941 67591861.20012197 55922348.32097957 52452092.78957406 20601295.36297966 57936321.285699636 60200915.544623 36239318.066948116 56788973.71074866 78175192.97052644 76457718.08897288 59255485.00274236 72803235.03490606 10047361.364172535 2781213.059594759 14217854.134362513 56651632.780630805 52389698.2428681 58359932.6572973 56617294.93803587 57472478.677493386 47432177.06537516 58732139.0386797 56625039.82680242 62101269.33173913 40696869.35895538 70714504.94700882 63178933.92926345 55988827.07980351 54109462.88925015 53448339.69775914 55518777.3409491 22881095.444343712 14885798.659645954 56049933.22765539 88585089.13860485 72266489.10939407 54408770.4989328 53081071.52090772 47387272.06507936 36227655.0637633 37175229.74341698 57894684.9263936 14112882.987159017 38645406.68589998 19681274.3172553 26933840.622493904 63612989.00679383 61123938.11756302 1838844.4311914407 6868369.661563651 55752584.26663997 48935332.48107008 1826164.7314690512 1849120.1723825082 4481091.595548786 22695283.061654713 55541393.49377151 1923354.867338246 20391542.955962274 36416382.45127732 8171237.589554584 8031129.313071653 53195518.06566356 70685399.56752105 57509508.77921662 69194642.89446975 49537813.07260249 36560084.58611202 62196793.82684316 35497318.911263235 35248414.642244205 11736855.924708294 54056938.382770315 54541870.98835565 55155404.2729455 51730175.95498813 54048557.78739626 41306716.2537367 52193297.60718847 63452936.902256474 71174780.65749991 53952506.32823044 54926589.12427498 99165339.9712598 34777993.99224669 48579067.987174444 33262352.41884419 70464499.76202467 66522422.47203007 40548020.439913854 79659000.42837058 30486395.887351047 118300411.10490845 20313373.944477744 69112162.70457366 88132398.48258409 58965799.611502804 7199180.838127019 30374117.50113477 2760583.283526072 2738383.692159253 47516188.32094384 23205877.137712546 17997585.85344922 54558681.49010755 61812373.55030273 83979161.54158838 27517272.553758025 55149188.54851091 56733582.77721667 65111149.46292838 73337666.45132811 43830581.158058934 22619523.43974844 22682890.50401997 73408184.35891493 66919145.48543317 61999803.15173553 60301824.80895813 46817789.11363289 49741533.05038648 65777074.096915 28955295.556103293 67601948.3889844 173254632.97764072 48952944.39796944 37946700.054314725 35035793.633466505 5234269.801823376 57136851.96001204 31964356.24950578 57570466.93674375 4748378.015057347 8401335.497459052 40241954.56001177 16532772.291764926 47193190.09081372 57335536.140342616 54946538.566650696 44207012.90510141 20840542.423323106 101100265.578728 29114171.359654237 16314412.966218 49947304.91604965 56755746.63961283 2075940.720762244 63438558.864638284 88540050.55968572 60157609.45945387 54917595.45006736 43855794.9942762 69460527.7107725 2335024.8420578456 60272003.50960628 68525940.04750988 37166453.07665775 69823105.9302968 54458423.41798836 54326278.201480374 58727748.17001644 73485086.2550925 21340718.872412864 14338300.55854374 30257952.37070875 74914613.61120395 37051684.16316047 55485941.655039296 137067984.11974645 54762535.12453443 69197815.67495982 39014163.34523589 39052460.092139825 38145956.02443715 48017085.18193262 61304558.82587105 10242372.463125644 25618719.03336528 56649786.99723082 36169171.42070152 45795349.39925966 66035013.661372535 40448108.1938994 38211708.18618758 44923723.61362858 44640216.604676224 54115835.813340254 41164390.15816324 64087317.94594578 84162773.28215273 53842720.13781796 78288816.56418613 4159703.5835648095 49392342.55310341 66713091.3574647 35143650.044741176 47571521.14912778 1956150.3482322025 1918187.5346764785 115363337.50070773 36405050.241925545 22104290.542229686 22077474.89303591 69399702.9944118 63689796.78783623 86544583.2202835 57515945.733082056 19080450.603958108 43732339.85062736 65881062.97242112 10107547.73833053 38943850.293342136 106527457.49884422 55459956.27457806 15831245.905235944 43381765.64712801 45091462.91858482 45242080.171098165 3527954.3076485335 63160648.945438065 44891067.7652985 14826428.396254519 16694267.053293219 55281779.5609441 54875896.943680316 8211137.755428975 70789332.98587753 57587575.36255956 62653260.95865314 28793343.92099996 30471608.65094917 63204431.07522022 58458333.739428736 35242194.77975198 68427514.39915623 60943438.10942828 42194976.69597567 178982840.8782302 14550325.978634248 30522648.320015125 74221263.60505237 47032063.160031945 57350594.46776971 60977584.62192826 45532046.31193592 9549852.578715594 19953229.792417005 57532224.2667295 39068166.82983754 39169186.06060158 144386731.8066885 73571557.06195013 29373582.07993254 34613897.69444946 20327804.193610627 20340632.496877618 12862740.68002598 54052024.0853852 35640182.730536774 40350223.50207358 53726806.41873675 30485096.560867902 12480361.230195262 47461219.10816771 83672525.50377658 36463682.165585324 53767827.94791476 39030942.74179429 40324672.45847401 72832357.2745149 41124843.0778605 59093884.48097014 55176618.59869109 110504987.33002466 10056227.380082378 55199419.40300997 36503213.88659917 48554576.56656747 55991586.802883424 24007718.481279332 32707880.627072204 146140738.8227165 147690571.3594946 12730863.743547449 56527760.81534526 48046444.89118033 74253504.87585948 77762982.07469004 78169889.3089399 45321073.78032642 46983987.93721541 27332717.8791422 19565615.053163275 18017034.618231416 162186662.82051873 13476881.83357392 34887245.3133506 20593739.391705498 64423023.884918764 162647838.68090543 31564855.708260603 20459433.41585494 54959552.91997219 19635784.137131758 19524532.636745434 63851660.191695064 28667307.53346574 51836669.652752794 18734653.13129702 15142715.8389771 131602219.77284212 6293082.313493796 40701128.433654755 60792128.647078976 21520848.96593767 42581391.0576896 84355263.9190306 36384417.38223663 51822685.47860735 39423091.820305675 7435387.154318881 12815842.909305297 56754625.95761516 49790676.84621434 54473220.09179163 57283277.29252937 39035552.496567674 72043231.14439832 8691043.908357175 45091014.47682934 9140371.865204077 99682145.22480449 50127485.09269958 27006703.843135435 79780380.45730063 47199180.86639572 52848217.130656146 62223058.10232883 100170015.18329504 24457999.195914593 130011283.4710954 38732716.4473476 29161903.615705147 64077903.18105526 4285966.807834879 58225016.16628499 41959094.275511555 109853447.694135 686332.9733834399 44983724.636742 39861240.46535338 54838668.02319648 48853004.439283825 54550350.15001372 60753355.7243925 65695754.85312087 70094196.32269038 29626242.65165098 58415757.15868186 32438156.219270855 58662708.042408146 59864546.558579005 40861094.77752811 43185420.730149716 24057377.52551227 35840086.14885224 63983127.70731747 45144495.50584122 54503224.5162055 55087756.233301125 12782234.466531886 41453823.361003645 41593316.71248114 6504593.517267795 6698460.279428407 35640454.07653404 42123656.53848202 81694282.47920202 68033941.28385514 8644336.10361036 49932131.0798865 47450622.84885592 42613999.940191925 36556161.93379079 55141956.59629652 21986124.74454376 41591560.16085625 36692929.899764 42258620.61947146 40802098.52668239 57644685.408054836 39884540.005089186 56742599.27803249 76808841.43698868 12849132.696624506 12650809.246228416 138129771.72605005 32686294.054748718 55040635.20225438 50689737.21393461 49896126.83514836 733411.8395909509 73185347.42243694 64175793.28896768 33044185.3078198 153843059.48978996 64199431.66377925 63343554.62993333 16507328.442055676 55088646.480597295 78585776.64739135 25412990.904488776 23686571.02001258 56018865.47992498 16515364.364632493 16446485.095250634 78328371.90761645 86602974.08432886 358982251.6319917 69206896.74417952 27914919.87613281 74475148.66913307 12843324.927235594 79980400.06275974 78469417.95309347 45580640.28352311 90527437.4757292 69443943.67638285 80099084.13042244 56218905.50699179 50635306.37650944 17509203.909528755 25691947.09929017 59322440.8510244 60474366.09639111 42631293.91557225 51668277.710462235 45579529.14388203 23787457.832855575 23968627.291286618 26259255.27479981 56133051.09713617 73252108.04872066 50737315.40573732 54827896.393638484 54670119.8863603 30140990.644387756 9618690.281095276 64036863.16453365 59470758.52056374 7696006.049696373 3451917.2631106996 87468172.95637275 55386851.62709162 5340563.270581491 79976651.54289603 54898146.89098299 57323241.55239756 18098195.963174954 61931075.64911686 60961109.327234104 6161524.460081722 68243195.2622373 49936149.38519558 16012862.661300924 49087607.09038864 59569571.334939525 68878138.2100236 23720001.05080851 52517403.709374785 36233125.985226974 59349383.405207254 72851987.53456607 56902440.725332074 84538936.58049802 29248765.577938724 50784847.18710857 24397119.53141394 6122301.01687088 63041148.36148936 46845168.446605206 23669907.888172105 61446792.637503855 75443013.7298924 38203939.84622683 69610141.06699738 54989194.631832495 62816043.09399777 14457848.833672808 765794.1475946673 755757.6723027665 101042660.01461786 47340541.512857616 24642443.621204328 16149433.330341361 59616188.91594171 63955354.21964147 17011389.150810685 53125098.47671795 26787265.916552078 68967192.77641703 12941315.38516405 55469422.718470134 69079831.44682692 75512458.67548278 76641726.93925214 5675552.288065409 5672538.886024102 60672739.28563466 60521522.854732804 32169602.284691352 67689238.40583348 77040152.31923181 133113867.54142539 27814399.773172446 75806725.92438184 19326375.320907313 1841775.0705191304 64012486.9466481 16231038.92850738 19342900.46579747 61497194.104222424 61669136.11857389 61296486.101991825 132845434.3212192 43778492.14957249 51157188.64022369 53262901.81303133 61336185.1282243 57511317.605890445 42933690.31745457 119230503.66396861 29606945.63555471 31713154.683274142 5224877.4262446975 74466582.65780473 82200120.58833347 60669267.591301166 63550293.207444236 11832658.134364381 68247422.67475493 14522803.599839538 8458635.49792921 8429466.623693658 65918236.27962467 61964161.35989371 51216483.59029683 59055512.24744812 74016032.56082954 47951619.68745085 54343197.945682436 48821648.02246689 7711636.265465236 53509618.72816314 47840442.259965576 59961794.118701234 62294394.68681295 37927106.99972294 137204523.37625322 115902757.35996062 63820296.8156561 42507726.76139722 64582033.01923705 83603425.75847867 50029546.420498535 58600056.365826085 21091778.143681798 74292077.56703758 62452674.90812967 10856952.41347847 10841503.520950973 54850890.903967634 96659177.42577648 80989977.08022264 58181337.384041436 61190888.63313134 61722885.15580121 61981331.27102362 45291511.912342355 54192435.948820174 89230796.57465805 92901057.73490153 58684780.63490364 66271907.807655744 49926261.82280123 54183798.67224572 49251913.00896496 59263992.01117133 55629291.16433264 42666180.83215629 56153721.312292226 79792000.56530721 42455017.0880477 64174111.18692413 11720015.472066646 57227857.819354825 41355177.00657232 48061912.601195484 54432844.42631218 61126032.59171579 85015148.65166005 5484103.809167412 5560341.761396904 35524729.31369983 84341215.15603094 87843288.92489694 62805336.43350977 62937192.23765253 50349681.2773626 28428689.991435587 80619608.64260326 38752884.15348255 56848771.907362275 48402815.54718741 41675223.6220084 36582120.85784768 66862627.13713127 5617229.84088314 64172163.30075154 9812091.354841016 42118259.043669425 50685738.208458275 58485456.79582787 46054496.10745978 47480126.47280057 22214672.599716514 64494888.79289759 45119272.425735116 48678555.99670401 32454829.398825247 23211762.04471789 34926509.08277698 39697413.46598786 65822012.80158171 35610759.13693116 48202901.185996644 34042885.37661232 43724065.03250647 60065187.48951763 61690826.34072953 51560940.12040999 59425768.53977001 55206414.34350604 64638939.32161302 35938173.319355085 33258747.418249287 29324465.7407226 51620225.76215296 62002542.6334328 53253101.67113309 21932907.68193086 125652683.77234085 108434952.48810576 108181249.77356409 50738231.94086393 64611653.29367548 50186020.67944969 66769906.0881491 57443086.03175044 84667699.12538363 53176643.591797225 41361505.07024066 39420850.01035328 57919511.633126296 59237560.2916779 56573211.90436135 14820608.163164847 7556916.832423409 51120036.508264594 58493247.18575858 55153700.688555785 30740243.862237964 14106827.99991066 12877469.736114752 19781074.789255723 82681699.06699969 68234930.56933282 56937628.8948373 50863442.4481936 43958868.01461198 12874538.55180963 65118988.224660754 66288808.7002727 62140128.92943694 62443962.99662039 52248781.58647662 82278659.61327013 54558331.40284467 61082309.07387022 60171014.01693359 64010116.11129831 53604472.15023643 63873264.12930181 54345349.72167089 21592508.29338424 64321959.204109155 24257069.888606645 72995393.05180523 53907733.863743424 29682887.184190467 30380923.0959741 49219899.13313916 24008419.374669302 25994668.09430595 46185787.68861559 32171574.601994798 29849348.055911973 53400189.7550786 57137543.11300506 44937098.66089098 36007414.92222623 81189337.37829377 44648784.94195201 81386715.44636287 19625174.636384476 54798113.05128261 9965255.064261753 12121697.494328517 54251379.271465614 65047031.58610694 68297962.78552009 60411729.61601071 24180412.70659881 42867401.25057999 51177007.824359454 53612301.921859406 39454990.16002876 60847620.015950695 166218810.39570823 61074107.94813278 59684134.44431475 43763873.3320744 60097971.15614253 81756152.67569487 43743012.11066898 54758902.77100708 55342374.918983705 79227823.82636319 665924.0252427468 670500.241942224 54668388.41567662 123784423.87326159 3484792.265179678 71116725.61896244 66075367.63952664 65903463.14054115 64672200.937741935 32759094.01224687 48415277.7701003 55342954.37106833 28107429.087163407 33211280.321086798 33392603.808093723 78058118.41630927 55537328.403190576 32839847.274784744 55801727.68271515 54893491.95733325 23331532.963764455 54851994.017146386 23406947.076905295 59658473.147328764 64482534.972173356 28865848.853756133 48985593.45103024 54069728.784272656 54181440.06263614 54451842.787447564 65905174.54407562 19010666.439445898 607852.6810238231 68001083.33747023 61495221.664411314 60526922.95430428 58159592.86919858 54959391.11951955 60952841.107254274 55830800.26239967 57954540.61682614 594199.9195704111 598160.9061051745 83850573.59013177 53081382.6721728 62818901.57182751 54741959.28644011 55039505.98293164 47672429.94875403 68988770.18689215 58217542.01302347 60817612.52929096 40308722.97796551 14137957.305324646 65485594.4694086 481181.4030067856 30361283.558308184 62200571.196031794 43658742.31520675 7391482.935796545 60527685.01344044 134201079.57458021 47969385.21865652 78358800.31425622 69291789.4195389 43712710.16008534 59377515.34182156 58223796.813472256 84130769.55650963 6924720.324564149 61265883.91991209 33047095.52968289 69824953.99347122 59757855.89022091 48339199.01884106 115149507.59273238 30371424.50468306 56214832.60785803 61780550.04189136 54921081.331431545 53549538.37332663 70714486.82819016 86643052.0385279 72730661.7546551 57405470.137667164 12635437.30249564 12666149.391611932 18090352.37313365 28790292.91558603 33811503.284392625 222320482.52824455 32678117.53923213 71505629.24109286 26270703.258611612 151312715.23171952 98066317.89863098 65400224.655630805 55750609.86322906 14789977.289100263 69959550.94274111 24008499.26436001 23345483.662334785 49809825.59563188 27102765.882801723 39116286.697712034 58382307.72147052 68095488.2441239 42241549.39119208 33913111.633650675 29769816.0616563 51903827.52224207 42529345.41526333 83566367.07406363 52983214.09212396 59431924.1677974 67836572.3271625 61557390.29506375 61690394.354141384 62210135.9530238 30079800.696281888 31105465.716206193 78252935.236923 61652693.65074689 111744015.51259811 67542147.33053347 63566984.398621656 52186504.18698772 18892305.738344237 548018.0160551664 41849347.289417595 60665726.03143071 28042238.804982677 123081880.78491655 60511430.13695917 55402785.772302076 410489.10217022145 57044306.33282904 54831103.16560071 9484154.593187021 6597674.689223314 78125878.8896906 72991824.22216704 65623682.94400529 71341832.1340523 73598838.41572617 85444587.28803188 64888789.55935311 42586442.80565216 29995166.479066044 66524901.52349797 66287215.42438891 10581745.391853895 65865333.449437276 15953461.354405018 33165984.376504052 291110977.31963444 22963058.013706952 22530956.624567725 34080556.887237266 21706504.698172227 81673375.6069694 13827656.138916241 67725270.12776846 65997383.65411893 30621760.40538761 21358134.126836933 55651854.91620361 45257787.61320516 26345321.70219093 57317728.01841238 58985867.95530543 71602129.62368377 9340897.565989379 9432304.203905506 86770466.3348409 67296400.63545658 2808510.086904414 9579787.311579667 60877454.75679417 57785881.36709939 117664324.92966112 48296826.103253506 94672867.11714657 60907860.620824486 23044133.937516674 62266404.90729592 78494258.24006686 65373414.96793511 76533210.24267885 6893132.493158988 27942339.787626572 149552688.95743552 11687122.701032218 46995376.81421428 73060566.47578223 53273627.28277582 22602999.13650386 111525836.27169232 61328674.552530944 28298332.65232296 61231578.279647894 64153649.6577374 54736388.322245516 84165336.16804102 26089194.85852177 40851036.909712896 56354378.22898293 73699029.61939779 54568861.80755988 4556951.728617279 30740519.532125268 61459434.04078225 54908350.79195298 54839884.69725394 31335412.905415867 51696706.88565336 56159373.70441012 54378636.24736712 16079551.35985711 51875250.33306561 56327749.42932809 55464247.36378156 159037225.9736954 38209124.53556915 61958411.26716616 115219901.02161995 40851208.06540467 13730232.882259192 47955717.76871903 60133706.23651011 56330525.5002702 52273022.67425905 33530709.223025087 138926562.11401972 21482219.071474496 80382204.393266 57722250.2330981 14473852.196173273 55130076.429852866 93255104.14944167 29431819.103554215 55697237.653503425 78730021.4348173 54603520.535543345 55115848.634325 25878722.11450445 65729009.738936745 61594725.809928946 62511400.73871468 79701455.8367795 35952823.88066012 63243981.070035 55779488.78227571 38637712.13901393 37915987.82624367 23929117.346735917 62813548.94513114 70428234.7159625 56728040.8671206 92964864.71698287 51087996.34606194 43423707.98567345 155929107.30048084 91989519.24555215 56539501.75002132 111097527.61900198 79873967.85948282 89760887.20380607 53231287.34366624 53153173.98531706 62653111.94922031 68997459.82901423 13802440.695446795 9594232.624762401 63647656.75144764 62114899.60419546 54569466.6299303 48846872.89311893 62293682.07548566 45785780.44019793 28837325.247268923 55347513.27170424 60751954.088358164 63709578.84648908 53604517.955288686 50373714.44225456 49232014.91629838 18296299.517857138 35842098.64096077 63663026.744319744 46181172.76320831 51070305.72331319 56914450.732426345 129884439.52952352 45154615.27307775 22978826.228735194 73762421.75810814 57358468.58051894 62200188.23116806 56780600.62507316 57524874.576794475 12062348.073771406 55507039.56182937 55976313.273938894 37787048.82467543 54642706.58528424 54468974.86464896 53138555.3085546 55223706.95851604 63120667.055032425 57143983.04088108 58248521.376517616 74132692.03638235 52663888.60528365 91769867.11186916 60633152.53765602 83006413.29744543 55877305.534151405 14233643.1472716 14346647.751753364 26552584.48859824 58800019.680276155 55594086.27232711 65272697.177037686 55444688.85122163 54612346.17889785 55816924.09684847 66498667.40782928 63859254.8067103 107158588.21988298 41817597.33354945 178544744.24734366 50208499.399172775 55656916.49589818 59186038.06264114 53675596.40458505 66044798.36430794 47940797.35473376 60349374.7431728 54805274.15155599 65288636.69991738 46775536.863181144 59791944.616685964 123300031.7422394 61868062.34613963 99993912.1158649 53753495.29631781 27760233.58861763 2155758.6765419776 57319383.35041637 72235856.13638657 21273448.142548684 57259367.11122347 56629654.541941814 53556381.00132565 35599852.97067122 52462149.34932317 59345406.61822873 76553262.07922415 49325837.56677298 22660311.304110702 79646286.16338098 56189156.50683565 88564019.8904199 58477236.565358646 4814895.399090722 4692413.2892968245 9874328.422177613 58479775.22975678 60597277.90811661 85990176.2573471 4969463.575468884 140561818.2792634 83783800.68722731 56073018.25619311 47100236.81932884 40838940.55335652 43650133.271368824 46384731.3708756 21250504.930646297 62762327.079743944 60886561.39296006 56787153.96500912 48446810.89130284 62560131.55711157 72065633.81308818 65206880.659102835 62149811.40316184 72073965.03053777 60414742.779768355 5233402.234069414 67349170.32585837 54125162.38993717 11574679.857133664 62181222.68948838 61775468.614885345 55127906.33907077 113319241.11228156 50248308.451609485 70237800.71509781 55604540.728780925 51574717.89459317 18648335.61881992 55202594.72424824 57920809.33392311 68254028.04631303 51574207.130647235 62600397.51370048 34976796.63905648 57759888.0070387 23002985.182009872 50415080.73185103 5060307.444046442 35305373.579714544 55042178.465336986 19740558.050143916 4753443.2234537415 70170145.55217378 20025979.099233326 50238864.3176547 81541897.97299723 49915016.587692395 123367240.70372821 64000406.00845265 76359635.95605057 57758759.40135838 54628615.024369925 54990712.38929673 59892694.21038355 78230132.30520593 22470137.021636654 24592844.396573782 58932972.96467998 86925288.78929898 50149517.84709895 18148273.416470353 141595008.9154547 175504946.13298544 1781958.4986343537 51799098.74301891 58617388.73553767 45665531.639164016 72486289.3090943 50402578.73506713 12573727.889141718 63067383.92235252 44818805.143393934 40970708.003983915 14317907.529353201 65611967.272231944 40831084.52621692 163120399.99290806 63570056.446710736 54927425.998844236 27734836.069661465 54996343.70008208 70317442.49725077 70721578.91912603 52836401.111719824 41017364.78216975 40748581.215893134 32466853.7323744 5223369.683097611 50676676.50901361 67105584.250102885 91295808.13633248 17511615.38550931 54896353.272014566 63787297.03199788 55915327.62026187 62513167.0255464 40691854.63554428 55741042.10093835 75337363.95364465 53872388.47780403 53139788.32786075 50437778.5016147 11278792.061768191 76534344.51074502 72494673.81564575 257391.1976789877 42040047.472611144 218501245.05402458 60921984.96210905 57046983.74336082 89346420.9669714 55395938.02584447 6395511.205003487 52705241.68059913 48230162.59438033 78923144.71870649 53761893.577411294 97686249.35705699 73949228.06466994 50940652.986700594 55189833.66359588 55729722.76416653 21417651.770306632 53504590.32854108 57849107.2187684 66652373.30046329 58075422.91015439 6325591.15114191 57317041.40929257 57077539.38138044 35747509.01256435 55971921.461163424 121011050.13987957 63855892.58943859 4885987.780297487 4877946.4795253035 48701128.31022395 64014085.970200196 52672374.86704326 59056283.90163631 35317730.51635861 32622138.09257979 43247586.31121605 69707942.31045668 31708757.186059643 66822612.82327188 53991963.39178927 58237771.05902571 35205003.74258538 38504768.5525355 56342268.796053156 13710652.471901765 57439918.882340714 165225840.47136378 61891907.975577064 48321013.46688398 45869806.313229546 196081505.7115833 54235682.94642695 48676195.84755927 65978109.49601123 74959671.69982757 55577238.17816871 53054959.94876209 57353737.71737279 46210481.309689745 54519879.53749657 62743765.38538713 59184722.08101149 52452938.25311481 74409882.77578983 62038090.98523208 47902564.28004668 16779695.52697794 110208272.91461766 50652209.58777569 67295343.57703671 56382796.53775118 33578049.030182526 50246150.018536046 52151557.17381694 57006139.79741673 54880859.96333597 59729108.82988526 39934740.340885125 56900243.97430398 129820781.44205786 33437515.621048924 50043670.543959334 99677158.93296872 35351061.30076515 61410235.51251385 64219060.29854998 32918866.991276506 32678246.236077745 60308755.23658516 46109136.328835085 101910080.57453933 57255658.12108435 51015053.12578454 55783394.06376567 53492011.85174403 154106627.06094605 18234722.504587285 111937053.2989221 109450265.79595867 8250601.555672434 38410029.11819125 111946073.84933546 39761885.355185166 61686698.06005847 81795592.03369163 60897023.65944693 61404189.341059625 48994565.927818045 78546168.31673883 57344390.84019531 133062501.13608271 33480175.123199705 33322534.759191748 60594784.01739951 58221369.98846036 57616560.60621121 31144017.966414493 93217029.76563805 54415767.903407395 103817478.7899796 89339926.84945409 67947209.94295879 58417486.48750477 21639500.26096902 22063978.504972328 43517554.08635658 63801532.71755705 30261053.33066504 39854998.43569584 66693104.727773756 22429240.963291686 55230194.8195884 39061699.109975815 58870962.469904 19822179.18211003 37247652.80683143 55619093.43817661 25494935.12587893 55226426.203424156 77779276.31623638 50519870.061641105 71817455.72917943 57339208.81953168 64711707.24373491 51112910.33223165 78461004.47275387 56956855.9028527 59479125.64956375 119672219.70525514 12676922.53546395 52785698.97082488 31772681.45293592 38921512.67348039 50394965.52548833 48254500.70469348 56142871.931294315 56540571.516047046 26404095.54398441 126799109.56667674 54846995.36006621 22313877.913569044 55352234.9093943 47547320.74748008 57563988.370821774 42413708.83196553 56533530.893676944 60126541.16244486 59916924.13763546 97142925.68296142 45995487.15008913 42170366.78291929 44840500.10461287 42398582.353323616 50470042.925632 51223625.08936631 60806725.34350339 36669647.4882951 36251059.9491378 47845598.876088746 60394783.741161376 54170722.32501327 64628913.4493182 62568649.81907554 49827574.01519526 57949461.28873135 59472626.91422464 52955873.655839734 66843430.602946706 62705657.053404935 31260335.12058029 54157215.1384277 91007218.45480537 17406339.70213595 63645536.91805745 63191600.81863364 42624103.65720713 129179535.67248937 64929895.064596176 31510647.921467613 53951261.88706448 59005759.62807265 74765149.50378853 61846263.76660689 43697712.38123672 39964572.66789351 67619330.57953583 59781839.18170979 54993368.11166899 55232464.5778187 62662942.680917375 58082281.38250909 57456146.30639573 61279222.92030076 76259604.55898231 30618053.719200503 61738191.18875062 54363321.98147787 54344141.856869794 63074837.62920737 56862279.0380807 55631448.93123653 55666848.10558616 54147968.2234695 66493872.11926118 63090709.536869615 62077278.22421974 44682019.199640706 61894380.06320161 70817226.29753956 56326720.50786965 60839870.28010063 63585878.76445399 54959716.79552599 53925173.85038496 79556241.5353275 60681835.568157226 29028135.54747479 57468844.82004883 40794422.31209488 64741163.5330195 57467949.477961354 14527347.76470562 38941630.8425977 56593092.89139944 54417441.504240595 63536637.310673885 38073734.144238375 12798522.642512565 62606630.30589811 72195927.013295 18750704.19060656 93360532.4708646 54700438.08192229 27431923.35451294 64028735.56547581 8634361.160616964 62106408.85464501 46098064.03111171 21844369.089515164 47350319.13762579 29893583.77192692 105932338.92124957 53081496.01755388 42969845.3307923 8593849.098328127 35398244.85756094 73555011.26913892 102973479.997845 69860134.88217454 26489808.323873166 33917528.216323085 56012539.050759085 125988013.32653953 66498765.535358734 57712418.63234222 8380198.346872922 8400037.66400739 35605553.85878052 37726731.05555276 38100940.86879946 57066366.546297505 102867487.05059882 65104546.54861618 53914890.67227128 55439619.01654048 31402658.95255072 57355036.6728696 69819599.6275122 54175885.645532176 39705857.725552805 63793915.471906014 57632318.75741144 7435194.052392047 58586744.92621627 6738100.841943542 55345065.61947409 61793209.13966759 92238254.485176 4754973.599195579 5031700.368937477 53763370.082233496 67058210.80578224 299184.1217855686 54792281.542383194 54992850.057090886 54560993.431292206 79293145.72756217 62383350.3704686 650661.0273482841 64044096.00775626 62675236.861090355 58933078.584760524 40896945.334162235 116289502.48629066 56254946.58961629 51075458.459729634 49017688.199117936 50845370.06996854 51577153.605111845 46182322.66696275 59399744.7920498 196198469.24336174 61066336.41242155 35262110.707403176 61617167.00477449 61798374.391553976 73750338.31235029 41443313.204855524 33403933.922444496 24811413.26462403 67450416.6642851 54641966.939850315 6406226.223253823 39364351.932334505 61354301.86400755 58272972.21150617 80542165.53240076 27438535.11640526 46431608.23950294 51131198.589653455 33629937.104524896 60558534.57116629 48136768.1789772 5996746.401703093 6711774.412558452 73180042.9488923 60091741.3103066 61399544.55109016 58300568.11783047 9849665.005507188 44794326.15286053 57019272.37625697 59207602.16601092 58044519.234429166 55216654.25945816 44438565.77272762 6154814.764546433 58260274.48644935 39238389.958276056 9786829.006663643 53164909.05808611 57517118.04161608 60283281.39288015 59876271.364594236 54175855.36900078 9742674.955619212 9604327.67555615 55338779.86152208 56005853.79350643 38275760.79339123 80511492.88716264 51404048.63046462 37274983.11644754 70946593.69512632 68671370.23017783 56467827.281645045 91831165.37112485 55141845.913997196 75386671.64177965 33749083.42761365 39826551.85407072 60977852.669383205 69947150.3602189 70818750.62073725 55508640.490389645 36954471.98558162 59502347.88465482 61558378.099305555 62937726.59085026 70442048.37246466 36681235.45529728 61552133.506255396 92878117.71349025 60364900.65398653 33211805.675718155 59918155.41991249 49486770.52957936 74010985.97190025 30155408.16921368 29708499.77337825 73887668.36754477 22988599.562189087 30529757.302812427 62047069.75521233 68169766.85858472 44572216.42052997 57959537.842989415 34001485.482926555 30558956.69508521 82583332.30927166 58474950.66720214 31364666.45888425 37426303.86800362 50283491.324057594 35940249.0665373 74491891.97450544 80487446.46032058 81978254.81785455 89644174.91305816 73578760.19785835