# vtk DataFile Version 2.0
Really cool data
ASCII
DATASET POLYDATA
POINTS 2317 float
10.0 25.0 0
9.749999999999998 2.5 0
15.25 2.5 0
15.0 12.5 0
20.0 12.5 0
19.75 2.5 0
25.25 2.5 0
25.0 20.0 0
13.21875 5.0 0
12.5 5.71875 0
11.78125 5.0 0
12.5 4.28125 0
23.21875 5.0 0
22.5 5.71875 0
21.78125 5.0 0
22.5 4.28125 0
13.21875 21.5 0
12.5 22.21875 0
11.78125 21.5 0
12.5 20.78125 0
23.21875 17.5 0
22.5 18.21875 0
21.78125 17.5 0
22.5 16.78125 0
12.5 15.5 0
20.0 15.5 0
20.0 14.5 0
12.5 14.5 0
9.995967741929068 24.63709677361624 0
9.99193548384352 24.27419354591668 0
9.987903225752747 23.91129031774724 0
9.983870967693909 23.54838709245178 0
9.979838709643776 23.1854838679398 0
9.975806451588815 22.82258064299319 0
9.971774193518987 22.45967741670884 0
9.967741935433088 22.0967741889779 0
9.963709677331826 21.73387095986437 0
9.959677419249761 21.37096773247854 0
9.955645161201263 21.00806450811359 0
9.951612903119845 20.64516128078604 0
9.94758064504518 20.28225805406609 0
9.943548386962053 19.9193548265848 0
9.93951612887461 19.55645159871496 0
9.935483870792845 19.19354837135627 0
9.93145161272193 18.83064514497369 0
9.927419354633525 18.46774191701725 0
9.92338709656502 18.10483869085204 0
9.91935483848279 17.74193546345097 0
9.915322580408823 17.37903223679417 0
9.911290322326463 17.01612900938176 0
9.907258064267786 16.65322578410088 0
9.903225806182238 16.29032255640144 0
9.899193548092457 15.92741932832128 0
9.89516129001441 15.56451610129687 0
9.89112903193036 15.20161287373247 0
9.887096773848848 14.83870964639635 0
9.88306451577868 14.47580642008116 0
9.879032257707456 14.11290319367111 0
9.874999999632388 13.7499999669152 0
9.87096774157541 13.38709674178694 0
9.866935483520326 13.02419351682927 0
9.862903225484896 12.66129029364055 0
9.858870967443991 12.29838706995923 0
9.854838709394688 11.93548384552203 0
9.85080645134599 11.57258062113923 0
9.84677419328547 11.2096773956924 0
9.842741935225352 10.84677417028196 0
9.838709677185804 10.48387094672252 0
9.834677419124317 10.12096772118856 0
9.830645161077069 9.758064496936328 0
9.82661290301319 9.39516127118734 0
9.82258064496042 9.032258046437814 0
9.818548386911868 8.669354822068383 0
9.814516128856654 8.30645159709885 0
9.810483870799494 7.943548371954425 0
9.806451612739686 7.580645146572026 0
9.802419354698465 7.217741922862086 0
9.798387096668439 6.85483870015975 0
9.794354838615694 6.491935475412687 0
9.790322580551589 6.129032249643185 0
9.786290322498939 5.766129024904508 0
9.78225806445883 5.4032258012946 0
9.778225806418291 5.040322577646533 0
9.774193548368817 4.677419353193986 0
9.770161290304422 4.314516127397968 0
9.766129032236005 3.951612901240819 0
9.762096774198463 3.588709677861742 0
9.758064516136995 3.225806452329888 0
9.75403225807409 2.862903226668307 0
10.11666666610577 2.5 0
10.48333333385953 2.5 0
10.85000000105818 2.5 0
11.21666666867316 2.5 0
11.58333333336224 2.5 0
11.95000000131839 2.5 0
12.31666666820478 2.5 0
12.68333333056934 2.5 0
13.0499999971377 2.5 0
13.41666666013254 2.5 0
13.78333332331241 2.5 0
14.14999998971309 2.5 0
14.51666665948202 2.5 0
14.88333332845008 2.499999999999999 0
15.24107142855263 2.857142857894746 0
15.23214285711795 3.214285715281784 0
15.22321428568154 3.571428572738167 0
15.21428571423432 3.928571430627341 0
15.20535714279942 4.285714288023047 0
15.19642857135995 4.642857145602022 0
15.18749999993289 5.000000002684433 0
15.17857142846358 5.357142861456524 0
15.16964285700679 5.714285719728339 0
15.16071428553705 6.071428578518076 0
15.15178571407274 6.428571437090492 0
15.14285714259704 6.785714296118296 0
15.13392857114501 7.142857154199406 0
15.12499999971972 7.500000011211233 0
15.11607142832301 7.857142867079478 0
15.1071428569088 8.21428572364799 0
15.09821428549156 8.571428580337546 0
15.0892857140937 8.928571436252073 0
15.08035714273443 9.285714290622575 0
15.07142857134667 9.642857146133258 0
15.06249999994795 10.000000002082 0
15.05357142854956 10.35714285801773 0
15.04464285713485 10.71428571460605 0
15.03571428570876 11.07142857164946 0
15.0267857143025 11.42857142790003 0
15.01785714286502 11.78571428539929 0
15.00892857142013 12.14285714319497 0
15.3571428591223 12.5 0
15.71428571719138 12.5 0
16.07142857423201 12.5 0
16.42857142974857 12.5 0
16.7857142846084 12.5 0
17.14285714112862 12.5 0
17.49999999772317 12.5 0
17.85714285297952 12.5 0
18.21428571083795 12.5 0
18.57142855939082 12.5 0
18.92857141386655 12.5 0
19.28571427430228 12.5 0
19.64285713574168 12.5 0
19.99107142854329 12.14285714173175 0
19.98214285710808 11.7857142843235 0
19.9732142856822 11.42857142728799 0
19.96428571423453 11.07142856938133 0
19.95535714282337 10.71428571293464 0
19.94642857136245 10.35714285449797 0
19.93749999989375 9.999999995749876 0
19.92857142839276 9.642857135710214 0
19.91964285692271 9.285714276908246 0
19.91071428546458 8.928571418583031 0
19.90178571404575 8.571428561829856 0
19.89285714258144 8.214285703257598 0
19.88392857110147 7.857142844058753 0
19.87499999962442 7.499999984976929 0
19.86607142823917 7.142857129566706 0
19.85714285687816 6.785714275126081 0
19.84821428547457 6.428571418982778 0
19.83928571407323 6.071428562929247 0
19.83035714264225 5.714285705690037 0
19.82142857123506 5.357142849402467 0
19.81249999981376 4.999999992550225 0
19.8035714284025 4.642857136099819 0
19.79464285702924 4.285714281169751 0
19.7857142856151 3.928571424604182 0
19.77678571422344 3.571428568937625 0
19.76785714281399 3.214285712559351 0
19.75892857141964 2.857142856785682 0
20.11666666646139 2.5 0
20.48333333599902 2.5 0
20.85000000037297 2.5 0
21.2166666666204 2.5 0
21.58333333661485 2.5 0
21.94999999805711 2.5 0
22.31666666291099 2.5 0
22.6833333246655 2.5 0
23.04999999031157 2.5 0
23.41666665336712 2.5 0
23.7833333158213 2.5 0
24.14999998189816 2.5 0
24.51666665379502 2.5 0
24.8833333260793 2.5 0
25.24479166666316 2.864583333578429 0
25.23958333332243 3.229166667430228 0
25.23437499998316 3.59375000117879 0
25.22916666664224 3.958333335042977 0
25.22395833329952 4.322916669033526 0
25.21874999995567 4.687500003103358 0
25.21354166662136 5.052083336505047 0
25.20833333328796 5.416666669842317 0
25.20312499994325 5.78125000397244 0
25.19791666660968 6.145833337322924 0
25.19270833326647 6.510416671347334 0
25.18749999992573 6.875000005198308 0
25.18229166657996 7.239583339402762 0
25.17708333322847 7.604166674006945 0
25.17187499988757 7.968750007869894 0
25.16666666654491 8.333333341856315 0
25.16145833320392 8.697916675725455 0
25.15624999986355 9.062500009551652 0
25.1510416665306 9.42708334285754 0
25.14583333317543 9.791666677719402 0
25.1406249998306 10.15625001185779 0
25.13541666647126 10.52083334701201 0
25.13020833313536 10.88541668052437 0
25.12499999979433 11.25000001439681 0
25.11979166647349 11.61458334685533 0
25.11458333315809 11.97916667893395 0
25.10937499982347 12.34375001235711 0
25.10416666650693 12.70833334451501 0
25.09895833318476 13.07291667706603 0
25.09374999985275 13.4375000103075 0
25.08854166652795 13.80208334304352 0
25.08333333324327 14.16666667297151 0
25.07812499994489 14.53125000385754 0
25.07291666664035 14.89583333517551 0
25.06770833336538 15.2604166644238 0
25.06250000006882 15.62499999518263 0
25.0572916667336 15.98958332864792 0
25.05208333341046 16.35416666126748 0
25.04687500010878 16.71874999238476 0
25.04166666678705 17.08333332490666 0
25.0364583334479 17.44791665864697 0
25.03125000011321 17.81249999207509 0
25.02604166678298 18.17708332519102 0
25.02083333345432 18.54166665819793 0
25.01562500008643 18.90624999395011 0
25.0104166667187 19.27083332969072 0
25.0052083333458 19.63541666579472 0
24.65909090697006 20.11363636434331 0
24.31818181387862 20.22727272870713 0
23.97727272112545 20.34090909295818 0
23.63636362933978 20.45454545688674 0
23.29545454074166 20.56818181975278 0
22.95454545175678 20.68181818274774 0
22.61363635870555 20.79545454709815 0
22.27272726938004 20.90909091020665 0
21.93181817642107 21.02272727452631 0
21.59090908415283 21.13636363861572 0
21.24999999070893 21.25000000309703 0
20.909090898365 21.36363636721167 0
20.5681818062032 21.4772727312656 0
20.22727271532826 21.59090909489058 0
19.88636362288735 21.70454545903755 0
19.54545453222531 21.81818182259157 0
19.20454544067146 21.93181818644285 0
18.86363634917439 22.0454545502752 0
18.52272726008306 22.15909091330565 0
18.18181816691119 22.27272727769627 0
17.84090907624678 22.38636364125107 0
17.49999998161302 22.500000006129 0
17.15909089129634 22.61363636956789 0
16.81818180107666 22.72727273297446 0
16.47727271035784 22.84090909654739 0
16.13636362113641 22.9545454596212 0
15.79545453028867 23.06818182323711 0
15.4545454400335 23.18181818665549 0
15.11363634812483 23.29545455062506 0
14.77272725866684 23.40909091377772 0
14.43181816866006 23.52272727711332 0
14.09090907805834 23.63636364064723 0
13.74999998745307 23.75000000418231 0
13.40909089754563 23.86363636748479 0
13.06818180839043 23.97727273053652 0
12.72727271853859 24.09090909382047 0
12.38636362812021 24.20454545729326 0
12.04545453791708 24.31818182069431 0
11.70454544876188 24.43181818374604 0
11.36363635991656 24.54545454669448 0
11.02272727049761 24.65909090983413 0
10.68181818161208 24.77272727279597 0
10.34090909059876 24.88636363646708 0
13.12245575810983 5.359375001489979 0
12.85937500007252 5.622455758928196 0
12.14062499745613 5.622455757501361 0
11.87754424071326 5.359374999451498 0
11.87754424189017 4.640624998510021 0
12.14062499992748 4.377544241071804 0
12.85937500254387 4.377544242498639 0
13.12245575928674 4.640625000548502 0
23.12245575866386 5.359375000530365 0
22.85937499942928 5.622455759299569 0
22.14062499843458 5.622455758066268 0
21.87754423944776 5.35937499725959 0
21.87754424133614 4.640624999469635 0
22.14062500057072 4.377544240700431 0
22.85937500156542 4.377544241933732 0
23.12245576055224 4.64062500274041 0
13.12245575835722 21.85937500106149 0
12.8593749974183 22.12245576046061 0
12.14062499962912 22.12245575875594 0
11.87754424065191 21.85937499934525 0
11.87754424164278 21.14062499893851 0
12.1406250025817 20.87754423953939 0
12.85937500037088 20.87754424124406 0
13.12245575934809 21.14062500065475 0
23.1224557587305 17.85937500041494 0
22.85937499688295 18.1224557607697 0
22.14062499958506 18.1224557587305 0
21.8775442392303 17.85937499688295 0
21.8775442412695 17.14062499958506 0
22.14062500311705 16.8775442392303 0
22.85937500041494 16.8775442412695 0
23.1224557607697 17.14062500311705 0
13.0357142863834 15.5 0
13.57142857334916 15.5 0
14.10714285783675 15.5 0
14.64285714470339 15.5 0
15.17857143070267 15.5 0
15.71428571720997 15.5 0
16.25000000702564 15.5 0
16.78571428904744 15.5 0
17.32142857412979 15.5 0
17.8571428511085 15.5 0
18.39285713616606 15.5 0
18.92857142211578 15.5 0
19.46428571101452 15.5 0
20.0 14.99999999601014 0
19.46428571160309 14.5 0
18.92857142040583 14.5 0
18.39285713577575 14.5 0
17.85714284336419 14.5 0
17.32142855637984 14.5 0
16.7857142655791 14.5 0
16.2499999775787 14.5 0
15.71428569556309 14.5 0
15.17857141150299 14.5 0
14.64285712475407 14.5 0
14.10714284117721 14.5 0
13.57142856006613 14.5 0
13.03571428124737 14.5 0
12.5 14.99999999867727 0
14.69078270210331 17.81484026645099 0
24.01534276464432 9.798667530164069 0
10.95415544092982 22.2315816271056 0
10.71817280099789 10.58769530748553 0
11.66140897286725 16.11049147581307 0
24.26164658225458 7.686473944535542 0
23.10352465582196 16.20015248555526 0
16.73130322610796 20.28117556320203 0
24.56673426450864 15.00615949517332 0
19.7310124431529 17.79310819139693 0
11.52672839649049 7.233862756432281 0
13.99230120175718 3.74323815073029 0
10.74417262243621 16.41694093562934 0
23.18524709002095 8.013573757295847 0
15.19514696255725 20.3647202260774 0
11.56330229254835 16.76242122480743 0
19.11509669356569 18.87901705575766 0
13.41114023473177 12.88575353729392 0
11.7848130232894 6.362341225919966 0
15.96828850385863 19.609411024288 0
11.58154361953572 18.80318233531468 0
19.2015825026358 16.65542611651862 0
13.77492194170781 18.62915813179082 0
23.81159087052684 19.02334380083395 0
11.19273300802745 6.731037453404981 0
15.18457580633796 13.13884481082663 0
21.5461279476599 7.259119072524415 0
12.46669696971252 9.70285853579059 0
17.19416068879519 17.73483381645267 0
14.17343562683175 19.73172052425652 0
20.32742955082085 20.42387068848243 0
21.69012245630102 16.58349009634934 0
13.63299987236105 3.149746122559759 0
23.50365151538105 11.93558327773285 0
23.84689021162715 8.50670323250296 0
24.07381984695114 17.00628436639557 0
23.9465575813829 14.1254496644967 0
23.95123025250829 16.49281983945571 0
20.51094025960471 10.31834734120815 0
17.89580078287986 19.04316331912945 0
23.13746928681873 13.44822456042437 0
24.08203520257545 12.80353920552503 0
11.56875866005576 22.48606769149664 0
23.7360962641717 13.77005001065113 0
10.56574353328455 18.00520792386235 0
11.71022219158396 8.166291492300791 0
13.47791831663932 22.83001514322256 0
23.61817670608307 15.42234779721348 0
14.12501242773047 20.85684518132923 0
17.56375755459549 21.4323446129071 0
15.91666284975759 16.98371367592966 0
22.47994067451676 9.761695141045053 0
12.91326529714117 19.50967611880574 0
10.84734608597077 13.85839549832161 0
20.66682612993087 14.50112091900529 0
21.83053617981026 6.358623992169366 0
10.9099996494595 12.65779437339041 0
12.30293820856217 23.19254707507821 0
23.00418350275304 14.15864721705794 0
22.55665429562386 10.41690507118488 0
23.52829980246 9.96725527592524 0
21.6034399455133 15.36032254690659 0
21.84505336329113 12.50664309658847 0
14.53346331618048 9.100696475492985 0
24.38876010915958 3.788207172000789 0
15.12295866835606 21.38380048057971 0
16.52395017165697 21.27639602768287 0
10.52386285736275 5.563205302442458 0
23.3101541511343 5.863131793236015 0
11.11265831196052 8.921037079584186 0
21.44014296260026 12.16514413533557 0
16.29911041505283 22.35269440445807 0
14.13312859634844 10.72994964004955 0
13.11050581255225 3.453548499443245 0
21.46690504700066 20.19616970671221 0
18.4124370066242 16.94762679871292 0
24.10892292008463 14.69973312789935 0
11.01853391574687 20.43400468595502 0
11.78640285603806 10.86151358875746 0
13.80874509050194 8.696124560378003 0
15.02534324706091 18.93590321704436 0
12.46668425829749 8.70957650838309 0
22.97584972577742 11.45004175395627 0
22.51811290495775 3.106376205205386 0
23.06153101057945 15.58802931572082 0
22.56802213588561 3.708641749139843 0
19.85629383807885 13.5531142991613 0
10.75522807696487 9.636006693900047 0
10.76740231927251 12.23540759067344 0
11.91250830882504 3.452255583840237 0
18.69220024875286 13.58837935758354 0
21.09938853330586 10.81042205300325 0
21.95407977173739 9.920904303151193 0
11.77641567462982 15.44082565878479 0
24.23206351398371 9.345086147444498 0
13.31648375536778 17.03843390176705 0
23.76234902024562 19.73446524968969 0
13.94981647780751 12.86346279671821 0
16.80156994027167 16.5019283530703 0
11.00007924491935 3.711663925049537 0
22.57153692741501 18.63336651268628 0
22.23801591648522 6.09256648805618 0
11.35133025568081 23.99653387915271 0
14.58419390032873 12.91045310352058 0
21.42538314774264 9.695376985386435 0
22.23669466480058 14.37465564759496 0
23.9919798992304 3.741080823771772 0
14.3997858151104 5.557380698282073 0
13.36794041092705 10.1196601513859 0
19.26085121128391 20.38701660414594 0
24.30144717274073 11.73793898237785 0
11.15824145152176 18.27259210142441 0
11.45714580947734 19.47379496211926 0
12.27518323421669 16.38519807012879 0
21.00769879842983 3.743238147713911 0
24.50569854904064 12.31841167715775 0
10.49851513807345 24.20511140286146 0
16.04608683189214 20.27050569668565 0
14.53195285947998 4.208065297855862 0
12.45275017631547 18.33651517677422 0
14.20471442331056 4.781672581907796 0
22.48280723822168 11.96488935716258 0
12.10834413688579 20.03832040765079 0
22.5021027082484 6.78007033024389 0
21.3138352643508 11.03939062478344 0
11.47166286973301 12.91387470121627 0
23.19065450867631 14.97326833954522 0
22.203898002843 12.60034465935004 0
13.49487011047482 20.23679819236804 0
21.18251054330999 8.457283675848043 0
12.49011417348758 6.782558972887611 0
21.09327040888884 13.48534560634662 0
13.67697240575378 5.633715629039417 0
15.46489579740996 17.66269133796618 0
13.60598431194463 22.25617585619715 0
20.41854124198158 6.235630209900822 0
10.5522200175053 15.74915439121129 0
20.78376792797122 19.46002647811561 0
23.06136270363466 3.445314828219588 0
11.21423499559095 23.11855387748031 0
11.71326174251189 12.00183929941013 0
13.42955124951296 7.295356033564819 0
21.3151823036233 7.871178243957916 0
22.21774654354407 10.95711158239571 0
24.01880791457049 6.177984127139383 0
19.99595576443303 17.27369138706517 0
22.16791638101252 19.49496990009691 0
12.8252121108236 3.926441724223363 0
17.02208545153932 13.5883793562974 0
13.97603340253806 18.01052817302648 0
22.57603821886092 8.735985207703383 0
14.48131689611363 3.18525625530739 0
18.37936988303909 18.38178596928613 0
11.27025284142812 21.78426498566986 0
11.82470001809837 5.673746471757686 0
11.19345642725104 14.27977249531494 0
17.74243510065071 20.38639625696171 0
15.90010015940529 13.43516146779568 0
10.60525834880688 7.012786486298789 0
24.29826018148327 15.45861293171922 0
12.57402603630074 10.58854653257664 0
22.46042651221179 13.22877278806867 0
10.84170178457858 17.3804707174743 0
12.43996485225578 11.54258394224151 0
15.07687325945052 22.40325703526478 0
20.99957451820846 6.219623641612932 0
21.82039611484031 19.57189387697309 0
20.77250425260548 7.648244065225606 0
13.99399706984186 6.251693130956341 0
23.27585433956043 9.129330005504771 0
18.62840159639574 17.566149245571 0
14.22616447411165 22.33758437679039 0
23.41990996655398 7.260283395901778 0
14.80002214181545 20.81633657761761 0
22.21238305812274 18.85253056710319 0
11.16050392556688 11.34185087003754 0
13.0623316942254 12.03201009164595 0
24.05359847955102 18.13580200646171 0
19.84264627688107 19.58416761929912 0
20.73107129709959 18.26634251662205 0
11.54190688686175 10.14665323963807 0
10.85975223709636 21.31941007085349 0
11.84795039771053 9.18491242680801 0
21.77993788262213 8.973500635597336 0
24.05012481633637 10.91792690890382 0
24.73408001557292 5.854547715549654 0
15.865263543351 21.9711435923161 0
10.70461153409047 19.68994962907747 0
24.72178279734539 10.35488418299663 0
17.91554715435079 20.95065949164542 0
11.16699078936588 15.56739014031632 0
14.4235066350229 8.491339448088835 0
20.7546780972851 6.498132360091423 0
23.20695058838266 6.363666729698891 0
24.4142448944407 5.482760169930215 0
16.75222791176212 18.99074714005015 0
21.25525261340911 17.84386198299554 0
24.55970735604847 10.73708597314021 0
13.16364690498832 6.355705599305872 0
13.92992115447 7.671598856286399 0
14.71942881069207 4.61128028925043 0
14.17584751629183 12.30071315236202 0
23.78486288493414 16.05043020403608 0
13.33075805676732 3.960508530276369 0
13.73650145160208 11.58588562937332 0
10.67333317664204 22.87199066711642 0
24.42003915308196 17.59918894784193 0
10.53374693071179 20.82016714002145 0
14.29054797163485 7.014517938306962 0
20.7445375854928 11.63426626585628 0
23.72318914668443 6.735593204761038 0
20.3022620688768 11.98719856759848 0
16.39561921990842 20.73044730046804 0
10.52795440566854 3.170863743912272 0
24.37125141619449 18.8060835001251 0
20.75072171025735 10.13648513547926 0
24.20783003003659 4.707327526773151 0
16.00944205543663 16.22177243685133 0
21.88886260164919 3.452843523321256 0
24.56817970809998 4.138373366141664 0
16.30824459762382 21.81049207300294 0
13.20592395449986 9.299981323765582 0
20.79529222233637 4.781662066637772 0
14.62962005210147 6.01215799540962 0
14.69438682115791 21.95889318805161 0
10.81953962620504 13.44176109297676 0
20.74595707578269 9.194837560713115 0
18.50797772009856 21.07742441073376 0
24.31713281893528 10.21757248968623 0
17.76641709472278 16.71639594239871 0
24.38726288468475 16.40873659338578 0
18.16096901938695 21.56947341561438 0
10.43305829371907 9.139554458266604 0
24.37843169410896 6.885805770021366 0
15.98176214754892 18.28541205072637 0
10.98837696945743 6.163036736522462 0
12.79266359579755 8.536907660642694 0
12.25094497453714 13.59067760316269 0
11.34814638409187 9.513013182044732 0
24.39370687484094 13.50250566772506 0
10.56552500038781 15.02988315922202 0
19.28571427745271 13.87244897806818 0
15.3638366970398 19.27121914534894 0
13.45686944738542 8.371333572520703 0
21.76753669296359 8.304429574532879 0
13.09294678389629 9.752721846740794 0
10.75058359758776 18.98415223431709 0
14.57668077018149 6.365601147828022 0
13.72016092405564 16.2255701025938 0
22.39665435711863 7.738675273995383 0
20.90231046109229 16.38095146875239 0
10.80240833390453 4.824179306588651 0
13.20762969491594 17.87408426121849 0
10.06937700263634 4.892867023467808 0
21.25113457684226 11.81976866155305 0
20.51868310311902 3.185256254163815 0
24.60850741187043 11.27479428855381 0
21.26155550505549 4.350298024203488 0
12.03127791489107 12.97236627737159 0
13.8967617480127 21.60084378807156 0
20.57673607579513 5.605036280445817 0
10.49304038010008 21.83870609204106 0
19.22819453193625 21.28992306048622 0
17.30805362125429 19.69783943673201 0
10.77075361225523 7.94262191757125 0
12.42827661655835 3.709409932641133 0
22.66383710517203 6.249087650861472 0
10.50542431473054 8.5401282999517 0
22.74703696390409 12.76201054349885 0
24.49046279319552 3.18034543592431 0
12.20811194238431 7.796103828654709 0
24.51760814010635 15.90662291931121 0
20.4680337262114 4.208048640673764 0
13.34745412308405 19.76689576059361 0
22.24338981048577 20.22308612912059 0
23.81395380050153 17.56745874323103 0
21.82700364376995 16.20366311753904 0
21.69235363753301 13.06213465513447 0
14.3188369590314 11.33388682014325 0
13.73508558894155 5.052673505001131 0
14.37717215038959 16.68261029725481 0
19.25912025956666 13.12311972496925 0
19.99569327364959 16.42574057158587 0
12.5419437677643 7.691392247504588 0
20.85109937959801 20.029030582939 0
13.03696809389894 13.6436393372874 0
19.72307486767956 20.91502916643993 0
22.71154130041934 11.02463584348031 0
11.80726598348176 11.42343397218303 0
21.26636709638338 5.045734405697118 0
20.82656735690168 15.16389878560276 0
14.16521505460531 7.828499525940543 0
13.23895595280125 2.992219586936447 0
10.54419621548324 14.37452099280815 0
11.35519919657021 3.151744719219489 0
21.61070699681227 10.91301607668491 0
10.47649458619505 22.4039006164402 0
22.29406774543105 16.23815093366461 0
22.43886314157288 15.04327309441984 0
14.18074314003686 9.603865506690042 0
20.41731829582184 13.89054504797262 0
20.53859725180319 8.267348034053898 0
12.22353624665825 19.04167104861904 0
21.38956304879749 18.19234096175018 0
10.94680515703623 7.434052762887573 0
11.7272579019275 2.995173230731941 0
11.51686517664631 13.48978856039524 0
21.36700012709322 3.149746121660685 0
19.15921086845316 19.70997869434543 0
14.34013090633012 13.43624783386841 0
22.78342450946595 14.6512562925968 0
13.56319739323559 19.32118245333658 0
10.82424729182799 9.245991582374574 0
14.43306382549986 10.20283973060738 0
12.44189546489803 12.58020680621002 0
22.47780969587013 15.7562490641118 0
11.70150640024485 3.995038871257508 0
21.8791481743229 13.68667767756217 0
16.77751054096146 22.02583579002135 0
15.26544698906905 16.38081620407192 0
11.23945305587278 4.422639026890336 0
10.12608998827255 7.767853470517798 0
20.35543360827127 7.319807849354645 0
16.42071859739838 17.59286698802286 0
18.51840717592713 19.7238833390537 0
17.07559955132406 20.81895296333101 0
23.11857392639759 19.68879023372485 0
23.12208929258132 10.78902876957572 0
14.64523017760832 8.024054871238581 0
23.32701986348055 20.09469597363876 0
21.56398161840636 18.83649803680512 0
24.50633012688628 8.75147151552641 0
20.92825955505017 18.8503963731003 0
20.93969895433506 20.63352240035566 0
13.30296203221813 8.14714786268941 0
21.70743789147033 10.40556637576474 0
13.42820081355231 9.842037524494387 0
21.27756256170875 16.90812831162557 0
23.46149076856695 18.46300368944091 0
23.02443647524183 18.51677572849431 0
20.63220827343372 6.804732199208891 0
22.08798208017996 15.54075520265679 0
22.87421493530043 7.663902369317663 0
13.13880676965058 8.70173848300428 0
21.67733555577442 11.44066100075467 0
12.86885897088792 10.70596241644857 0
20.83545542611481 17.38667255748094 0
17.20421525787848 17.05448954083448 0
15.97562892139469 17.75806715262627 0
13.72202838256819 9.247804533028646 0
10.2403174393135 4.617888029815647 0
22.92408115165422 18.88992848446461 0
11.87018028321649 6.854116974181878 0
21.8867399474951 11.14579402011858 0
24.3073792306684 19.49471744990599 0
11.13370198261736 5.454176364327971 0
10.40908733012455 19.38701214411098 0
24.08088950999451 4.368534056092496 0
18.41916817833627 13.03664624275589 0
12.84463465456728 22.74125540281385 0
10.82371819697672 23.84457712554814 0
12.93681251267935 23.32597450118597 0
11.42865973003293 12.33491573623738 0
24.67358452203121 7.370731854034263 0
13.08788703266992 10.49644648454281 0
10.26202841578457 19.71466703461755 0
10.46542708359594 11.16018448720019 0
12.32071720314686 12.04157104843 0
23.11408433544652 6.863601714159354 0
17.31552993115296 21.97513604081482 0
10.45092042006127 4.238279621427132 0
10.51006373332639 23.39515579128073 0
23.22724730396871 12.76578359541031 0
19.75920459966773 18.24522609423261 0
19.07335151865674 18.15409879874298 0
21.92226775292498 11.89517594846182 0
23.45760286561001 7.662345260232625 0
20.43529625918082 15.7788275002049 0
13.62279885192528 12.18042393073828 0
22.77326348212804 7.328973650945813 0
10.43191813935301 6.470904317970927 0
24.90841899448063 4.811672987733221 0
10.40078390731555 10.11498195781532 0
14.88238421694917 13.86631184620737 0
20.77981955265134 12.7473362228473 0
13.65309729242903 9.732752303749667 0
17.91165837261736 17.45930355102027 0
12.81872038928788 8.217137172941712 0
23.87757213721977 10.14015050998149 0
23.60829247830847 14.38270666238926 0
20.82433745717564 8.742999020455477 0
21.26457741769041 10.17539641376486 0
11.33808410674138 19.99983479705373 0
18.73440889431573 21.54358293856636 0
22.61356344033464 14.26397350110281 0
14.48264417313472 18.44550307085606 0
13.24923912867711 10.82292617825534 0
24.51333614639709 18.27264515206332 0
10.52057281273374 12.82608011626424 0
15.01630535070061 17.11530353359091 0
20.60480441950045 18.65694452603444 0
11.30720259001777 4.874274520045864 0
20.29740407965675 17.82424943233929 0
12.68193777067401 9.191013970763988 0
20.44365948392098 9.636791219071782 0
21.25484173326647 14.54251557477082 0
12.40237847651003 23.64854667669709 0
15.35585693520323 21.83348075024981 0
23.75700911816887 7.93983784221151 0
12.39487341677796 17.1613452610234 0
11.53819841840598 17.57047448556973 0
11.41431700983129 11.01842915658762 0
13.74507062604675 6.770607879308885 0
15.76722747207833 20.8896520370909 0
15.95094934688606 21.45226638903314 0
21.23156876058443 9.05208662715065 0
14.48172821810246 11.85498881911507 0
17.88283261615297 13.34754481112354 0
24.34941618418029 9.064835321651751 0
17.44164963496835 13.89008620859283 0
22.17364587150338 3.92764847053914 0
11.16044687968778 16.08442215918499 0
13.46683109088509 13.9703194636552 0
10.25061588743567 5.975614472743787 0
12.99794841409988 16.39454753817421 0
21.32942947503231 5.672781909796977 0
17.68500192237756 18.26661604836918 0
13.84003498907089 17.61444356684473 0
10.82643919621526 4.423627737191446 0
12.11152892075277 22.67422472506275 0
16.64320337882583 19.63639211160623 0
13.36701336365152 5.873399729457324 0
12.18199627656904 19.45405662980651 0
20.31987886410834 18.95124249516768 0
13.70591603132103 13.52921635848485 0
13.58615200388463 10.90207503221117 0
18.51912731287654 19.02986195289686 0
14.75001943030851 2.98918773869422 0
23.57983100650819 16.58648022650063 0
12.15497808116707 3.998375425627048 0
12.00415714402877 16.8592759918094 0
24.68746064514244 15.39065824449363 0
14.85383329883381 19.69753789836517 0
21.18554718064886 15.42710796896402 0
22.80937232638784 10.019259435744 0
10.24677144492201 2.990009215290043 0
13.80829025365109 16.87259614988914 0
20.56104805610082 11.38794567356749 0
23.30631695454524 10.53683126581588 0
11.00773775701251 10.10799527315977 0
11.8120745347629 23.64885061774021 0
14.49940916620285 20.27683406980078 0
11.33470168320406 7.760921857508149 0
13.74387593533911 22.98535461405617 0
20.44991860646989 7.083345861390627 0
23.40808634709246 20.33789542447447 0
12.13858298041044 17.78410482145829 0
14.72058140857533 3.699566731515473 0
10.64721417477893 12.53011048740668 0
22.73817889160209 15.57044932693001 0
21.58630361682778 10.04169949740575 0
14.51605979830503 9.617984234627398 0
13.87908781375567 19.01280710656079 0
10.39269075870578 13.78537966476432 0
12.14502003003259 7.299804449577446 0
13.88691775353046 11.33879595989421 0
20.16789198127609 5.843618981000509 0
20.28046133144566 4.611120337061096 0
23.57239216318447 11.34587932627566 0
19.34503859158101 17.57170222134511 0
11.87757053316084 14.15555064764092 0
20.58937079313212 12.21353678163025 0
22.67535038382964 19.38240216040836 0
23.48270107650701 15.09080439592918 0
23.10479851552791 8.58890835142128 0
22.24947681184508 18.47373365260663 0
23.52010020612348 10.92177805784429 0
14.73164058297026 10.54575346577577 0
23.57439348720178 9.514015300603159 0
10.89392654338003 20.95276141521472 0
24.60498567875621 12.88353105620349 0
21.49386587534926 19.52664037741512 0
14.14012572157979 2.975205671704932 0
11.91248791847696 12.46877902208184 0
11.73563810067304 14.94306234449117 0
14.33494160079842 6.132076474772965 0
12.29144405961599 11.0480657286368 0
24.70009952870971 17.98024234275182 0
15.87815632832502 13.02675040025321 0
13.7384394007681 4.350292251677124 0
24.7267916065483 3.668141295241513 0
18.98048167647522 13.76944512141428 0
24.88245549284802 7.069450787404907 0
13.90383189935061 10.18554006812059 0
21.66901549151899 3.960695595035199 0
22.47875972640176 20.0869532841135 0
24.61185655623464 19.10633853294087 0
13.07945470266413 3.757681705014158 0
16.42857142937082 13.87244898555863 0
23.85675794325016 18.63479784847603 0
17.30951622056869 12.70626016574502 0
21.59554868412227 10.64718222285455 0
24.16782781358673 19.11713920585426 0
13.29708381668397 13.26822121419476 0
21.18174388286732 11.28889862284737 0
24.42259660910101 14.11599570166912 0
13.18975518887766 6.850639634807243 0
21.79466127369672 6.844106954303334 0
23.64090600781916 3.152309483538678 0
20.94917572092733 9.637238910775359 0
21.25557140655833 19.19939780302409 0
10.86081779165432 2.972977371647101 0
21.07062166412571 12.32774879775271 0
12.81006355091865 6.082705000508144 0
20.74445354944855 10.83767884165859 0
12.25089210202655 8.174952755053367 0
14.58059507523202 10.86924140887444 0
21.22694736673156 15.87490831151284 0
21.82296790326807 19.91674159426745 0
23.75520609204212 5.574145272028583 0
17.80322505676707 21.92359279310334 0
17.34550014693806 18.60257182869608 0
22.24880747323189 11.47870301461029 0
13.97302879995572 7.050569837819204 0
11.04902186777185 19.40884511274331 0
11.91103422296537 9.710788440958442 0
10.28476063673266 8.067048704108469 0
14.05722263833558 8.474112234758131 0
13.06897829081724 18.7081869548249 0
12.47988468025464 3.107293717608173 0
21.01207286754207 13.98451125060536 0
14.43255985231621 17.23771363417374 0
22.53499527263658 19.82468777800645 0
13.11535584002828 7.567794546360214 0
11.10421709251155 13.08563593577435 0
18.57428853566909 20.40778015617953 0
13.60486552658113 10.62611162963686 0
12.4453220426894 19.66212454908869 0
14.06044031142157 22.95056814255683 0
20.64001906012451 13.27496684758998 0
18.32017670063122 13.89343365893288 0
14.82738480842552 6.963211674322975 0
18.05214341795132 16.00417571711943 0
13.78953633320339 23.34140232349054 0
23.71402919872013 4.294889455274644 0
24.14054097530094 19.84725900974526 0
10.40007540210105 23.80607900762192 0
21.85134566229229 7.696374155682593 0
21.1917284531644 19.83873947851597 0
14.07032136172116 22.5751996598491 0
11.99849890805005 18.56923019621314 0
12.80882381397084 20.18551193693053 0
10.72684820479483 20.57348530346849 0
21.89087308886011 19.16737340251299 0
23.96418354170898 11.45105652851733 0
11.3246787335657 19.12147484046488 0
20.21989379237832 10.17213381978922 0
13.19040734212681 22.42533794192087 0
11.94134019796244 8.627937335224173 0
24.60481392953609 6.325650344891356 0
11.26634144621231 7.441938093644184 0
21.37086338678313 13.06771560886606 0
10.85722561994364 7.160766101382063 0
18.94081202759745 20.79508417920408 0
12.13980184321697 10.20918422815193 0
12.86120289885714 11.01237234667407 0
11.6487455765452 20.46643448232765 0
20.34183154953118 7.853863877542869 0
21.73724581286314 14.08500473397662 0
11.27058576328337 10.29894266369067 0
20.1892505487692 8.138116692415363 0
17.05644416840251 22.23062789316487 0
21.21912941800673 6.78780894482624 0
13.45196004455816 23.3549886277402 0
10.77080663241132 22.55939894548485 0
14.34918825169373 19.10392534926938 0
22.75328788796513 20.10273738520044 0
23.89282805622571 11.9029318366516 0
20.15459300901505 6.246020110814719 0
20.86143204204033 17.84539966160699 0
19.59692615295587 21.33845537114848 0
13.08753355202219 11.46697476905054 0
23.633298429159 6.354984245450996 0
13.57402229796669 20.78819943986034 0
20.5572652136749 11.11516499289742 0
21.04680846633521 7.28546755074448 0
23.79829650455414 9.032378839866142 0
15.52997385963769 13.97194395475461 0
14.1658416471233 10.37347888916589 0
13.77797848096369 11.0812823354403 0
24.78071178819853 6.711633015266352 0
20.13636273817563 3.363916315523775 0
20.01582311335672 21.22579042326942 0
11.45589931857464 9.145998822064891 0
14.63528545906005 22.79533671256432 0
12.83142280427305 16.83725761731921 0
13.31555884907168 16.01482866525149 0
14.04603488769241 11.88381024495172 0
23.93946524104604 19.39520659548631 0
10.84982231905822 5.762914555587959 0
14.72143232092498 16.1049020676885 0
15.72938364302287 18.9433272689215 0
21.44448970614238 8.230275676061513 0
21.47524072681718 8.550728952443976 0
17.2216818826921 20.1894111709273 0
20.26878844597035 13.06394181592302 0
23.58076918677932 12.61228402095959 0
24.72942500436636 4.476043685850072 0
24.61306878552742 8.151335498149113 0
22.69419560854303 16.47883756800539 0
20.19506517008253 5.43510739494668 0
10.39935142407112 11.73222652645093 0
22.81840437174462 15.23938001527557 0
20.71920972917566 9.814325901490413 0
20.61843895385147 3.830821795383257 0
11.29920436767139 20.97345478565325 0
12.08646805872869 11.74296147303055 0
24.22587671114979 18.44708532252315 0
10.31692479575346 22.0932910802596 0
22.29787627653866 9.19991449438563 0
24.15407562437068 8.165369386807592 0
15.45796253750253 19.85313615278573 0
12.85197230348779 7.238265310083928 0
20.27770693273047 13.49873461237746 0
10.70118041536678 7.620595627106439 0
22.98657828075576 12.23189406557197 0
11.00091523181971 16.94138757496584 0
24.79372124896157 5.382454140744399 0
18.12013323449646 20.21614832383755 0
10.01293861787768 9.574564999774804 0
10.81675695870081 14.64599475614708 0
22.13837306240399 7.225963992734441 0
23.23065600220328 19.19161033257539 0
10.38575751888549 7.515780404177765 0
20.37675740758652 11.59716588490097 0
19.78458972459305 20.15593720761432 0
22.98704839066799 6.007194297188069 0
10.13394670078515 3.374915735022623 0
22.50797631725789 2.750203751695379 0
23.65732729276836 10.52262299289551 0
24.66537674283241 13.76770210601883 0
24.78006651268799 7.758129841063008 0
16.71814887254401 18.26106027714554 0
21.81938622568036 9.424432680124156 0
17.20814188614798 18.21615730616977 0
11.29608459069026 10.64272518106105 0
10.44330603817834 17.5727226885602 0
23.27062820027615 2.995127331231942 0
22.55849398960328 13.82424414176625 0
15.40484708248362 22.25164003101467 0
19.36448779436222 19.2343568298369 0
11.59651736707521 4.327284320799323 0
14.75365049274714 9.420202382051578 0
21.38921129621266 6.401544762844632 0
11.69141784828079 13.11922520145041 0
13.38960720961645 18.35449795200325 0
24.27896870335064 16.72842782840351 0
23.05579067992765 9.665894807174597 0
22.72970479423891 3.408880586098971 0
11.61549170827148 5.855515769839878 0
21.58677978051343 13.41122272936626 0
19.61928972874439 16.97769114920317 0
23.66528285241154 13.19953847955464 0
15.65059071748195 18.51803957737996 0
21.23616964085057 10.50842687233535 0
14.84007852601438 6.601470316239464 0
16.45144088254715 13.12429434978326 0
20.5782883455185 20.67548331195847 0
16.20173086150499 12.84036002704091 0
13.70062069717705 21.28363419789762 0
15.19358115327603 20.96691866171719 0
18.611893272143 17.99977783872331 0
13.497785741552 3.591607325740784 0
11.32099909249895 4.001394100736269 0
18.85355422900524 12.9624903908972 0
12.80367835747217 10.10543330311747 0
20.24580147672697 8.47302126041605 0
20.42962063803152 19.3544150765727 0
11.77896440246052 18.21153178043367 0
17.35289693248001 16.18404804776169 0
20.02315084604213 19.23778814324339 0
24.1970218484983 5.250534227837889 0
21.08905156688195 7.63243703798333 0
15.6633902674323 20.45189762483849 0
16.02631230846849 13.95627706002097 0
18.43376456043205 16.27246559188467 0
22.26171314792499 12.95267101340525 0
22.11288639472914 7.574482817548274 0
24.15664076853703 15.83522901710662 0
15.6530052919347 22.55530037507188 0
24.39617962335179 4.419679537093904 0
19.55925971013018 18.57621462296932 0
14.51084537942971 7.459300866348064 0
23.42588488121478 10.26725148834821 0
20.22321763868312 6.690540509444979 0
10.35201437845194 21.30967326379982 0
13.52887336042544 21.50065765217147 0
24.87604218415526 3.37263942373749 0
20.36755068586869 20.98973003275547 0
24.46003408737991 2.818837711805329 0
22.88925093946022 2.820250162472032 0
19.7190471765535 18.9729107219302 0
16.41543201929165 18.56942536488301 0
11.85459024206441 19.67251570693345 0
11.19760873543769 8.288466767549895 0
16.51129859050664 17.01947454478768 0
12.15368716018345 6.592757266237737 0
20.58531373744974 11.87672320557732 0
23.49718010133656 4.695093983061615 0
12.31077446460366 6.246544786183881 0
11.15043451362164 17.78441475235905 0
22.58980449898146 12.37450295230946 0
11.58232831450741 6.13741106749162 0
22.75626918654574 9.620708051110055 0
13.64910597618394 4.011205265422674 0
23.2559476601884 3.9736134207701 0
13.63904187541876 7.762198564614046 0
24.66287617459215 9.13037510435689 0
10.20364587231269 10.4254355237812 0
22.99933802234919 19.41523369345241 0
18.84601246545192 20.02795573383784 0
21.31126629068673 12.66751116653223 0
23.97297449432381 12.2314123138718 0
22.06282987777312 8.938446056893028 0
14.58534164111043 14.08255945305467 0
10.05749199227571 4.110574024101712 0
15.04350107102312 17.53282839306876 0
14.91576225553753 22.66163796817404 0
23.72633488048371 8.237527809018546 0
24.80750824078217 8.492854072266658 0
16.1549039055431 21.08331693836765 0
17.28269021038436 13.02203855497645 0
20.48305006644959 16.90044746069108 0
24.77009210463638 12.57521352402914 0
13.32135395596967 4.313571103851777 0
11.59781156890844 14.46598397974466 0
17.86657712563237 19.78270079676865 0
24.59291629902739 9.751300761394125 0
14.80849303553069 20.472783661574 0
10.77468540669297 6.658909512914745 0
14.65672638181776 5.085194073548299 0
16.65432330929578 21.65002685651998 0
18.02516527675069 18.40018604518691 0
21.27218262689967 14.98954526122019 0
20.34321846303621 5.084926992219414 0
10.35501281200869 13.2063671752841 0
11.15809311190863 22.67962450610814 0
24.16720024723836 3.39498809674982 0
10.38936964626025 12.4161261669542 0
23.51752866754244 18.04536523932568 0
23.57072635795961 17.13624726502266 0
19.51969540499305 16.15830133004483 0
14.15815015275929 5.250289944507223 0
23.44157955559526 15.96857635305016 0
11.98444052068766 6.011631816482658 0
24.82574287378928 13.53277938794719 0
18.75169086521105 14.0596511401029 0
10.36528397766419 16.60164220874586 0
23.08437141717281 20.31681728377818 0
24.6705896769738 5.014058711322727 0
18.439606542277 21.40254655308132 0
12.76919027119698 23.71375815011431 0
10.49425465105617 20.28816636552511 0
11.16099516190182 7.11445769006476 0
24.78095807771627 17.61771406994167 0
13.37668039251126 9.580149348255715 0
13.52381068548376 4.716706526663845 0
10.32391773351327 19.0658390371631 0
24.31619156105944 7.285216882407815 0
20.36691690732285 8.808668162952955 0
23.45206994356991 8.34600702755721 0
14.08201840074759 5.832552367770335 0
10.45425569660468 16.96450108564911 0
14.89531771397484 4.875656638633557 0
14.72443770648821 8.765364205012546 0
20.51156009655446 10.61303483351832 0
12.97562085369493 11.74266310702108 0
24.34640971771268 5.861828074896853 0
23.19354454991596 14.59338944933616 0
10.73019865413916 8.865796479194252 0
15.2044792202321 18.33291555693507 0
14.4604202688478 21.30090625168786 0
20.66536569513554 19.09672392289012 0
19.52804209913817 19.62974030844651 0
10.25291683898542 22.61648221464583 0
21.08751623230624 9.31144248426825 0
10.31178190136656 14.68605504276816 0
10.80080429833873 5.199975618236 0
10.19632895095129 8.811824966703037 0
10.29095074189297 3.711633672366997 0
11.72035108650191 24.04519017279277 0
11.65776080337121 3.270352557430454 0
13.06266917075689 6.62598282648366 0
10.10521844773038 7.339076898130583 0
22.66536338210432 8.201230662816915 0
11.59989561750534 9.792469310524092 0
24.06352889786382 10.54639681296792 0
20.24998056848495 2.989187737175119 0
20.27343465964869 19.90691400980724 0
20.92568135981851 8.033525580447193 0
10.46620019092444 18.53956173859309 0
24.09718276502874 5.578321347450492 0
10.12473229685713 6.654272329677124 0
13.48406272152545 5.277597352109733 0
21.47882359298287 17.23822222806379 0
11.45845975665217 11.64664426404317 0
20.81076016837439 5.31718759552366 0
22.19642295275578 6.507409096148995 0
15.53841929353955 12.84711277378617 0
23.15331361745007 7.441990207186752 0
24.52845743647319 4.743836241625695 0
24.0425067553368 13.17591583690951 0
10.28925372715892 5.079734925167644 0
14.33641101913667 8.8097906673407 0
14.07534685522619 13.87705094069552 0
24.1379745507597 2.973645933405566 0
12.79922102869324 13.12138731595164 0
12.82968737486591 6.87503814383084 0
23.12445993286349 10.24497772611191 0
20.76588432372407 12.48156026412159 0
23.96556522751559 7.260861125973205 0
13.93757134936774 7.396258354957949 0
18.43929750690031 20.09534823296053 0
23.49855602155027 13.50281869645789 0
23.74012364864499 5.004367530083161 0
12.61715068159075 13.48235481731505 0
14.32865396214174 22.691453664124 0
22.32800940485734 8.113091985910513 0
20.27941858890191 3.699566727669018 0
14.86363726081001 3.363916318856676 0
14.38156006682558 3.830823014764474 0
10.13200651614117 5.580813720625531 0
14.46430414427451 23.11240015963743 0
20.00030775254919 3.744523552955179 0
22.52698894886283 20.40994333335212 0
11.71271693168803 8.826745329021849 0
21.86911277697711 14.82714115612458 0
11.19807339063138 11.88225392418236 0
14.08201270447045 9.020214817201378 0
13.15008347525898 19.1503308900997 0
18.28361507006959 20.73025279339657 0
10.75754422411687 15.42552718152519 0
24.26003002042471 6.515617230008659 0
21.47897943517959 4.716732664401506 0
17.01929223322536 21.51977232416291 0
22.43535321173023 14.59412719136039 0
20.95897153774896 21.11243338394786 0
12.13150168306359 13.88404326732228 0
14.13208645904057 3.368402726711825 0
21.85283352393409 6.059434837568929 0
20.02375682642095 15.98646194213354 0
13.80390074198252 8.208991960285458 0
11.58299825444667 6.639951543013893 0
22.43440542764124 7.402799229370505 0
13.34659038055328 11.72741086877333 0
14.66711354780901 22.38238210368047 0
13.37818036673502 12.48345199451603 0
11.7935180924606 23.0709368675323 0
10.11777988196099 6.263374720824552 0
18.29227483760144 13.4282846813149 0
24.57445838591169 16.92619169165567 0
21.59106396871741 7.596027923125746 0
17.64675533437226 19.42172740078086 0
18.94148514937579 16.12734720867994 0
12.53630685826646 13.90394709658927 0
23.39860670069979 19.55340442559302 0
13.19487617640704 23.58367495407968 0
24.70192898996962 11.5931857750451 0
11.45906499654152 2.770228364919293 0
10.63159203577702 21.51686104647733 0
24.70014272978254 16.16171454077096 0
17.2659562409113 21.21588297394658 0
14.82379259953987 7.330085433948118 0
18.85959420839097 17.00442118625307 0
12.12633409321402 8.89884067808335 0
20.85987427711263 2.975205671053297 0
21.86366060759445 20.55268489636333 0
14.82928959436496 9.091785820012971 0
14.31746779955453 21.86699886984547 0
10.20412282829959 11.41670700445201 0
21.64890954014528 5.875809347681299 0
16.92628720639671 19.90523961282617 0
15.0078503661368 22.07861159089219 0
21.91667236690507 4.067297215737248 0
22.17675003680047 14.02175421569728 0
10.86088658882895 3.370058359693508 0
24.7169433732286 17.24872240839256 0
22.34210611964323 19.21271607425156 0
14.03946341558387 5.513060638394705 0
16.44923337395131 16.00428988722605 0
23.63736004474278 5.936619491804929 0
23.90854995619664 9.422080561241591 0
12.75821740128532 20.53631954015312 0
21.7766852312772 12.18973470186243 0
16.23422728699502 19.13814053271093 0
20.25789465207442 12.29451952065384 0
22.14747899930494 10.30411847870985 0
23.6734075550483 14.92997618237661 0
11.39296962374813 21.37630970921654 0
22.13029600427751 9.568972064697633 0
21.76069724322461 2.991932819864261 0
12.72391987183652 3.506432875880231 0
10.16803135816478 8.39595055619948 0
10.09508226833476 9.244015327316555 0
12.87041617976958 11.2903017344549 0
18.27290684602229 17.32352226773886 0
24.78700623794099 11.02674044439353 0
16.72411797098261 20.60928225023884 0
10.63586762766699 3.858613617716925 0
18.19380928023971 18.74041980952512 0
22.75048218470519 9.249706173508848 0
20.12944221789271 20.16333759693256 0
13.78215257201512 15.85988579527557 0
19.38672490371592 20.74233110542808 0
11.9497510356642 7.600583687435448 0
14.63183686004206 18.81832109407053 0
22.78787650174501 6.964625987528702 0
11.85178995572904 10.04096600203613 0
10.15246333132306 19.37829084252084 0
16.86073147696559 12.96249038891501 0
14.49328553138025 6.745919094813178 0
12.21189764443388 14.18964678226016 0
21.33210479804955 6.04421393806749 0
16.33217642185983 19.58650917494639 0
12.56211942237578 11.24970856243789 0
11.26983870332245 9.871710738091563 0
24.23881804279119 12.08350834441965 0
17.97081578299496 20.60415711588446 0
12.10946484710655 2.820527632551186 0
23.22029838501824 11.15938476454346 0
14.84228795093371 20.09501428842005 0
12.17743991725274 9.87931763863282 0
10.34833284287219 10.74410964618219 0
10.72862063417199 9.960079420309228 0
18.93571840500336 20.44019729689493 0
15.72906953579068 19.31932591860159 0
10.27897419948692 9.51072822152975 0
10.72159661247747 4.154599501261474 0
20.86791354077958 3.368402725923313 0
10.34858302869604 23.01382009043741 0
19.7746300033286 12.97322600180768 0
10.12558512164696 11.00674886586591 0
10.51275517951212 12.04073738806481 0
14.28303933403771 21.52435810049599 0
10.00786133047747 3.772515438122276 0
22.4606652609781 15.38487708454173 0
12.97293342975639 12.55516280066617 0
11.83808226439533 22.75623358217841 0
24.0724889740127 18.84530266855395 0
12.80403286611933 17.7318011505209 0
22.82808432075382 4.005811770109856 0
10.71253382321023 17.06103839180976 0
14.90197899911475 12.91483005792326 0
23.80050129452923 8.778725690901728 0
23.72436905864402 15.72211199959987 0
14.04737155548206 19.37575479851402 0
10.42459709172956 6.763739320397343 0
20.87459646845397 6.718466179632467 0
21.07307012325096 20.27044429009305 0
11.1808833790562 22.06247721005641 0
14.0754532663737 21.22306588504338 0
22.19106725649206 20.56629202251731 0
14.85323480364209 19.27445495200536 0
19.43153070014099 20.00861306181343 0
21.60688259234838 16.90793857270782 0
24.54488689628228 10.01909262331331 0
22.23133062235716 9.925865651412568 0
12.2845968635661 22.46027929112746 0
23.53907908263201 3.606951514105347 0
10.51922968947586 11.46338146846375 0
13.07456445323802 12.87079731931704 0
21.63613798146191 14.57698794359977 0
11.50488853832315 18.44175392878251 0
11.27014862055738 14.77371047472443 0
12.73117006625867 9.531765943375696 0
21.88084346606982 18.51655323693701 0
23.79022527317441 14.6582360963852 0
19.4494277021985 18.00235425254714 0
13.10500578012915 22.98794125400701 0
21.50208417925559 3.591534065345074 0
22.55887274744229 9.036518018328943 0
24.33629805430966 11.40549790989359 0
23.81777567333668 11.10743310161892 0
15.7822279895003 17.38955591459786 0
21.35083375415095 4.011225193167287 0
13.11677207181359 17.49133813654353 0
18.28074437449019 20.43266777412784 0
20.22886105479574 10.51613853440543 0
21.42510266227866 20.72730632580803 0
12.71388682177704 9.81483071491133 0
10.36185985417474 24.47626539370642 0
22.89480797969785 10.43046687842581 0
11.48349855170311 3.597695447679568 0
24.61419522020417 14.51644004926928 0
24.07386861813193 9.135259726673691 0
14.53992775290233 7.186059585732685 0
20.23668152491918 18.46470083028035 0
11.51549126910545 22.90385543378487 0
16.71458834159828 20.943527405244 0
22.11942052412723 8.65776727329772 0
14.19062014641705 18.73539169081817 0
12.91302531348427 18.24848573966641 0
15.84744350249227 22.25397525038464 0
13.86728823012106 20.32625798101941 0
13.87091307968312 12.14595045005885 0
25.00851486485277 2.737363176819498 0
17.55933127437601 21.74199814597545 0
11.00073570090679 10.90877140752026 0
14.3259583125813 5.030216847662527 0
18.10047407682826 17.96013850313406 0
10.22911129061055 20.10885521873407 0
10.18639126693784 7.021823955125129 0
14.42117306841237 20.99902491503657 0
10.16450240975257 12.83941320462105 0
11.44301926760978 24.25464828002456 0
16.52138470103058 14.20368018803475 0
10.38345534442985 16.16463517051521 0
15.18335942462076 22.91590221776355 0
14.30899461457921 17.6243787402203 0
13.51529252450983 21.84062962540149 0
21.92347271333428 6.628488682698195 0
22.8568995627149 11.8479076775517 0
10.21331067221142 18.6546875842197 0
16.5971420033102 12.78279107774694 0
15.51039259825882 21.47693368886775 0
14.46531301605993 3.510217212001543 0
21.72809609122184 20.77671433482898 0
18.13096205455128 19.44201615550801 0
10.74417800874537 16.04550350098479 0
10.18853855949111 15.81658184937196 0
19.89368807497932 18.60704428907264 0
11.18212698355966 23.50170293953932 0
12.14151824132022 15.21226520196833 0
12.98012322962105 14.0717373589464 0
15.52506209550994 22.84496406140339 0
21.15315992772765 20.92402038959377 0
24.79176644422199 9.454044051712513 0
20.70320003756657 13.6828396505499 0
20.94635772452985 6.96738986798446 0
23.38494468585541 9.713143828828969 0
11.16762336128092 13.48883988518139 0
14.44965315331195 7.781806090029514 0
14.74935865544833 11.95907309049254 0
11.55317731426352 23.32407971330355 0
15.07664288692933 15.8951221429788 0
10.72383020880372 6.327050959056793 0
23.10519953928419 7.13969695408688 0
11.01067804671407 19.12040531233898 0
20.93851825070647 14.73420789866702 0
14.17730172557563 20.50252486944301 0
13.33892637259304 5.591704031031268 0
14.609397458871 12.3115519009265 0
22.95004789681093 3.705290411457892 0
14.97885706526001 2.764743116706279 0
14.45635478186052 2.806509357998681 0
12.48682603383328 10.27000618876765 0
13.10912175103718 5.764330708536009 0
19.14564453108795 20.63183451329418 0
12.54031348571091 7.393585521182207 0
10.97315920596635 4.097877028710396 0
11.40467463329235 15.26761693806008 0
12.17981654808159 11.35115335430286 0
10.71440669544849 11.6895143532887 0
15.19642339162291 12.78015752850721 0
13.11406933213863 20.09921485700786 0
12.66040629588097 16.48001530271845 0
10.29758084285512 15.38714416960251 0
24.63380405216932 11.95440031364245 0
20.76945649898196 4.068703682237466 0
10.75190736034975 10.26970125838179 0
16.98643652959926 15.91738786255643 0
12.19127654403576 9.268411851418225 0
21.46258286937511 9.312366328324577 0
13.42425156449389 8.944988272681998 0
11.82398977874591 16.50489323292192 0
14.7638063917054 10.14984800143099 0
11.60615389344724 17.16009872718168 0
14.5086609943184 19.47623091677806 0
13.66743426439798 17.21263485465422 0
13.10569588302901 8.34119514685283 0
16.90366018988124 19.45350294075531 0
19.69719184992864 19.87444899319701 0
11.68807896388156 20.83147112521828 0
21.23373637212475 18.56370573233606 0
14.12389818148185 6.637447882503553 0
12.20095478471654 10.68282959831973 0
12.41490755340497 11.80321714146962 0
11.03972841098276 24.22618393910624 0
21.49999554216872 16.03022636152824 0
21.1680474081022 3.41631445688382 0
11.144941651328 18.76004101466837 0
22.85412089654837 8.892882405365269 0
11.43727923696009 5.224857081103214 0
17.20367555148877 19.20885994828199 0
23.02163323436661 8.280189085860084 0
24.86682427818829 10.70499212561335 0
16.28464225422475 13.50797194154154 0
23.74407197511073 16.32742401619879 0
11.49117379679261 8.597636506310186 0
11.97120221496817 9.447375283302561 0
19.02817281771789 13.43379186929049 0
24.76453446761499 2.971474259673013 0
13.76650971606029 22.63930964784779 0
20.39768458208927 9.231478783280084 0
23.5831432731596 18.79095496069372 0
21.48450543534828 17.56696401224988 0
23.48754135586607 8.048972054885967 0
10.90350071510094 18.03403579698795 0
10.93866658051876 23.24217852022949 0
11.10526621137569 2.774858156404115 0
14.16740160712357 23.31269230868907 0
13.43064359719158 16.55840189370307 0
21.92120819243767 3.756849183676099 0
14.84991384296946 23.04844907944674 0
23.40871394316967 5.611625518409743 0
11.46869555983702 22.09282171219681 0
13.83563569496226 12.44051128693776 0
20.88413010509086 16.02699072723183 0
11.77097995656582 10.45518749807547 0
23.66272375041105 12.2287292416828 0
20.94789532175865 19.19751516530641 0
21.25839676204961 18.88976588331024 0
23.30266577459472 13.85041539837105 0
21.04230295736412 6.527464999588922 0
23.81033415570204 7.576754011457311 0
18.91011561022835 19.26891883766943 0
20.85840112278867 4.375269555666268 0
14.40661378489559 4.551789939262078 0
12.26762289210242 3.408775748440753 0
14.14159887929949 4.375269566733389 0
21.59153091924664 17.85429823414669 0
20.88129705988726 8.43248304737222 0
13.89141881543073 4.710057370841774 0
10.6774166772294 6.034029856156208 0
19.6494725108742 17.38068944790963 0
20.4067689698199 12.62900511230871 0
17.85428750223496 21.62783975612886 0
13.10526045734063 20.47003842191641 0
10.22208118053139 17.23479330138584 0
12.66381063825767 11.91418050315591 0
14.78189479230601 21.17069510251583 0
14.25023925939806 8.144834994780288 0
21.55139116159751 18.49810706583263 0
18.17284759433637 19.88939521914875 0
16.1687066395172 17.295206520306 0
15.70981555664583 21.75365529532921 0
13.00049001026669 9.040926212201004 0
22.87248411883814 15.88371115500011 0
12.87865167942738 22.4361477281707 0
24.39090887617056 11.04638683497342 0
12.51008007107437 7.09237441686226 0
23.47580153019072 8.763902928073335 0
23.38868483580704 16.86604858513356 0
12.71051604880249 19.06180179906741 0
16.67196806831305 13.42979870806988 0
16.90042835705309 17.36909845614272 0
14.80566908561692 7.729083311874343 0
20.76706799043713 20.91863963173902 0
10.81383589859486 14.2424996607232 0
24.69999998993719 2.69004310209185 0
23.8938299114486 2.77421913970831 0
11.33940735984682 6.347317832161284 0
20.99046211620704 9.993035265912917 0
20.47394875603676 16.26536411007374 0
15.3680299155611 16.82857471513684 0
11.04797236243793 4.713457353249391 0
12.72408691448998 23.06099838360355 0
24.48118973042232 5.219995432569944 0
12.20562956310796 20.4734872465752 0
12.02574990559789 3.175729745100457 0
17.76717122126885 18.65196989562007 0
17.98006384517337 12.97713982583745 0
25.04333250282887 3.040845023965824 0
10.03182597002963 8.122563029302178 0
13.47404340349592 11.25814436363817 0
19.96475862696984 20.53257650959183 0
16.04244401853967 20.65611377271803 0
24.05238786129431 15.11689770285667 0
13.83193400936508 3.416324923525687 0
15.77715985250299 21.20767225939867 0
10.69710627669365 18.292228843411 0
13.60984455236414 6.381052015027333 0
11.05833371556061 9.555328877889398 0
12.11791338318525 18.13171156256809 0
13.81263232209879 19.96266103147512 0
22.02248868782464 13.23692084987536 0
14.79303199957933 5.478145935554856 0
17.52207818863038 20.77031077392179 0
22.62831489018743 7.907602999940409 0
12.23232072270191 15.91132303236005 0
11.23763500275094 17.30416853799879 0
20.87496491699398 10.51993751652411 0
10.74621551495898 24.11245415608403 0
11.27965830539069 22.35107893253409 0
21.60619123055836 11.78517040800175 0
22.30431800324742 10.61797110463389 0
13.70085048305502 7.165848454637059 0
20.93907066705404 5.647194535819386 0
20.7829034824734 5.940991751114396 0
15.9910360654118 15.82776691794099 0
23.87490242104693 4.666843963604478 0
13.15313071784917 7.157635359364205 0
12.53659402233887 8.016230128429656 0
17.92057795891661 13.71082779404279 0
13.9527220275651 22.01769391135778 0
21.6140284961235 6.659026404939334 0
21.33861780016556 16.33696387109434 0
12.18289829569036 14.83796589166783 0
14.19647165576237 16.05903020853259 0
12.80929354368367 6.532158002235794 0
23.48609573014656 17.41173230383343 0
23.43444144913363 19.84575048730864 0
21.70865248669091 9.195866371939353 0
19.74568110389425 14.02826773048256 0
24.34244505445741 4.97799183638987 0
22.96926001855675 14.43265013414207 0
24.83205784142331 9.999836268260003 0
11.27987344671846 5.896209609543252 0
23.48154308051824 14.76871347497987 0
18.74999998662868 12.70836442437949 0
14.22547757847741 7.273934810521121 0
13.79811630591168 8.951011769935008 0
10.81284041596418 11.31827497092693 0
24.22205310857331 8.532956684423647 0
12.86665821441085 2.824954672769965 0
15.39165997670722 17.26153502584235 0
16.45299578010376 19.97844617951567 0
23.50100570172764 4.136674400748559 0
13.08823715723794 10.21910237232901 0
20.08249800110164 7.316129500092623 0
23.28318144993812 18.82824232041531 0
22.13251775429498 2.824392390799475 0
10.78753893629002 17.75778497537014 0
17.42815685124095 17.40616525142309 0
13.46347366538324 9.284246439071584 0
23.72533445008054 9.743823150486492 0
24.4025451214311 13.83129373127955 0
23.67794213277359 20.11680862168901 0
22.62569093262087 7.595352271163677 0
23.29931383503553 12.32523471698012 0
24.75553145049912 13.2062241592748 0
11.56436173509657 14.09055630434617 0
17.03320557526395 21.83784928769373 0
10.72514406171661 24.40863884573137 0
23.77375114239328 18.30524135144659 0
20.1589679615836 9.002020040764565 0
20.42152831426603 17.41981858185584 0
12.88544693439093 7.850557093032457 0
20.63237217175353 7.943126106621377 0
16.58669439826716 22.59222078774528 0
18.83110595044501 18.53766513767835 0
14.31140373403276 12.64737123883369 0
22.78069794499606 8.497696873568174 0
22.44485766194918 10.07363826945911 0
12.13890088717543 23.90260426091774 0
21.05680368872573 18.18463022493249 0
15.78214003190168 19.97698405179175 0
23.4886201414273 17.7032154743847 0
11.76666666734029 2.699594083160212 0
12.42095844326865 22.79572629271665 0
14.40627157993834 10.63140703491825 0
18.57680556241882 15.87757461400387 0
24.08101693174488 8.811917763164473 0
14.47463363364549 20.6621363016224 0
24.08965805829797 16.20016644687435 0
20.47225795634358 7.595527839558064 0
13.83025504700964 5.324123402815983 0
20.88938534823134 16.97587551253038 0
22.92836132499112 13.78824788314583 0
24.13979639290493 13.81087502837478 0
14.43788002035216 9.891012249415242 0
24.737284445068 3.927703358475318 0
12.7139960654198 16.01844723087094 0
24.68603125669605 19.76811324526279 0
16.90679051358467 18.59845071548772 0
11.81495638652108 17.87681663366254 0
10.08652805972975 10.19090285150927 0
11.77320696527164 19.19358653614493 0
16.2814006958754 21.5048984285044 0
13.1949737443997 22.71381462021487 0
23.21641317893261 9.948696876185519 0
16.02216888673455 22.57963046352407 0
23.60882416905397 19.33726243173325 0
23.06300677074879 19.97163246355777 0
10.81665588882491 8.287971072389645 0
18.82136538680187 19.62686262801704 0
10.05861693806474 4.391735431187289 0
17.57744628780942 15.83706044578118 0
23.15611841611819 16.59997619137783 0
16.39349036503825 20.40810262104975 0
10.13233919794894 9.873734443710463 0
23.93663467193639 6.536092470165723 0
10.46006534896906 7.820642233677114 0
22.98759756066883 13.09140219555214 0
13.43866864346886 18.83657347114773 0
10.72546170131488 13.11184192413717 0
23.12568400726748 5.690398519680767 0
17.69793315503519 16.33973134642158 0
21.94799315383407 12.83104648318758 0
24.33469529535376 18.035335451184 0
12.42988578420944 18.71196956341084 0
21.1197523338966 17.1748726333956 0
22.15496673235815 12.19921098269666 0
13.90043338183744 9.8457450838351 0
24.22430094906225 14.4003994261453 0
20.53468681875324 3.510217006113097 0
22.06334783224131 15.11352380722532 0
13.4421518462174 6.990185273229859 0
14.6945065872114 12.63187341071544 0
23.72445944837204 7.049844823851826 0
21.95673581163996 14.34635096567698 0
17.32636000484311 16.67271901774291 0
16.96627131093164 14.04672706222914 0
16.44726540967669 21.00842191794064 0
23.79367974941317 12.9031319118744 0
20.72922097934752 20.36514008615541 0
10.95624978380365 20.0587192487129 0
20.0384892973205 18.84673729593885 0
20.46001603794648 14.79672729684116 0
18.19501291874995 21.17145150944362 0
22.10930054977439 6.880056885267157 0
22.9574590071955 11.02726440149273 0
11.48247455720824 11.31403754425657 0
24.26040202888004 4.073834174143201 0
10.07035403369136 12.47751127138626 0
13.88355306518267 2.791457632805604 0
13.68410308268379 6.01049468070558 0
16.68708593236921 22.31323970961811 0
13.72094937130722 8.460091044929397 0
10.27987549744965 2.71350018979662 0
11.58976608724134 7.515566135998398 0
11.13932346482426 16.62512955981897 0
12.01807753713124 14.52216590616885 0
24.87324862450441 8.894862038040094 0
12.70172759579462 12.29607383081181 0
21.92585669896897 10.71167064007498 0
22.8393720966699 6.592677684113258 0
11.42801675671991 12.06116966617092 0
17.85714285031339 14.06498105623528 0
14.08380327028836 11.53733342532007 0
23.46833141568141 16.28883991278646 0
22.12677511618061 15.90033681373492 0
10.76661036906038 5.485390878461168 0
11.98682493802335 17.43144736241676 0
10.17565119420075 16.88731234191135 0
14.32010695452843 11.63209426146489 0
20.07671573674305 4.08636189678038 0
14.3167704103171 13.09904119724428 0
14.92327290877984 4.086380419260269 0
12.05254606912717 6.337648077006733 0
14.03648358945897 8.773370082509874 0
20.05775826722632 20.85373033123973 0
16.90812643198581 16.90129346712315 0
24.99082324630116 3.775858729984006 0
15.54644661856058 18.07776958502217 0
14.77623028558154 8.359203485047992 0
12.49120154810923 2.750555204585865 0
14.67013143752752 11.55045199779435 0
23.31464697823348 9.420605686011907 0
13.37669975819726 13.60284909340555 0
17.33171379890826 22.28551144354452 0
13.24350007217995 19.43702130570891 0
22.60464541996679 11.56236756607348 0
14.01476177629005 5.004703848707859 0
24.50599685806707 6.609676590046933 0
10.07282252954051 5.261786282023774 0
19.17002546998427 20.97643660549636 0
12.10599758044242 23.54797895006471 0
17.03410712191868 20.47348764813821 0
20.13904702327387 7.056399187495943 0
22.27427504737004 3.506022793075156 0
13.79673335405436 21.00299638155436 0
11.72719350332673 20.0980765453743 0
20.10445144680302 13.83397447827715 0
24.08840271565254 17.37772372588567 0
13.76378006718639 18.26455219196495 0
16.57750316120621 19.33845295573424 0
18.14312708631343 21.92539036077091 0
23.38084677011988 6.652237127412063 0
11.03600147274255 7.701804476746446 0
23.27405209110593 11.62260533872514 0
20.29839935817865 14.25453869308427 0
10.88287478008826 21.87634175977863 0
23.50822718392068 5.247435071051642 0
17.60999933493658 17.05354000409743 0
24.83190619451473 15.08327777924062 0
13.61487029748678 9.477191301008125 0
23.68350875475542 3.950967258035996 0
23.31053498798865 3.321106812510749 0
17.90145193281438 21.32316528456652 0
20.11683726902875 8.756741888909291 0
21.72112372026936 9.702293930108034 0
21.59123102212109 6.157332946167574 0
11.94643641631836 22.42665745221669 0
11.46210001455948 18.02480766343237 0
12.47649807818256 19.9672129380514 0
14.15551701666804 9.986404771175426 0
14.63737378703207 13.65768554020224 0
20.54364521438646 2.806509357145942 0
23.14158013385356 7.722600439859567 0
20.94299416907564 11.06921216253581 0
14.07241435406749 17.20739620717282 0
24.7049277709807 16.60335887626044 0
21.44210086989303 13.79942620651667 0
23.64142147352123 11.65161126158051 0
20.30112124663776 10.88004149570884 0
15.61375088238566 22.00920654247918 0
24.8815307475937 12.8879953534066 0
21.6788672784946 4.313748588735376 0
10.64784679566542 22.14278451454703 0
22.7810179408472 14.01590261999234 0
16.04183357489497 21.75534981296283 0
17.61539140949892 17.83704389599334 0
21.50985314341906 5.282056503019106 0
21.58951320005767 20.49566737472919 0
21.09316465461713 16.65265884096189 0
18.52858857181053 21.77873169381068 0
23.93826972459337 13.50868565015185 0
12.80326751001034 10.40987180940166 0
20.0456603106038 16.86196736100683 0
23.96983277244872 20.07968101365429 0
20.70714485482855 7.240228664428689 0
21.51424976065481 8.936645590910429 0
18.61354047232389 20.75832330027795 0
24.3554992482328 17.16582749063623 0
10.16905033109631 12.09311177043365 0
13.15689646087752 6.056344729801141 0
21.54718081101066 19.19859489667344 0
13.87260861765035 20.66775500888859 0
24.72170373396867 18.71242750489062 0
10.54271148772361 2.819829562922 0
18.65791791998276 13.26535217763026 0
19.21289107405988 18.52954945975138 0
14.07932576572895 11.05998063458901 0
24.38320713602381 14.81528427924686 0
24.47813445465929 8.421804315058148 0
24.33190545391392 15.17509121319874 0
10.28534337578583 18.27650295155049 0
13.95659296177535 4.112797518445173 0
11.67665755206157 9.471684260375627 0
11.337577385215 13.81871557608517 0
11.99701722830038 12.14682817703869 0
23.35053719324663 4.327227468913499 0
12.62382591929042 23.38536696804168 0
12.48680984154104 23.92365683967405 0
10.20726866766678 17.87659833841041 0
20.6518908289352 5.056477316074952 0
20.45857311180637 5.98278541552251 0
14.26319953125665 9.197374808739431 0
18.95091589636892 17.38463433578727 0
21.74342659311021 15.75785242449737 0
13.56894545611897 8.043775435112266 0
24.93314591158651 4.158061433103081 0
24.03743361681525 19.61791207620681 0
14.74267508023864 13.25201381610404 0
24.60627501164923 7.064567661826941 0
12.36194398170312 13.25979086079667 0
23.53978290176195 2.77026643902531 0
13.28379582241124 22.1121245733104 0
23.79687458106321 10.78806153855596 0
23.77876806394922 15.17266597334713 0
24.09522175323305 17.77704893546208 0
23.56979127558655 14.05398075724135 0
13.67424844754381 11.92429363530445 0
18.62286551241175 17.24624621429913 0
17.46521947136638 13.42129834321541 0
23.82546570978063 17.93342112524607 0
13.532713411635 2.769228254645345 0
11.48979359101047 10.44496178176354 0
21.11644442308192 2.791455558675288 0
21.46722878404826 2.769180460025986 0
19.84831997783063 21.44903167583535 0
15.5749065492466 15.98989244313359 0
11.60536947102555 12.56136347900804 0
20.68145781532571 6.225700774927725 0
22.79157327653247 10.72970293374102 0
13.36714014215281 12.11222999867838 0
13.84165967596533 10.80832197826533 0
21.73225142490859 18.18557521541543 0
10.70705584377155 19.30610323610949 0
11.10706779252846 23.84337009952516 0
20.57654047511277 8.592965867055788 0
10.60871062295279 21.13433480243357 0
21.46059735100875 10.32693190454147 0
14.86506388148989 6.23516686137985 0
12.42176312766117 12.92328688122165 0
14.69512762874093 11.17266053352334 0
22.30905323414049 13.55343540898682 0
21.10929173443464 4.708902412852337 0
19.00034731770447 17.76655379719675 0
19.07976307840477 21.60414896575732 0
24.95214013651767 5.134212764327433 0
24.03912825456855 4.977253156852016 0
20.91364083216044 11.95144852790061 0
24.52046980379049 7.594904668874594 0
12.44511666139358 9.062237142699605 0
19.50004465543839 12.83122208015123 0
22.79629541927895 19.68903406708644 0
10.29924757302031 20.5332498932034 0
13.08323076575372 4.067149461172861 0
24.0620192504952 7.500122599765811 0
11.15005335715786 3.402352708330044 0
14.00660348035788 13.23773371339717 0
11.16265449253505 9.268288703811828 0
24.84070811816513 12.16352102830618 0
24.51058692462113 15.6385385249554 0
24.65861595520362 5.604966853564199 0
19.69944249128481 15.79069263342534 0
10.26212439122881 21.60220400179859 0
24.90326844239954 11.82340435752132 0
24.25895050487899 9.929084416089145 0
22.40435329104182 7.071632773920399 0
22.02306889099322 7.967317584470306 0
13.22766445006044 23.25306849894908 0
23.20169565049291 18.20282480543782 0
17.58922688651027 20.03690608190453 0
16.28422507683134 16.56385272289624 0
20.57727469167806 19.75351521103222 0
20.97272430414192 12.96688307754181 0
17.60042048401084 19.73690784156271 0
12.60760500419571 19.4024218302301 0
21.13788743947737 8.742861355734327 0
23.51116012023325 12.89871742756723 0
22.02765923368679 16.55468492056867 0
15.60990787883748 13.63911250800859 0
23.33064529613498 13.12674300612358 0
11.56941075765119 10.68130032635242 0
16.12309026664453 13.21363664062219 0
20.57268092743063 17.69973927675605 0
10.19062271007774 15.0286809783443 0
11.034711032483 6.458596571847068 0
21.84522561272987 7.407698231646028 0
22.78633745532976 13.43205336126302 0
23.2726172452173 15.31649527071053 0
10.07628163270466 13.20334146241747 0
10.72331798293997 16.7726483391104 0
10.93882668387599 6.912226925012479 0
19.62614827093247 16.57948926991105 0
13.63948472515033 10.31215994506231 0
23.1803516831584 11.98209696340997 0
10.49283689434695 14.07472893383974 0
18.83689941368792 21.1816155841639 0
19.59192167239721 20.45691727583892 0
22.19191478509239 19.86595058786261 0
11.33635522559211 20.62244866137151 0
14.88384785080925 16.64985157386264 0
21.25932711181351 7.096883323953787 0
23.88074233471017 14.91550181657299 0
10.15983357396552 16.36909664415811 0
16.35952238699397 18.03696698984031 0
11.497075309233 6.95538222516817 0
11.16557679191964 19.73866333035958 0
20.2829537437172 2.712088042102449 0
20.83756970829706 11.34577828505894 0
14.21289098913155 7.557671527853325 0
24.81209907690463 14.25926902650602 0
12.20337305886144 6.964994103611533 0
20.28911036545284 11.24735293912383 0
15.62457569702899 19.61247319401066 0
10.21970251413153 14.26384937956463 0
23.95254649056871 4.0825480305205 0
16.7857622528775 17.84265203013131 0
20.42147496790466 15.29494239574717 0
12.14196063806401 3.661942949629299 0
23.03690862543712 9.286953068351439 0
15.88424786660236 12.73320045312522 0
21.51050443042793 4.984038646839128 0
11.27361921605809 12.62833791745623 0
24.90775583118678 6.033717663476855 0
13.49871608326316 17.54428792052084 0
22.74816993049233 11.24441665901585 0
21.2638682874809 9.896015381170379 0
23.13165850327747 16.87104850522449 0
17.5980487417531 22.15476518668707 0
14.66774840481501 21.56611204535979 0
12.95885305168879 3.19263456832644 0
12.78700646627644 7.54831894363268 0
21.76981346968709 2.705336734420093 0
21.04339396619126 4.112802654643782 0
14.23054069931674 4.068704986255985 0
21.65829140438591 7.948320352172968 0
15.5522312528594 13.28528210705005 0
22.45552313428428 19.54900557586096 0
11.59264237423745 21.77766209480693 0
13.28358180920075 7.863973269380128 0
17.65774804073878 12.80089785230248 0
10.65387491005833 10.89467157638947 0
23.93908205432726 15.46466520081298 0
14.45013120435399 9.387657272273513 0
13.33319377827722 3.271358057320578 0
21.66664655090839 3.27123207260917 0
11.78442006376791 22.12785805065287 0
21.51207382182391 6.95583090932282 0
14.47628316065827 22.13646463459198 0
20.62346175114811 17.17163373733623 0
24.37399163609545 12.64426288588792 0
12.12562220113486 15.55808237270233 0
21.52432066775158 19.86732595318782 0
18.70284957923203 16.61676788344418 0
10.78729075488681 18.64859195497104 0
21.61220520565117 12.7637660615202 0
20.97453114816206 14.35657210077873 0
22.46093195390262 11.19833350704803 0
19.46975718875115 13.54094073145884 0
21.96127354672235 11.53600181425342 0
12.2071614881131 8.520987062439698 0
24.34445881454754 6.191540948775545 0
14.51052479122849 19.89772231462976 0
21.14037754142937 19.50047775538616 0
13.23991970749459 20.8224678674968 0
17.39960104491099 20.45574467969333 0
11.56039345097119 4.652964573249109 0
24.37814056481894 13.06193470379239 0
10.17155026977565 13.54003972935585 0
21.90610268940969 20.25511012622301 0
11.81539276094752 13.73275882294518 0
18.14358486931601 13.19740389025794 0
10.63424274809726 7.330306642646715 0
24.93509535345286 6.336286353269722 0
11.89211357495816 4.245385567428324 0
21.88570785290596 18.84418766477802 0
17.86672122047517 20.123585652582 0
10.20620310917942 21.85370990206495 0
20.20247630267368 9.815288405883356 0
20.02114293325419 2.764743116191185 0
22.41343738086625 8.49194724874622 0
19.99289710996879 3.060178874174033 0
13.65721959382256 20.50015163440966 0
11.68574664742967 11.14516363146543 0
20.05660182133396 5.16683262477781 0
13.65033918799791 10.02490397233986 0
11.45781266600709 8.360436020209308 0
20.17840693079988 9.522425964170736 0
10.57494755162699 3.532958175626977 0
10.23037798303686 23.37732095777069 0
20.47039661563097 6.486443270779682 0
23.84192733524977 17.20865102585688 0
12.58803240142771 22.52386151801275 0
10.92944058226905 8.578695677127822 0
10.49591867038257 4.876886224519118 0
10.56338104050593 4.598218024657295 0
10.25449170926746 24.09112930944007 0
20.10458106394615 4.875475727064384 0
23.83985755333661 3.430922375924466 0
12.51444899817928 8.367237673391111 0
20.47581550866079 4.825897083598242 0
10.56975020059292 20.02116339671996 0
24.04784784884333 6.896283543468538 0
11.83526354166982 7.18900971508941 0
12.21335015527824 19.75884604630617 0
11.05844424223797 11.63421152418341 0
12.71783800341612 11.57273930247964 0
13.66520699012036 13.10014570070955 0
14.37587488225177 10.9950423633554 0
11.41531528009822 8.064229686260123 0
13.36795815310651 6.659624217963589 0
24.72971124406147 19.43627336714832 0
19.42098918525438 21.05243506179981 0
22.5272038448612 9.43334262652371 0
20.16849161432892 7.573745315930648 0
22.87416988108665 14.94096113666185 0
12.15532262205035 12.68444096665537 0
11.58115630539988 21.12859420029819 0
22.61620355767575 16.10503048472009 0
14.07344165628155 18.37678883989941 0
12.48515473958605 6.079326099618062 0
14.78733095461611 18.18890983538219 0
20.59334045945996 4.551783248126507 0
23.7791273180017 16.87091577872602 0
22.97351693611389 12.53394479723993 0
11.10698131180497 7.984770860109443 0
11.46969427773471 16.41747153050927 0
11.76636388534362 11.70371975216672 0
14.29710498337031 6.413082178747873 0
11.47092059010507 23.71194398662871 0
22.46312347791559 12.75925178296671 0
24.28269786363855 9.641019702178227 0
14.91472653356182 18.58603493216946 0
21.99510592021041 20.75873817495039 0
10.79820219474787 23.53823244364012 0
20.48939630338492 20.11031356259357 0
19.11543459091843 12.78160710529136 0
20.09026683035747 17.99666118235104 0
13.37370284845186 10.43048063878544 0
11.55360770331386 19.79276588996243 0
22.07893885007154 8.37221230327601 0
15.75735119284708 16.57482474304688 0
15.16015337437093 13.61150538648296 0
17.63375821426047 21.13847262739748 0
22.10422030247713 14.63747742108752 0
19.41082692094261 18.30148864564869 0
11.9355578830514 20.61074428183574 0
22.50712756221163 10.82411000708064 0
21.63514965670695 15.00695514250856 0
20.2817596231247 17.13483866181728 0
12.81393815582283 19.8368299732307 0
10.88017343706355 15.76941501481842 0
22.04018535040082 3.192133300812451 0
24.06464350110673 7.8216896621113 0
12.19475148052209 9.581083330973646 0
19.97883202273953 19.88496011548202 0
23.93822190301031 14.44142472289954 0
22.59372665020379 19.02464843342141 0
12.69553442529463 8.883328125110712 0
15.01738622633647 21.7383303069171 0
13.48202792302836 22.54670546180598 0
15.09894191823775 20.67594298593326 0
22.96364882858504 3.176559271474937 0
16.87561830800196 21.23742642514789 0
13.41434945025553 7.587685371597466 0
21.02337916039987 10.2666562408033 0
20.31854976565638 21.29655842775007 0
21.86856670534455 16.81285656568824 0
13.91093361505604 22.33604319786626 0
11.50337353487743 15.75604086070301 0
10.26665765370419 20.98168486151133 0
10.54543087073574 9.457624753425346 0
12.51578535089066 20.31957724041168 0
14.18552171025042 20.10899619015799 0
12.51303716571952 6.414195534533478 0
22.72902239516845 12.10479851314893 0
13.12338702217663 11.14971369163239 0
11.71845840360858 8.477217304737598 0
23.49126065013915 19.0356325204325 0
20.04844551318865 12.82293616268648 0
10.05279948801445 10.67302261841193 0
18.02318842831682 17.01216672116513 0
10.51724357139083 22.67522339521091 0
24.91623250603395 8.145084875814803 0
20.05021717186477 17.61769527370459 0
11.08416042007338 5.06555383716247 0
20.90770259987594 18.52742192023937 0
15.50232593974865 21.13619224363391 0
21.40127001302816 16.67783593854779 0
11.12997117079288 12.24651303176864 0
22.21194050439027 11.78604691786623 0
15.35672474628501 18.79465681872857 0
13.67521426034667 7.479824272609623 0
24.41549541122514 19.92148351533892 0
11.02387938216918 10.47871015207119 0
23.2333333218394 2.699942679672928 0
11.99403243609182 11.10170108296498 0
24.78400328309876 14.79226894018535 0
10.09563394884154 11.75002195359957 0
13.51763409038075 23.5972476670081 0
22.65855280124332 13.03671037172962 0
15.17417591067912 19.96734195400643 0
16.00227916286808 18.69086895892435 0
19.33097674723873 21.59650548128529 0
21.34246738725729 14.20752319937135 0
14.94297503879216 5.172569915185346 0
13.9879404195763 9.266433024399264 0
18.53719348298647 19.3669887057144 0
15.30448488538628 22.59917275516089 0
14.91854019452731 4.374950843086064 0
11.9645516593687 8.00012991797416 0
16.9095423852558 22.48734540431545 0
20.08142494178049 4.37489597773517 0
10.99694003773685 15.11835377499919 0
12.56131383308506 10.89976892285716 0
10.54247842010821 17.24618424184913 0
11.9577396942092 8.332345383170598 0
24.37896786790819 10.50989826540098 0
24.78719658665146 18.36264495609275 0
18.15553332033062 16.55847571444951 0
18.79433822444462 18.87433491506983 0
13.88199879527807 10.50573666423875 0
21.05372754783767 11.59258065109631 0
24.51627201861148 9.44626006790833 0
10.1392498931955 13.9237284068565 0
12.29189851668842 5.934435176864811 0
24.39195107941776 7.89967711531099 0
11.89154346939715 3.75650984877058 0
16.10583011181604 19.87472580652216 0
12.06706503227034 22.97364250447666 0
25.01897379718496 4.498364448953063 0
12.43359172272795 16.749847622155 0
10.52024524818965 18.78336873748482 0
13.39630087291306 6.13539935085945 0
24.76776812176295 15.7573394254998 0
12.43023073356651 17.93168594603224 0
14.40020387950305 5.854346738705644 0
17.93684530928818 22.14128074868347 0
11.11894923186803 21.220214247497 0
11.50578044871764 5.570393827870872 0
10.49016678778891 10.387945416907 0
14.52418622063717 4.82600653757753 0
11.89051125831595 6.585779299560413 0
10.52404801197898 13.50889838735734 0
13.86820260743365 6.510200226949028 0
20.46708116288353 18.0349872721525 0
23.2866202038491 14.24361214912131 0
10.47356281443733 9.758859248448356 0
13.96438892287712 16.50214175514502 0
23.39596707604376 6.133143083543314 0
24.94534412288582 7.418527244176043 0
11.92509413258342 20.33741259275274 0
15.81277468689258 22.7869197251388 0
18.34684734363695 12.73903449149991 0
14.62194434694342 5.736043087863615 0
19.69047228765149 19.30979447852079 0
11.28758623827111 20.30990214836769 0
21.14177259585459 5.324778785060687 0
20.57337358306342 12.92726729853038 0
15.45493951222227 20.13789603427972 0
14.71913440844593 17.42770482558628 0
13.44942372443501 21.15465367192214 0
20.70917321750676 9.480737514883723 0
10.96395177740649 9.826224200670001 0
12.47494193154553 9.981373945532104 0
14.03199931830881 13.52006221161149 0
14.43114141464384 5.268442386524431 0
23.88452059594728 5.264275779798928 0
16.47198805749239 22.06172136490688 0
20.51998615701144 5.294466722562527 0
19.79319546153946 12.72547684892908 0
20.82999387274307 15.59444594821059 0
12.75699795940171 17.26808344869034 0
10.90559841754081 11.94599323064542 0
16.13532770898772 22.0396430995912 0
13.50101667305633 23.11332392408978 0
12.49353361784443 3.981048132798637 0
22.5174380820357 3.980837997447209 0
22.48978872865223 6.486196517408104 0
23.14889556587056 8.886976466793886 0
16.30972753527226 22.6245750494786 0
22.73883709988495 18.37283700048757 0
24.51833177589419 3.492386224337465 0
11.018445576264 21.561194638532 0
24.93227815058927 5.665829261572901 0
21.16888500893217 12.06602753063548 0
17.64072423634522 13.13902318219911 0
10.95581858269031 22.94332966098083 0
13.60489612578807 17.95178786310476 0
14.87379743681815 5.871304675434455 0
23.22339446625093 3.610455397412735 0
13.85907175454219 9.541003880935023 0
22.67538615929104 5.955043896251087 0
21.31102397553167 7.4134696094163 0
24.51718235946813 18.53095451952256 0
21.43362243836834 15.63109870105436 0
23.55792379932286 9.213718886883482 0
22.0020023150748 9.226291889391216 0
24.1849832942938 12.44012713354307 0
18.53159819424319 18.71561989799298 0
21.6642422718306 5.60057283430544 0
21.87322373411525 10.1758291387396 0
20.3227900023357 16.6045924976225 0
23.4094287940187 6.952060006312593 0
22.94146164802323 6.277615354319323 0
20.18749318917016 19.62029336257278 0
12.71841841603437 12.73832323795767 0
10.52481511894083 8.254282474163752 0
13.41999027700895 20.55609624200131 0
19.98938413073382 13.22480227531482 0
14.99969224628847 3.744523557841049 0
15.12290606065753 17.93499249580422 0
10.463160636779 5.291291926291546 0
21.04530849003519 5.935965974129699 0
14.91260533461797 8.03073925016382 0
18.03571428190872 12.69818993561667 0
22.8137383415961 20.43766538274394 0
17.29284546825418 21.62049723091676 0
14.76222619601988 9.78693190052377 0
11.63489714691469 7.862969508384712 0
21.39373870136615 11.5153235433616 0
22.91939227763888 7.964849885848414 0
11.25123697843714 8.591191042207091 0
20.96358078089482 9.022557751259283 0
23.90737458176783 12.54784721632478 0
12.45176219457337 9.395288188038403 0
24.28009031705072 10.75218283132075 0
10.46625255338502 8.839326051028898 0
20.91098934671522 19.72782826330502 0
12.73907834811117 18.58265115269079 0
24.37026251628173 16.10249390348978 0
11.79175654872653 12.79797972094191 0
12.23306547955098 12.35287012405148 0
12.9424937171191 9.363281859369412 0
14.3971565664875 12.12476937040127 0
23.97446680863394 5.843750073755402 0
13.80518733683866 14.21184260108768 0
15.43030152720865 20.75081163163374 0
24.84978798121663 13.98066124528719 0
19.42500804169351 18.8580195409593 0
23.37747520628471 15.65851741818384 0
11.94631273870807 13.36245960319666 0
10.44247261435558 6.168986615358289 0
24.85836846387405 11.33157061059829 0
13.89287725699894 7.943316556169833 0
20.64416627836805 8.937292271454867 0
20.26805094548005 20.69703407687548 0
19.24888071589428 15.81203333322622 0
10.66824257953499 23.15684693441309 0
23.0826504269976 4.206564003975748 0
14.65577359846969 16.94191695537676 0
20.72747635064595 16.69124136405017 0
17.48574010712146 18.97509081184617 0
13.8081539711563 19.6065768874864 0
15.25164860703864 21.60813630665359 0
13.6505911331957 12.71235338160485 0
11.92043341324353 23.30853171618242 0
11.97677038170321 16.18633929426116 0
21.79063157308331 7.124972183349438 0
19.24924815172959 17.15273335005859 0
14.84047017692818 10.8878644332654 0
11.89419643487891 18.90191752907295 0
11.39035726969052 13.21947285680353 0
15.16031122847408 14.12548478622284 0
21.06467341150862 3.182778835233129 0
23.94605829762353 3.181097312751626 0
21.50570140177898 12.44754535881235 0
19.19642856600446 14.23703749861465 0
19.61191524028183 13.22232621821617 0
11.40672337573808 8.840770267065011 0
9.99042250627993 5.945334903332137 0
20.47448354633512 9.982228637153694 0
12.27702805231126 7.55629394687088 0
21.82216020662167 8.698720152698431 0
24.94506887169844 9.234054850813502 0
20.64901579514594 21.19203435271548 0
10.76527826253675 20.26971505436097 0
21.16985675005605 8.20053312050633 0
20.96627245419205 5.034723435908106 0
17.05874442239196 13.26169686509717 0
24.84385173420112 16.89817852865647 0
13.23012256192031 2.705383424904509 0
18.87166983997527 21.77581273496446 0
10.21424845376776 22.34233186734909 0
16.96428571286854 12.70836442144616 0
10.32575616783439 3.980746240271895 0
24.89692326487465 9.69918735254757 0
12.41637958072286 17.56758398441088 0
13.93532658888816 3.182778835881689 0
21.21120506649079 9.557654004154484 0
10.10362031404955 16.10662193528459 0
24.54664513032643 6.047700352592629 0
20.99731883270297 12.62673101613656 0
11.07598229143656 20.71942474070716 0
10.00989455463734 2.757662170771056 0
13.48946741355478 4.983932565699334 0
16.73158273287407 13.7778991087021 0
14.39405121573188 18.07351342697509 0
22.33817986525898 16.56066935912957 0
21.22776477326171 20.54030216844576 0
15.22759398193769 19.61359571032667 0
23.48776409125138 4.964411107061941 0
11.05060320376767 3.180601090008118 0
18.30506683280133 17.6617782812375 0
14.66167895558691 3.956228710408908 0
20.33832104273758 3.956228705098715 0
22.17028759235076 11.23158368216299 0
21.17734003292967 17.50561088522981 0
9.991296317594237 3.081794011599988 0
11.70184921215531 12.27050081804915 0
14.52380158940271 8.254858199788924 0
19.15101042648046 20.10171907376748 0
23.67557433275073 7.362017723483349 0
14.71704625307223 2.712088042679836 0
18.21979450566766 19.08977932498301 0
15.00710288922459 3.06017887625879 0
21.90369508171293 5.76836904382295 0
11.3094659770781 16.95864112495455 0
13.55795642487512 8.6875479505749 0
21.55307360138828 11.19144666657885 0
23.15559415132487 15.90666825265287 0
22.33807917093474 8.843429716559154 0
17.13878684617902 18.87514408887242 0
10.38337366609157 7.243954877275796 0
24.13859265323664 11.18428793910437 0
23.10062643698248 6.602509065173094 0
13.11869111193411 12.32578947109221 0
22.88463044204803 19.18076462086443 0
10.13146965038236 17.56026380756777 0
13.05897107597467 8.088654012255041 0
24.01870484773187 16.75324892325827 0
10.45974844922975 5.81434566061502 0
22.37871402878938 15.99994182405785 0
20.66550631974382 14.12822103469074 0
14.23420970565615 3.61321826142386 0
20.76579008787877 3.613218004278255 0
11.86036834870565 15.82944894071857 0
21.37240135939993 10.81476338400143 0
POLYGONS 4308 17232
3 1248 798 2251
3 1283 586 1335
3 876 316 1595
3 735 10 1426
3 744 1677 1609
3 853 1224 1448
3 429 929 1445
3 1337 462 1518
3 619 1150 837
3 420 1547 1937
3 462 1337 1961
3 919 501 1755
3 1224 402 1448
3 730 899 679
3 309 934 1542
3 933 689 1551
3 461 396 1636
3 9 275 847
3 698 730 679
3 1341 979 745
3 228 229 830
3 509 1341 745
3 1058 717 2242
3 391 740 1701
3 740 391 1777
3 1419 820 2075
3 730 698 2017
3 341 1560 1215
3 884 354 1306
3 929 758 1445
3 1774 640 1949
3 1322 240 1369
3 494 1419 1389
3 738 1437 2141
3 816 100 1388
3 172 1209 1732
3 1419 898 1389
3 480 887 1221
3 228 830 1763
3 1044 496 1524
3 880 31 1968
3 524 1394 2048
3 1514 445 1933
3 160 161 800
3 1511 1768 1770
3 610 365 1540
3 419 754 1704
3 91 845 1764
3 1677 790 1609
3 284 13 435
3 1263 802 1714
3 765 466 1660
3 473 1365 1442
3 412 1419 2075
3 966 685 1564
3 1149 181 1033
3 732 390 1629
3 530 637 1589
3 445 1424 1933
3 1133 501 1016
3 887 508 1221
3 1511 410 1768
3 481 599 1235
3 567 1102 1981
3 1335 453 2114
3 1704 754 1446
3 870 730 2017
3 759 1214 1256
3 631 610 1675
3 820 1419 2093
3 476 1133 1016
3 324 753 1672
3 874 322 1672
3 659 1521 1205
3 1283 1335 2114
3 690 1101 1813
3 768 1148 756
3 475 867 1535
3 798 1248 1982
3 555 579 2212
3 336 1080 908
3 390 422 2068
3 1205 1521 2022
3 505 1538 1212
3 902 651 1218
3 867 956 1535
3 1080 336 1527
3 481 1235 831
3 1029 37 2049
3 387 559 1374
3 1617 910 1831
3 864 465 1737
3 1774 1949 1575
3 686 1982 1884
3 1419 494 2093
3 1330 767 1651
3 910 866 1831
3 1551 689 2118
3 1355 416 1714
3 399 1004 2066
3 778 991 1614
3 557 581 819
3 30 31 880
3 1077 1305 2027
3 579 1308 2212
3 654 735 1499
3 735 654 1945
3 610 631 1857
3 1082 732 1347
3 1012 884 1306
3 1560 764 1215
3 1077 739 1305
3 581 557 1818
3 1688 1114 2190
3 1037 456 1706
3 53 54 1400
3 501 919 1016
3 407 1006 831
3 800 161 944
3 1313 552 1446
3 2197 1409 1604
3 637 530 1464
3 55 56 1120
3 387 797 2122
3 158 159 1028
3 466 765 1384
3 270 271 1421
3 1297 969 1876
3 646 566 1113
3 1148 643 1731
3 1101 580 1813
3 1437 738 1966
3 1234 641 1804
3 366 626 1801
3 818 427 1394
3 270 1421 1348
3 315 316 876
3 2040 348 2216
3 604 1248 2251
3 496 960 1524
3 1004 399 1474
3 639 628 1202
3 842 981 1791
3 1358 399 2066
3 1150 619 1159
3 976 1036 1883
3 489 1307 964
3 798 1890 1484
3 706 602 2003
3 1394 427 2048
3 909 1249 1296
3 1214 759 2179
3 467 1688 2190
3 960 496 1285
3 1392 798 1484
3 795 2197 1604
3 160 800 912
3 602 706 1627
3 424 874 1193
3 753 482 1799
3 505 1212 1927
3 112 1818 2168
3 416 1263 1714
3 701 1473 1668
3 386 607 2029
3 651 902 1737
3 437 1286 1788
3 534 452 2088
3 25 711 1184
3 348 1017 2216
3 606 801 2091
3 1104 368 1485
3 10 735 1945
3 1355 1714 1873
3 673 685 434
3 386 1487 1173
3 304 943 1622
3 744 1044 1524
3 408 852 1948
3 874 424 1090
3 482 753 1646
3 669 1230 1669
3 675 395 1640
3 1165 1699 2191
3 486 1343 1005
3 1318 828 1742
3 537 1048 1068
3 945 1396 1276
3 847 532 1543
3 280 11 481
3 559 387 2122
3 1114 2070 2011
3 864 1737 2083
3 1201 444 1315
3 830 688 836
3 15 287 754
3 855 760 1504
3 732 1079 1347
3 821 226 2097
3 462 607 1518
3 898 1419 1452
3 591 1318 1742
3 1048 823 1068
3 1189 558 1216
3 389 435 1141
3 507 1004 1474
3 1514 1134 1771
3 548 830 836
3 939 873 957
3 796 645 1628
3 1364 1330 1651
3 11 279 773
3 425 1525 998
3 741 1358 1479
3 741 1479 1740
3 1326 423 2106
3 1418 542 857
3 628 639 1125
3 1401 444 1201
3 481 11 2155
3 746 1418 857
3 15 754 2156
3 1521 659 1944
3 1982 344 1884
3 450 880 1526
3 37 38 2049
3 388 1652 1715
3 600 435 2171
3 711 25 1896
3 1585 1385 1642
3 911 1056 1453
3 1114 997 2070
3 1377 473 1331
3 782 661 1325
3 1818 557 2168
3 1191 1377 1331
3 1036 568 1883
3 1123 971 1967
3 981 842 1722
3 982 1821 1866
3 451 1017 1590
3 1365 473 1377
3 378 1514 1771
3 1006 537 831
3 828 1313 1446
3 435 13 2171
3 1547 575 1937
3 1208 516 1169
3 308 309 1542
3 529 1427 1414
3 1152 782 1325
3 473 1080 1331
3 1056 911 1260
3 940 706 1573
3 946 460 1867
3 474 950 1775
3 1250 713 1845
3 1102 1154 1981
3 468 1353 1538
3 941 553 1786
3 76 77 1345
3 435 600 2157
3 704 684 1620
3 701 1668 2211
3 882 408 1292
3 797 387 1874
3 529 1228 1036
3 1739 1109 848
3 760 855 978
3 659 1702 1944
3 626 366 1923
3 641 1234 1924
3 1080 376 1331
3 443 1297 1876
3 130 131 1142
3 114 115 875
3 1908 1212 1277
3 1774 387 1374
3 934 614 1542
3 440 1081 398
3 920 1225 2175
3 884 453 1634
3 690 521 699
3 1509 620 1876
3 1276 1396 2152
3 589 1209 1272
3 816 485 1182
3 645 1173 1628
3 971 547 1967
3 846 404 2245
3 956 867 1910
3 1028 159 912
3 867 475 2043
3 950 474 2006
3 892 1208 1169
3 329 1058 2242
3 1893 2103 1874
3 290 16 1353
3 713 1187 1845
3 302 22 1138
3 375 1929 1946
3 618 882 1292
3 378 980 1566
3 258 259 1351
3 1419 412 1452
3 654 1007 985
3 1736 1194 990
3 418 946 1867
3 607 1398 2029
3 760 978 1746
3 1487 862 1173
3 694 880 2013
3 1007 650 985
3 611 1519 994
3 437 1788 1681
3 463 937 1855
3 620 1247 1876
3 998 1525 2044
3 766 636 1854
3 1652 26 1715
3 880 705 2013
3 558 1212 1908
3 708 1584 1005
3 895 1055 1934
3 852 408 1931
3 868 390 1901
3 785 2052 1941
3 614 865 1735
3 685 966 2306
3 897 1875 1757
3 862 1335 989
3 616 1085 1184
3 547 845 1219
3 1055 1852 2271
3 632 644 1994
3 240 241 1369
3 1353 593 1538
3 322 874 1090
3 753 324 1646
3 658 1054 1156
3 246 914 1805
3 1021 583 1846
3 1054 658 1619
3 11 773 2155
3 597 1427 1196
3 216 1327 1889
3 1149 603 1081
3 1407 555 1480
3 1049 1302 1721
3 1519 651 994
3 839 370 1603
3 465 873 1852
3 1584 486 1005
3 1168 237 1295
3 194 195 924
3 1832 40 1344
3 1074 1520 2145
3 564 1736 990
3 1013 432 1404
3 918 1739 848
3 895 465 1852
3 1626 598 2186
3 1307 489 1069
3 406 1594 1987
3 915 1508 1188
3 803 1311 1823
3 155 901 904
3 305 1084 1544
3 642 1459 984
3 245 246 1805
3 1176 1981 1625
3 1508 538 1188
3 978 362 1746
3 1003 593 1030
3 662 1475 1375
3 474 1139 2006
3 1037 1706 2018
3 1233 426 1725
3 677 1407 1480
3 521 690 1813
3 1179 632 2023
3 1425 2158 1898
3 730 870 769
3 977 1233 1725
3 401 1165 2191
3 225 226 821
3 1084 305 1486
3 1051 665 1667
3 1139 474 1671
3 237 238 1295
3 1459 350 984
3 756 332 1367
3 529 1414 1710
3 611 895 1934
3 880 450 1975
3 1031 186 1687
3 459 868 1901
3 1767 612 799
3 1589 1417 2065
3 808 1104 1485
3 913 513 2124
3 403 646 1113
3 1112 460 1994
3 735 1426 2064
3 1640 395 2027
3 637 1417 1589
3 579 442 1562
3 116 1490 1206
3 675 649 1675
3 144 145 968
3 532 847 1760
3 899 730 2055
3 1009 579 1562
3 304 23 943
3 1055 846 2245
3 937 1756 1855
3 435 389 1183
3 780 614 1735
3 650 1326 2106
3 914 620 926
3 888 444 911
3 1121 2191 1973
3 1302 1049 2169
3 1611 446 889
3 1350 346 1091
3 929 429 2151
3 612 1673 799
3 1015 528 1135
3 780 1445 2127
3 390 868 1629
3 53 1400 1363
3 585 1121 1973
3 1011 471 1851
3 790 1677 2266
3 1225 812 2175
3 979 1341 2073
3 1353 16 1030
3 767 734 1116
3 1128 1586 1959
3 1341 337 2073
3 633 795 1604
3 593 1353 1030
3 1703 1028 788
3 705 880 1968
3 644 632 1179
3 534 108 1107
3 1401 449 1260
3 562 1130 722
3 164 801 1976
3 197 198 975
3 444 1401 1260
3 1788 2021 1731
3 422 390 792
3 453 884 1517
3 795 633 1922
3 594 1140 1531
3 1028 674 788
3 1142 131 1899
3 1590 1017 2138
3 586 1283 1319
3 951 833 1578
3 1120 56 1893
3 1080 473 2166
3 331 332 756
3 1055 895 1852
3 566 1270 1237
3 535 1385 1585
3 1982 1248 1664
3 376 1080 1527
3 594 800 944
3 1875 561 1757
3 665 1051 752
3 980 496 1566
3 43 44 1101
3 340 943 1997
3 433 1326 1007
3 429 1319 2151
3 1341 1556 1920
3 108 534 2088
3 632 1640 2023
3 432 1013 1645
3 801 164 2091
3 937 578 2252
3 354 1611 889
3 830 548 1763
3 479 995 1753
3 609 1544 1970
3 991 778 1047
3 470 1400 1175
3 734 666 1116
3 1178 1075 2042
3 511 951 1578
3 1326 650 1007
3 7 231 1607
3 913 2124 1862
3 779 547 971
3 1228 353 1269
3 390 732 792
3 281 280 1068
3 287 286 1742
3 647 811 1594
3 1122 72 1236
3 346 755 1665
3 1437 560 2141
3 452 534 1461
3 27 1198 1367
3 801 606 2001
3 342 775 1770
3 1636 396 1227
3 230 7 1607
3 877 263 2078
3 390 2068 1901
3 423 1326 1125
3 921 327 2242
3 1019 876 1595
3 1075 400 2042
3 644 1112 1994
3 1049 1386 2169
3 204 205 522
3 1324 29 1975
3 1049 1284 1386
3 1851 1132 2184
3 1706 900 2135
3 438 1406 1725
3 498 1189 1216
3 349 774 1410
3 802 888 1738
3 470 1350 1363
3 262 263 877
3 1079 732 1629
3 1406 977 1725
3 1400 574 1175
3 1270 566 2050
3 1544 1084 1970
3 1058 1148 1731
3 954 942 1769
3 986 122 2197
3 465 895 994
3 129 3 1385
3 1313 828 1318
3 537 1006 1048
3 39 1832 2049
3 731 821 2097
3 1011 1851 2184
3 818 1307 1069
3 1131 589 925
3 485 771 1163
3 43 1101 1252
3 1006 407 1923
3 552 1313 1924
3 323 324 1672
3 322 323 1672
3 1037 446 1611
3 404 588 1528
3 938 341 1215
3 1085 355 1197
3 1209 589 1732
3 485 816 1388
3 394 722 1027
3 578 937 936
3 287 1742 1217
3 398 1081 2161
3 1068 280 1833
3 1606 306 930
3 1485 368 1287
3 943 340 1622
3 455 1045 1636
3 643 1148 2144
3 1120 627 964
3 300 1309 1812
3 161 162 944
3 1361 1070 1196
3 1006 345 1048
3 448 1313 1318
3 938 597 1849
3 1929 814 1946
3 636 1487 1854
3 676 713 1143
3 649 675 1279
3 427 818 1366
3 1495 569 1551
3 1421 436 1348
3 1105 502 1660
3 1361 658 1477
3 1475 625 1375
3 858 446 1885
3 337 1266 2119
3 934 309 1378
3 373 1361 1196
3 1070 1361 1477
3 803 343 1311
3 847 275 1390
3 552 1704 1446
3 2252 578 2019
3 935 1228 1269
3 574 1120 964
3 810 802 1263
3 1502 456 2051
3 90 91 1764
3 16 2140 1030
3 922 647 1594
3 597 938 1215
3 1235 407 831
3 839 1327 1638
3 558 1189 1927
3 722 394 1569
3 404 1528 1227
3 1264 785 1941
3 2132 1505 2194
3 466 1105 1660
3 1189 928 1160
3 521 858 1885
3 272 1324 1577
3 755 346 1362
3 367 911 1453
3 181 182 1033
3 845 547 1764
3 1266 700 1275
3 772 1622 1674
3 707 343 2016
3 9 847 1999
3 1411 909 1296
3 858 521 1813
3 862 989 1628
3 1593 763 1301
3 603 1149 1033
3 395 675 1784
3 780 429 1445
3 583 1161 1846
3 1266 337 1920
3 1082 1347 1658
3 1753 995 1871
3 100 101 1388
3 171 172 1732
3 446 858 889
3 700 1266 1920
3 365 610 1857
3 767 1330 734
3 722 973 1027
3 684 704 1974
3 334 1352 2139
3 993 1088 1046
3 987 499 1256
3 302 1138 1298
3 1558 97 2260
3 1148 768 2144
3 1302 440 1721
3 1152 778 1614
3 1481 340 1997
3 1011 767 1116
3 1045 461 1636
3 124 125 811
3 335 722 1569
3 1358 741 2233
3 691 550 1534
3 2029 871 1854
3 505 1189 1160
3 982 728 1218
3 1622 340 1674
3 1885 446 2018
3 471 1011 1116
3 1244 1425 1898
3 1141 435 2157
3 954 368 1062
3 422 1082 1276
3 1821 495 1866
3 527 970 2128
3 295 294 1416
3 1573 706 2003
3 158 1028 1703
3 878 691 1534
3 901 155 1993
3 742 954 1062
3 1971 1593 1301
3 847 1543 2053
3 1696 455 2069
3 175 1565 1911
3 640 988 2220
3 607 386 1695
3 673 434 2160
3 1059 704 1620
3 1405 516 1208
3 284 435 2295
3 888 911 1738
3 288 15 1284
3 1341 509 1556
3 1166 872 1160
3 862 1487 2208
3 1130 973 722
3 357 833 1282
3 685 673 1564
3 1677 743 2266
3 96 97 1558
3 871 766 1854
3 1230 426 1300
3 928 1166 1160
3 220 1204 2113
3 341 938 1702
3 1330 513 734
3 248 249 1750
3 891 291 1792
3 755 524 2048
3 1445 582 2127
3 646 403 1837
3 1556 700 1920
3 626 1923 1909
3 824 1031 1687
3 728 644 1179
3 1520 1074 2084
3 574 964 2092
3 456 1729 2051
3 980 378 1779
3 880 694 1526
3 758 1606 930
3 1799 751 1537
3 1495 1551 1046
3 175 176 1565
3 1487 1634 2208
3 1352 761 1735
3 391 1593 1500
3 1716 1203 2162
3 1352 865 2139
3 833 357 1438
3 1767 406 1987
3 575 1547 2246
3 148 149 890
3 1426 689 2064
3 194 924 1952
3 1981 544 1625
3 401 933 2310
3 416 1904 1655
3 2016 343 2063
3 553 941 1024
3 646 421 2050
3 370 377 1603
3 687 629 1669
3 1008 615 1434
3 1491 1032 1001
3 2108 391 2235
3 566 646 2050
3 1263 416 1655
3 1209 172 1803
3 100 816 1659
3 1228 935 2081
3 1924 1234 2031
3 1219 433 1967
3 635 1133 1465
3 1015 1135 2146
3 1171 1139 1671
3 593 1003 1294
3 1039 384 1850
3 1365 1377 2008
3 847 2053 1999
3 1083 672 1848
3 71 72 1122
3 1082 422 792
3 1345 77 1136
3 842 1302 1722
3 37 1029 1842
3 879 688 2072
3 508 1309 809
3 478 916 1224
3 895 611 994
3 865 1352 1735
3 851 1540 1451
3 1087 536 1674
3 673 672 1564
3 1540 584 1451
3 477 687 1669
3 767 1011 1014
3 657 1039 1489
3 672 833 1438
3 688 830 1990
3 684 83 1620
3 368 954 1557
3 83 684 587
3 728 439 1218
3 911 444 1260
3 975 198 2062
3 1207 355 2238
3 833 672 1578
3 1729 871 2029
3 913 530 1589
3 298 1083 1848
3 1176 567 1981
3 1409 647 1604
3 1962 622 1656
3 1508 923 799
3 538 1508 799
3 758 930 1445
3 181 1149 1494
3 753 1799 1537
3 811 125 2239
3 1715 1547 1707
3 260 1166 1447
3 845 91 1443
3 177 178 1034
3 994 651 1737
3 795 986 2197
3 622 1139 1656
3 94 95 1262
3 2158 503 1898
3 978 976 1895
3 898 1452 1251
3 433 1242 1967
3 1079 1629 2122
3 914 246 2082
3 732 1082 792
3 957 873 1371
3 839 974 2217
3 1309 300 809
3 1669 1230 1529
3 1777 391 1500
3 588 1827 2101
3 627 1893 1874
3 1923 407 1909
3 71 1122 1237
3 327 921 1018
3 452 1682 2088
3 1680 606 2091
3 1788 359 2021
3 447 1523 1606
3 954 742 2032
3 779 971 2287
3 975 942 2105
3 800 594 1781
3 775 342 1719
3 1343 486 1076
3 590 1201 1315
3 480 1877 500
3 935 576 2070
3 1347 1079 1868
3 540 821 1633
3 295 1416 2025
3 1302 842 1977
3 725 998 2044
3 933 401 1676
3 340 1087 1674
3 1750 249 1711
3 707 1330 1364
3 1877 852 500
3 887 480 500
3 1520 441 2145
3 1000 1253 1488
3 726 1706 2135
3 1531 1140 2136
3 384 1317 1559
3 1096 1832 1344
3 937 463 936
3 579 1009 1323
3 1008 692 1553
3 144 968 545
3 1691 128 1376
3 185 186 1031
3 636 884 1634
3 442 579 670
3 1442 1365 2013
3 607 645 2232
3 1490 1026 1206
3 1008 1434 1765
3 1716 595 1203
3 562 722 1844
3 1196 1427 2231
3 440 1302 1977
3 1185 577 1785
3 912 800 1781
3 839 1603 1570
3 490 962 1261
3 692 2132 1553
3 747 1017 1510
3 1949 640 2220
3 1456 392 1602
3 362 1489 1567
3 1337 1518 2052
3 338 755 2048
3 552 1924 2031
3 309 310 1378
3 1326 628 1125
3 277 488 2118
3 2021 717 1731
3 366 1006 1923
3 1313 641 1924
3 1034 178 2074
3 574 1400 1863
3 1523 24 1606
3 933 1467 2310
3 1262 863 1503
3 326 327 1018
3 834 1065 2263
3 901 635 904
3 355 995 2238
3 1161 1128 1959
3 1065 1253 2263
3 1120 574 1863
3 1115 1294 1346
3 414 576 1296
3 861 1185 1475
3 1186 686 1884
3 450 1324 1975
3 119 120 1108
3 942 954 2105
3 579 555 1099
3 692 1505 2132
3 421 646 1516
3 1353 468 1792
3 489 964 1492
3 1424 445 1306
3 248 1750 2261
3 907 877 2078
3 94 1262 1592
3 1225 920 1328
3 1102 567 1789
3 855 1504 2231
3 355 1207 1932
3 502 1515 1660
3 19 295 1502
3 1327 216 2076
3 813 541 886
3 523 1174 1653
3 1824 727 1875
3 24 306 1606
3 417 1034 2041
3 327 328 2242
3 1088 993 488
3 836 688 932
3 290 1353 1792
3 1586 484 1959
3 1889 839 2217
3 635 901 1582
3 1498 384 1559
3 596 1824 1875
3 415 1208 1939
3 524 755 2030
3 1488 1253 2258
3 661 810 1263
3 860 1626 2186
3 1087 340 2299
3 865 614 2229
3 426 1230 2180
3 688 1607 2072
3 1104 808 1428
3 354 1424 1306
3 1343 760 1746
3 521 1650 1980
3 1208 892 1939
3 1475 1185 2223
3 399 1358 2233
3 260 261 1166
3 849 604 1536
3 1980 1650 2255
3 347 1104 1428
3 1157 996 1751
3 19 1502 2051
3 2140 1003 1030
3 740 1588 1701
3 1355 455 1696
3 1230 669 2180
3 604 617 1536
3 970 402 2128
3 576 414 2070
3 902 1218 1644
3 1588 268 1124
3 930 582 1445
3 1473 510 1668
3 607 462 1398
3 346 1665 1869
3 1588 784 1701
3 240 1322 1360
3 1174 561 1653
3 614 934 1879
3 1424 354 889
3 1028 912 1969
3 974 573 1089
3 677 1480 2037
3 990 1194 1758
3 856 1696 2069
3 38 39 2049
3 1101 690 1252
3 964 1307 2092
3 774 1677 1410
3 1163 791 1359
3 1162 925 1639
3 362 978 1895
3 774 743 1677
3 223 224 1220
3 603 1435 1031
3 16 297 2140
3 1487 636 1634
3 1469 939 2058
3 1309 508 1954
3 756 1148 2215
3 641 1313 1423
3 1006 366 1512
3 1313 448 1423
3 345 1006 1512
3 1198 571 1159
3 513 1330 2124
3 1519 611 1632
3 502 1105 819
3 1491 667 1369
3 760 1343 1076
3 1083 298 1591
3 496 980 2094
3 1336 983 1740
3 110 111 1520
3 570 677 2037
3 1177 623 1822
3 658 1361 2086
3 613 1100 1466
3 927 516 1773
3 1827 543 2101
3 447 774 1408
3 628 1326 1835
3 1452 514 1251
3 1351 259 1447
3 572 927 1773
3 538 931 1797
3 933 569 1467
3 485 1163 1359
3 925 589 1639
3 577 668 1785
3 1311 708 1823
3 1426 277 2118
3 1795 540 1633
3 1594 850 1987
3 653 1806 2020
3 664 1309 1954
3 743 774 2110
3 1329 1026 1554
3 1511 493 1921
3 1085 616 1871
3 332 27 1367
3 1026 1888 1554
3 772 371 2002
3 1326 433 1835
3 626 1558 2260
3 376 1449 1925
3 1223 432 1850
3 119 1108 1689
3 353 1228 1257
3 1017 451 1510
3 1475 662 2289
3 1547 320 2246
3 588 404 2164
3 959 1573 2003
3 934 653 1879
3 153 154 1010
3 508 887 1954
3 995 479 1468
3 2068 696 1901
3 1489 681 1567
3 924 893 1952
3 726 1885 2018
3 1406 749 1756
3 1284 15 2156
3 544 1643 2182
3 1665 960 1869
3 929 743 2110
3 1327 839 1889
3 215 216 1889
3 710 506 2291
3 503 1485 2175
3 1565 1234 1911
3 664 887 1761
3 1204 605 2113
3 476 1016 2172
3 1296 576 2279
3 672 1083 1578
3 12 289 1042
3 1602 982 1866
3 1712 544 2182
3 813 886 2272
3 674 1028 1969
3 887 664 1954
3 371 564 990
3 121 122 986
3 742 710 1458
3 1406 1756 1546
3 1195 476 2172
3 374 1456 1602
3 1309 664 1476
3 72 73 1236
3 377 370 1796
3 523 1521 1261
3 1190 712 1450
3 851 1451 2150
3 62 1759 1658
3 286 14 1177
3 8 281 1100
3 26 1547 1715
3 1324 450 1577
3 1528 709 1227
3 1654 965 2237
3 1036 976 1608
3 1075 1178 1576
3 837 1150 1304
3 26 320 1547
3 761 483 2167
3 968 145 1891
3 431 1585 1681
3 127 128 1691
3 616 1753 1871
3 369 990 1758
3 863 1462 1503
3 755 338 2005
3 1542 614 2127
3 265 266 1095
3 437 1585 1642
3 114 875 999
3 1004 507 2040
3 465 994 1737
3 722 335 1844
3 551 1223 1850
3 1295 1210 1948
3 22 301 1464
3 608 1295 1948
3 249 250 1711
3 86 87 971
3 775 493 1770
3 393 1230 1587
3 881 1021 1846
3 167 168 925
3 104 105 1163
3 610 1540 1422
3 1113 566 2206
3 370 723 1796
3 942 975 2062
3 364 1509 1245
3 530 913 2286
3 39 40 1832
3 577 1185 1662
3 408 1948 1748
3 1307 818 1394
3 822 491 1915
3 465 864 1371
3 529 1036 1608
3 1035 1025 1364
3 1730 647 922
3 594 1532 1781
3 1197 355 1932
3 1629 559 2122
3 1036 1228 2081
3 720 1343 1746
3 884 1012 1517
3 827 1730 922
3 4 1469 2058
3 1350 470 1362
3 573 1574 1089
3 992 417 2041
3 1400 470 1363
3 1249 414 1296
3 655 75 1127
3 694 2013 1814
3 1199 660 1053
3 642 1054 1619
3 2013 1365 1814
3 391 1701 2235
3 1133 635 1582
3 1797 931 1338
3 1294 1115 1277
3 1228 529 1710
3 975 2105 1828
3 501 1133 1582
3 1177 591 1742
3 823 1100 1068
3 869 1054 1268
3 589 1131 1732
3 771 485 1388
3 1044 744 1728
3 966 1199 1053
3 1491 1369 1180
3 337 1341 1920
3 1054 869 1156
3 326 1018 1349
3 1280 1190 1304
3 1207 409 1932
3 1230 393 1529
3 1518 607 2232
3 86 971 1278
3 850 811 2239
3 1755 501 1599
3 492 1345 1290
3 1485 920 2175
3 923 1508 769
3 258 1351 1368
3 1145 375 1946
3 432 1223 1404
3 212 213 1574
3 1145 573 1751
3 439 728 1179
3 1508 730 769
3 355 1085 1871
3 861 525 1147
3 1509 969 1245
3 1699 1146 2191
3 1133 476 2256
3 601 1122 1236
3 519 1111 1840
3 1018 832 1349
3 875 115 1206
3 1617 660 1545
3 1330 707 2016
3 1363 1350 2269
3 573 1603 1751
3 274 1384 1390
3 286 1177 1742
3 2199 838 2298
3 1521 490 1261
3 1100 281 1068
3 631 1675 2311
3 154 155 904
3 346 1350 1362
3 344 1982 1664
3 1111 528 1840
3 1345 492 2302
3 267 268 1588
3 776 1296 2279
3 627 1120 1893
3 280 481 1833
3 1411 363 1289
3 706 940 1856
3 76 1345 1127
3 931 750 2213
3 939 1469 2137
3 522 531 2096
3 572 1259 1516
3 1023 983 1336
3 861 1147 1684
3 469 912 1781
3 1557 954 1769
3 774 349 1408
3 275 274 1390
3 483 761 1352
3 846 1055 2271
3 367 1573 1873
3 873 939 2137
3 1407 677 2297
3 218 219 775
3 619 1198 1159
3 2179 285 2295
3 912 469 1969
3 1573 959 1873
3 1113 601 1972
3 675 1675 1784
3 1471 885 1398
3 981 1034 2074
3 1108 525 1689
3 652 1075 1576
3 268 269 1124
3 1427 529 2301
3 547 779 1764
3 754 287 1217
3 562 522 2096
3 167 925 1167
3 1163 105 2189
3 1335 586 989
3 1538 593 1212
3 863 1235 1462
3 319 26 1652
3 456 1037 1983
3 601 1618 1972
3 405 1615 1336
3 460 1112 1552
3 22 1464 1439
3 750 931 1679
3 1261 962 1320
3 1018 491 1430
3 28 273 0
3 1641 746 1530
3 1435 603 1033
3 764 1560 1257
3 1122 566 1237
3 1262 639 1592
3 364 2014 1649
3 598 1618 2186
3 913 680 2286
3 285 284 2295
3 691 878 1894
3 1850 384 2020
3 1044 445 1441
3 924 195 826
3 1235 599 1462
3 784 1588 1124
3 1516 1259 2142
3 1319 429 1903
3 45 1771 1356
3 752 1051 2102
3 1045 959 2003
3 846 805 1827
3 602 1045 2003
3 1025 707 1364
3 1463 454 1466
3 556 1460 1822
3 429 780 1412
3 654 762 1393
3 462 1471 1398
3 950 701 1775
3 940 1453 2203
3 64 65 1213
3 599 481 2155
3 531 522 1429
3 1875 727 1094
3 931 538 1673
3 330 1148 1058
3 1361 373 2293
3 1704 417 992
3 973 810 782
3 746 857 1530
3 445 1044 1728
3 357 836 932
3 491 822 1861
3 1232 487 2162
3 223 1220 2259
3 1495 352 1186
3 854 1907 1340
3 1019 1197 1932
3 199 200 1063
3 914 926 1805
3 396 461 1632
3 377 1456 1157
3 524 1175 2092
3 576 935 1269
3 500 852 1931
3 810 661 782
3 585 1499 2064
3 404 846 2164
3 645 607 1695
3 624 1652 1382
3 1163 771 2294
3 1131 925 1960
3 419 1704 992
3 358 1495 1186
3 366 1659 2267
3 1803 641 2243
3 823 1463 1466
3 1460 591 1822
3 564 371 1598
3 1907 703 1340
3 1038 1618 2004
3 550 691 1024
3 522 205 1429
3 1128 1161 1522
3 535 931 2213
3 129 1385 1376
3 1054 642 2290
3 1205 383 2196
3 1039 657 1478
3 838 458 2298
3 1005 1343 2282
3 652 905 1661
3 754 419 2156
3 1458 710 2291
3 1607 688 1990
3 1618 598 2004
3 209 1838 1843
3 815 500 1931
3 887 500 1761
3 1161 583 1522
3 565 1723 1653
3 704 762 1974
3 321 322 1090
3 324 325 1646
3 1456 374 1157
3 2117 1232 2162
3 841 1654 2237
3 677 577 2297
3 1088 352 1046
3 345 1164 1913
3 948 448 1402
3 1668 648 2211
3 1001 364 1649
3 531 1240 1483
3 632 1279 1640
3 1919 137 2194
3 496 1044 1566
3 1049 1721 1561
3 1240 590 1483
3 41 42 699
3 319 1652 1896
3 1190 351 1304
3 822 1142 1899
3 373 1196 2231
3 997 1114 1688
3 1400 54 1863
3 689 933 1676
3 291 290 1792
3 527 916 1712
3 876 1019 2098
3 784 1124 2008
3 55 1120 1863
3 642 984 1117
3 1273 705 1968
3 2103 797 1874
3 1949 804 1575
3 1498 733 1879
3 1877 608 1948
3 204 522 1550
3 1022 536 1288
3 909 1411 1289
3 1465 1133 2256
3 1010 154 904
3 1540 365 2067
3 561 1875 1094
3 1394 524 2092
3 1358 748 1479
3 428 752 2102
3 1077 395 777
3 969 1509 1876
3 1166 928 1447
3 806 1221 2036
3 729 2000 2011
3 555 1407 1568
3 403 927 1837
3 916 544 1712
3 1157 374 1859
3 62 63 1759
3 12 1042 2280
3 1039 432 1686
3 1091 346 1869
3 408 882 1931
3 1453 1056 2203
3 1248 604 2089
3 1142 359 1397
3 526 674 1969
3 606 1460 2001
3 1463 452 1461
3 657 682 1478
3 587 684 1973
3 1226 19 2051
3 28 29 1324
3 343 707 1311
3 676 1143 1733
3 1343 720 2282
3 1587 1230 1300
3 1806 551 2020
3 852 1877 1948
3 777 851 2150
3 1838 1401 1843
3 14 285 1747
3 1248 2089 2198
3 274 8 1137
3 1124 436 2008
3 1727 376 1925
3 432 1039 1850
3 882 815 1931
3 567 924 1789
3 1708 540 1795
3 20 305 1544
3 596 914 2082
3 1772 345 1913
3 448 1912 1402
3 748 1358 1513
3 842 1494 2244
3 908 630 1743
3 830 229 1990
3 473 1442 2166
3 591 1460 1912
3 1463 823 1772
3 1249 729 2011
3 594 944 2148
3 750 1691 1376
3 1768 342 1770
3 312 313 1223
3 1094 565 1653
3 45 46 1771
3 25 319 1896
3 941 1786 2109
3 296 1471 1943
3 609 1708 1795
3 1170 1640 2027
3 1443 628 2281
3 272 273 1324
3 157 158 1703
3 336 908 1743
3 2086 1361 2293
3 888 802 1316
3 487 1232 1917
3 328 329 2242
3 1108 397 1147
3 983 498 1216
3 310 311 1806
3 663 1617 1545
3 525 1108 1147
3 384 1039 1478
3 1242 433 1393
3 1351 1447 1061
3 1279 675 1640
3 80 81 1165
3 711 1497 1184
3 571 1198 1181
3 1650 521 1885
3 489 387 1774
3 291 891 1482
3 1759 1082 1658
3 1075 652 2147
3 553 1024 1657
3 1232 18 1917
3 620 914 1991
3 968 543 1041
3 651 1821 1218
3 2052 363 1941
3 815 882 1942
3 1333 2252 2019
3 500 815 1761
3 377 1157 1751
3 543 968 781
3 1020 1519 1632
3 1158 1042 1534
3 148 890 1321
3 891 468 2039
3 970 527 2183
3 347 710 1440
3 1109 1525 848
3 1638 1327 1768
3 710 742 1440
3 882 618 2207
3 872 1436 883
3 522 562 1299
3 878 1042 1776
3 542 1418 1254
3 1497 584 2230
3 1017 747 2216
3 434 508 809
3 1095 266 1778
3 866 910 829
3 416 1355 1696
3 705 1273 2227
3 468 891 1792
3 1436 872 787
3 1821 982 1218
3 354 884 2240
3 653 1498 1879
3 359 1286 1397
3 370 839 1638
3 506 710 1143
3 405 1336 2153
3 683 1407 1555
3 554 1075 2147
3 436 1421 1814
3 832 1018 1430
3 380 1436 787
3 924 567 1698
3 1042 289 1776
3 1184 1085 1841
3 1437 1103 2224
3 1875 897 1700
3 1471 296 1226
3 580 1424 1381
3 806 2036 2306
3 996 1157 1859
3 1421 694 1814
3 350 1459 2099
3 1736 564 1204
3 1024 691 1657
3 1064 747 1510
3 743 929 2151
3 741 983 1216
3 560 1437 2224
3 978 855 1608
3 914 596 1991
3 995 355 1871
3 1032 926 1685
3 805 846 1153
3 748 1064 1612
3 1064 400 1612
3 1259 514 903
3 1852 718 2271
3 412 745 1860
3 1407 683 1568
3 736 2016 2063
3 458 838 1734
3 783 1259 903
3 1257 1560 2107
3 366 1801 1659
3 1804 641 1803
3 1025 1035 2218
3 745 979 1860
3 946 632 1994
3 569 933 1551
3 1001 1032 2225
3 1652 388 1382
3 1371 864 2312
3 1031 824 2161
3 1220 1194 2259
3 971 1123 1278
3 1146 587 1973
3 1142 822 1915
3 371 772 1431
3 536 1087 1288
3 603 1031 2161
3 1424 580 1933
3 430 879 1754
3 486 1243 1076
3 773 599 2155
3 976 978 1608
3 1427 597 1414
3 444 888 1315
3 926 620 1685
3 667 1491 1001
3 672 673 1848
3 1073 492 1290
3 393 1809 2026
3 1121 689 1676
3 941 715 1144
3 713 676 1572
3 273 28 1324
3 1511 1921 1794
3 876 2098 1631
3 714 1073 1290
3 1449 376 1527
3 206 207 1240
3 1636 709 2069
3 440 398 1657
3 197 975 2129
3 659 1332 1241
3 987 906 1457
3 975 697 2129
3 1275 66 2059
3 577 677 1413
3 967 655 1127
3 455 1636 2069
3 1529 393 2026
3 499 987 1457
3 1220 540 1758
3 668 577 1413
3 1518 363 2052
3 673 299 1848
3 151 1437 1966
3 463 1465 2256
3 644 728 1549
3 301 300 1812
3 21 434 809
3 996 1145 1751
3 136 137 1919
3 1519 495 1821
3 778 385 1047
3 265 1095 1200
3 804 1666 1069
3 842 1791 1494
3 409 1207 1798
3 925 1162 1167
3 791 1163 2189
3 2181 1497 2230
3 906 987 1539
3 893 924 1698
3 1106 1091 1869
3 1469 4 1229
3 902 1305 2083
3 1202 628 1443
3 654 985 1945
3 17 291 1482
3 127 1691 1820
3 680 913 1862
3 1333 1959 2300
3 1585 437 1681
3 510 1473 1110
3 656 1755 1599
3 386 2029 1854
3 1095 740 1777
3 267 1588 1778
3 844 815 1942
3 212 1574 1741
3 989 356 1628
3 1722 1302 2169
3 624 1077 777
3 1086 441 1222
3 1047 1244 1898
3 928 1189 1061
3 1178 1205 2196
3 18 1232 1996
3 651 1519 1821
3 932 430 1616
3 615 1008 2015
3 1141 457 1654
3 885 1471 1226
3 210 211 1067
3 1258 497 1395
3 991 1047 1898
3 32 33 1273
3 820 1258 1395
3 987 389 1539
3 868 559 1629
3 1938 687 2285
3 1591 609 1800
3 694 1421 1526
3 1459 770 2099
3 1007 654 1393
3 464 1543 1151
3 908 1080 2166
3 1396 945 1303
3 682 1317 1478
3 678 687 1938
3 1596 368 1557
3 584 1497 1451
3 932 688 1787
3 715 1093 1144
3 1702 659 1241
3 1902 893 2270
3 1321 890 372
3 1112 644 1549
3 868 459 2241
3 1421 271 1577
3 1189 498 1061
3 2002 371 2309
3 449 1401 1838
3 956 1151 1535
3 770 2086 2293
3 560 1119 2141
3 1063 200 1667
3 1903 429 1412
3 410 1511 1881
3 1213 65 1275
3 605 1022 1839
3 110 1520 2084
3 1151 840 1535
3 1121 585 2064
3 688 879 1787
3 1119 843 2141
3 350 1766 2218
3 1708 609 1970
3 943 23 2277
3 1622 772 1486
3 1294 382 1346
3 1487 386 1854
3 749 1406 1119
3 815 844 1761
3 1022 493 1839
3 723 370 2035
3 1627 374 1866
3 1045 602 2009
3 697 975 1828
3 1449 487 1917
3 356 796 1628
3 1473 701 1420
3 1499 735 2064
3 1385 535 2213
3 940 1573 1453
3 446 1037 2018
3 836 357 1282
3 495 1519 1020
3 1618 1038 1972
3 762 654 1499
3 1083 1591 1800
3 1436 380 2039
3 1447 928 1061
3 1485 503 2158
3 665 1063 1667
3 757 1165 2310
3 863 1558 1909
3 944 1078 2148
3 1191 2108 2235
3 1437 151 1579
3 578 936 1914
3 1115 1908 1277
3 740 1095 1778
3 1565 417 2031
3 712 1797 1338
3 724 1465 1855
3 1509 364 2225
3 84 85 1059
3 143 144 545
3 1234 1804 1911
3 1801 626 2260
3 532 1515 1989
3 962 490 1955
3 843 2268 1905
3 810 973 1793
3 546 1064 1510
3 126 127 1820
3 282 12 1717
3 1847 1312 2154
3 1314 1244 1992
3 1465 463 1855
3 516 927 1169
3 1253 1000 1357
3 1224 916 2128
3 1449 1917 1925
3 165 166 1680
3 106 107 1682
3 805 1469 1229
3 1971 17 1482
3 1459 642 1619
3 973 1130 1793
3 712 1190 1810
3 1312 380 2154
3 1165 757 2249
3 591 1177 1822
3 1093 961 1501
3 1100 823 1466
3 1130 518 1793
3 1766 1025 2218
3 695 1095 1777
3 961 528 1501
3 1593 391 2108
3 833 951 1282
3 1894 440 1657
3 1243 1504 1076
3 516 1405 1433
3 953 1314 1992
3 468 1436 2039
3 460 1552 807
3 699 42 1252
3 528 1111 1135
3 214 974 1089
3 2079 1020 2009
3 966 1053 2306
3 1418 746 2123
3 539 908 2166
3 931 535 1338
3 1580 680 1862
3 118 119 1689
3 1095 695 1200
3 1218 439 1644
3 1385 3 1642
3 289 288 2228
3 1254 875 1329
3 1223 551 1533
3 664 1761 1455
3 495 1020 2079
3 653 934 1378
3 1917 293 1925
3 989 586 2167
3 573 974 1570
3 546 1510 1623
3 873 465 1371
3 1469 805 1153
3 890 149 1957
3 634 1371 2312
3 1822 623 2257
3 1532 594 1531
3 392 1456 2125
3 763 1593 2108
3 542 1254 1329
3 613 1466 1697
3 30 880 1975
3 1776 289 2228
3 744 1524 1410
3 461 1045 2009
3 1404 314 1621
3 1827 588 2164
3 708 1005 1823
3 802 810 1316
3 477 1669 1529
3 1418 502 2007
3 408 1748 2278
3 430 1199 1616
3 77 78 1136
3 310 1806 1378
3 614 780 2127
3 1959 484 2300
3 1456 377 1796
3 124 811 1409
3 1305 739 2083
3 333 24 1366
3 1292 408 2278
3 1425 484 1586
3 1574 814 1741
3 974 839 1570
3 1771 1134 1356
3 1815 724 2224
3 1405 1829 2204
3 1525 425 848
3 1013 1404 1621
3 363 1518 2232
3 745 412 1962
3 116 117 1490
3 1496 843 1905
3 312 1223 1533
3 710 347 1733
3 869 1268 1757
3 1588 740 1778
3 808 1425 1586
3 631 943 2277
3 1266 1275 2059
3 65 66 1275
3 1558 626 1909
3 472 1722 2169
3 1460 556 2001
3 1665 349 2296
3 454 1463 1461
3 926 244 1805
3 502 1418 2123
3 1525 1109 372
3 974 214 2217
3 1508 915 2055
3 375 1145 1648
3 1551 993 1046
3 1103 1437 1579
3 1761 844 1455
3 549 1525 372
3 441 1105 1222
3 368 1104 1062
3 677 570 1413
3 879 232 1754
3 559 868 1374
3 1691 612 1820
3 1921 1022 1288
3 1890 798 1982
3 877 872 1444
3 487 1449 1293
3 1104 347 1440
3 731 951 1633
3 1035 984 2218
3 1436 468 2047
3 811 647 1409
3 441 1086 2145
3 570 721 1413
3 112 113 1818
3 987 1256 1726
3 508 434 2036
3 425 458 1734
3 1234 1565 2031
3 1140 594 2148
3 686 1890 1982
3 1037 1611 766
3 497 1258 1985
3 1668 510 2305
3 1829 737 2204
3 1145 996 1648
3 879 430 1787
3 951 511 1633
3 509 745 1656
3 960 1665 2296
3 1460 606 1402
3 452 1463 1913
3 1067 814 1929
3 155 156 1993
3 1247 443 1876
3 661 1809 1325
3 449 1067 1929
3 1665 755 2005
3 1948 1210 1748
3 1198 619 1367
3 520 1336 1740
3 374 1627 1859
3 1510 451 1623
3 191 961 1825
3 418 2219 2299
3 1190 1450 2234
3 82 587 1699
3 1452 412 1860
3 1389 898 2143
3 1305 1170 2027
3 237 1168 2195
3 411 1650 2135
3 762 585 1974
3 703 905 1576
3 984 350 2218
3 514 1452 1802
3 742 1458 2032
3 951 548 1282
3 1952 893 1902
3 509 1139 1984
3 256 1615 2159
3 36 37 1842
3 1832 541 2049
3 246 247 2082
3 528 1015 1501
3 814 1574 1946
3 1547 420 1707
3 1515 746 1989
3 707 1025 2024
3 1247 620 1991
3 1497 711 1451
3 884 636 2240
3 648 1668 2185
3 200 201 1667
3 2219 1087 2299
3 619 756 1367
3 1194 1220 1758
3 387 489 1492
3 905 652 1576
3 909 1289 796
3 1574 573 1946
3 540 1708 1758
3 1416 949 1878
3 927 403 2248
3 209 210 1838
3 1998 483 2276
3 276 1088 488
3 718 1469 1153
3 1791 981 2074
3 146 147 1739
3 8 1100 2274
3 660 1617 1831
3 844 1454 1455
3 823 1048 1772
3 1318 591 1912
3 1177 14 1900
3 329 330 1058
3 1237 1270 963
3 1505 1919 2194
3 808 1485 2158
3 1242 1393 1271
3 920 1485 1287
3 774 447 2110
3 1022 605 2209
3 778 1152 1325
3 1376 1385 2213
3 1268 897 1757
3 585 762 1499
3 393 778 1325
3 700 1213 1275
3 730 1508 2055
3 1794 381 807
3 1266 1052 2119
3 821 540 1098
3 504 1005 2282
3 2032 1458 1834
3 692 1008 1765
3 1555 1407 2297
3 768 756 1693
3 686 1040 1890
3 1204 564 2209
3 432 1645 1686
3 236 237 2195
3 1836 431 1681
3 1319 1283 2151
3 1454 666 1455
3 294 18 1996
3 2087 1351 1061
3 1040 464 1890
3 1112 723 1552
3 568 682 1883
3 1556 509 1984
3 935 997 2081
3 634 957 1371
3 900 1416 1878
3 1495 358 1864
3 1666 818 1069
3 1198 27 1255
3 632 946 1279
3 1650 726 2135
3 1137 466 1384
3 759 1747 2179
3 1138 671 1298
3 1877 480 1916
3 14 1747 1900
3 540 1220 1098
3 866 1877 1916
3 1253 1065 2258
3 235 236 1092
3 1254 1418 2007
3 1052 67 1610
3 569 1495 1864
3 1138 22 1439
3 1137 8 2274
3 1101 44 1356
3 993 1551 2118
3 723 1112 2125
3 264 265 1200
3 1189 505 1927
3 278 985 1953
3 1471 462 2187
3 67 68 1610
3 46 47 1779
3 1668 1280 2185
3 1849 490 1944
3 639 1202 1592
3 218 775 1719
3 863 1262 1690
3 453 1335 2208
3 1174 869 1757
3 690 699 1252
3 778 393 1587
3 1139 1171 1984
3 762 704 1271
3 1675 610 1784
3 1130 562 2096
3 306 307 930
3 1103 1815 2224
3 877 907 2154
3 1497 616 1184
3 1005 504 1823
3 1111 519 2270
3 225 821 1098
3 1521 523 2022
3 608 1168 1295
3 1042 878 1534
3 1957 150 1966
3 1034 417 972
3 1396 1556 1984
3 1788 643 1681
3 1017 348 2138
3 1730 633 1604
3 279 278 1953
3 1558 863 1690
3 1504 373 2231
3 693 1482 1613
3 433 1007 1393
3 1483 590 1315
3 1077 624 1382
3 443 1247 1391
3 1502 295 2025
3 785 1264 1072
3 1615 256 2131
3 1109 1321 372
3 221 222 1736
3 1746 362 1567
3 1136 78 1192
3 518 1130 2205
3 984 1035 2134
3 551 1850 2020
3 417 1565 972
3 2070 414 2011
3 727 1750 1094
3 907 1200 1847
3 1771 46 1779
3 247 1824 2082
3 898 1265 2143
3 1670 702 1250
3 113 114 999
3 931 1673 1679
3 714 1136 1192
3 457 1670 1250
3 536 1022 1598
3 927 572 1837
3 758 929 1399
3 3 1286 1642
3 872 877 787
3 1117 984 2134
3 2151 1283 2266
3 989 2167 1709
3 1750 565 1094
3 405 1661 1583
3 498 2087 1061
3 515 1203 1816
3 513 913 1589
3 1235 863 1909
3 299 673 2160
3 232 879 2072
3 1677 744 1410
3 728 392 1549
3 544 916 1625
3 1014 1011 2184
3 417 1704 2031
3 1203 1029 1816
3 1032 1491 2254
3 1286 359 1788
3 1571 430 1754
3 1203 515 2162
3 1165 401 2310
3 1711 854 1470
3 620 1509 1685
3 512 1014 2184
3 1640 1170 2023
3 1225 428 2010
3 1335 862 2208
3 389 987 1726
3 916 478 1625
3 317 1197 1595
3 938 1849 1944
3 335 1225 2010
3 1173 862 1628
3 1667 201 2253
3 1264 348 1072
3 2308 1581 1918
3 257 258 1368
3 759 1256 2192
3 1188 538 1797
3 770 1459 2086
3 493 1022 1921
3 682 657 1883
3 350 1584 1766
3 1717 853 1448
3 1081 603 2161
3 385 778 1587
3 589 1272 1639
3 1182 485 1359
3 625 1475 2223
3 541 1832 886
3 856 1938 2285
3 1152 1027 782
3 203 204 1550
3 539 1273 2061
3 709 1636 1227
3 1169 1432 2056
3 1580 736 2063
3 756 619 1693
3 419 1284 2156
3 227 228 1763
3 565 1711 1470
3 1818 113 999
3 2013 705 2227
3 115 116 1206
3 1108 120 1211
3 80 1165 2249
3 568 997 1688
3 1598 371 1431
3 1832 1096 886
3 1564 672 1438
3 593 1294 1277
3 434 685 2036
3 1593 693 1500
3 1696 856 1936
3 397 1108 1211
3 1442 2013 2227
3 395 1077 2027
3 132 133 1002
3 493 1511 1770
3 381 1867 807
3 1627 706 1859
3 997 568 2081
3 561 1174 1757
3 1268 1054 2290
3 130 1142 1397
3 1224 853 2214
3 892 1169 2056
3 242 2254 1180
3 74 75 655
3 581 1254 2007
3 262 877 1444
3 909 796 1334
3 1125 639 1503
3 75 76 1127
3 981 1722 2041
3 1450 535 1585
3 96 1558 1690
3 1524 960 2296
3 1922 633 1782
3 1482 891 1613
3 1560 341 1623
3 682 568 1688
3 633 1730 1637
3 872 1166 1444
3 633 2085 1782
3 1073 714 1379
3 1680 1167 2284
3 2189 1682 2283
3 915 1188 1110
3 441 1520 2133
3 943 631 1997
3 352 1495 1046
3 1088 276 2104
3 423 1125 1503
3 383 1205 2022
3 1722 472 2041
3 233 234 1571
3 2170 633 1637
3 108 109 1107
3 818 1666 1541
3 68 69 1624
3 163 164 1976
3 278 10 1945
3 298 20 1591
3 1240 207 2222
3 300 21 809
3 202 203 2265
3 1249 909 1334
3 678 2199 2298
3 24 1523 1930
3 1262 95 1690
3 343 803 1468
3 1565 176 972
3 642 1297 2290
3 739 1077 1382
3 41 699 1344
3 623 1177 1900
3 468 1538 2047
3 1100 613 2274
3 1810 1190 2305
3 2163 192 1902
3 1538 505 2047
3 451 1560 1623
3 665 1596 1557
3 746 1515 2123
3 1985 1258 1238
3 1515 502 2123
3 1581 867 1918
3 501 1582 1599
3 1603 573 1570
3 177 1034 972
3 1105 441 2115
3 1851 618 2014
3 1596 665 752
3 478 1111 1940
3 255 256 2159
3 1308 579 1323
3 819 1105 2115
3 1063 942 2062
3 244 245 1805
3 199 1063 2062
3 1483 1315 2303
3 187 188 1786
3 1520 111 2168
3 536 1598 1431
3 1111 478 2214
3 873 2137 1852
3 916 527 2128
3 492 1073 1870
3 216 217 2076
3 351 837 1304
3 10 277 1426
3 1689 662 2193
3 1525 549 2044
3 195 196 826
3 359 1915 2021
3 1929 375 2177
3 1105 466 1222
3 1528 678 1938
3 811 850 1594
3 1582 901 1599
3 1173 645 1695
3 1622 1486 1906
3 50 1091 1678
3 373 1243 2293
3 1091 50 1882
3 1148 330 2215
3 1073 358 1870
3 617 604 2251
3 1627 1866 2079
3 92 93 1202
3 709 1528 1938
3 2089 379 2198
3 729 1998 2276
3 597 1215 1414
3 1489 1039 1686
3 1515 532 2112
3 78 79 1192
3 1059 1278 2264
3 1194 1736 2259
3 499 1532 2192
3 1220 224 1098
3 443 1268 2290
3 586 1319 1903
3 426 1233 1300
3 747 1064 1513
3 179 180 1791
3 660 1199 1545
3 1160 872 883
3 358 1073 1864
3 1200 907 2078
3 1132 1851 2014
3 398 824 1605
3 671 1601 1749
3 32 1273 1968
3 434 21 2160
3 911 367 1738
3 491 1018 1858
3 1498 653 2020
3 1060 467 2190
3 553 398 1605
3 1135 853 2146
3 959 1355 1873
3 220 221 1204
3 149 150 1957
3 456 1502 2130
3 2124 736 1862
3 479 1580 2063
3 878 1721 1894
3 720 1746 1567
3 1532 499 1808
3 447 1606 1399
3 507 1474 1346
3 1233 953 1992
3 374 1602 1866
3 1312 695 1500
3 2053 1043 1999
3 1505 692 1950
3 1560 451 2107
3 1188 510 1110
3 525 861 1475
3 445 1728 1306
3 961 191 2163
3 1890 464 1484
3 1976 801 1979
3 385 1233 1992
3 886 411 2272
3 433 1219 1835
3 1139 509 1656
3 424 1193 1765
3 534 1107 2120
3 1659 816 2267
3 1209 1803 2243
3 297 296 1943
3 565 1750 1711
3 1799 482 2258
3 173 174 1804
3 98 99 1801
3 448 1272 1423
3 1182 345 1512
3 526 499 1457
3 190 191 1825
3 1469 718 2137
3 1242 1123 1967
3 1289 645 796
3 33 34 1118
3 1819 1150 1790
3 253 905 1694
3 1090 825 2246
3 595 1716 1743
3 2177 375 2203
3 1543 532 1126
3 1081 440 1977
3 596 1875 1700
3 1187 583 1021
3 1150 1159 1790
3 726 1650 1885
3 1082 1759 1276
3 230 1607 1990
3 1716 336 1743
3 447 1408 2236
3 693 1312 1500
3 689 1121 2064
3 497 1985 1420
3 1370 202 2265
3 615 1830 2247
3 965 1187 1021
3 1830 1274 2247
3 853 1717 2146
3 143 545 1229
3 1405 1208 1829
3 1434 424 1765
3 1286 3 1397
3 283 970 2171
3 821 731 1633
3 513 1589 2065
3 936 476 1914
3 1717 1158 2146
3 1660 1515 2112
3 1059 85 1278
3 490 1521 1944
3 729 1249 1334
3 580 1101 2111
3 1739 147 1321
3 946 418 793
3 2275 1646 1349
3 1176 893 1698
3 413 1555 2297
3 1045 455 2054
3 825 575 2246
3 457 1250 1845
3 1051 1667 2253
3 716 1267 1403
3 1540 851 1422
3 1213 700 1303
3 1571 663 1545
3 999 875 1254
3 256 257 2131
3 1174 523 1261
3 1215 764 1414
3 1602 392 1744
3 582 1542 2127
3 1289 363 2232
3 141 142 1830
3 2137 718 1852
3 1176 478 1940
3 210 1067 1838
3 2254 1491 1180
3 674 526 1291
3 573 1145 1946
3 460 946 1994
3 581 999 1254
3 389 1141 1354
3 1680 166 1167
3 106 1682 2189
3 1756 517 1546
3 146 1739 1891
3 352 1088 1683
3 1584 350 2099
3 959 1045 2054
3 482 1488 2258
3 695 1777 1500
3 1755 674 1372
3 510 1188 1810
3 547 1219 1967
3 601 1236 2186
3 584 1540 1749
3 244 926 2045
3 359 1142 1915
3 499 526 1808
3 1236 860 2186
3 1489 362 1895
3 1193 692 1765
3 919 1755 1372
3 1424 889 1381
3 349 1665 2005
3 1398 885 2029
3 1122 601 2206
3 1750 727 2261
3 118 1689 2193
3 1048 345 1772
3 448 1318 1912
3 681 1489 1686
3 428 1225 1328
3 663 1571 789
3 1065 1799 2258
3 650 773 1953
3 1078 1976 1979
3 1846 1161 2019
3 568 1036 2081
3 1088 1043 1683
3 1107 1074 2120
3 888 1316 2303
3 60 61 1347
3 945 1213 1303
3 893 1176 1940
3 394 1027 1614
3 111 112 2168
3 467 682 1688
3 1543 464 2053
3 1273 33 1118
3 986 795 1922
3 1027 1152 1614
3 853 1135 2214
3 639 1262 1503
3 1739 918 1891
3 1273 1118 2061
3 869 1174 1320
3 926 1032 2045
3 604 849 2089
3 1043 1088 2104
3 1603 377 1751
3 773 279 1953
3 832 2275 1349
3 1661 405 2147
3 2159 405 1583
3 64 1213 2077
3 2002 1084 1486
3 430 932 1787
3 478 1176 1625
3 634 1715 1707
3 2050 421 2126
3 1494 1149 2244
3 822 1002 1861
3 1606 758 1399
3 299 298 1848
3 1139 622 2006
3 1666 804 1255
3 313 314 1404
3 548 836 1282
3 976 1883 1895
3 697 1102 1789
3 1034 981 2041
3 219 220 2113
3 924 826 1789
3 48 49 1472
3 464 1040 2053
3 845 1443 2281
3 640 1774 1374
3 772 2002 1486
3 406 1767 1811
3 81 82 1699
3 587 1146 1699
3 403 1113 1972
3 1505 751 2165
3 657 1489 1895
3 1767 923 1811
3 1197 317 2226
3 545 805 1229
3 567 1176 1698
3 457 1141 2157
3 693 1593 1971
3 652 1661 2147
3 1064 748 1513
3 1723 383 2022
3 1109 1739 1321
3 1213 945 2077
3 515 813 2117
3 1652 624 1896
3 1747 759 2136
3 2119 716 1403
3 1029 2049 1816
3 371 990 2309
3 776 1264 1941
3 360 2172 1880
3 578 1846 2019
3 1072 507 1597
3 528 961 1840
3 123 124 1409
3 566 1122 2206
3 623 1747 2136
3 1040 1043 2053
3 1366 24 1930
3 1345 1136 1290
3 772 1674 1431
3 497 950 1395
3 1728 1012 1306
3 759 1531 2136
3 296 19 1226
3 1985 1473 1420
3 750 1376 2213
3 775 219 2113
3 1531 759 2192
3 682 467 1317
3 638 1097 894
3 773 650 2106
3 368 1596 1287
3 410 1638 1768
3 813 949 2117
3 1670 457 2157
3 2049 541 1816
3 2008 436 1814
3 1596 920 1287
3 431 1450 1585
3 1366 818 1541
3 581 1818 999
3 1286 437 1642
3 1097 344 894
3 1749 1601 2230
3 1166 261 1444
3 1523 447 2236
3 1223 313 1404
3 1425 1244 1314
3 1904 621 1655
3 1264 776 2080
3 1365 2008 1814
3 221 1736 1204
3 54 55 1863
3 600 1670 2157
3 1297 642 1117
3 107 108 2088
3 164 165 2091
3 1634 453 2208
3 1090 424 825
3 1932 409 2098
3 523 1723 2022
3 1645 681 1686
3 1050 1785 1918
3 1136 714 1290
3 1158 1534 1826
3 207 208 2222
3 431 1986 2234
3 599 773 1897
3 482 1646 2275
3 484 1425 1314
3 383 1723 1470
3 1167 1162 2284
3 791 2189 2283
3 52 53 1363
3 785 1072 1597
3 950 622 1395
3 635 1010 904
3 1611 636 766
3 997 935 2070
3 150 151 1966
3 56 57 1893
3 680 1580 1928
3 1728 744 1609
3 1714 367 1873
3 493 775 1839
3 83 84 1620
3 1259 572 1129
3 966 1564 2057
3 386 1173 1695
3 1578 1083 1800
3 382 1294 1705
3 1124 269 1348
3 189 190 715
3 1086 1600 1697
3 1004 2040 2216
3 402 1224 2128
3 1200 695 1847
3 476 936 2256
3 2105 339 1828
3 422 1276 2152
3 537 1068 1833
3 2052 785 1383
3 1270 2050 2126
3 949 1232 2117
3 1849 597 1853
3 738 1957 1966
3 208 1201 2222
3 436 1124 1348
3 1451 711 2150
3 1232 949 1996
3 91 92 1443
3 736 1580 1862
3 140 141 2015
3 1883 657 1895
3 180 181 1494
3 1742 828 1217
3 755 1362 2030
3 145 146 1891
3 1221 508 2036
3 133 134 1357
3 1147 397 1782
3 1018 921 1858
3 881 1195 1865
3 172 173 1803
3 99 100 1659
3 88 2273 2287
3 459 988 2241
3 1195 360 1865
3 1172 1147 1782
3 345 1182 2313
3 1272 448 2314
3 664 1417 1476
3 1406 438 2268
3 431 1836 1986
3 224 225 1098
3 1908 1115 1474
3 1914 476 1195
3 545 968 1041
3 1736 222 2259
3 1467 569 1379
3 953 1233 2176
3 1756 749 1855
3 1233 977 2176
3 859 1251 1129
3 1573 367 1453
3 470 1175 2030
3 881 1914 1195
3 900 1878 2135
3 1387 103 2294
3 169 1958 1960
3 1332 659 2042
3 1265 898 1251
3 13 283 2171
3 399 1908 1474
3 859 1265 1251
3 213 214 1089
3 617 1392 1910
3 1411 776 1941
3 1972 1038 2201
3 1170 1305 2023
3 1165 81 1699
3 944 162 1963
3 1598 1022 2209
3 1539 389 1354
3 1377 784 2008
3 1392 956 1910
3 121 986 1211
3 1156 869 1320
3 998 725 1817
3 232 233 1754
3 486 1584 2178
3 1607 231 2072
3 1208 415 1829
3 251 252 1907
3 1574 213 1089
3 1472 980 2307
3 1009 1389 2143
3 757 1192 2249
3 1038 1965 2201
3 961 1093 1825
3 669 794 2180
3 813 515 1816
3 227 1763 2097
3 592 1819 1790
3 2125 1112 1549
3 601 1113 2206
3 140 2015 1553
3 939 957 2188
3 82 83 587
3 1350 1091 1882
3 455 1355 2054
3 1357 134 2263
3 776 1411 1296
3 751 1505 1950
3 120 121 1211
3 1251 514 1129
3 923 1767 799
3 1078 944 1963
3 1584 708 1766
3 1355 959 2054
3 308 1542 1246
3 1212 558 1927
3 1812 1309 1476
3 1581 721 1536
3 804 1069 1575
3 192 193 1902
3 1219 845 2281
3 2191 1146 1973
3 2010 1071 1844
3 1641 475 1535
3 1417 637 1476
3 1337 2052 1383
3 400 1332 2042
3 378 1771 1779
3 1926 906 1539
3 1414 764 1710
3 532 1989 1126
3 2098 563 1631
3 617 1581 1536
3 2023 1305 1644
3 867 1581 1910
3 840 1641 1535
3 343 1468 2063
3 1581 617 1910
3 1661 905 2090
3 905 703 1694
3 1571 234 789
3 1473 1985 1110
3 826 196 2129
3 1042 1158 2280
3 1091 1106 1678
3 1866 495 2079
3 572 1773 1129
3 949 813 2272
3 1727 763 1281
3 697 826 2129
3 376 1727 1281
3 95 96 1690
3 1243 373 1504
3 2097 1763 2173
3 348 1264 2080
3 239 240 1360
3 541 813 1816
3 796 356 1334
3 252 253 1694
3 962 1156 1320
3 1101 1356 2111
3 488 993 2118
3 1071 1299 1844
3 968 1891 781
3 187 1786 1687
3 817 1995 2210
3 1149 1081 2244
3 621 1936 2026
3 151 152 1579
3 659 1205 2042
3 1729 885 2051
3 948 1162 1639
3 791 1164 1359
3 242 243 2254
3 4 143 1229
3 2220 592 1790
3 636 1611 2240
3 259 260 1447
3 1615 1023 1336
3 582 930 1246
3 1273 539 2227
3 336 1716 1293
3 1936 477 2026
3 430 1571 1545
3 1019 1932 2098
3 176 177 972
3 1392 617 2251
3 397 986 1922
3 2182 506 1380
3 229 230 1990
3 1786 188 2109
3 1322 1369 2278
3 50 51 1882
3 1272 1209 2243
3 816 1182 2267
3 1921 381 1794
3 748 1612 1745
3 1278 1123 2264
3 1119 1406 2268
3 1292 667 1649
3 1031 1435 1506
3 910 1168 829
3 1202 93 1592
3 1716 487 1293
3 1002 1000 1861
3 669 1669 835
3 1096 1980 2255
3 920 1596 1328
3 511 1578 1800
3 1708 369 1758
3 1168 608 829
3 1192 79 2249
3 1284 419 1386
3 1369 667 2278
3 1669 629 835
3 1903 761 2167
3 70 71 1237
3 425 998 2316
3 179 1791 2074
3 1965 1432 2201
3 783 2073 1403
3 637 1812 1476
3 1600 613 1697
3 794 438 1725
3 247 248 2261
3 506 1143 1380
3 1468 479 2063
3 1199 966 1616
3 1812 637 1464
3 770 1243 2178
3 1937 575 1434
3 671 1138 1635
3 304 1622 1906
3 1063 665 1769
3 794 669 1817
3 74 655 1507
3 655 860 1507
3 515 2117 2162
3 23 303 2277
3 426 794 1725
3 930 307 1246
3 1474 1115 1346
3 1197 1019 1595
3 420 957 1707
3 512 1117 2134
3 905 253 2090
3 765 1660 2112
3 942 1063 1769
3 1192 757 2221
3 1256 1214 1726
3 344 1097 1884
3 1316 518 2303
3 316 317 1595
3 622 950 2006
3 783 903 2073
3 1804 174 1911
3 98 1801 2260
3 598 958 1713
3 1097 358 1884
3 49 50 1678
3 519 2163 1902
3 276 9 2104
3 618 1292 1649
3 805 545 1041
3 402 970 1630
3 629 687 2298
3 1820 612 1987
3 1830 615 2015
3 1685 1509 2225
3 787 877 2154
3 1389 1009 1752
3 494 1389 1752
3 1162 948 2284
3 1164 791 2283
3 40 41 1344
3 980 1472 2094
3 1465 724 1815
3 27 1666 1255
3 1717 12 2280
3 1926 360 1880
3 1243 770 2293
3 687 678 2298
3 1187 713 1572
3 1702 938 1944
3 1416 900 2025
3 1023 1615 2131
3 948 606 2284
3 452 1164 2283
3 1284 1049 2228
3 970 283 1630
3 392 2125 1549
3 1542 582 1246
3 1134 1514 1933
3 1824 596 2082
3 985 278 1945
3 743 2151 2266
3 392 728 1744
3 1857 303 2046
3 288 1284 2228
3 191 192 2163
3 1123 1242 2264
3 2089 849 2095
3 264 1200 2078
3 1723 523 1653
3 261 262 1444
3 502 819 2007
3 58 59 1947
3 1242 704 2264
3 1618 601 2186
3 442 2017 1562
3 662 1689 2289
3 2017 698 1562
3 1615 405 2159
3 925 168 1960
3 104 1163 2294
3 1477 962 1955
3 1514 378 1441
3 400 1064 1647
3 438 794 1905
3 549 372 2250
3 193 194 1952
3 794 725 1905
3 358 1097 1870
3 1070 1477 1955
3 1175 524 2030
3 384 1498 2020
3 983 1023 2087
3 728 982 1744
3 1075 554 1612
3 1067 449 1838
3 1092 236 2195
3 1085 1197 2226
3 964 627 1492
3 168 169 1960
3 103 104 2294
3 849 1939 2095
3 1611 354 2240
3 409 2060 2098
3 957 420 2188
3 1356 1134 2111
3 1347 61 1658
3 2021 1915 1858
3 1550 522 1299
3 1243 486 2178
3 977 1406 1546
3 29 30 1975
3 2014 618 1649
3 1672 753 1537
3 1280 1668 2305
3 132 1002 1899
3 498 983 2087
3 794 426 2180
3 1762 382 1705
3 832 1430 1488
3 1196 1070 1853
3 363 1411 1941
3 271 272 1577
3 1172 2085 1555
3 1670 600 2183
3 365 1857 2046
3 1014 512 2134
3 2085 683 1555
3 514 1259 1129
3 339 2032 1834
3 1824 247 2261
3 307 308 1246
3 714 1192 2221
3 889 858 1381
3 492 1951 2302
3 1580 479 2028
3 602 1627 2079
3 511 1795 1633
3 1327 2076 1768
3 2076 342 1768
3 60 1347 1868
3 159 160 912
3 720 1567 1718
3 1417 666 2065
3 1141 1654 1354
3 1675 649 2311
3 87 88 2287
3 519 1902 2270
3 1099 555 1568
3 1191 1281 2108
3 969 1297 1415
3 955 1590 2138
3 995 1468 2238
3 1175 574 2092
3 971 87 2287
3 157 1703 1563
3 407 1235 1909
3 1221 806 1916
3 1706 726 2018
3 608 1877 829
3 480 1221 1916
3 838 1887 1734
3 970 600 2171
3 986 397 1211
3 1704 552 2031
3 612 1691 1679
3 205 206 1429
3 400 1075 1612
3 733 1498 1559
3 1297 443 2290
3 1703 656 1563
3 404 1227 2245
3 1650 411 2255
3 1682 107 2088
3 356 989 1709
3 165 1680 2091
3 1877 866 829
3 699 521 1980
3 1893 57 2103
3 1942 471 1454
3 494 679 2093
3 48 1472 2307
3 1256 499 2192
3 315 876 1621
3 885 1729 2029
3 1992 1244 1047
3 824 398 2161
3 681 1645 1718
3 1340 383 1470
3 597 1196 1853
3 257 1368 2131
3 1311 707 2024
3 2279 576 1892
3 358 1186 1884
3 1696 1936 1904
3 1064 546 1647
3 864 2083 1935
3 860 655 1626
3 1035 1014 2134
3 321 1090 2246
3 1666 27 1541
3 1057 517 2252
3 655 967 1626
3 1333 1057 2252
3 1729 456 1983
3 666 1417 1455
3 844 1942 1454
3 1067 211 1741
3 649 1481 1997
3 956 1392 1484
3 861 413 1662
3 448 948 2314
3 1164 345 2313
3 687 477 2285
3 600 970 2183
3 900 1706 2130
3 679 899 2093
3 361 1308 1323
3 1002 822 1899
3 303 1857 2277
3 1646 325 1349
3 666 734 2065
3 630 952 1743
3 837 351 1986
3 958 638 1713
3 123 1409 2197
3 1185 861 1662
3 606 948 1402
3 1164 452 1913
3 102 2 1387
3 5 170 1958
3 763 1727 1301
3 828 1446 1217
3 451 1590 2107
3 2273 779 2287
3 952 595 1743
3 704 1242 1271
3 1612 554 1745
3 814 1067 1741
3 1480 737 2037
3 372 890 2250
3 1773 859 1129
3 1446 754 1217
3 1691 750 1679
3 661 1263 1655
3 357 932 1616
3 483 1352 2276
3 418 1481 793
3 1191 1331 1281
3 831 537 1833
3 1154 1643 1981
3 34 35 2262
3 1830 142 2149
3 1490 662 1375
3 1151 1543 1126
3 481 831 1833
3 1026 1490 1375
3 1643 544 1981
3 1425 808 2158
3 1002 133 1357
3 1040 686 2121
3 1187 965 1845
3 1727 292 1301
3 1645 563 1718
3 1186 352 2121
3 1386 472 2169
3 35 36 1956
3 1000 1002 1357
3 169 5 1958
3 2 103 1387
3 1227 396 2245
3 1097 638 896
3 1597 507 1346
3 251 1907 2116
3 52 1363 2269
3 725 794 1817
3 1784 1422 2174
3 702 1670 2304
3 18 293 1917
3 2166 1442 2227
3 1760 847 1390
3 398 553 1657
3 539 2166 2227
3 1307 1394 2092
3 1827 805 1041
3 375 1648 2203
3 1408 349 2005
3 527 1712 2304
3 1887 543 781
3 70 1237 963
3 638 958 1951
3 1212 593 1277
3 293 292 1925
3 996 1859 1856
3 243 244 2045
3 696 1671 2288
3 2060 720 1718
3 1210 1360 1748
3 1362 470 2030
3 1360 1322 1748
3 1784 610 1422
3 622 1962 2075
3 557 819 2115
3 988 459 2210
3 277 276 488
3 686 1186 2121
3 1907 854 2116
3 1417 664 1455
3 1190 1280 2305
3 1648 940 2203
3 2083 739 1935
3 367 1714 1738
3 1434 575 825
3 1395 622 2075
3 1481 649 793
3 331 756 2215
3 1747 623 1900
3 1456 1796 2125
3 546 1623 1241
3 613 1137 2274
3 1586 1128 1428
3 1043 1040 1683
3 1759 63 2077
3 84 1059 1620
3 737 1308 2204
3 713 1250 1380
3 1308 361 2204
3 871 1729 1983
3 918 848 1734
3 415 1939 1978
3 1468 803 2238
3 1312 693 1613
3 58 1947 2103
3 1274 2058 2188
3 1233 385 1300
3 1250 702 1380
3 185 1031 1506
3 786 1664 2198
3 1674 536 1431
3 2000 1114 2011
3 1274 1830 2149
3 206 1240 1429
3 1 89 2273
3 1013 1621 1631
3 198 199 2062
3 128 129 1376
3 3 130 1397
3 734 513 2065
3 27 333 1541
3 1939 849 1978
3 570 415 1978
3 1281 763 2108
3 945 1759 2077
3 351 1190 2234
3 1692 503 2175
3 1621 876 1631
3 1809 661 1655
3 709 1938 2069
3 183 6 1339
3 415 570 2037
3 1714 802 1738
3 364 1245 2014
3 558 1908 2038
3 141 1830 2015
3 1116 666 1454
3 1759 945 1276
3 721 570 1978
3 1938 856 2069
3 812 1692 2175
3 396 1632 1934
3 621 1809 1655
3 1118 34 2262
3 88 1 2273
3 318 25 1841
3 1481 418 2299
3 1616 966 2057
3 1099 1568 1720
3 1654 841 1354
3 6 184 1339
3 667 1001 1649
3 1887 918 1734
3 2043 1050 1918
3 1689 525 2289
3 771 1387 2294
3 1958 1131 1960
3 466 1137 1600
3 1216 558 2038
3 1712 702 2304
3 231 232 2072
3 1103 1010 1815
3 840 1151 1126
3 1405 2204 2033
3 1462 423 1503
3 435 1183 2295
3 1632 611 1934
3 2058 939 2188
3 1010 635 1815
3 1137 613 1600
3 717 2021 2242
3 63 64 2077
3 44 45 1356
3 746 1641 1989
3 832 1488 2275
3 1623 341 1241
3 472 992 2041
3 542 1329 1554
3 578 1914 1846
3 595 1842 1203
3 751 1193 1537
3 543 1887 2101
3 1024 941 1144
3 2060 563 2098
3 609 1591 1544
3 1158 1717 2280
3 1842 1029 1203
3 1914 881 1846
3 1888 1026 1375
3 648 1819 1995
3 162 163 1963
3 301 1812 1464
3 109 110 2084
3 2136 1140 2257
3 1317 467 1559
3 625 1888 1375
3 638 1951 896
3 720 1239 2282
3 1721 440 1894
3 1069 489 1575
3 1887 838 2101
3 1012 1728 1609
3 478 1224 2214
3 1706 456 2130
3 1323 1009 2143
3 1154 1458 2291
3 1458 1154 1834
3 1466 454 1697
3 556 1822 2257
3 1245 1132 2014
3 1908 399 2038
3 1737 902 2083
3 1687 1786 1605
3 1723 565 1470
3 1066 1753 2181
3 2015 1008 1553
3 467 1060 1559
3 958 598 1626
3 2021 921 2242
3 1701 784 2235
3 623 2136 2257
3 1236 73 1507
3 35 952 2262
3 860 1236 1507
3 1947 59 1868
3 850 1820 1987
3 982 1602 1744
3 1073 1379 1864
3 906 1372 1291
3 1240 531 1429
3 1989 840 1126
3 504 1798 1783
3 1421 1577 1526
3 1035 1364 1651
3 68 1624 1610
3 1986 351 2234
3 2229 733 2139
3 768 837 1986
3 684 1974 1973
3 406 922 1594
3 292 17 1301
3 57 58 2103
3 1379 569 1864
3 17 1971 1301
3 952 35 1956
3 1205 1178 2042
3 704 1059 2264
3 1253 1357 2263
3 1308 737 2212
3 1079 1947 1868
3 1799 1065 2165
3 592 988 2210
3 936 463 2256
3 238 239 2012
3 1052 716 2119
3 1888 625 533
3 698 1752 1562
3 1331 376 1281
3 282 1717 1448
3 1942 882 2207
3 217 218 1719
3 1294 1003 1705
3 147 148 1321
3 1358 2066 1513
3 590 1240 2222
3 1168 910 2195
3 1155 1888 533
3 571 1949 2220
3 717 1058 1731
3 1752 1009 1562
3 510 1810 2305
3 330 331 2215
3 1552 1231 807
3 1730 827 1637
3 471 1942 2207
3 1891 918 781
3 21 299 2160
3 1919 1505 2165
3 894 786 1713
3 203 1550 2265
3 638 894 1713
3 616 1497 2181
3 1601 671 1635
3 784 1377 2235
3 378 1566 1441
3 1733 347 2200
3 31 32 1968
3 153 1010 1724
3 1807 817 2210
3 676 1733 2200
3 269 270 1348
3 196 197 2129
3 241 242 1180
3 606 1680 2284
3 1682 452 2283
3 353 1257 2107
3 1819 592 1995
3 609 1795 1800
3 1117 512 1415
3 283 282 1630
3 1806 653 1378
3 292 1727 1925
3 1010 1103 1724
3 487 1716 2162
3 471 1116 1454
3 1947 797 2103
3 702 1712 2182
3 126 1820 2239
3 1577 450 1526
3 579 1099 670
3 152 153 1724
3 1820 850 2239
3 138 139 2132
3 1151 956 1484
3 965 1865 2237
3 2204 361 2033
3 381 1921 1288
3 1060 733 1559
3 1532 1531 2192
3 1457 906 1291
3 605 1204 2209
3 985 650 1953
3 798 1392 2251
3 1472 49 1678
3 1332 546 1241
3 716 1624 2126
3 413 861 1684
3 135 136 834
3 1624 1270 2126
3 517 1057 2176
3 464 1151 1484
3 1258 820 2093
3 461 1020 1632
3 819 581 2007
3 965 1654 1845
3 663 1092 1617
3 949 1416 1996
3 1393 762 1271
3 1288 1087 2219
3 841 1539 1354
3 1092 910 1617
3 1368 1351 2087
3 416 1696 1904
3 1135 1111 2214
3 899 1258 2093
3 1528 588 2199
3 689 1426 2118
3 777 395 2174
3 1654 457 1845
3 1947 1079 2122
3 85 86 1278
3 1015 2146 1826
3 767 1014 1651
3 1336 520 2153
3 1051 1370 2102
3 1785 668 1918
3 1504 760 1076
3 339 1102 1828
3 1102 697 1828
3 678 1528 2199
3 667 1292 2278
3 851 777 2174
3 1295 238 2012
3 383 1340 2196
3 1753 1066 2028
3 1480 555 2212
3 2146 1158 1826
3 881 1865 1021
3 1556 1396 1303
3 561 1094 1653
3 317 318 2226
3 1670 2183 2304
3 1479 520 1740
3 737 1480 2212
3 1260 449 2177
3 479 1753 2028
3 716 1052 1610
3 721 1978 1536
3 507 1072 2040
3 1865 965 1021
3 1978 849 1536
3 214 215 2217
3 1132 1245 2034
3 414 1249 2011
3 715 190 1825
3 1052 1266 2059
3 1245 969 2034
3 1056 1260 2177
3 957 634 1707
3 583 1187 1572
3 67 1052 2059
3 680 1601 1635
3 1472 1106 2094
3 543 1827 1041
3 1779 47 2307
3 2066 1004 2216
3 1643 506 2182
3 747 2066 2216
3 105 106 2189
3 166 167 1167
3 314 315 1621
3 846 1827 2164
3 1732 1131 1886
3 771 1388 2292
3 512 2034 1415
3 381 1288 2219
3 186 187 1687
3 1279 946 793
3 645 1289 2232
3 274 1137 1384
3 73 74 1507
3 1072 348 2040
3 1449 1527 1293
3 1119 560 2202
3 885 1226 2051
3 786 1988 2004
3 812 1569 1373
3 859 1773 1433
3 311 312 1533
3 1773 516 1433
3 618 1851 2207
3 595 952 1956
3 475 1641 1530
3 1842 595 1956
3 551 1806 1533
3 2268 438 1905
3 749 1119 2202
3 1823 504 1783
3 1648 996 1856
3 1755 656 788
3 1527 336 1293
3 320 321 2246
3 1057 1333 2300
3 1721 878 1561
3 1747 285 2179
3 947 738 2141
3 1753 616 2181
3 122 123 2197
3 2188 420 2247
3 1274 2188 2247
3 445 1514 1441
3 364 1001 2225
3 171 1732 1886
3 1388 101 2292
3 741 1216 2038
3 325 326 1349
3 674 1755 788
3 2152 1396 1984
3 409 1239 2060
3 843 947 2141
3 1601 680 1928
3 865 2229 2139
3 92 1202 1443
3 156 157 1563
3 1259 783 2142
3 1416 294 1996
3 723 1310 1552
3 369 1708 1970
3 1270 1624 963
3 992 472 1386
3 656 1703 788
3 1003 2140 1705
3 576 1269 1892
3 1534 550 1826
3 1641 840 1989
3 419 992 1386
3 1624 69 963
3 731 2097 2173
3 1692 991 1898
3 211 212 1741
3 950 497 1420
3 624 777 2150
3 226 227 2097
3 751 1799 2165
3 1791 180 1494
3 783 1267 2142
3 1988 1038 2004
3 692 1193 1950
3 1267 421 2142
3 1171 2152 1984
3 1193 874 1537
3 1809 621 2026
3 857 542 1554
3 380 1312 1613
3 1314 953 2300
3 1155 857 1554
3 1014 1035 1651
3 2140 917 1705
3 647 1730 1604
3 201 202 2253
3 1726 1214 1183
3 1023 1368 2087
3 1878 949 2272
3 1496 549 947
3 700 1556 1303
3 843 1496 947
3 703 1907 1694
3 808 1586 1428
3 266 267 1778
3 1106 1472 1678
3 66 67 2059
3 421 1267 2126
3 208 209 1843
3 2172 919 1880
3 61 62 1658
3 953 1057 2300
3 1199 430 1545
3 1483 518 2205
3 1344 699 1980
3 797 1947 2122
3 1037 766 1983
3 1795 511 1800
3 1995 592 2210
3 1368 1023 2131
3 1066 2181 2230
3 125 126 2239
3 1819 648 2185
3 117 118 2193
3 1614 991 1373
3 79 80 2249
3 1490 117 2193
3 1016 919 2172
3 1231 1794 807
3 980 1779 2307
3 263 264 2078
3 1435 1033 1493
3 1143 710 1733
3 1384 765 1390
3 812 1225 1569
3 1033 182 1493
3 389 1726 1183
3 1590 955 1892
3 427 1366 1930
3 1422 851 2174
3 1801 99 1659
3 173 1804 1803
3 662 1490 2193
3 174 175 1911
3 97 98 2260
3 235 1092 789
3 1764 779 1663
3 341 1702 1241
3 222 223 2259
3 1225 335 1569
3 1639 1272 2314
3 1182 1359 2313
3 875 1206 1329
3 1206 1026 1329
3 178 179 2074
3 1159 571 1790
3 93 94 1592
3 59 60 1868
3 711 1896 2150
3 1806 311 1533
3 572 1516 1837
3 90 1764 1663
3 1896 624 2150
3 1214 2179 2295
3 1785 1050 2223
3 360 1195 2172
3 170 171 1886
3 101 102 2292
3 518 1316 1793
3 305 304 1906
3 423 1462 1897
3 1370 1071 2102
3 2068 1171 1671
3 1092 663 789
3 1316 810 1793
3 89 90 1663
3 253 254 2090
3 360 1926 2237
3 766 871 1983
3 1198 1255 1181
3 188 189 2109
3 649 1279 793
3 182 183 1493
3 2080 776 2279
3 2105 954 2032
3 841 1926 1539
3 69 70 963
3 2073 337 1403
3 1836 768 1986
3 184 185 1506
3 1664 1248 2198
3 2045 1032 2254
3 418 1867 2219
3 339 2105 2032
3 1201 590 2222
3 250 251 2116
3 1926 841 2237
3 630 1118 2262
3 668 2308 1918
3 234 235 789
3 1517 1012 1609
3 477 1529 2026
3 2017 442 1872
3 991 1692 1373
3 1428 1128 2200
3 955 2279 1892
3 42 43 1252
3 338 1408 2005
3 254 255 1583
3 1369 241 1180
3 702 2182 1380
3 878 1776 1561
3 1201 208 1843
3 51 52 2269
3 915 1985 1238
3 353 1590 1892
3 505 1160 883
3 1049 1776 2228
3 1239 720 2060
3 1748 1322 2278
3 719 2170 1637
3 136 1919 834
3 2036 685 2306
3 2090 254 1583
3 517 2176 1546
3 1310 723 2035
3 1450 712 1338
3 695 1312 1847
3 535 1450 1338
3 1086 1222 1600
3 1053 660 1831
3 563 1645 1631
3 2132 139 1553
3 701 950 1420
3 139 140 1553
3 1174 1261 1320
3 1809 393 1325
3 2221 757 2310
3 1673 538 799
3 131 132 1899
3 826 697 1789
3 340 1481 2299
3 857 1155 1530
3 134 135 2263
3 47 48 2307
3 135 834 2263
3 1459 1619 2086
3 1467 2221 2310
3 806 1053 1831
3 1066 1601 1928
3 138 2132 2194
3 517 1756 2252
3 550 1024 1144
3 903 979 2073
3 1756 937 2252
3 1464 530 1439
3 1619 658 2086
3 761 1903 1412
3 1193 751 1950
3 1673 612 1679
3 988 592 2220
3 1143 713 1380
3 2025 900 2130
3 1878 411 2135
3 379 2089 2095
3 489 1774 1575
3 584 1749 2230
3 1807 696 2288
3 303 302 2046
3 612 1767 1987
3 348 2080 2138
3 1332 400 1647
3 696 1807 1901
3 1661 2090 1583
3 1763 548 2173
3 1962 412 2075
3 696 2068 1671
3 531 1483 2205
3 25 1184 1841
3 820 1395 2075
3 1813 580 1381
3 801 2001 1979
3 1027 973 782
3 1461 534 2120
3 421 1516 2142
3 189 715 2109
3 1247 1700 1391
3 922 406 2100
3 137 138 2194
3 827 922 2100
3 2183 527 2304
3 1638 410 2035
3 1401 1201 1843
3 142 4 2149
3 858 1813 1381
3 1596 752 1328
3 715 941 2109
3 1569 394 1373
3 843 1119 2268
3 988 640 2241
3 1377 1191 2235
3 233 1571 1754
3 1210 1295 2012
3 442 1964 1872
3 1071 1550 1299
3 1492 627 1874
3 1776 1049 1561
3 983 741 1740
3 1836 643 2144
3 708 1311 2024
3 1463 1772 1913
3 1912 1460 1402
3 1841 1085 2226
3 401 2191 1676
3 1671 474 2288
3 1939 892 2095
3 163 1976 1963
3 1700 897 1391
3 1107 109 2084
3 334 1060 2190
3 1265 361 2143
3 1601 1066 2230
3 2039 380 1613
3 379 2095 2056
3 415 2037 1829
3 1859 706 1856
3 790 1517 1609
3 2191 1121 1676
3 665 1557 1769
3 919 1372 1880
3 2185 1280 1304
3 1645 1013 1631
3 615 1937 1434
3 1372 906 1880
3 1432 1169 2248
3 2167 483 1709
3 1976 1078 1963
3 693 1971 1482
3 733 1060 2139
3 1074 1107 2084
3 2104 9 1999
3 891 2039 1613
3 586 1903 2167
3 2080 955 2138
3 382 1597 1346
3 1798 1207 1783
3 1267 716 2126
3 1786 553 1605
3 385 1587 1300
3 786 894 1664
3 1102 339 1834
3 1038 1988 1965
3 903 514 1802
3 1154 1102 1834
3 1988 786 2198
3 1807 459 1901
3 546 1332 1647
3 2147 405 2153
3 1684 1172 1555
3 413 1684 1555
3 1317 384 1478
3 1584 2099 2178
3 387 1492 1874
3 729 1334 1998
3 215 1889 2217
3 2004 598 1713
3 752 428 1328
3 1831 866 1916
3 365 1298 2067
3 549 1496 2044
3 1936 621 1904
3 602 2079 2009
3 768 1836 2144
3 2043 475 2071
3 1150 1819 2185
3 643 1836 1681
3 1724 1103 1579
3 806 1831 1916
3 410 1310 2035
3 1071 2010 2102
3 1496 725 2044
3 1851 471 2207
3 1257 1228 1710
3 908 539 2061
3 403 2201 2248
3 630 908 2061
3 1467 1379 2221
3 2201 1432 2248
3 2100 870 1872
3 958 967 1951
3 1566 1044 1441
3 1408 338 2236
3 532 1760 2112
3 683 2085 2170
3 917 1943 2187
3 1943 1471 2187
3 910 1092 2195
3 1985 915 1110
3 1265 859 2033
3 1624 716 1610
3 2010 428 2102
3 2202 560 2224
3 724 2202 2224
3 297 1943 2140
3 1760 765 2112
3 1267 783 1403
3 554 2147 2153
3 1516 646 1837
3 761 1412 1735
3 1462 599 1897
3 837 768 1693
3 1867 381 2219
3 36 1842 1956
3 1298 671 2067
3 1965 379 2056
3 929 2110 1399
3 727 1824 2261
3 1849 1070 1955
3 1310 1231 1552
3 1762 917 1961
3 952 630 2262
3 357 1616 2057
3 1692 812 1373
3 1430 1000 1488
3 1147 1172 1684
3 967 958 1626
3 917 1762 1705
3 454 1461 2120
3 721 1581 2308
3 2001 556 1979
3 614 1879 2229
3 1550 1071 2265
3 635 1465 1815
3 1185 1785 2223
3 1567 681 1718
3 1479 748 1745
3 827 2100 1872
3 385 1992 1047
3 854 1340 1470
3 1065 1919 2165
3 1879 733 2229
3 918 1887 781
3 698 679 1752
3 548 951 2173
3 951 731 2173
3 917 2187 1961
3 449 1929 2177
3 901 1993 1599
3 490 1849 1955
3 1144 1093 1548
3 439 1179 2023
3 745 1962 1656
3 1993 656 1599
3 2002 369 1970
3 525 1475 2289
3 395 1784 2174
3 469 1808 1969
3 1943 917 2140
3 1078 1979 1780
3 427 1930 2315
3 2120 1074 1342
3 1951 492 896
3 420 1937 2247
3 2100 406 1811
3 643 1788 1731
3 1169 927 2248
3 679 494 1752
3 870 2100 1811
3 1084 2002 1970
3 1808 526 1969
3 318 1841 2226
3 1093 1501 1548
3 835 998 1817
3 1150 2185 1304
3 1796 723 2125
3 533 1050 2071
3 1093 715 1825
3 1155 533 2071
3 1096 1344 1980
3 669 835 1817
3 2038 399 2233
3 1888 1155 1554
3 1930 1523 2315
3 619 837 1693
3 803 1823 1783
3 1057 953 2176
3 1099 719 670
3 848 425 1734
3 1258 899 1238
3 2148 1078 1780
3 1074 2145 1342
3 1502 2025 2130
3 894 344 1664
3 202 1370 2253
3 1857 631 2277
3 1156 962 1477
3 785 1597 1383
3 786 2004 1713
3 1919 1065 834
3 1070 1849 1853
3 1413 721 2308
3 1000 1430 1861
3 1867 460 807
3 2076 217 1719
3 764 1257 1710
3 475 1530 2071
3 897 1268 1391
3 947 549 2250
3 1352 334 2276
3 1132 2034 2184
3 2202 724 1855
3 1062 1104 1440
3 749 2202 1855
3 411 1878 2272
3 742 1062 1440
3 1438 357 2057
3 1268 443 1391
3 2124 1330 2016
3 1808 469 1781
3 658 1156 1477
3 1071 1370 2265
3 518 1483 2303
3 1379 714 2221
3 382 1762 1383
3 1450 431 2234
3 1370 1051 2253
3 1907 252 1694
3 411 886 2255
3 1564 1438 2057
3 1060 334 2139
3 1532 1808 1781
3 2000 334 2190
3 955 2080 2279
3 1255 804 1181
3 827 1964 1637
3 1937 615 2247
3 1114 2000 2190
3 804 1949 1181
3 1171 2068 2152
3 2034 512 2184
3 1334 356 1998
3 1993 156 1563
3 333 1366 1541
3 691 1894 1657
3 1020 461 2009
3 496 2094 1285
3 1374 868 2241
3 656 1993 1563
3 1762 1337 1383
3 1430 491 1861
3 1161 1959 2019
3 2068 422 2152
3 979 903 1802
3 1957 738 2250
3 564 1598 2209
3 1050 533 2223
3 347 1428 2200
3 870 2017 1872
3 337 2119 1403
3 906 1926 1880
3 1991 596 1700
3 1928 1580 2028
3 342 2076 1719
3 1412 780 1735
3 379 1988 2198
3 2106 423 1897
3 361 1265 2033
3 1511 1794 1881
3 394 1614 1373
3 1988 379 1965
3 334 2000 2276
3 1372 674 1291
3 1247 1991 1700
3 282 1448 1630
3 1794 1231 1881
3 403 1972 2201
3 361 1323 2143
3 719 1099 1720
3 193 1952 1902
3 1974 585 1973
3 2037 737 1829
3 571 2220 1790
3 453 1517 2114
3 1995 817 2211
3 1517 790 2114
3 563 2060 1718
3 1410 1524 2296
3 1081 1977 2244
3 1977 842 2244
3 773 2106 1897
3 719 1964 670
3 1297 1117 1415
3 1964 442 670
3 530 2286 1439
3 668 1413 2308
3 1066 1928 2028
3 529 1608 2301
3 907 1847 2154
3 1935 388 2312
3 1590 353 2107
3 2096 531 2205
3 370 1638 2035
3 1608 855 2301
3 2236 338 2315
3 899 2055 1238
3 2286 1138 1439
3 239 1360 2012
3 648 1995 2211
3 477 1936 2285
3 1305 902 1644
3 1591 20 1544
3 1423 1272 2243
3 1182 1512 2267
3 859 1433 2033
3 2055 915 1238
3 2099 770 2178
3 683 2170 1720
3 1118 630 2061
3 703 1576 2196
3 990 369 2309
3 641 1423 2243
3 1512 366 2267
3 886 1096 2255
3 1711 250 2116
3 1360 1210 2012
3 864 1935 2312
3 1340 703 2196
3 1643 1154 2291
3 504 1239 1798
3 940 1648 1856
3 1597 382 1383
3 890 1957 2250
3 1239 504 2282
3 1310 410 1881
3 1933 580 2111
3 1433 1405 2033
3 725 1496 1905
3 1056 2177 2203
3 854 1711 2116
3 640 1374 2241
3 1835 1219 2281
3 1050 2043 2071
3 1231 1310 1881
3 335 2010 1844
3 1188 1797 1810
3 628 1835 2281
3 380 787 2154
3 1576 1178 2196
3 967 1127 2302
3 1949 571 1181
3 1936 856 2285
3 1522 583 1572
3 1865 360 2237
3 676 1522 1572
3 349 1410 2296
3 1697 454 1342
3 556 2257 1780
3 2231 1427 2301
3 397 1922 1782
3 738 947 2250
3 1775 701 2211
3 874 1672 1537
3 736 2124 2016
3 1523 2236 2315
3 1915 491 1858
3 484 1314 2300
3 2176 977 1546
3 1086 1697 1342
3 2257 1140 1780
3 1222 466 1600
3 2000 729 2276
3 1797 712 1810
3 1134 1933 2111
3 1127 1345 2302
3 1964 827 1872
3 1239 409 1798
3 870 1811 769
3 1683 1040 2121
3 824 1687 1605
3 352 1683 2121
3 459 1807 2210
3 1153 846 2271
3 503 1692 1898
3 1436 2047 883
3 741 2038 2233
3 855 2231 2301
3 1826 550 1548
3 1315 888 2303
3 1568 683 1720
3 739 1382 1935
3 458 425 2316
3 649 1997 2311
3 506 1643 2291
3 1130 2096 2205
3 2047 505 883
3 1299 562 1844
3 1662 413 2297
3 2085 633 2170
3 1032 1685 2225
3 577 1662 2297
3 369 2002 2309
3 817 1775 2211
3 1015 1826 1548
3 520 1479 1745
3 243 2045 2254
3 1486 305 1906
3 2034 969 1415
3 775 2113 1839
3 2113 605 1839
3 921 2021 1858
3 2066 747 1513
3 718 1153 2271
3 1128 1522 2200
3 838 2199 2101
3 1522 676 2200
3 2058 1274 2149
3 1382 388 1935
3 1766 708 2024
3 2199 588 2101
3 4 2058 2149
3 1860 979 1802
3 1959 1333 2019
3 2153 520 1745
3 2094 1106 1285
3 554 2153 1745
3 1269 353 1892
3 779 2273 1663
3 893 1940 2270
3 2273 89 1663
3 2085 1172 1782
3 458 629 2298
3 1940 1111 2270
3 1964 719 1637
3 1339 1435 1493
3 533 625 2223
3 183 1339 1493
3 1997 631 2311
3 1530 1155 2071
3 1870 1097 896
3 1106 1869 1285
3 1339 184 1506
3 492 1870 896
3 2238 803 1783
3 2110 447 1399
3 526 1457 1291
3 629 458 2316
3 1435 1339 1506
3 1387 771 2292
3 1131 1958 1886
3 2115 441 2133
3 1520 2168 2133
3 1053 806 2306
3 2168 557 2133
3 1298 365 2046
3 439 2023 1644
3 102 1387 2292
3 1958 170 1886
3 302 1298 2046
3 817 1807 2288
3 867 2043 1918
3 961 2163 1840
3 2163 519 1840
3 1359 1164 2313
3 948 1639 2314
3 1452 1860 1802
3 1951 967 2302
3 388 1715 2312
3 557 2115 2133
3 255 2159 1583
3 338 2048 2315
3 1811 923 769
3 1207 2238 1783
3 1869 960 1285
3 1715 634 2312
3 765 1760 1390
3 2095 892 2056
3 1025 1766 2024
3 454 2120 1342
3 1979 556 1780
3 1183 1214 2295
3 2048 427 2315
3 1448 402 1630
3 152 1724 1579
3 1043 2104 1999
3 1337 1762 1961
3 2187 462 1961
3 424 1434 825
3 550 1144 1548
3 474 1775 2288
3 1488 482 2275
3 2145 1086 1342
3 1140 2148 1780
3 671 1749 2067
3 1501 1015 1548
3 1635 1138 2286
3 2114 790 2266
3 1775 817 2288
3 1749 1540 2067
3 1283 2114 2266
3 1055 2245 1934
3 1998 356 1709
3 680 1635 2286
3 2245 396 1934
3 998 835 2316
3 2170 719 1720
3 835 629 2316
3 1432 1965 2056
3 483 1998 1709
3 51 2269 1882
3 2269 1350 1882
CELL_DATA 4308
SCALARS Von_Mises float 1
LOOKUP_TABLE default
52291491.463698275 43871240.300423265 52596853.70451634 42001260.50923532 32038719.168609526 51585906.887157716 42497724.334796436 55068091.79491014 69092031.89745702 138509275.8405478 59240133.69505377 45586292.04040508 62841818.12755391 47546830.47741206 29386027.23393841 43125945.40882436 51303660.32144865 71332317.94800344 47359458.05627248 45132744.496048115 12369150.744858824 44923371.56322949 20425763.893117 24654669.823158324 20452577.816518858 47179356.50855254 47237151.932980716 35282910.839708775 37832624.2712235 45391953.64357394 40971266.47654725 57610218.60282274 46751284.11431103 49101494.481634445 3308323.0457058335 3294652.193884739 46348834.78783028 14550067.547151871 2361249.6946492326 19851384.651702482 6358824.608918632 10505839.287769949 25481146.408610407 21827391.901169255 36212875.120513685 8964880.416713318 25721924.83953256 3438215.317298374 34173143.408799164 70646449.31456938 43140285.48747113 52909291.30376359 278010.7088005149 46765266.22207555 42040881.11042289 3414570.469228388 39469720.825942 11184907.685800191 29506532.589439645 46757985.903991275 16575578.635591224 29556378.60813649 25724932.838410012 42568822.89046236 43189540.23658488 31194077.414178777 47163257.86870831 54605663.849841736 8725358.267817318 47282080.44074367 47010570.79552184 15510461.352958644 13878310.253961766 39884964.88360247 43846698.879935436 27533658.408717472 51686002.43553999 52337612.40432781 51774503.580029204 46862658.13230602 16632899.015304541 42512560.92880656 46051547.358284265 24835258.526487727 43742529.77465633 52693446.5396882 15773617.028239295 31382764.745511908 18636741.525307823 35091405.198246345 17982199.132981855 67094845.833583616 36204639.46225703 53648888.73949694 47201275.42365109 34787698.15711493 17621286.70451201 46650093.63983047 43162005.59494648 36110980.968468435 43753741.27498973 34443142.22434636 3946248.7190510137 24181703.009799503 46804182.48994348 22445025.928932257 25186022.10186087 2039315.8651574787 40625758.29698385 36591335.981584445 39431176.43985516 33787456.69471333 33375695.79407416 36471148.817238174 57751316.533192866 32111457.74743105 46662568.177730665 11729920.556035714 24659979.773012288 11617866.911295637 49069724.47630535 20403852.243350126 35947056.25624454 36189450.592671074 32996202.453999206 62675671.292474225 5843021.867341567 42173439.42321406 43931924.97005414 42564841.50257377 28732086.210405666 48886379.00298689 14607909.296128089 14649816.654404372 13533536.91574723 8599521.233326621 44831935.65398031 37824068.73573506 50998408.85010488 12442519.858292893 31002410.65808095 14278358.878935227 14537548.14625174 31562667.039376892 66111944.46549671 34940594.27965138 28818770.673693474 54650025.610718824 43660873.428172186 12193921.179263713 43240204.460973695 63751442.05534686 35407152.57207265 11628835.408788068 53968012.69320823 47990839.82704347 28761119.24041027 40417179.56870614 36122206.50236553 23227828.83850935 30381616.84667715 28571954.5204222 43823608.66883643 53517322.16978993 54944588.37766458 47702690.4617847 44331455.984851785 15932049.387791766 229141081.6564545 36571097.83078264 15921432.062421747 45840238.98205683 25762354.903952066 43756585.556723945 56081670.44893472 51067235.3701405 81685338.0191086 20641503.462387785 28802034.369509228 22000322.069954358 15641458.883502653 42328421.97056127 11308180.406957304 20728682.879867584 43841435.900768355 5283295.221921758 5239277.087324791 42706102.306017205 61575994.468291454 34054845.57731526 35391375.773094825 38863124.33003111 57460196.306483895 47795566.70812815 4191553.799461374 34081841.94109927 41165831.85549767 38829084.96109313 1941641.797927361 56780806.532306366 46274078.79727509 15887600.197678277 15913005.813866442 29294847.012071464 61234053.97098561 37081910.330316775 21536177.687716644 5632568.224782391 107038551.23237792 48890232.47092911 33087207.159936454 35656619.97051105 45543371.6638368 33819652.05972989 29520118.53472943 10100430.91633916 45045921.45918349 10488028.181857709 50325493.1757961 53148043.07566144 47186437.56131953 53766758.42656223 43156985.151481576 50616663.35437301 2866485.7066805176 14656003.66760686 81684760.79063971 62449124.79915911 107528198.3112235 54176984.37792253 45749285.64157765 37282449.55439317 4742508.670390716 42799269.72679259 28568796.429089487 5799112.116873362 35142666.83146283 7307634.789077498 10835233.457903078 36595949.07346274 38900896.09265418 4293929.290079263 17457743.751894705 1350669.9655396868 1357019.8546091276 61819562.539608926 73112872.0109954 46237549.86738227 30276334.93741071 36996504.05708135 43445417.901609086 6477286.5533140935 45430044.346119165 42412087.159228064 5086760.738837216 49643676.01377647 54373325.87313624 44828002.17975836 25496355.278417684 14015143.243220985 35405082.11606187 60662179.5785749 15486867.07644407 53222083.70105112 34236976.11133564 33742566.32651838 38135498.20830837 51777509.24942815 36967970.53101971 39219154.32422025 11221254.81511891 11174434.311080264 5296830.619235047 46632583.16770874 43383528.35665154 37284737.96789915 29697199.67959693 37169246.60470591 31717085.405616827 8530904.31608858 44813959.96395687 43912497.718477935 27833572.80661245 47816387.052208565 43451590.0266816 3567812.835099242 3569041.987156591 49153420.031618804 5263685.814178648 63409871.00274321 52667744.814866796 33151764.679278143 50608689.68121828 47911306.76811927 46735293.18698893 23496236.819408774 34658886.758575134 51240953.3446869 53430037.40190568 31842487.108656358 48154396.81103046 32098232.494487237 15424788.183464989 25121543.197355315 46171490.91847301 17354527.97166795 41221081.57525743 10548483.941021854 56574577.2766049 41701408.919167526 48991973.9413241 2112266.6639405703 10039740.34987498 56019431.42201016 45336977.71417289 46869650.5009282 51417577.05399638 46615554.43910055 50497379.58054108 185158970.4813036 4612663.468987707 27983863.37128816 46572808.540916674 68526823.3295912 23070298.824079506 41786888.647451565 45074508.15567001 37041948.01202573 46507626.999752 48262748.195366874 46129093.35424887 141700813.05534214 3512341.5868762787 78885134.28683428 12124452.217869347 62082251.64526519 25851182.91539637 13141213.046906654 15519050.964025216 44575937.61073554 67377063.94709797 50547381.9791709 40470546.25772296 50790279.68149938 38309296.73382369 52491110.26926874 3726447.124025432 47220325.60935185 6262225.770733566 52075664.22765024 40333832.08328549 93395619.53794122 50885589.5598267 31507508.012806293 32211776.64865976 24051031.499383107 20273479.408005115 34033252.385163516 31365379.662142765 51368913.14987038 77851515.80080011 42891129.06685368 28492509.71189954 48265564.49247595 49568184.978572726 62193339.642331295 45381974.88051753 27330794.81040269 37626232.86976622 74144800.2067189 45071395.159267195 49282695.09900786 36754126.28805011 35903751.50798071 44859711.013217464 47649627.71727511 57213826.36609675 43764630.22438774 47305858.8158423 31240869.926102925 16912269.59621858 45205982.977389924 47623680.08031153 44782156.32158747 24010800.796667058 2616658.4919180623 34056942.98787179 45049956.67778252 46567419.289065786 34135037.74012812 43520748.703846894 64008496.850639105 38449088.24629335 65124349.71171167 2229370.0502594165 6216105.106196654 43382096.45933392 47809178.06462665 14591145.553542903 45929873.65746584 23440984.56581118 44293171.67649365 12752631.841345547 31110844.546472136 13299966.925719587 9920827.4724061 46674251.47808153 42361971.80652462 5420216.628490076 70843962.14932558 65358187.50883227 48250185.881362185 46788376.9843182 58952096.472110905 64723952.878021784 46464143.72510467 65595558.447736494 36781176.533089146 2807455.6830029287 63205570.01367987 45846687.36202818 20690848.027661644 6236918.146519254 43773640.32154841 9733901.801418167 43788093.487064436 47052026.83423973 29344215.31628605 37307103.961688146 40859462.132653974 23216663.447079808 23922668.82580402 27324329.202904128 36334911.47584037 44638814.232520655 44644398.16085248 31415682.088195335 26756336.332215425 47514216.700705744 44495716.02505367 48083982.224090226 34646597.67760625 37801661.59105368 4127865.3945472776 13279487.813371422 15430313.03592778 49962777.04697984 45591855.098641045 15325698.517836029 41199375.012700275 47703869.63442398 33469797.70283953 42403538.71690634 40806414.32213256 47714369.29718503 31085230.634479705 40768514.002824545 32821160.281636972 35468332.35555501 43977059.48348701 19593182.579320654 32993588.891238 6205949.616210977 48495872.85868301 80363777.67636456 43804811.26786539 48517603.84486437 51209598.89133186 18814393.0259136 23439761.691561252 52775559.92352452 44601221.42220044 15053301.194960866 24563070.094795395 53383860.61423068 9430926.55907385 43022262.43687832 44206560.880612105 11415598.813907485 14513278.497259114 35045712.92407659 11347576.959663795 47039193.28913793 40118995.210442215 5371482.861096871 86850784.41612786 21717989.36454611 43529989.087141395 19073730.506399356 20958762.175587267 43478018.880366504 16867986.13115567 6453356.603664544 1821674.7436118454 34944470.44769495 2682903.4742980087 35600503.054848135 41182868.2712644 8857050.904693345 8832379.441089127 48383661.13720377 42832638.57927706 2286758.3873541923 47854945.75193566 14726029.113570187 98488129.11340217 14734813.087707441 44469069.03510383 51467094.997146286 3140298.0307095214 12954286.877001315 43768430.160497285 7842994.399500639 2521969.7319676303 55507582.04367148 38001210.70421856 9901722.460059233 6618470.554784263 48925360.07159188 851317.4339892576 16026094.799913483 33510757.147120617 59729822.95979706 45262832.47052754 26781615.20342778 22492571.223704096 44317762.94960247 15472634.109036634 8531117.6296078 39564996.842725694 44853985.4770983 24959127.957805976 43759696.78499402 14766832.818550246 31039161.141060207 44201593.320869945 48612494.436123565 69800031.3960938 54902923.5356583 6161280.16804622 6148789.038129327 21109354.829547003 5740252.114063619 34375108.23018379 30309493.96264686 2579406.073893536 2587832.728271204 25742223.36950517 8523253.537485892 8446897.296677649 15811119.257655725 15811119.257655725 47705517.26928903 50237476.24616862 40921270.52580856 88076268.30203122 4988582.268255019 5006378.320696114 44142510.747158624 47336784.50409085 17614989.5510844 9550565.657687932 17609871.168494936 45396239.24892683 45108464.01157191 41528013.825906314 46823992.49264251 47870530.673675604 31809059.780971505 40735493.48252369 17444089.57691755 38153457.59694403 9101411.363938957 9116395.124594025 41406709.42201099 47466434.89339588 50218970.01557242 51503692.95567665 9373922.92215393 13531593.472823024 50989602.16965342 8833849.220901622 44559481.96459241 41672910.60036603 46182477.55900443 41098468.94467501 44123869.45320361 29011461.99368098 42142919.264119126 41250934.0334393 57338377.2868459 68969057.51403771 18610787.932017107 47331123.47718746 38305319.491635956 26226774.16297873 44392747.98108891 70039036.65014993 4593166.533060983 49720561.598184004 48523603.432040855 36356791.57527054 18697723.009935606 44757248.44967319 25568229.058647595 44656332.25613919 53444640.33009358 45105332.44630769 80910608.11276196 50802906.87680257 21928920.09521057 36737336.825317726 1086500.7250693669 8431356.106924167 44090526.51743838 4602155.947601442 5006374.528207861 43863592.48648348 19232117.93123568 50276578.09066506 61605615.25082923 44310815.23575767 32465723.6342553 47004631.88991804 45385607.93925956 4928112.0462614335 8115292.849533893 42971347.73028962 49451335.891260095 44059996.03706168 40171956.50269594 102524394.82400143 4549342.508612059 4534603.386387309 39312674.84456827 43867640.85493004 17461798.5316064 27114011.637175463 44502715.34877813 14890800.129570022 37262008.828990676 64262478.08188954 52426069.026183784 57912881.57931489 25294336.248882465 47592220.92205991 9345899.818914821 43421969.50542175 27734760.84215321 25946300.02111477 47043023.825923555 50833739.1473432 44928910.31691026 29300387.611046936 18589139.114937294 53341034.81017072 26518730.423510443 32913083.438855086 48299444.369327195 45448593.360348254 29374390.65851783 45018999.707317464 61082790.14243352 45563577.31311227 42368312.388973705 41499351.20597363 61867067.59871079 93371402.86996962 42812811.48976843 38147168.987089604 23894620.850462932 43002795.8162794 45630444.18628188 29391637.886752706 61324761.37937403 44000690.13980677 25271858.84611155 46428141.61971541 52183585.222479865 74693278.84899335 11056929.427790167 46486558.78710811 68902908.82331719 45924261.485089056 36565363.86904461 44684567.907659315 18690449.310543373 47848885.59898082 45015737.10244176 20692391.799326375 67463988.266418 38546868.50658349 39855642.666258834 53952653.313008465 42906478.94385163 21655012.468333576 49123317.731194496 36777075.776054725 24779579.605321057 65541761.55184201 456828.52015002444 11283211.689018255 38809792.342422605 44569674.72922558 44101268.41847361 15184479.459702363 5164024.470069489 22312146.512132417 22175413.79150557 27050918.377776224 60335604.5253626 11924045.484384703 2179154.5415197555 43483247.953209184 33467867.49250158 52307813.54876479 39750311.40959526 47315133.85978178 40847537.02897045 32349298.610988498 18633409.367392693 37587481.25517965 20342118.105025426 47655075.326087706 55856936.480861284 54873798.74385352 32976194.29819203 30820589.856301885 46388592.067144476 27929184.45465939 43113253.34086915 55640021.4531716 13607690.464888673 44159790.41289988 35559674.7550658 42484073.60546858 87725465.02757694 57769819.930098295 24658354.428826276 44017821.36349434 42705114.23857286 10118015.554117734 10147063.101692561 37467590.77885743 15155760.31914369 7040997.8065499915 46424115.33964947 31838451.685437303 46096599.04622619 33378720.771813933 30909103.583232164 7614744.00022795 61512579.04069389 39219228.37495073 43512194.69571825 41551685.19762198 34812189.39356259 7719415.632130398 17731386.009775605 3178867.7220096565 22026721.74202794 52113309.74934862 60983923.01106556 37227684.91166984 20154904.07958786 15052024.32481619 42321942.20053832 48935019.665527195 42858618.42375302 33215355.440470546 32986475.578141015 33484136.2540368 1132608.3862747252 11074802.257953454 44398321.72176504 15461404.115995359 26998466.992697004 47836006.31193379 42465436.466387644 84287335.84013802 23671104.092703793 57491036.69659668 11639470.334177997 75326778.73795055 41770477.39579119 48285727.14896734 46534674.34655451 48070871.47559615 47858873.24429868 42424183.61255544 10430101.073676543 23258521.488578603 50043305.603463985 135737964.97626814 14062415.03024195 10434415.286386833 40210641.34105636 56475134.19388656 48653810.29715092 46183625.17430958 40247956.91099017 45137633.98382246 36990809.63274409 45709974.42317141 10766304.934008898 37234688.85013533 63993835.61779977 40292450.6831 104342748.49998301 48768749.90318339 12859089.277646111 42977093.75952488 17979909.50995024 51765554.385885686 32923764.819862682 18900520.7498297 43592943.73265124 7118389.0791018065 11353653.827024287 11315017.563044647 25944912.28726241 42134826.212873176 44914168.38118073 3755923.66359166 43086909.97665392 32065301.786228064 45805939.65516717 46429466.917084165 49762150.911099896 17479373.58143073 38482765.01826975 39180923.46115763 12593881.588706288 67449180.37957399 2801062.1141645843 45083880.79090766 31391999.978182554 14767053.975627612 57350547.91057369 37141679.831081174 18143618.826197587 12639791.097282503 26408594.82357917 30780532.954507105 49880973.6521841 34647993.20690714 31339754.533467166 23397949.032767795 47002221.50271571 46631909.10259843 81172347.0271016 55055349.09262011 48253603.790894136 2647228.779004387 45830635.822799526 46843519.379485615 3667974.630725739 52322916.50127111 42828541.04199639 61453409.75523421 20953249.126217138 45781856.43005024 39281874.122351825 6170244.624772407 47837737.92774036 28266734.429825604 45061932.25884879 40002792.443897754 95126520.65320578 37263278.26409627 46817584.424580894 28426382.00472685 34819706.120452695 53655616.206537545 2517741.6175886006 18839678.74044466 27407209.369425356 8659219.478456194 78623315.24765304 28057878.753417067 9144649.84141596 9086823.090420714 25275256.888193168 26438642.99979264 77244899.92202312 35221794.54273921 22974779.63645877 4819921.682189537 49876586.11216757 44650664.17578195 85466349.4297208 47986356.209999315 41210071.9300476 31117006.025261868 34099261.27872043 41584655.711137086 47025003.18623772 53574553.09452968 1554923.5769107987 47724571.120730154 43206657.08682336 46728485.08518331 67089779.938676566 44218078.10690714 28937516.400453754 29473124.434793454 30444015.2729661 60756641.93254692 4795890.288424602 25291329.36306822 44916255.15911602 41534298.356309436 37277116.40957026 68786875.40635289 52638961.940048024 78946391.60250291 50923474.47281527 28623690.064564172 45220928.314301305 60674444.53681758 50870411.49268514 23044222.86743114 9077773.906314958 76184064.43988702 9031376.968868177 6196041.706660996 46741571.00761456 51741136.17105524 45974033.30669493 31031483.7406344 57243968.33531625 47334015.18106585 6930940.440533929 31912228.669364758 43013104.779686 42318880.44860892 29210181.244216267 35711589.787999764 43395360.511272565 1237546.2262451616 46817470.21998935 35080878.82153528 40694968.37162992 32150463.299848784 47231511.05066163 46800842.5146393 32688523.657923702 12316656.167629534 49565071.87762821 33374477.895136148 47357591.01300967 40042787.22175493 64425651.74229557 47669235.97881006 22347212.053173415 44216065.84656649 43477637.311617404 50705845.07652595 66796218.39168724 38230523.256516546 36475777.89254946 16748006.270322066 39226132.80663698 54127238.961638056 56982427.81553527 1352182.073253422 18822954.933030576 47414477.19783589 51571627.30957856 31497014.00314139 37402933.33455112 34613722.45886064 50153151.32414981 47464964.76790109 29663697.870177913 43756983.0303608 15640386.72061137 25812278.700133946 23801678.82934569 31399778.541383617 7245264.197210331 7229795.023897264 36079257.89826205 32371260.416266084 37826974.24449448 2533064.0346871866 90847803.87533326 47184435.23781276 133991628.7424046 8540972.147857655 45641151.8261684 2542901.337522605 2554325.4733014214 6093716.660470139 6082313.492542477 76740894.33168517 32552967.12314646 56582587.69340609 42399164.38176225 55906677.95342576 43053771.6703781 33821417.167313725 6902320.919976982 31622984.01223998 17365288.86850098 47702859.03969524 30527753.733720686 39519290.88412095 30719032.105530895 45647056.34400879 48043673.82171502 29868864.128732402 2746103.0560076884 45614150.23425341 17765045.816813283 45182668.958750725 49644838.50494093 38673968.148083135 5342259.537691797 5337096.657428213 48270444.03277298 53004064.65644526 56402601.13586728 12560867.283886988 48162013.86202139 28562099.472355083 7731759.2665750645 38354285.75878501 43321335.64064247 24996923.768447604 118070156.15320182 63065483.06321355 44942895.598092735 27031862.46428566 6013295.134977591 26709835.82999188 13037169.043980649 29564361.761176515 46411007.66174797 38474179.629714 35196243.36303208 46055182.89261393 78344193.77833179 55826726.18263099 42928861.41614537 30332400.30581708 46864877.64357391 7961663.524338348 81378223.84308958 44547942.36518009 37722465.85446095 34287869.33383252 47303888.931186005 45958157.04817829 49809173.75980191 49771390.94563599 8282242.067456821 39712507.93653599 46158884.78232055 57767118.63654521 49377730.37531054 45025333.264035486 26700233.697517358 15410673.421960164 49267831.71708865 48221232.03352668 39217902.297230765 31722853.71780249 43285892.29511407 36508996.27485194 53064319.67103381 28648515.68924827 38495535.7175312 6977440.5026607765 34036395.620618835 49222729.12642595 46903721.58353359 45871136.050695606 48698130.99209054 34891961.06923864 5807564.092215988 42820626.920919195 35658739.83716408 42049559.12729766 54772468.678991795 39989709.12744622 41149598.38596244 43612760.5576706 43216526.35329941 288140348.7296522 1575457.0587466904 48519467.49655767 54713755.13705419 37587054.3900482 39594084.45689042 62665938.346176796 94787461.35935614 42957282.159023 56830665.55840495 51997946.54408883 52777349.47677439 114748587.82186669 36592137.95412499 31023263.112848014 8833866.798888426 34044549.962303706 34339908.30481621 47984268.93419144 36878045.97115982 35666211.25586763 64353984.8142125 44999578.10332294 28595664.601325363 33418584.12620291 41796502.213946864 24394239.52484579 62093602.96312858 2676603.5473957676 34607915.347740576 42890966.3481957 50197688.25876696 2592773.6984332018 2607074.1446240814 15817146.209954796 43674923.45171863 28412797.436323546 41956624.316598 46963616.13307188 17108772.712837778 18880133.85904517 47559165.51419099 28840862.649226222 21674605.6218793 17263390.36508221 78192787.25487132 34380338.69292013 37235160.97881461 47639253.01414899 30733071.333372492 84048295.67960225 38121464.64747535 34375137.875512965 46316889.72805765 39677897.87531006 47802202.99862991 97727226.9079133 16420732.70244645 52176061.503870845 30478740.962924164 24899779.576802056 40920263.69101252 39535528.594457515 4668728.138170144 23331146.334122065 40981922.438223265 3401765.788677418 17174706.488596633 45778306.79125873 49815536.84656635 32455495.67671705 34737806.42793327 42111675.83484813 45505598.80812938 25425449.344792996 25521215.032470822 46304428.79741761 2119886.9976790682 2122702.457727907 27629445.287590224 32918116.362927783 55121721.95018386 44272832.63001208 41045556.121003464 9031514.990388677 59662772.54113067 70781937.2637965 42218887.93163559 52407796.429522805 6178574.469831423 49650217.71453682 44523698.90211864 37627596.48402018 45029074.06939564 47618920.319405876 23646392.555232003 44530524.82174291 30228568.51161193 57188780.04468814 43050714.880227886 21520320.198606 47643155.221702695 123457605.48010558 46877519.72084336 41146975.92280439 19466383.00738659 47248227.38711834 43051347.7829876 26463721.71746805 9321076.118958995 39819836.609274924 19564746.55581141 43475191.79260227 20547713.503664605 41488182.585317776 84324124.06507543 6080869.029438222 43824196.45287237 45711349.53179795 6029417.957061773 14641502.492204841 45130146.89421153 6614668.760979146 50201908.91715595 29935973.846348785 39794521.32729137 28146292.21375034 42590481.07443341 31865646.065616816 38641274.20558302 47521133.46803224 42849594.82474778 37927414.97373649 45839383.869193524 110319583.18668477 47855002.07303077 44850861.12701567 29323776.62464146 46709181.10935706 34500873.36720446 44445842.21516153 24400597.031594384 84199368.97382292 40882598.04089519 78332264.38734423 43084503.26115327 119020082.08605205 47529667.91350505 60778336.56118967 73349382.84069885 85339773.74716988 35720008.11976146 44068764.055696934 44006777.9365752 7872949.380663969 60641703.89216246 26058987.25672532 46822458.360498406 43066591.73726685 19913720.2464742 37283832.1143622 2095582.114873849 38583177.65945184 46666722.06580586 6106307.368704894 6133253.783844148 45411210.6273321 29168449.344523605 20176878.650491606 50417877.959109075 59892382.25989394 43774105.95625468 35192118.65043303 12513634.945978032 18356394.933983497 48177994.24905198 45882011.640482515 17034393.30189769 66232.14331202039 50520428.807357654 2167395.7080703517 35656159.12458646 43462726.690246 26055250.272172377 44035523.535159886 43582450.14854575 33453170.356138695 83926999.84947945 17280982.313008763 28723327.217008814 24807249.10390153 36713562.77031443 36141684.50168825 22206111.120616112 44516996.463670954 44157707.981305845 19944806.740422916 45417501.198916115 44270708.00459328 65369472.21715788 42272469.28041985 45155988.64345756 19234389.572441317 19231558.66454617 41029892.360821865 17058872.1620116 61418895.884303674 50116693.54617465 43810981.33310793 43491567.458756305 42683312.80984676 47935832.64166633 53207142.39346656 47489700.364941485 37679649.27056167 38226311.05629267 20343634.90472678 43922029.645126276 49752836.45848557 25946010.11511504 13468669.064164357 24763621.939706493 24304778.032317486 40565340.62712089 55273013.75722451 52686739.80347295 65107985.063344695 44080454.56354376 61154334.28650838 51333689.785875306 35798182.099084154 19790137.258569933 37888641.268958405 22973394.175552104 43859325.76426032 25526786.84250971 59583959.260594636 52613069.42475643 50416476.9219181 3622188.1383096506 3610787.2854370573 37187275.565246016 52213940.81559229 7027044.654868565 6992323.058889928 24136219.266628925 24129937.543097075 26172499.821178578 47344761.44016466 44963391.221793674 21211214.76467686 48864733.25054348 48836911.81211643 48265703.12316707 48260208.786641434 42273236.00619206 46573156.015559115 31852146.152766213 45563635.20558193 51922556.50140051 45144716.79496384 41001037.69830041 47874022.32254243 3308298.1033987068 44163438.74443035 52460551.38039533 19303527.098976187 14314482.906073164 49821593.12815816 48012823.8554653 17469602.057636295 263950.927772332 13111988.272983756 33081190.671358276 25594068.34461992 54789668.86008479 47603698.2055282 61650997.89908311 14723560.576090531 14717339.16765891 55689208.18531675 42810626.30390776 48064706.77846244 9370872.385194324 72589093.61569004 15001310.248329265 10259246.250357563 49278923.20075379 25204693.531464525 24646372.465318277 59189808.70764889 28782976.258395787 37035525.29236815 36775277.10365608 28802938.548025806 33863498.93111781 3290585.057500568 55917092.873298936 46080057.359231055 13011309.971751463 30108457.17331151 42606954.85400218 9415410.172805926 35283588.48713755 42870561.99183528 31385418.8983385 23643205.940687064 47369097.749986224 5644771.576118659 46058503.41826776 46481820.58750921 45917663.66646075 37392332.95991115 54873370.34640759 17549753.013636768 31885546.310060985 45067920.67725503 12099309.073504798 48244761.167356685 20069663.177634884 34375036.66183953 40435124.68571063 47016518.92807108 44774389.92490945 53111781.563785166 39042120.068412006 41936074.14414247 30380274.651664756 32699226.497071568 372257.5256017884 25041883.054031014 44942203.12041776 49797519.95128308 32975196.808001354 41505469.30341544 17898288.11328816 17879499.280063596 33363046.01719749 14297895.36395805 71037594.45274425 605931.5808548183 52877604.027501024 50039540.43254013 43534002.044082776 43127278.19383078 27830759.582706384 19647101.891896676 14199855.772519471 52820202.73757992 91303834.93419984 49571806.41912946 91692841.44378889 13633801.665726261 12041898.622306867 29567282.92342466 25729207.536459643 38797884.73371905 15469385.217784079 41299283.72507661 61834602.3926902 14222075.50636458 14219958.02752954 34899840.263171084 6843429.834799252 17250361.552005365 2682232.232529292 5631798.294954177 16891346.23203298 16903269.970743578 41174248.92137533 26223723.00091036 49113733.43759133 36198718.62600294 28214760.016189776 55180447.43425096 17077208.68281509 15981080.847114244 10782573.847370382 75165811.20301373 15155669.691266058 19110912.107932452 7034420.232102975 266606.2612226133 36902598.85112893 17189528.58913691 42677537.41815665 45453698.88318206 32421933.6280746 9077773.90631496 47358334.909848094 30016162.71625489 26783650.663108807 9535096.920484085 46404756.118950546 29853102.00921459 13700900.469392244 24794036.131605614 4807279.429324346 16712254.75363991 93701669.72253779 62870625.34931454 38312073.32034565 31751095.240760386 26119250.07335232 41610705.381818116 41488219.26919767 17101418.606439 21989201.185017083 54598369.91250064 51202289.957726225 41193804.1642248 48804785.39716096 22199343.767868005 47001409.43388881 20077543.8477963 36059468.29664527 52301381.71832674 49272406.28945998 29244393.33210524 53450007.78017956 22211306.362545904 65010686.16271696 47566748.40427463 48607483.2132567 39180682.51601289 47396369.64766187 30271952.824972376 23694244.56326784 46822095.50694149 24674580.355226688 43745665.005136095 65219016.858490646 35424223.526782356 17387228.798734117 25647155.805381726 17374170.997994993 43009217.286965564 8022693.222532194 15877462.925947174 18798005.478617 37564661.92447968 42109489.358319886 30450515.19653694 27201168.52933412 37820449.91756388 49802367.52528502 34545585.95649503 47190876.85426504 35620441.89830092 9140666.816420583 10091077.236135442 19353025.013584193 38162532.68308504 7296593.736844531 172444572.51775345 48364840.94211543 55033389.843645476 69745225.3204531 32841669.949556027 31883099.93955796 37572322.688156195 5241577.54389114 38980245.53968753 48800081.247701414 16217948.916126518 35225216.72921012 43120382.8773954 27656345.181127068 47428700.02321742 39663706.64774229 61360092.98238836 100073101.68349935 59038198.625450216 69271728.74112135 36198400.504323944 37908384.63538992 44905315.20794327 89914874.80211395 45751659.89477496 46967336.76209069 50653331.45875233 44236452.099423625 44802494.38537866 37377665.53028166 13498335.521078799 13459697.533315364 43102658.162688285 45354737.39054805 5000023.571114909 41628738.05529048 49767645.30852069 68310996.1819981 80895699.51233105 6698482.730607539 35188395.26348086 5190953.977917824 19080770.793533884 27643722.277607378 16107412.42810935 6810773.860150369 5701931.7541082315 28491263.823765498 3933166.0202392302 40466608.422291614 30779622.263641067 34047238.86529689 38178720.058143735 47833480.31663804 53650691.18634014 47839518.00724407 72423974.73935777 41110169.93845793 42603059.178650804 27867147.148753498 14240400.048992349 51807461.44102632 184616.22577074927 19400547.24219175 47097056.5811521 37315749.22607221 14379288.69854551 51444456.13891744 46429330.41157375 13925751.479767555 39634837.38445221 40916927.10551589 50530280.58698246 41035664.14461426 43946138.63707781 48102473.36939003 39887197.56011683 45800238.634429164 42343321.98363497 47694000.573987685 23392642.450068682 48421436.77472178 49469474.72498933 62238412.8316179 50212569.47168108 46760807.2635962 16197683.444918286 50953016.2728369 52851418.222221926 41357041.87634641 69441820.6698015 42861027.43052708 43560552.31888158 20587683.213865094 41943259.68104587 13608607.88050851 58422258.39978494 5202544.228905705 5216681.116147497 89725396.92784707 53657428.66306687 35249449.65571023 2466644.7265108107 122422775.15620503 41651901.591660164 13631115.705988603 17174406.81428606 34129108.162366256 49334682.633108154 35201858.03993412 46502276.67790276 55437783.01754171 52198150.639798366 44079122.95417729 54229787.260508664 24087743.70737234 23579881.570344027 23555714.82357527 53598723.981193334 46883909.016677685 4696090.630790914 11579976.805265285 28920941.586398788 44400051.763722494 27139238.92810455 42819927.511072665 60643192.43966315 47263072.918189175 13522459.560961049 86519835.52391149 57888934.13748305 64666741.42916385 56189991.411408566 49106269.00619753 44166109.439846456 13576106.451513836 48063180.476870194 56625968.99539912 37724729.37789829 42968335.93306829 20136707.120651357 3689716.890318466 42273798.72270165 19454048.526450507 57855938.63180449 13523821.270254448 43489108.964198075 31375388.550808366 44288054.68118397 45046675.19934216 50138907.490786165 8793352.754780965 19110136.1653584 37858856.18727003 33047284.498228107 53500609.4898004 19259875.8765624 42845785.13229988 3195770.0268696644 24676295.414755628 26309255.334521852 50105041.86643227 54730992.43400309 40273578.81123605 47635549.21219272 44539614.098602995 41907270.927532725 29081638.285787866 43642620.55669802 39505027.07790839 18168867.591381773 55014410.17532396 23210347.082495056 2880915.9987281393 47105067.71128286 45390326.006480984 16077549.824806806 62632939.108918905 25673663.84221052 41855829.61432498 50988310.645484984 46198973.06570594 17390253.683079906 29025052.69088025 33054168.369775966 39100775.45941576 45976426.08855012 40729998.73147148 13283559.281260068 46795802.3683451 51519261.675492436 25984339.259924736 50380843.56976534 43722409.42591993 51183884.36805277 13071941.783770613 48582516.31523396 44603326.93107685 24319390.00243913 32437157.842326425 20243770.8160635 19676137.147832345 45293860.918815255 44294333.8469982 25658236.38454966 23091993.74916043 19962544.7339697 14507649.920577882 48824050.31348448 48063391.416853115 31766800.421295382 22867416.384719063 23179162.67686282 52101815.50767406 46570384.34044917 46225630.2918793 7813404.578091891 81330747.3729546 20454108.829016123 20472695.089675564 56826867.11601629 43599692.33236244 45882076.15146999 44340308.99967933 36190747.61968704 51998641.348754145 90169551.28983362 2868097.843184635 44784343.56710845 46890698.75663044 45895647.13967244 36592253.6461357 53717724.276604034 19104854.682401612 7937611.978314534 8004691.298145861 78461921.68082331 40105903.38453816 43474300.455736056 44814690.630128175 54976785.0464737 9447619.300352393 23753008.782769024 18192826.535625666 18927158.112309568 18271173.69808959 45861668.41860987 40656307.87607656 15272819.79711931 24039617.27940271 22563042.5541481 14675259.95107632 13799449.293203954 43758950.797370315 46073783.42033304 44742052.50543645 26504741.53964251 12688335.28718708 26093148.451543957 30915837.247283142 53714337.51817655 46538864.67489347 31903188.57226639 48370113.59575605 13022154.925748376 50096246.629948124 47965786.14031918 46712164.62594742 21503576.866299454 32101267.48994259 50188302.5734822 13488990.043126924 41009836.68815773 27399483.049278546 12368867.62478855 42715266.11158733 28635243.86037909 13419936.076649882 44342203.98087148 45285814.405034326 36120895.58091894 89150654.38029104 89684904.34474988 52058248.93189593 93017380.49051094 24214420.23564252 35406422.57945384 29058065.849224564 27800209.81956762 41022150.8749348 24572593.155384313 1690024.6789288858 12571690.932610627 25177370.277282372 47316196.24856404 34156963.24340507 53967211.454270594 55459332.36141458 44041922.114639334 41963591.63645762 44756356.66322398 40042640.15879171 20342609.672202136 31321381.66575514 27487108.537545636 37426396.37909755 46587019.86349333 31869932.891167782 49325342.111159265 43425785.0419165 7052724.368360553 34529667.39500632 46321522.267547764 52387994.64943212 44672275.76870412 19040960.911921665 47297493.20809993 46683727.75336722 47756599.22865593 34629450.324268304 51989112.253704414 46227146.26358039 43369870.341582 46930398.360299885 27946757.54969502 48975038.34077798 45556440.15644494 25442450.892886534 46297175.60181689 25125804.755494397 43900569.675606646 43940382.33974124 24305476.945818104 12042137.12680782 21196947.88506968 13500693.859034792 21203610.092786666 69800382.6459758 46224248.688538395 50847280.4468448 53159988.11198127 48688687.97682826 44735767.55917119 59851653.955687076 48090026.89731927 20018769.10634398 48185644.13720395 37131934.50945969 45686211.63255257 48173372.04809275 5908515.2162901675 39140150.85135467 49316239.65720994 19367167.864646222 53857357.66732553 10799429.015711747 25021083.55967169 47065767.344260916 9418874.243447214 39996092.33213014 25196854.951296806 49393537.95724786 27008383.116342444 48600362.394683234 27467264.40087921 53726226.82850798 44996723.29950275 46160388.81488444 24322467.76378998 27427758.458595812 54440044.63305609 51000482.40616416 49478427.996844105 55028230.71702743 46706548.00961758 42536999.25888036 7538852.474598957 14712162.970478123 45695491.801194794 8857431.302986158 16589961.473383171 16590987.27897925 50928832.22033808 43376547.04528817 45996105.46766161 43033019.003116965 49673626.915518604 2310364.2310288153 36496497.53141546 74948535.13161466 31129196.05598796 37356234.17747929 38047842.63171343 16470478.145847801 21930460.162934355 55935211.22581348 16434579.810978163 46017379.66412235 46455017.47819974 23960473.769229338 18469284.324159995 39552505.903317116 20569155.511229612 47017070.08207094 38308374.11538898 45353591.08179471 46216557.305970594 10369131.060180785 28629179.911474697 45224921.98083756 35314135.12201855 14767084.503025072 20986218.66541261 73586950.97419667 25665748.406259563 51290974.59901208 125629795.32586017 54146296.622210585 43122994.950828016 55211431.19658561 83461720.92167261 42558368.87936992 57397661.96347396 45103388.97509835 8949441.336971322 67205740.38104698 35448214.39771159 33319392.69321112 41312732.3083853 47006894.52757525 46879735.8001152 25253105.28808983 45315284.5962424 45341288.67241327 55684627.62679497 42032382.65177575 69265801.48288564 102748091.89040272 20854559.379023936 61153464.0474777 33037507.319524005 17153809.387040373 20879028.225955248 19821224.121278845 19805037.597499847 32877230.576498628 22757892.76947172 43851931.610546865 65369968.58170925 45686925.407983355 15975867.462332785 45161217.45429269 36582738.52561103 31828021.513763044 42859695.67357798 44392581.74837851 48702480.88707335 19465368.53417187 43031022.09371621 43555957.363168545 48184470.32422243 7003656.659663915 43998092.24286254 12068437.498510484 51703048.31841951 45306143.14604806 79654617.88198218 47148009.8107923 60264011.5173017 57149864.35404576 34321981.48237444 31796653.585156497 22873097.05155854 55924313.549275905 42847495.548594154 17703236.454280738 84721198.59119552 23409587.481490873 56980195.219151825 20920595.67009964 34578688.76699098 44600731.49788048 36546117.943698324 110011720.11815882 64044044.764137864 49134780.441905476 29508212.242813684 109988812.25256526 881085.4426265637 47956732.930634364 58659917.24012017 57694049.5352061 52464410.38265832 13745189.19373322 46002392.981630355 25007411.932508275 19296136.40304859 42443429.277129844 10590329.953931423 40833880.236396804 44152849.24014317 46211471.88052295 16701872.145945853 46380115.06281295 22667142.978834026 57933509.16733706 22832602.964305684 30829474.445515066 27233333.200576633 10685153.935769005 66015627.16646496 44316528.227111496 11551963.239060007 58031080.13955971 43057336.24715129 20695887.573890533 50868950.61898564 31063624.31874412 45201738.01207108 47165197.50682223 26789054.4776304 42594386.33613292 45122327.645333394 16458813.568247072 5380541.070031877 46346378.57694868 37218171.94280001 46887604.779402375 5689503.101171069 146619207.67600706 54540763.4901537 32597202.794128038 16412075.06353027 45434514.83467683 22536494.296260506 17661583.311134238 50875283.20600489 30869449.335492305 44190919.39167383 49055338.68019167 37940077.615997285 47497781.822538264 11983096.37106271 30351116.46303467 41572138.582928516 20060746.89139755 14389551.720606776 47590907.07064193 27603986.08150517 49261662.081022434 79081683.73340043 40554061.6461819 31678436.974519785 50968764.8999335 61846262.940255344 40882550.108083755 31641400.219113413 45763670.79403978 37804770.32153792 29166646.32996677 30251818.157809384 39789382.65927259 57779165.464266226 6502463.554584848 13931213.38102836 63266086.83079117 46078885.6824812 57038659.7947879 32920776.322175737 47251914.20413869 31885181.34372522 56795453.913734406 23365527.429496806 45032866.66680756 43927805.97943941 38638360.7112737 15450384.246746123 36075701.42494547 43102764.14643973 45001293.757774726 53863735.20762298 38219429.91440667 27848255.16178261 19812225.619964857 20097164.596887384 30227487.202591397 85492863.29482965 2296365.891517803 26344504.47386837 24324554.196535736 51034085.633801684 30251194.316664584 30379206.53063451 20800188.39447187 57010324.939820014 37843998.603440404 9948116.718616148 23745450.544518035 28844141.968690176 55148427.96692716 55403031.02924774 37749916.75387995 19322132.565134037 45216018.36864959 46210925.58372365 60022416.68612428 47067668.68458883 72697992.9785962 37190066.296607055 45027758.94857552 48864346.34389795 45391172.588362955 41546009.28797234 49794224.68169956 30372266.686820924 52913806.09809989 49751967.39315645 41508117.13550746 23423673.42341998 32966250.588705294 42494864.06983759 56263553.034582146 5054734.241001436 43279864.94888289 5420661.801265875 5427428.928735758 46197110.661245905 24201367.127140187 44017448.44385586 43403160.96932764 48014125.47201538 13151758.759471126 50420943.66431873 46434718.68418864 52344912.59865316 60069540.35592222 31282729.013809767 15715637.702015191 51342832.80737728 32747925.262115665 5762500.589511952 40860074.30515396 47656349.50613783 24061240.806020368 35433234.79807598 23073984.932893727 27110988.165685855 43053829.2042793 34641188.6698395 43537529.11713526 16286953.260187702 43752562.11926617 47189616.666944474 3959040.733340668 18227287.709024668 41935261.59853981 32668495.25410108 8983665.810413372 41807901.26217566 35974932.256107405 46576550.54121492 42303297.95775812 26373718.775875065 48362442.16241399 46558179.324326985 64960812.33793534 40314149.54083411 39335599.815846674 4903126.733522814 45660283.2457995 15460521.728408525 38140070.78068873 16170635.31932072 51868949.96359481 30119176.12350192 16411670.83489946 47235465.79646039 7231222.922398762 39653193.640765816 34512498.92409147 47636794.52415401 16657534.482573472 47439970.8547607 40302925.03291557 8829242.329126356 8867532.520481005 50744859.88733046 27041963.965141274 41319882.020365946 59446762.36509149 71447508.79690585 18508170.406176 42370036.96220978 18145122.465238027 7866309.592614582 47149608.72531738 10511097.509668116 43628291.92682391 44302668.44130483 10283329.6917669 46737357.64854872 71324546.07282826 50366246.49258995 38275771.8102309 46978903.93446032 43758690.484000474 45570716.81567893 32878745.703658495 30153726.0431118 68682513.83200802 30043047.51269411 43491736.56929052 43472638.78810906 25730331.286326244 29364220.957675777 27297472.846124094 29095536.78439151 55325871.50454041 24399606.738057703 30150656.94856546 35916536.93584409 44390624.62040426 51280001.7116201 49613348.80699306 49196322.27339816 50516543.813733555 45369793.50489984 45923781.31391312 30057307.988363422 31809044.664910797 37106109.28712058 45001103.213477224 36360618.44715724 39297916.885725744 46511141.92359958 36117655.29137648 43590239.50354724 73846216.20533837 43008046.13422908 47721680.773104616 7871697.019941101 24670773.574299134 9320300.681592429 42049163.47979942 100002546.49585131 59830680.91509829 41969773.81607497 58691518.11223022 62696168.77511908 84778778.40069781 45699794.62567024 47990812.84711543 35695909.460751586 27394645.891227704 46092546.39223408 37025673.09071391 45584967.766826436 49169017.03156438 44281330.86089319 51892080.30755752 47465687.797251046 5633913.1056455495 42023414.390211 14158323.786785986 35970530.472782046 45020136.30646251 51211937.34893561 38516949.28985377 20394564.469090357 46915730.27152381 48108206.9297594 42086816.192265615 39171140.19858747 32517359.13244436 60510609.95432175 26588863.310855445 8685111.383403143 43038407.24987849 43960129.46153456 21927373.76885111 46855601.03975038 43085696.54276272 43798836.7313575 37332971.82996743 20360234.535158046 19009106.807073217 25434565.582019158 45683196.80564145 14737395.371938586 34410217.79652526 9292269.88699499 57247682.38896244 8516718.986710086 47474645.55372331 44756514.9465502 10103148.305556402 29435093.10615803 34998088.5202459 13293541.40557985 36024111.645347156 42797398.87244687 65176657.6133419 52735247.69966622 64530494.99235136 37083405.699305974 64815661.9651202 17114461.730958585 38448630.92213921 39322479.23912644 49963159.29480141 34229714.47934643 44591573.803356364 34029027.59855975 8384785.001874193 61116069.31066372 67085624.159843154 38281151.52391847 52072376.06647279 46081941.578568935 30761278.56732005 21369491.8851728 56133972.63313788 14491057.907684458 43857120.704155676 36566953.546039835 8210657.540343849 45910827.670142755 45736659.47702272 14515939.228511415 4014531.6853424907 3997605.8933184627 86844174.70091641 58905385.495354004 30850463.13623239 20170009.61286445 20200648.720552232 8228531.554229872 8223849.84524987 46224931.64409276 13229222.960542493 100492188.47459908 9256573.806053946 48488673.18782452 17328883.6167707 61283047.13957008 47573409.25134506 28419933.10880987 17569672.834852733 45885229.93875885 59235410.1080808 8550542.688341504 55101345.384763435 51604468.01416841 69147695.07597663 41622974.342379674 41713389.47170986 2683772.475478986 20992186.46281182 26572551.318671636 23259868.989934154 31888950.236517563 50070922.06960916 46634342.41031811 91018276.78129748 52649622.35591536 109930440.54544471 42046900.3883731 52661450.76424382 46584780.24820045 56887346.454398304 46425656.078605056 70250865.8720271 6767762.03837586 14810213.475323388 48036717.72218873 32870547.423924033 53955299.11314524 7992721.931915669 38888418.46473042 43022330.93256181 25364923.778691657 54711838.91279288 6634276.721768683 11401457.771070005 37262323.40040471 47179075.95077161 43638911.27496289 56735281.38411364 56204185.01620989 45122206.74754122 44170403.52724691 18916104.212013647 43681601.20665994 13655899.694299284 37434897.24136181 34753283.21782558 47195260.30585324 36785330.47121421 31636591.950202897 34145809.14601198 48901808.54441116 165226087.77603894 98802781.66181526 39753652.12839802 52485847.461820684 64259996.71796925 42644093.50000694 47491140.33915326 5021085.121574701 37476167.83463149 59067633.05100688 7707957.715556235 7741175.289898013 45811600.67381984 56190132.1123722 65039730.49909599 45059612.41820091 43923671.06644763 25338027.76710633 23808529.900212616 43847671.19715569 52459656.03621429 5899647.48387425 43061377.438117646 41488906.06215715 64858674.82694557 19816916.059931647 41844452.65969283 42245032.0468201 36476852.839067794 54348130.91801511 45910183.781034864 33438139.717751943 13268527.475340508 58698364.998789035 43347714.939436585 61803280.12319675 45097261.23970777 16072396.056157615 16062478.903271684 32784107.388906755 44830398.524792895 4712298.320250204 32400775.795355797 14441433.416518373 20059397.52994421 48507921.113900736 36452535.456924655 63923572.14738213 20064530.32594084 45581683.960441835 39751151.87267949 43085097.85416834 37824935.0556421 43923522.073264636 21502452.511704527 33800938.54336913 58870494.43021107 13698774.295102667 47942245.30764652 43710253.5774237 39877125.83840452 23467609.875480376 56222008.622036666 12942936.036099656 44131739.88095966 62903926.32652281 49579070.64395343 64271514.99153747 40598146.313841246 38734546.19033016 13244491.597455176 40723071.32811271 39667988.91898815 42855458.121421546 31576659.24583664 13755131.514182283 45101739.53652395 141949902.42618024 44014142.814108275 3786907.2725206404 26845163.13307843 51715894.11563274 98730171.69404583 47422723.6350206 36632959.77328794 31240023.523079958 9551132.57792053 34445851.07633054 39998159.18752837 23060401.76050388 65852148.334344186 36246577.18083969 2427802.3582279724 58500711.17157829 3811304.182782949 36050581.64513447 30614596.370759908 47698700.998758614 12596425.252869938 16012740.1060551 44169456.814737566 48277432.17983454 33514807.89818268 47472166.45621392 70835143.41120869 70772994.83712584 40629856.492461905 58805100.5673094 40421121.3718208 38552220.58019828 32712049.711520392 49143798.310374305 54923623.08229035 43195742.99716199 25437258.234544158 4878382.885172509 47207665.45418445 44150299.240266345 18107044.746225215 23748416.38896526 42073408.503756195 49531791.93703335 48211195.62451931 38182192.33615203 24050072.571301367 50343834.16477866 43682279.058979034 35114755.49212887 60246013.4110963 7245774.266883633 36252448.36051938 12591279.706705518 48808877.3169527 32504187.946866933 39585234.744944446 82615866.84265107 51621758.66106118 46701957.22699881 49081096.35777609 41983242.24940803 33753486.78432548 46685452.166716695 9833146.56673327 44974867.57764506 37628913.69311117 29544564.27148094 58345677.71189293 23710473.07575718 8095796.033982284 45067096.03903428 55682450.94127226 16047441.22716761 33341010.305884752 50554221.23322422 47946822.31547719 56514033.99549317 6126708.875138855 40040661.298732 30026005.044854574 45061129.02848827 42444604.71692838 42618835.43639105 8188622.305435447 45806040.27278529 35790052.14375209 59959582.70010854 38381257.818081535 10052865.211194629 9920982.673581768 44688857.96117929 33706250.75596102 53820375.64605847 44935752.05238479 35289157.42041252 48696332.72347158 36887737.16143652 23231176.694643863 53039717.82213725 58841307.76014351 31319439.70084025 15561766.038190627 45781650.64003174 46824537.756976575 8952133.670611398 8969566.078862105 29445239.26225085 43801640.23947141 48491060.49732922 46505849.96599014 49309347.98264723 37463772.20166655 50883969.30445684 37147393.63560944 58545251.75518884 28203431.290636003 43846228.76849712 40646477.36983364 9849840.183535026 44959063.251596145 43575254.61001362 51470813.072987735 29113312.938830953 40104542.74001536 11963888.301131055 10756078.476314368 27947548.838215277 36146945.52811959 60393193.780089885 8799412.81232782 47318381.878548026 43437585.83881037 42670835.96011271 5951058.216535112 48605550.109295554 43980200.59235216 35932684.82790089 37594811.07651473 51032236.68976912 51051437.05447363 13848916.350910824 39971002.28766901 34461920.522319146 10110746.829987565 52139305.17008284 150663420.64031783 34244717.65170261 10079597.369346453 6003358.232746672 11432493.29779868 66951351.90476126 20256650.111234218 44595027.12253317 46893343.74412664 8726683.496912008 50691150.97552474 10113113.735462688 10138496.249815226 1111740.0871010742 44252486.291057095 50688287.71983962 47200045.11312682 7361456.805467561 7365316.460965012 7057762.118138139 45320954.906416275 54732244.047992714 18207632.91494924 29715646.645276543 48827471.12763006 58926391.76864248 44464648.42464415 38410793.35823746 44581809.40178613 46618699.380200915 44747596.86464917 45628134.85612141 44058765.6972323 18555566.857276563 49341245.92353451 50322212.74462115 1104389.283597998 1100422.9384430326 37146014.02903828 46061912.92463481 71178805.15548071 34397193.892401464 45702462.311290845 57743543.72486872 52124140.93247369 45291998.77836776 45096557.5917268 23884980.10362049 19422727.04548617 17358011.08926854 24834055.448332008 59720512.9924248 14189353.312242916 52786498.275752425 47971458.08786296 46406263.603923485 45200603.80259014 8409414.376427148 43098484.650929525 2010327.3070808214 47213663.812631436 55600890.1758479 52183382.1926629 4122998.408300231 46434357.536155306 28442682.840810757 45516492.45225216 20768376.560244597 43345141.66946923 25433110.174706314 2386470.9070547493 60371298.12121179 20535527.182742838 43328906.59156111 109317674.13244587 117361996.22349453 10197077.777421938 8655594.116532896 44453738.51145773 44535157.28466567 42266106.705679156 51374505.56056845 48678974.71406508 45311501.96682464 47400742.38587788 21303655.57342236 50273689.22074461 44727094.324804895 31053209.900107827 28917541.441683527 10192531.739293521 49834766.02903755 32387409.347876202 21770825.60082845 5316683.533286739 21951569.14716542 45635036.37796947 52342941.21531138 8271762.519089486 49202260.8275517 41024399.79388029 16281397.21605347 52955604.34660543 37488546.081494555 59850060.926964805 41059960.62916729 50627252.01509603 31742115.899986304 51272735.7768795 54660802.33394884 63781610.88687575 51558778.43862981 41930263.54383144 46058575.82674193 2985699.81369281 51405464.20592797 38704223.47278474 29722979.22086252 5475192.145969018 43302249.36438744 45321461.164125726 34584398.13153271 20912060.28696641 38407867.14478291 13548286.197180653 45328824.7446606 39197990.08743478 6972271.518587131 38661037.72826747 57960519.99231993 22103565.71307793 46070684.14210974 52107581.74838339 40616959.81124894 24684978.544251837 61371900.372655876 46470702.98880188 56247308.19656851 8409594.764218647 50792900.58836937 5229353.267642518 42494003.679935075 49863995.0999043 43238516.31086598 62283435.25221266 9245571.671849782 9253918.21024661 73728284.96190289 82727436.89357539 54418366.17508103 44989328.17467019 19795983.57602344 33454062.72609263 35033837.79329684 9366410.249873612 20243349.32776779 42294230.38740583 7106191.215256299 60836593.77279771 45080215.93766276 52138992.59716516 47583220.19585414 51670518.45359757 9579115.25542146 11245776.751941988 48028704.52228142 16513172.102843273 5308787.0171963135 5327103.58079209 16028995.032190062 35898496.59597121 9304908.399066888 46161753.64848028 39777299.77436137 3505204.932018898 13887017.957796099 23174105.190411795 19007984.56352499 28401625.112658624 43470315.09190257 29299594.77360658 44854081.47067535 17520130.058997963 24165559.96793284 22224649.650080703 25422076.660522617 35021087.41195146 45883969.74712177 43137836.64761735 42595885.189886875 43936629.60722446 45174805.44818566 23229719.407226477 45919370.66884918 44485454.68543387 21020311.16236269 34847174.26452696 44509538.12682639 69464971.45758593 51741845.20733296 70649147.34732509 24226564.37684659 21831012.95213159 41133394.07091775 74050590.4398794 46824091.65895324 62087112.491911545 44287162.05902843 43877124.54907964 41380330.230458245 41046998.295662306 22793952.70567558 53388732.91823093 44366118.503621474 35907130.846870616 36118534.88379834 60149923.22293325 119967012.94700296 39911233.64370134 45431939.83135987 60660877.84164235 43268346.03464554 28754473.006591063 60430822.53064449 50382140.79649131 46200273.25338678 57545273.42982198 47711144.59516897 44610761.5305508 22758450.548293415 22790991.86433347 43748303.8535137 48508392.0167879 11116809.864982665 24587845.987256337 71561267.85618883 39670553.74447426 52913768.22802415 75942755.45085134 43947381.79341748 47947723.07347616 119260469.46853672 50338863.126748666 11525118.485623544 46761091.602171406 46780696.143029734 10571028.877505241 10588888.565231644 22306105.997494984 8511527.16590374 46735129.32756465 76558994.78226894 41570816.45100873 51614873.92172062 42383674.01367689 43415583.48433414 52113110.51119394 42225320.39747037 69476035.93650901 32148163.253722142 14066344.570041807 14074868.04526302 15745974.096796531 69254497.74102062 23648584.620064657 35119648.69795989 22606026.896105073 64645586.58620909 10979245.954290494 39289012.813939005 27231712.670516226 58836573.601819865 42167069.38769594 16172239.223658124 10405634.61077698 48509575.17018561 14751855.403092636 50947944.125633605 5144900.877737456 40213796.403745726 37849251.53939886 14106952.218977828 43205622.06915804 47038728.279082514 45259314.02839789 46894639.0168276 34557062.72514278 2244560.434823748 2252399.2108113314 40927175.629201196 21488600.753136035 35414269.92701582 44944660.282250054 50710419.71541982 26979990.49486408 45373381.368116 47744704.25341569 41488399.46528709 16445824.89819273 30332157.75602992 30403727.2507035 27161254.70854594 39845163.67657215 52875330.75029439 16565992.507411817 104551513.5081852 28992406.882855795 634362.3471741844 637236.0600297214 48261515.66119453 44481979.558807395 52495363.145796336 101211289.79609041 22365262.51719767 40577267.00324851 12968091.911449583 47605221.94848768 46571037.20439145 45212753.04538921 1179442.2529328086 36163019.68121736 17379566.935054634 57593910.24434369 34748289.33657557 25290172.50715468 43295307.76495591 51056762.56501171 19642693.883538708 41453802.46761304 45364083.236168094 1955692.698130692 47116645.70450168 60860369.2091704 14184890.11933717 33991445.930765174 46960805.4430775 45187789.67968756 44883592.68471689 64451361.18406875 32533841.900051266 34188954.34930983 35881024.54529764 41050840.66461399 72393478.8555652 43481497.26387783 11444577.997492433 46698801.57019766 44344224.529382944 38821356.1035131 27173292.532636415 42811083.39693017 13544558.991108 57388139.52306274 15452464.74131555 651779.5592741887 26875210.803307645 47008592.431537524 15866409.801305642 41906780.32978847 39310531.8817292 82604736.55028695 21001564.994371288 2358934.7321033822 40210002.43808215 15142958.98586435 20398406.629539207 50697714.70708168 15685964.550423235 20194757.654354803 47909536.412136115 63413809.80751665 48138087.70903708 15097925.221863493 47460758.561033286 50412766.96897667 37482081.599346764 31754906.281244032 40841938.486958176 39745004.32360347 56043757.65314692 37889969.43648496 11013444.947293254 44946721.515255034 10967992.669913555 15982434.846021332 30023220.79321945 35501429.96654203 27094976.838335577 47190131.78874938 5693867.041269481 45794945.70662247 42627571.420841 57056900.78830997 44291488.502405755 7914839.403701526 38109060.278888084 50230168.18662386 38860202.8893418 27879061.944786992 51607083.716873474 40584411.92113114 52027936.1501443 42326642.64807607 38459605.74646635 59350645.27705539 41867126.3423186 37850438.96949555 11620013.268621584 39333542.22214103 46089867.95943657 40990475.48770536 46338684.32950654 58950629.51238513 17732669.31108485 19181220.491859075 53585852.52502163 34396583.4999218 53849949.86114463 47172201.01662378 9962120.547172412 9964348.27157914 42705219.12796592 64143917.500992164 60079838.760411024 47740350.15830095 46584510.644313514 33794359.11021425 21083150.4796653 13205273.227922268 20014588.047679 16792320.1355895 61347477.122014366 44517061.525749795 49013747.79589728 47060240.23650423 12657078.9590047 12662104.986618439 382321.2199422394 381200.80098939576 23368246.053196892 11714039.524560995 35238985.233388394 1075607.7775624741 19164010.23813417 13359388.872815145 35678595.00697235 52537704.291448414 47085106.570526555 50581527.22148385 45416012.83465125 12650239.989101188 46963712.24017195 43458437.54358172 19649382.459828444 41164482.5845216 21747802.697058484 11746605.972544132 11727254.539641785 46128876.021836095 18236227.80309675 121506409.32451542 45070966.22702003 57819063.28531149 12707197.262924628 43763115.033399805 49054911.8155299 45696624.30040872 37842050.51655813 57470960.45392589 53715906.791198105 48980580.39165454 38261942.408322595 58814208.351368785 12692213.76991342 16834274.15222345 36086913.43085371 355911.03275937936 357144.6388168928 57274961.012443036 45184527.4692449 40744593.227762975 52305822.715812676 19970916.002898645 44063388.0332945 10995770.949174296 57436375.498404756 35754689.223716244 5411566.513276488 70781708.39059645 12057622.396948235 10667051.462982684 23082903.952055987 55766234.10878331 44258369.18493768 15461371.379094506 58469273.49656193 48100354.50136323 43926502.506037734 42987651.45378932 26561892.48778858 26349531.302032106 41661025.87909489 74877253.72159214 46349249.833573155 43182635.61276506 36489443.925001934 11366776.644679885 48131185.39850211 4589718.088056966 46926362.18843713 34338853.93961684 47681655.764678985 87054812.19251515 56656945.03100231 53964735.30492358 14545578.96911415 57172223.862790905 43732645.07685929 48557994.343083516 43813927.93023858 44652398.01025886 47595613.85201751 14720977.457487075 48408986.96195219 46685462.98111102 28462202.61107404 38999728.808694065 46254894.383023165 47458601.825314306 60385114.09302486 42529787.39775345 10852320.473063754 46744726.02515436 54241165.54112325 46435163.35842735 55977377.54227342 49455079.503143035 48059275.69828545 70327049.10486421 2011741.635647627 36450770.10938947 122377968.90121517 43595864.59186655 54518182.04640034 2048169.69896226 48690698.54503236 10760387.94375005 38747869.165796384 121717708.87135658 49292592.770499475 432611.7132394214 38416440.159654506 42815648.232498385 55540068.498795055 47772267.0854445 23715101.68150525 12678682.039804555 48344936.64739374 48083945.52206379 21960586.97815732 42343672.115611866 59425738.26489304 44736906.82692551 37991486.20979767 42558548.57259786 46274446.962892435 439428.2355756664 47729331.76003867 44744676.45661762 38803913.00516426 31416875.808154844 113366153.9068564 23667688.470913168 42745333.158299156 48648039.5201749 43869526.65556852 44653570.53399453 57905182.31357906 42817676.940680414 16086187.106015604 417990.5422878951 139353487.17607218 18457663.961315952 32270613.65640693 46884479.31817255 57264399.96406207 391035.2068720171 48777852.60914362 47134862.06792231 49565083.99135375 45697381.595778406 945419.788987593 941625.9036287344 47040414.897465914 26641319.317797158 56637305.0687591 6157880.923388489 47457754.63992292 57444484.5286171 46290104.936568774 17380136.10305056 70620685.5272543 57829333.89065422 99785852.62849723 46220618.249180555 35154911.5099573 15766316.763688412 42900519.13281752 21552101.56065853 53509877.59725617 14759536.978876868 36611448.088438764 17391311.940465875 43673475.58123967 48488025.152850546 18239956.1602312 39606067.63457708 49822428.02788306 18491919.08287567 46738129.84324783 17699509.916776173 44553471.371021874 18418562.422808066 49410579.48186665 44689967.16229756 57637000.375580795 12301625.967648635 34235177.5509299 12462753.763747307 27673532.22348507 32532994.55520818 45414961.41095284 43884407.88910319 50728379.49198919 15198904.307147041 33064187.258502606 45494323.440693654 33849801.12158351 43193298.90894818 64894689.37166902 46605225.16382145 46975708.982060455 45679900.6866516 26635209.58030573 26755341.344507676 40712553.638142966 28060873.824549578 49526901.79739368 9191477.98275157 53348719.62280992 90156871.76423866 112967495.51512264 33960418.82274136 42940462.08414749 16605565.038863298 21452666.08422752 34716983.94988905 41867140.625722945 16981710.51998209 42425886.719798125 38108993.76520925 49309441.34203357 31730421.968285035 41562066.32224192 46431723.325362094 49462258.56348952 56278521.344030395 58957432.88498806 5164481.69270091 38984506.55697103 44109331.584459476 57892298.0768739 34446102.22617144 57874577.872036815 19146863.838931028 47709794.39933031 45545734.19040604 37557273.085174724 44730568.75262657 53653113.89168728 17448347.94386122 40717873.68772413 11251155.75553057 41593966.587608114 46702292.190499745 37502463.61076305 45559105.929459915 49287674.53288337 47115306.67123373 47156309.32185529 44101971.12140124 46105201.38306294 46983445.957566485 4193190.3531400687 60870026.98076622 28429084.414229684 61722487.55326621 44616223.51714604 57907331.65881835 34709244.08434391 49958567.26191114 20806535.834645506 46985221.53652139 50519833.64043365 33245379.35247462 46671265.46051648 54769305.051109135 38678265.1739896 12568605.28653959 47168850.822637744 24680235.2010863 51436258.40744807 66982590.43377242 57866279.292461656 46768854.74656217 46785222.75946455 45700385.733541235 94809442.74078533 49554908.85331558 13009774.291880447 17011308.297438156 48911903.289107084 8883922.763129061 47644666.082702145 49484473.43289365 49690625.21263542 12972820.098732546 38864174.57886965 70395946.69334167 11336059.871127527 11350051.159336839 35844439.33818753 54974530.274176896 14983261.315585958 36686270.21531134 85582130.61062266 27974585.749222774 22480096.82066894 46923528.60881549 24162547.065963425 22844127.237317745 36651120.115764484 53810695.3003833 50254091.733294785 2005135.430901274 46931223.84456517 48424290.823207416 49491504.63439921 104305931.57736105 55211097.3399351 52706020.071025476 46438875.022840165 4999451.795307299 33628535.111925736 38923372.25963933 47090890.852979116 42621223.114718795 3281073.8373421608 52444802.78924467 1917746.5230939034 36864365.18540418 44039046.20401678 46929156.68576549 58110398.49592135 43995539.120933875 45464343.04321995 56192072.07773916 48125854.93850274 52005536.83477809 39043150.4407199 54798913.934658654 10303139.538060017 59149427.544692 19694029.608434305 9597242.379011482 56166032.84973237 13309814.714662416 28221431.73734844 43139063.953847304 36151865.50592475 48125692.73068437 49478263.66502175 53355834.94382938 12758291.890748495 55786171.525897905 37889267.41509587 4928730.168075072 26310583.472802587 32303775.84320528 35432963.57383596 45408595.487683214 48893863.31500926 39760260.94019971 42756011.61071084 42131107.69549667 44986290.34180113 44712658.34064332 15655467.482160682 42861241.65202513 44819381.47316234 78615435.58996515 46889623.83355252 32750001.65010318 50935636.48453044 43749356.55562923 48648985.66007767 88824110.63034956 60964805.15942258 34163637.93974556 47023162.05248065 47264553.01434381 90287891.06190798 44074646.702949904 49165746.68157312 39489595.99578455 52378330.22999836 49187138.05221085 58360048.750448085 36468617.64336632 40985608.548588276 15526309.371643996 44046655.7785332 43051417.16425486 47412542.41295291 113969240.09324564 51750708.22349045 44021456.30495969 56306911.885316 2321719.5065409136 53541896.02122805 7973335.640643745 33681281.07029077 51209057.39031778 35922584.078959964 4942255.253838294 4907289.869887013 36917661.03456648 57926734.46950293 2520811.2133427477 2530434.9203121476 40712467.4745218 6606002.505133952 5132023.044355558 7608437.489525829 49980498.90603807 66084565.10098586 41825731.819708295 36882259.20660928 17589199.44713806 46705717.28713845 59733827.529282555 46545008.36337941 44441017.32063119 45798301.15000018 27063387.13705657 45824400.6315453 30069624.903574616 17179620.785395026 51785990.96561033 17794534.642520953 27602178.187588315 45939328.12155579 46788071.6088704 62094836.37634404 41070936.142632216 41879172.133843295 19221172.836085446 20208185.717355467 46309562.68836 16777482.397437032 66166171.56304452 48201726.396552525 108306679.0161626 49818214.22204669 118668576.8039639 94204338.27611554 22232590.308659162 51005582.98374545 1568179.8992826 1574865.8253251247 31360930.69568407 11017173.800562186 42748887.7753431 43851254.28017082 50356455.040252864 48238171.26499091 52327894.518663324 35713475.64474013 13794158.239790276 40512098.57184978 44543369.68115153 62525127.32562023 23740751.898456383 32297065.8898626 44038872.18270591 25273874.188213836 41903760.81991257 44922021.21172408 37422131.581455685 25667287.713876296 54720988.64180658 21543866.237690248 44016896.55860773 3978365.495204182 44258603.94548296 57839256.99316131 50226213.041684516 27634465.626014214 12635615.59812702 37750102.83082643 13772359.685773296 44416724.07245929 45709031.74601538 56565701.23925402 44235043.888348676 44638451.780932575 25263676.23187216 42376962.62013606 45099645.95319926 7101920.485455455 45576373.561030835 46892046.19800999 33951838.33053464 58730818.8622866 48335829.50953441 46164762.818961784 64146452.22176531 26879250.643831957 44347744.37396706 48393140.12474092 43722001.32013581 46881657.79546705 52022289.412650645 46889884.388666645 35955220.826528236 1021045.3480440006 44261908.91899528 44153563.36895017 54549681.09768356 48996626.97454941 40936305.79085575 45535506.18689612 17456923.855040357 47048925.892688505 26293764.814588737 35324937.01761301 53887547.54400758 21528887.328526422 53178643.81602675 31216993.168436624 77428109.34849681 51868837.01900893 58462435.91726282 45392374.67564673 43815920.33839894 20663516.130536247 44584090.69526267 47494565.07533252 16875184.29959756 10370829.05302389 21567346.231738076 2574549.6741433865 49892669.98756509 68040559.2307702 44744885.42988531 1485599.4665855847 63215434.44548213 38821586.64064666 9305576.765402395 10053660.188912073 14330543.35281994 14294101.409517743 43965704.8554812 32709098.31372172 32764432.93309201 5679008.1102292305 2532949.5798272006 39846611.951211415 56122159.33250346 44841253.91406526 7978920.810381832 7980237.983736302 40219440.02921353 42533802.64284593 32969849.613242026 63378837.909723595 32780738.96672531 38705272.79292588 77401545.01759785 26955743.2522332 44667385.6868778 1521643.2278636023 32885648.231215134 68297070.53851636 48210258.804857954 50339895.66527227 887847.7239015398 891157.5215863228 44949992.90982402 86590826.7873597 25962528.623944905 46058720.48285443 45019541.5410346 10175311.913951984 45095182.02691381 946748.5028693945 48759264.47942214 51939768.036731765 55410747.58509177 65277084.52586844 8856034.646801176 10799701.474447295 997186.3726742715 39565604.95570243 44806670.52304867 54455332.182911426 44231255.33655007 44361443.85476219 58977153.386460274 781146.2411244516 49259515.19953062 65609779.73579339 4734236.574665499 43636924.29768202 50230830.70172465 60905086.24754562 54193145.263968326 16171463.814037625 49106255.441931754 5258564.5460909605 35350080.333001256 42549112.64193423 46906610.478418946 44236328.47265574 48206620.37880834 38087644.72570236 25633008.72826923 12942258.916257715 43586204.000304475 65250906.50289615 54152195.122567505 13162502.3146298 52352508.15493087 24604176.237938 49641487.71737014 36806127.20761801 26414876.164773792 3710421.073309153 48408716.300537966 40221248.273737945 47187729.584810406 55147838.47449199 42603098.889313675 41009977.67406444 45595692.41189379 25397395.258699924 52132104.83729363 9691647.10690109 52341806.85976868 32586464.603571758 28463871.631317046 41670656.39847146 95967201.56627993 50982109.27359591 130677362.62405443 43733167.84703902 42479072.86813828 31681617.728377756 48177683.44151613 44223018.330768704 39917868.863377936 36309166.5807217 47779616.87345784 50490400.84783417 4466633.240148726 49875680.24692576 39003033.74811634 31290338.696136024 24614697.535994686 66189067.74499985 79854726.80609067 45999541.27601817 17078902.744580053 44888631.342867345 46647234.185665935 21160793.627606764 42397791.23883125 42581303.097212985 40726291.67470307 47995897.93297196 52267086.24086024 52251760.69669737 67637608.505153 46148640.7690361 48373856.23029396 35659776.82654405 59047496.2794416 47407393.4773969 76221932.94267172 47893186.63690446 39560515.03994106 36087705.19009081 45939710.82535697 44163683.35761126 4711427.631455059 46424950.02349072 45854417.23663643 47568696.96418836 236867615.1406199 47865469.64625785 29524575.751009483 19672858.86732598 43911186.850126244 19564724.09526794 44413406.79322144 12201233.697039384 51093836.76018537 47836528.110020936 84607449.18290707 47263859.542306624 60033087.06875202 33191753.396661997 50098532.39808544 192795810.89613932 33921115.735892825 44786045.87407928 14301611.77013785 44220411.57615653 46516848.41400396 43009080.83054946 16139355.839553308 2933781.4528940814 32904664.87727127 47114132.09620466 46373823.946180314 32435857.043107674 6933246.663946738 31951175.745928973 51343740.687906094 50051274.79743751 19540256.5450773 19532658.529587712 111080253.36521749 25340168.314108465 47687880.207805805 47447107.312581256 16414972.81485677 49394591.531373054 16666894.074744133 36557647.16228458 46352188.870494366 68440180.90755132 17601819.801136423 47226455.26191233 47210136.22373935 39859352.10534473 37278762.30591548 28897389.170257688 44328495.420021646 47451079.57238527 59184504.73190835 34800797.972721726 64763258.94170108 49325090.39878091 45755631.486934915 43327957.898522325 15602625.397053588 17857747.657477617 34748865.63359204 15864420.340815445 62549969.74967978 12055277.387080077 44094847.97008526 37920372.267113306 38764473.00507368 69581545.16002236 44089808.65846602 10129729.372272892 43137833.37860202 47551676.09744503 43454713.66421566 46288076.840648316 45203705.533300854 45000012.9047749 47113184.739781015 45593232.83504254 39280350.263701625 36169638.776108906 46961167.75146163 47001498.62842741 32258323.11925938 43047849.26899465 32310819.14823706 43133977.03664064 52007351.85012458 44836674.66711707 45220633.119579695 17423428.568003025 31702302.327342898 46773943.07750396 42965273.521709286 42855253.53078792 50199432.706992365 50426298.147360906 61420314.30888234 47643988.0080324 48276742.91352341 27811716.112591587 31114884.007201884 45760839.17346102 46812256.14913074 32095829.730817225 36886064.68241138 12242437.601633206 45124078.098238066 15982955.149265738 37625062.32769259 45657254.32110347 47095589.87435107 42028926.73148626 20138092.72060578 18521879.837457936 63561381.18468969 47159496.334287 66305809.76907789 71995602.90076746 11040294.239184294 50822891.27151483 46077796.60154527 44136298.501543835 45332682.584633045 47704753.877816975 46726131.13873417 69981802.66030847 63764408.343051076 44272076.41612551 37324098.09965558 44583746.52429066 40401879.66631829 21431881.104901806 61509450.63019534 5895994.807644237 17441188.38071217 52317947.56986845 47051467.2930648 46610229.143332876 60849577.75439886 40152166.6937723 20539525.46939548 59399199.11317821 17382293.625714727 22900671.628956232 44272768.84847523 21956046.06552788 46981404.938247696 41900409.521672554 54957953.17506716 17850529.663998887 49762060.49920198 17894938.21761024 32451827.46460473 47044599.99601928 46661793.2697316 47594527.12187623 36123835.136939496 34851651.89342083 47418554.70352181 44021323.90550635 47695826.83584377 45662576.15018387 32496190.100335564 51942963.740940526 47073014.367077745 7413637.114938853 9832457.94053064 63586858.19805187 49007085.30657731 44587106.98139805 40025331.23426215 17580147.43105113 24162715.186319165 45860215.38232965 42422407.80673847 26646335.829788536 46400557.22344774 9979039.82907172 36727962.143347576 70468866.57492854 18477409.62550718 9167599.46251971 18194908.202381812 41768679.53648695 92505774.02703016 47342525.36581621 34422667.80388372 45541756.66948442 47139746.66307858 47457766.77619067 29254633.54027614 40055951.861626916 114225216.47674428 23129723.76333018 43957539.701276034 63714202.52391182 29743844.558935646 48443066.58343669 14401553.895956526 47567255.96244899 28036576.976588804 43402033.98441762 33503180.252707303 45593326.40810046 19303050.962472875 61179026.55055443 61680257.634910665 45359600.39190576 46827563.88086762 46127360.47103193 48764006.67483446 24478324.96276419 24715641.560017012 73016198.76912585 49473834.551706135 45723531.36201831 29930829.307209495 43638164.55430781 43223834.84825506 45668276.84580613 56492878.375316955 39852904.5601464 48976771.51859301 24631018.244473025 2193865.915670944 51660065.46025929 37477384.454051375 49674852.12622802 49492732.73843542 48357252.53063454 39557113.60476418 38558251.49074296 46975644.94130012 46660817.582379915 46423056.517868266 37464787.3876112 46111619.276050605 33642798.038264304 44481279.164993756 34132230.70053758 33631459.886404626 39437533.01048755 46075206.603803925 46258998.37793707 34431680.671695195 46753754.224948205 55182232.9314646 45858365.172443464 48104969.24565094 31516093.26080995 31672055.64998879 36696651.79656009 37774825.00304235 37742742.943735585 40643137.406906955 57771109.10590039 47327735.196557835 100984394.17204273 37802535.08994833 43492367.212913506 44446963.84791261 34575105.42603311 44769013.045483604 41056628.97829159 13871537.836976528 19661103.442935318 47230773.3717796 7536085.5903084865 39140356.74149851 42222775.432196595 52903471.46366106 15382246.94331444 47910773.00640112 43680082.23304786 45034440.695205845 49866911.98056011 36943886.522061534 47594687.4960156 48058303.17884195 47255615.32745958 44217551.631049775 50032836.18134899 55140899.37711859 61297111.5722355 51185369.577621765 41428923.6851292 47767820.74612327 13671710.11604992 46099908.417488925 21537045.253249187 44096327.306051165 46683985.92603319 39474426.629627675 44992368.75740082 53544552.0503612 84135120.88475005 17383905.194548927 44915954.53213185 46343911.73102538 47026175.07481974 28755762.153497826 17941940.314077385 47133979.921653226 61391303.01722274 42034029.76575377 52860231.177621976 38195739.67796699 44010858.88680996 17384400.63019985 3288831.5456795166 6650144.819709986 28461896.853470862 47054940.54555934 42660186.872807 46779278.29593456 15618563.634491729 48821272.541953504 73540941.61410467 39061928.03137608 6493837.919531726 76414068.9833031 38731762.9783071 46831379.543546975 32909884.07971213 35669722.99102465 13881955.386443594 48566887.937772065 18472489.869538814 44544319.812188655 53787673.17575828 43049654.52547823 36873135.216677375 17024066.627446353 3253807.229615637 3245464.4217158123 45848471.40437022 48990973.2655051 42490054.80300327 46995821.253377005 15230989.124384245 43482311.25448305 30619263.181384932 6598651.917638147 6621441.203585434 30651097.639827233 56620527.1523402 43680794.34955948 68671702.40458348 48651121.60421448 48233720.950451694 56517345.88381117 42907342.67591052 46246198.22929506 52206344.25212992 51661862.00373129 24623269.375628076 27913227.986582562 46257906.01810571 45369999.380596794 45100696.005605385 54110814.145885184 41455318.381209955 3070496.7268254063 49017233.41607842 24209305.49210209 45715785.38500142 52069788.04431116 6694258.68768298 12778871.779799638 45375346.285017595 40064633.48466076 58118686.0273408 42813956.21732976 50530872.486961074 52415603.844733715 50656834.47711234 21285833.253525734 21099604.51814244 21463964.63355604 37129981.62679358 47754922.57275799 50009043.9756947 52523810.01237266 18276557.946349856 43849435.71715182 19578861.184618983 20424781.24016718 45769092.57845634 45145404.878274746 27877993.36536803 28023686.29689491 39947203.64248464 40563833.45457928 52255260.78365541 24344438.792005613 37121420.115158804 46976830.00889942 58559401.703365065 47350074.797381766 60709188.57507917 9181250.39801044 59886164.06166776 47160482.42795005 80193934.58909498 44730510.00167578 27689702.2777676 29771897.331566144 39679839.3982993 20565810.207144696 46587262.66425083 47114582.217940636 47460627.80502778 43912835.212321356 18493656.306794573 48732439.76820169 46748639.12553609 26468245.893796526 46045430.59608433 47082384.3667368 47133248.83034519 54876522.26924244 47541808.788041525 38305435.369429916 50973719.206896976 26274204.14042544 32655818.50552603 66223862.01154106 79007639.10140684 38343323.265262336 49029125.29857722 38251281.80315027 13085007.374060446 34008351.23016214 86956774.48949045 48932781.27288272 47540559.29219928 49679764.06610999 103542596.39593099 58104449.44809009 45907140.37278918 46720201.451951765 137465077.5323566 45354351.989824444 47155486.217047095 34666366.769180074 4439562.936726719 36009104.316071235 39136970.7731405 1140822.934974057 33178323.39747925 929826.0366453363 46871395.096931666 43155225.24938131 35901104.949573345 46915660.99601592 1183909.662543988 46954392.97004175 903490.6185662379 17836977.70647837 49027123.84202286 44477652.714420944 4137253.7190664015 1068488.2805108551 43814936.62458433 73743060.4417494 39170662.68266463 45042409.71304853 44405692.12067282 820805.7648319907 1130776.2745257511 1127604.1696678377 31903720.671329815 22798014.7442444 37964829.237647094 30130515.76113458 54235545.91439849 25031424.99316937 978108.9134322943 973827.9817606352 35076942.088874444 48454631.64532186 50141571.339090034 20352083.10566364 27078645.176213544 10917516.301782753 10908237.6271648 45491891.89687381 40525993.04802387 92650790.31932266 29862016.782811165 37710278.99217685 9559962.17909436 47441297.026436776 68754889.70571247 3790198.456132359 116134999.58094962 67993411.65288411 47360546.3836707 48227905.713871606 23623647.758772843 23411725.35932962 67772245.87941074 4284529.696082366 65716782.16845645 48088884.823837645 63618003.28988466 54355759.79196311 61799398.33456653 51445325.02962617 22352639.81126712 48376354.31212099 22891878.047129583 22904700.09479449 23503523.54793554 45903704.87210946 22217136.120942954 46726726.55594901 40445619.34067118 50080462.556139365 38337648.81345436 41065140.196122214 67883921.40555747 44808039.50886044 39242922.12238942 59145076.28606665 44174621.05493256 46961350.5462277 43215031.264173895 46199320.25548595 43639958.13696762 18546122.01232258 16906942.6614815