# vtk DataFile Version 2.0
Really cool data
ASCII
DATASET POLYDATA
POINTS 2795 float
10.0 25.0 0
9.499999999999998 2.5 0
15.5 2.5 0
15.0 12.5 0
20.0 12.5 0
19.5 2.5 0
25.5 2.5 0
25.0 20.0 0
12.8125 5.0 0
12.5 5.3125 0
12.1875 5.0 0
12.5 4.6875 0
22.8125 5.0 0
22.5 5.3125 0
22.1875 5.0 0
22.5 4.6875 0
12.8125 21.5 0
12.5 21.8125 0
12.1875 21.5 0
12.5 21.1875 0
22.8125 17.5 0
22.5 17.8125 0
22.1875 17.5 0
22.5 17.1875 0
12.5 15.5 0
20.0 15.5 0
20.0 14.5 0
12.5 14.5 0
9.991935483858025 24.63709677361116 0
9.983870967686876 24.27419354590941 0
9.975806451505594 23.91129031775169 0
9.967741935387979 23.54838709245913 0
9.959677419287308 23.18548386792893 0
9.951612903177157 22.82258064297202 0
9.943548387037561 22.45967741669023 0
9.935483870865918 22.09677418896629 0
9.927419354663494 21.73387095985724 0
9.919354838499428 21.37096773247424 0
9.911290322402236 21.00806450810057 0
9.903225806239442 20.64516128077486 0
9.895161290090327 20.28225805406479 0
9.88709677392396 19.91935482657819 0
9.879032257749005 19.55645159870528 0
9.87096774158539 19.19354837134259 0
9.862903225443695 18.8306451449664 0
9.854838709266936 18.46774191701208 0
9.846774193129884 18.10483869084486 0
9.8387096769655 17.74193546344752 0
9.830645160817648 17.3790322367941 0
9.822580644653016 17.01612900938582 0
9.814516128535823 16.65322578411198 0
9.80645161236424 16.29032255639083 0
9.798387096184427 15.92741932829917 0
9.790322580028553 15.56451610128487 0
9.782258063860747 15.20161287373363 0
9.774193547698067 14.83870964641301 0
9.766129031557885 14.47580642010487 0
9.758064515415136 14.11290319368108 0
9.749999999265055 13.74999996692745 0
9.741935483151023 13.38709674179607 0
9.733870967040986 13.02419351684439 0
9.725806450970376 12.66129029366696 0
9.717741934888643 12.29838706998896 0
9.709677418789838 11.93548384554277 0
9.701612902692275 11.57258062115251 0
9.6935483865711 11.20967739569949 0
9.685483870450787 10.84677417028545 0
9.677419354371613 10.48387094672266 0
9.669354838248523 10.12096772118364 0
9.66129032215358 9.75806449691109 0
9.653225806025599 9.39516127115204 0
9.645161289919614 9.032258046382696 0
9.63709677382252 8.669354822013439 0
9.629032257712137 8.306451597046282 0
9.620967741597934 7.943548371907037 0
9.612903225478219 7.58064514651981 0
9.604838709395764 7.217741922809518 0
9.596774193335289 6.854838700088075 0
9.588709677229938 6.491935475347274 0
9.580645161101724 6.129032249577598 0
9.572580644996847 5.766129024858337 0
9.564516128916669 5.403225801250091 0
9.556451612836 5.040322577620052 0
9.548387096737235 4.677419353175575 0
9.540322580608505 4.314516127382788 0
9.532258064471684 3.951612901225835 0
9.524193548396726 3.588709677852687 0
9.516129032273984 3.225806452329359 0
9.508064516148213 2.862903226669649 0
9.852941176575179 2.5 0
10.20588235384425 2.5 0
10.55882353096536 2.5 0
10.91176470721401 2.5 0
11.2647058842994 2.5 0
11.61764706100214 2.5 0
11.97058823810794 2.5 0
12.3235294170403 2.5 0
12.67647059214862 2.5 0
13.02941176563702 2.5 0
13.38235294061013 2.5 0
13.73529411351178 2.5 0
14.08823528775529 2.5 0
14.44117646397333 2.5 0
14.79411764123219 2.5 0
15.14705882094263 2.5 0
15.48214285710404 2.857142857919064 0
15.46428571423325 3.214285715335077 0
15.44642857135935 3.571428572812889 0
15.42857142846433 3.928571430713412 0
15.41071428559489 4.285714288102234 0
15.3928571427184 4.642857145631958 0
15.37499999986416 5.000000002716725 0
15.35714285692995 5.357142861400871 0
15.33928571401367 5.714285719726578 0
15.32142857106964 6.07142857860725 0
15.30357142814068 6.428571437186336 0
15.28571428519924 6.785714296015096 0
15.26785714229736 7.142857154052814 0
15.24999999944757 7.500000011048588 0
15.23214285665211 7.857142866957921 0
15.21428571381986 8.214285723602668 0
15.19642857098651 8.571428580269666 0
15.17857142818586 8.928571436282821 0
15.16071428546017 9.285714290796712 0
15.14285714268139 9.642857146372322 0
15.12499999988752 10.00000000224952 0
15.10714285709138 10.35714285817244 0
15.08928571426198 10.71428571476034 0
15.07142857140775 11.0714285718451 0
15.05357142859945 11.4285714280109 0
15.03571428572961 11.78571428540776 0
15.01785714284225 12.14285714315502 0
15.3571428591223 12.5 0
15.71428571719138 12.5 0
16.07142857423201 12.5 0
16.42857142974857 12.5 0
16.7857142846084 12.5 0
17.14285714112862 12.5 0
17.49999999772317 12.5 0
17.85714285297952 12.5 0
18.21428571083795 12.5 0
18.57142855939082 12.5 0
18.92857141386655 12.5 0
19.28571427430228 12.5 0
19.64285713574168 12.5 0
19.98214285709066 12.14285714181319 0
19.96428571422755 11.7857142845509 0
19.9464285713915 11.42857142782999 0
19.92857142850372 11.07142857007454 0
19.91071428566385 10.71428571327699 0
19.89285714274722 10.35714285494433 0
19.87499999981069 9.999999996213674 0
19.85714285679789 9.642857135957803 0
19.83928571385784 9.2857142771567 0
19.82142857094275 8.92857141885494 0
19.80357142811986 8.571428562397289 0
19.78571428518957 8.214285703791473 0
19.76785714222912 7.85714284458249 0
19.74999999927616 7.499999985523064 0
19.73214285649986 7.142857129997356 0
19.71428571378 6.785714275600116 0
19.69642857096893 6.42857141937854 0
19.67857142816632 6.071428563326299 0
19.66071428530542 5.714285706108507 0
19.64285714248335 5.357142849666927 0
19.62499999965938 4.999999993187642 0
19.60714285683545 4.642857136708982 0
19.58928571409201 4.285714281840209 0
19.57142857126215 3.928571425242887 0
19.55357142848666 3.571428569733251 0
19.53571428567042 3.214285713408467 0
19.51785714289288 2.857142857857421 0
19.85294117629201 2.5 0
20.20588235487999 2.5 0
20.55882352693214 2.5 0
20.91176470067818 2.5 0
21.26470587509772 2.5 0
21.61764704895601 2.5 0
21.97058822759501 2.5 0
22.32352940747382 2.5 0
22.67647058455666 2.5 0
23.02941176067775 2.5 0
23.38235293441871 2.5 0
23.73529410473613 2.5 0
24.08823527892097 2.5 0
24.44117645565941 2.5 0
24.79411763635966 2.5 0
25.14705881820279 2.5 0
25.48958333332585 2.864583333595161 0
25.47916666664597 3.229166667390891 0
25.46874999996687 3.593750001159383 0
25.45833333328636 3.958333334977398 0
25.447916666602 4.322916668929952 0
25.43749999991316 4.687500003039327 0
25.42708333324472 5.052083336434745 0
25.4166666665751 5.416666669871431 0
25.4062499998852 5.78125000401795 0
25.39583333321691 6.145833337408416 0
25.38541666653144 6.510416671399764 0
25.37499999984903 6.875000005283809 0
25.36458333316022 7.239583339392362 0
25.35416666645721 7.604166673997792 0
25.34374999977512 7.968750007870696 0
25.33333333308926 8.333333341876074 0
25.32291666640567 8.697916675801387 0
25.31249999972474 9.062500009634261 0
25.30208333305578 9.42708334304784 0
25.29166666633597 9.791666678240944 0
25.281249999644 10.1562500124601 0
25.27083333292552 10.52083334760698 0
25.26041666625816 10.88541668096443 0
25.24999999957175 11.25000001498879 0
25.23958333293401 11.61458334730956 0
25.22916666630316 11.97916667938932 0
25.21874999963477 12.34375001278308 0
25.20833333300986 12.70833334465483 0
25.19791666636482 13.07291667723147 0
25.18749999970019 13.43750001049318 0
25.17708333305312 13.8020833431408 0
25.16666666648339 14.16666667308115 0
25.15624999988681 14.53125000396162 0
25.14583333327724 14.89583333529646 0
25.13541666672773 15.26041666452946 0
25.12500000013395 15.62499999531171 0
25.11458333346292 15.9895833287975 0
25.10416666681642 16.35416666142532 0
25.09375000019333 16.71874999323352 0
25.08333333356111 17.08333332536115 0
25.07291666688319 17.44791665908837 0
25.06250000021687 17.8124999924095 0
25.05208333355612 18.17708332553584 0
25.04166666690528 18.54166665831552 0
25.03125000016995 18.90624999405174 0
25.0208333334352 19.27083332976814 0
25.01041666669018 19.63541666584358 0
24.65909090697006 20.11363636434331 0
24.31818181387862 20.22727272870713 0
23.97727272112545 20.34090909295818 0
23.63636362933978 20.45454545688674 0
23.29545454074166 20.56818181975278 0
22.95454545175678 20.68181818274774 0
22.61363635870555 20.79545454709815 0
22.27272726938004 20.90909091020665 0
21.93181817642107 21.02272727452631 0
21.59090908415283 21.13636363861572 0
21.24999999070893 21.25000000309703 0
20.909090898365 21.36363636721167 0
20.5681818062032 21.4772727312656 0
20.22727271532826 21.59090909489058 0
19.88636362288735 21.70454545903755 0
19.54545453222531 21.81818182259157 0
19.20454544067146 21.93181818644285 0
18.86363634917439 22.0454545502752 0
18.52272726008306 22.15909091330565 0
18.18181816691119 22.27272727769627 0
17.84090907624678 22.38636364125107 0
17.49999998161302 22.500000006129 0
17.15909089129634 22.61363636956789 0
16.81818180107666 22.72727273297446 0
16.47727271035784 22.84090909654739 0
16.13636362113641 22.9545454596212 0
15.79545453028867 23.06818182323711 0
15.4545454400335 23.18181818665549 0
15.11363634812483 23.29545455062506 0
14.77272725866684 23.40909091377772 0
14.43181816866006 23.52272727711332 0
14.09090907805834 23.63636364064723 0
13.74999998745307 23.75000000418231 0
13.40909089754563 23.86363636748479 0
13.06818180839043 23.97727273053652 0
12.72727271853859 24.09090909382047 0
12.38636362812021 24.20454545729326 0
12.04545453791708 24.31818182069431 0
11.70454544876188 24.43181818374604 0
11.36363635991656 24.54545454669448 0
11.02272727049761 24.65909090983413 0
10.68181818161208 24.77272727279597 0
10.34090909059876 24.88636363646708 0
12.7209708686998 5.220970869541787 0
12.27902913024896 5.220970868490556 0
12.2790291313002 4.779029130458213 0
12.72097086975104 4.779029131509444 0
22.72097086840513 5.220970869836465 0
22.27902913044831 5.220970868689902 0
22.27902913159487 4.779029130163535 0
22.72097086955169 4.779029131310098 0
12.72097086902355 21.72097086921805 0
12.27902913070156 21.72097086894315 0
12.27902913097645 21.27902913078195 0
12.72097086929844 21.27902913105685 0
22.7209708691208 17.72097086912079 0
22.27902913087921 17.7209708691208 0
22.2790291308792 17.27902913087921 0
22.72097086912079 17.2790291308792 0
13.0357142863834 15.5 0
13.57142857334916 15.5 0
14.10714285783675 15.5 0
14.64285714470339 15.5 0
15.17857143070267 15.5 0
15.71428571720997 15.5 0
16.25000000702564 15.5 0
16.78571428904744 15.5 0
17.32142857412979 15.5 0
17.8571428511085 15.5 0
18.39285713616606 15.5 0
18.92857142211578 15.5 0
19.46428571101452 15.5 0
20.0 14.99999999601014 0
19.46428571160309 14.5 0
18.92857142040583 14.5 0
18.39285713577575 14.5 0
17.85714284336419 14.5 0
17.32142855637984 14.5 0
16.7857142655791 14.5 0
16.2499999775787 14.5 0
15.71428569556309 14.5 0
15.17857141150299 14.5 0
14.64285712475407 14.5 0
14.10714284117721 14.5 0
13.57142856006613 14.5 0
13.03571428124737 14.5 0
12.5 14.99999999867727 0
21.18118017456192 7.986555528523381 0
24.24872138452291 12.78023812310978 0
10.90431265460396 19.64421042422995 0
11.31248487339091 6.669206403040865 0
11.80292681368402 3.673954163688545 0
21.76192800423491 6.716690252019905 0
13.95799213133333 3.411542294197147 0
10.00933730806217 5.263595763280832 0
23.75751577917402 16.97911990936781 0
22.10261242520255 14.13114800707054 0
22.49038032165939 3.186000402408831 0
22.85016975893106 18.39538684933713 0
23.79371481462269 5.527562621054111 0
21.01419798630877 20.65800580002183 0
22.7054888747322 15.61520134023091 0
12.40544138929522 9.186615730458545 0
11.03051998846039 23.57741973530354 0
19.56054310923605 18.79902003027107 0
24.67909723214348 16.49987403648522 0
15.63183430640362 19.63869461156826 0
24.28962078369616 11.59673039096537 0
11.24982218076319 20.9861697036092 0
22.59210296487448 8.126147716159688 0
17.68319065720609 20.20047272378119 0
12.38686974281653 8.135270530579085 0
21.68907986307399 3.154404026420596 0
11.04291207862234 8.065515662883204 0
13.85394466136332 19.80722482294858 0
14.62274317371944 4.409705977272289 0
19.72002298212298 13.4408199967905 0
23.67398667327032 6.666903143007334 0
22.26219695998914 10.91561960787566 0
24.47865730390074 8.94589356925416 0
20.77931109792245 8.838263959894768 0
11.860246259334 22.95361053340032 0
14.96158679776079 13.47738033623164 0
23.53475756821144 15.92330284606864 0
13.09982064335203 18.01860559643402 0
21.92666769523297 5.223411032364086 0
13.50381465675534 21.71225118270536 0
13.8298320310458 22.43083112458649 0
12.28765235918592 6.311091338713697 0
21.3551852243363 11.45992156945559 0
19.22758812730291 20.2964007900542 0
23.85587828879213 18.03691352172973 0
13.89077142048918 5.534317076311169 0
14.76174455512456 22.41177843607812 0
11.49490225962127 12.48792492631025 0
11.11464285738783 22.0365756986205 0
23.30972953784173 17.83540095642816 0
14.51650656536275 17.80224497298968 0
12.13701754355899 22.37793618222386 0
24.43500594875812 7.205459035656742 0
22.34299396104034 13.3456547366179 0
21.97693734126209 12.70117018394237 0
18.07596587576845 21.5686824808887 0
21.75303950835778 19.33511974184384 0
22.96609020845809 18.03163541869948 0
22.64909231030118 14.58184249973162 0
21.52084840484551 9.442667179604662 0
20.98226722545376 10.39648337636897 0
14.69226423313526 21.46315638580839 0
13.07955011988951 3.685562360598039 0
21.48837553642143 20.20607981435975 0
11.13924431144609 15.79265315406964 0
12.01762010714245 4.308292177390079 0
12.46213773861002 4.038123022977727 0
11.85774168378756 19.86263132158424 0
12.44824425383397 18.59165190240089 0
16.32044657424501 21.14465435768999 0
10.51889409001953 6.257852701338638 0
23.57424105063974 9.444735819431928 0
17.1743987283322 17.8691472518475 0
13.12909304111503 5.92505708871329 0
13.92521625957665 21.42815861978652 0
19.90068163700711 20.67402306488416 0
11.70698535298749 18.03395311825546 0
10.40150785432063 19.81052925531199 0
11.36445913944091 19.96974498914595 0
23.57240984863317 8.20425096799769 0
14.27650693475677 6.556157927120251 0
22.89350068851056 10.04277821990866 0
24.28147290718547 16.34231792455695 0
11.29031664855362 24.01082549915927 0
23.59798925352646 19.01743497429929 0
13.81232639771287 8.010998186927576 0
18.48806886609964 16.23879448458164 0
10.01753479493842 3.666155832670367 0
19.81281153780097 17.30375060504464 0
11.25630771925619 19.47173053316627 0
13.61611305328393 21.31171114179401 0
22.70945250443465 6.302189415120901 0
16.74238180674759 21.91954406411921 0
18.40265260402689 13.07095657846215 0
13.05816181923907 17.20101672730911 0
10.81899912715964 16.61262631412923 0
14.41564270349526 7.353886844468303 0
20.38256381107238 3.764900144325989 0
21.92637678170377 7.623009103057968 0
10.94585577291635 20.83998979099492 0
20.53362614996596 7.400343515367625 0
20.92157311399403 18.153805823398 0
10.24006631088128 13.15862786378946 0
23.56740863028865 12.10065124877993 0
21.0524757391947 12.50147000377113 0
10.54030005570262 7.202908377687981 0
11.6943615072236 21.82242860652074 0
24.05202162228378 4.357131596726539 0
21.0045234700538 4.37107214603629 0
11.70555822411186 8.631180541090522 0
11.87209665687567 19.12075335566143 0
23.93488425880198 14.77388193223497 0
23.80189323867126 13.54048153345754 0
22.93782621411391 16.47418519847385 0
11.37000231238016 9.434968333086397 0
14.05342898830463 4.348531783218817 0
16.81298978495258 16.82897122442959 0
23.07730980273867 3.683411585829761 0
21.88530312483292 15.90217504028319 0
23.16315857781959 19.98375133602551 0
13.31525710405811 12.23674499820936 0
11.03759318045497 10.99826851517149 0
20.81538603443027 19.10437865322414 0
22.55547391811835 19.81814671465057 0
10.58056583931442 8.91175468359592 0
21.58443654991362 4.64172297867772 0
19.33767055584305 21.05346818903921 0
11.13356422323264 8.741191492668088 0
10.71726371450112 12.90089162794887 0
24.80538543295789 6.767534228307236 0
21.31306424715186 6.287690571892806 0
11.16129839333522 18.83622938186445 0
11.14744944190962 4.910136760829531 0
13.23732304553018 19.51020849663628 0
23.55943882710474 7.44403984537581 0
24.49657571061365 5.068113269240513 0
13.46071810508406 9.530472692754298 0
21.10921966344661 16.91216769388425 0
12.49870051700043 9.624862728311998 0
21.39716754866999 13.82845945808713 0
12.071684081671 9.779248000164772 0
17.02208545153932 13.5883793562974 0
19.24635859813061 16.53242342607018 0
10.17218006499007 6.761934972098561 0
15.83915574625456 13.54121023564507 0
12.40023700521437 10.80243041088904 0
22.58957066793344 10.75392582019117 0
11.16938360947812 13.87714370860981 0
15.06914859902702 12.96822917921505 0
23.90691789173675 10.72534422240504 0
21.39378208289195 18.71151870636657 0
10.66491783245084 21.46903402851212 0
16.83853825364628 19.16205386399501 0
22.97074359611153 12.68472527767827 0
13.64646951038519 7.193807603772918 0
12.62163240783192 3.602357649293043 0
21.10105836383585 15.04383047442791 0
16.58904912787636 20.2224882201539 0
22.8589638247722 7.215332536966421 0
10.07473756896265 4.669259678249873 0
23.19390835864219 5.764692578235108 0
14.01686386363527 13.2533332486072 0
23.15380582339803 19.07842688600595 0
24.35619504174634 14.07555309674933 0
13.23158036787595 6.727674839322029 0
10.94224382100061 4.354756262049502 0
11.20411717853914 5.529153742531673 0
22.09993600586818 16.49914241764929 0
23.36060369475715 5.210925618401054 0
18.47191951203809 19.69256076731809 0
20.66294188392924 9.65894515963302 0
21.1095305764293 5.534561142073565 0
20.57305557312489 13.29637390349602 0
15.65608217938674 22.00494991235898 0
12.11262520475873 20.57301355224331 0
13.07179102660131 7.56027487540084 0
16.59187334694984 18.36813135672165 0
15.57886105220784 16.8742499182392 0
20.72123255804606 6.550186905273315 0
20.57585899687696 20.03038685996468 0
21.22485842366051 8.521537624525898 0
12.97934136021884 20.34276758846882 0
13.61847607314071 18.55247277380436 0
11.34129132228499 23.01610125707704 0
12.91534220721571 2.992627550997638 0
11.76919020142603 11.31336970222907 0
12.71276979562707 9.969663445503787 0
12.52729875693716 13.19460603436194 0
23.26945378124539 8.61242288054377 0
11.60749886796447 17.18590185325539 0
13.07517494419339 5.225109273003859 0
22.17059918875475 15.45020688699483 0
12.88366395054911 22.78012518912131 0
13.64929584913472 10.78657086350978 0
10.65764534272293 10.11631811567591 0
22.18169232954726 7.370659294767088 0
12.94564680105234 19.39301837995098 0
12.4720642950727 13.82934182503013 0
11.41795272120702 7.451716910024525 0
13.39605317469931 4.628842623929161 0
24.10621570695624 19.00724310184185 0
23.8274398451552 11.28518668406621 0
10.62353986558149 19.33391247993399 0
11.63704403761391 5.212433797619414 0
10.6720567719857 11.91347057536224 0
22.16974792547629 6.322207448062455 0
23.95838675624596 3.426386859962452 0
10.8158495536622 20.0910480833417 0
11.34995246892185 6.118718470765854 0
14.65413281604708 19.0491024430737 0
24.37184316460776 9.914698638387733 0
10.17870926943123 5.649810175789591 0
10.80305000714303 14.74109816450184 0
10.45435263194048 5.07619593409644 0
13.73323275856822 20.995176933337 0
22.57377443533306 9.195545673483911 0
22.73870001016092 6.65381346686092 0
21.07288549624493 7.513925464358827 0
17.46745245327354 21.3582396653573 0
23.64882474122144 6.117478030982141 0
11.58121488498433 14.6360571673365 0
21.83316839534069 8.638091429276178 0
15.81283315922571 22.57546230555473 0
11.30272235159063 11.87988864265495 0
13.09635115640944 11.29911735827904 0
22.50201586608371 11.80543825684349 0
20.88081485854116 15.98002782727272 0
14.61438958012404 20.43546530912547 0
10.28827185817363 11.35884540813077 0
17.29478175386148 16.76731722618085 0
18.74891929549341 18.00091187032199 0
14.49714446903333 5.022766134340323 0
12.83740101777913 18.39751759707572 0
21.66316189203976 17.15337030617226 0
24.46305428065298 6.265648104309233 0
20.50193410117532 5.022087049621707 0
23.48674509143603 16.48484010464473 0
23.73264590892562 4.390595684951366 0
22.68135242049299 3.050816951978485 0
15.79911663289094 18.23747776304332 0
18.13733306105582 18.87502078262879 0
13.33038847053487 5.386126228712271 0
22.62442022719672 13.57284397929698 0
14.21371262467413 8.886275893470268 0
14.63804014374458 3.84648103339567 0
18.32027746125937 16.97187158172205 0
24.80139216037596 5.652064661873588 0
15.39152980467227 20.87420530639283 0
12.28021150376392 18.04368143492192 0
21.09041156033879 3.428162204432621 0
23.92897657833913 8.056573746095085 0
11.78200184253516 8.000304640372969 0
12.20065976446838 7.182287456042021 0
12.1766975583887 17.50169700918768 0
21.98010806287976 3.744869828686979 0
16.26594008397568 22.28683854368592 0
10.28219518902894 9.575387015200352 0
12.33935076766334 16.45370851945193 0
14.38088398612581 11.05732012794551 0
11.95561127445683 5.39908485643219 0
20.39760539409204 5.883805824787878 0
24.63972824283658 7.877883059907719 0
22.08046136895811 18.53482746019466 0
15.27919238631558 3.014863992208711 0
14.21829017961611 9.96928474366911 0
19.63308711598424 16.80641654117104 0
20.68752041614912 11.09806938579675 0
21.85354291278108 11.99323872595582 0
23.32908740747765 19.49478611968725 0
20.26207607689028 6.355860396717275 0
13.55339637743194 23.14583442316679 0
22.00652257295784 15.04836037809452 0
23.04366711461512 5.399322025731072 0
21.30926837053843 9.92924074558271 0
21.88880240327204 10.92380144092762 0
14.94503322881232 4.800263637790207 0
22.82485707987888 19.42419660655309 0
11.05470323332881 5.906278772762125 0
22.31795371355226 12.05561221468873 0
21.86715853620892 10.25363904063042 0
19.16294247781481 13.02521197026601 0
14.32841964188963 18.51414314483547 0
11.50513267615967 16.39419402014969 0
17.32816626701589 21.95598855583863 0
11.24072474631936 3.270088478411501 0
13.23611270599704 6.319542762762758 0
11.04649836794374 20.53221753902739 0
20.56338104231085 3.123676901817149 0
24.67521612508004 3.881330205562903 0
10.49922006588346 3.479330368224741 0
10.7163677105313 5.836029284423796 0
14.72051776899581 6.90631540166596 0
20.52106381270635 20.95146630076694 0
12.52801826874729 11.30603211863422 0
22.13367330401196 5.542726316855417 0
20.38042551848282 4.404101720779927 0
21.49952006391494 8.97181442562094 0
11.70815574670206 21.20635353896433 0
23.26329952487928 11.28970509096612 0
12.98076808127855 10.71915622567707 0
20.0388658461964 3.448952423475328 0
21.86833346164389 5.917347523494484 0
14.82883918374503 16.35522726873789 0
11.59836493694281 22.47383425949823 0
24.17454255986818 9.351625020726491 0
13.6857486062341 6.294186776934438 0
18.44775455668381 21.01637828370805 0
23.32207946388202 15.20491232528635 0
23.09710866093678 9.21318573981498 0
10.94675257624752 3.831904248176022 0
12.38248111975592 11.91896269570442 0
17.42678170383184 20.53182471379356 0
11.59634831338234 4.611432190079152 0
22.45072764940198 19.13083661642724 0
20.3391492030661 9.208630060406747 0
17.88283261615297 13.34754481112354 0
12.98687041685075 4.297189887744424 0
16.86989703622915 17.39653089665288 0
13.400971761737 3.133544916626622 0
23.38675076534946 4.665658561568963 0
22.45651722579371 2.83741741756533 0
16.34087589920171 17.508615296854 0
11.90685615553703 6.767366895222379 0
14.7176729821862 7.758130687732103 0
22.46440820969255 13.01978825771132 0
23.21819025939575 10.64008541317727 0
23.67834850731757 19.61752594383208 0
12.03531424263491 22.0038986610921 0
24.87616094026407 7.409103343531342 0
22.47234577485361 16.13982200684285 0
24.3441198052376 17.44207805452702 0
23.87091396554275 4.938638766618137 0
10.24637919767591 4.157097369011741 0
15.01776593947009 2.957072409758675 0
22.82937883443772 8.77288953503222 0
10.74044590402724 17.88980310000017 0
10.08891499722496 3.070930736939128 0
10.66410435185903 24.16786647521144 0
13.53005437689231 22.11579285694532 0
14.56635061224592 12.98715867335235 0
17.64346004861669 17.68772798829869 0
13.16672901438118 4.980234529641406 0
13.01593366893276 18.79663465804683 0
20.30145959682867 8.652620321580759 0
23.57595368512534 12.8998186504174 0
21.60190046880255 17.87594077982457 0
15.17143564104105 22.93550386692526 0
20.24432267489448 18.60873859171858 0
10.38190207425904 14.28058135576473 0
18.89859107270605 20.75119808761333 0
11.56233193652399 23.32374776984481 0
13.09370863780837 22.1958837513527 0
14.07903064212683 11.70869837989646 0
23.76435284471959 17.53586990820475 0
13.38683849997892 10.1857955294311 0
10.59572794805051 20.70167213710738 0
13.26754670610993 7.076782536556912 0
13.7087603619726 17.59418873083275 0
17.9481099905821 18.09231537351227 0
14.06297726631664 16.65830491217693 0
22.44438863541198 6.491881687666718 0
17.56385940770494 16.37391491292952 0
22.77001605833566 5.658853166412431 0
23.12347930453965 4.758042999365133 0
20.27705475376985 6.894520535889474 0
22.37285692330759 10.22969834553445 0
17.99129254172429 19.8143855555346 0
24.98502960465879 4.097956192128054 0
16.11383734317199 21.69341029208871 0
11.70143173934933 13.31428331327035 0
13.14768254533752 8.668765917284892 0
22.44009489482805 7.553951912227203 0
11.80563747823477 6.263412093556974 0
12.72189601240715 10.48314580029374 0
10.63223716422534 4.064197666504482 0
11.83117522253778 5.769607888848949 0
24.3892439823264 3.458462341923099 0
16.42857142937082 13.87244898555864 0
12.5666921701611 20.72343194506659 0
14.68476980804777 8.699951888090531 0
15.37738381200997 22.56773229809471 0
22.34679650175195 9.742943533755424 0
11.64249640968503 10.29733209544745 0
13.5905273742295 20.3913357940002 0
16.07001097643271 18.99259307992533 0
14.48204991000221 20.18327594935166 0
12.82424266497473 6.332747604043593 0
10.38018051176143 10.75613887304796 0
11.24151811639807 21.53114513630069 0
11.93444964772038 13.96802059137821 0
13.23319198048963 19.89536231359844 0
14.30369307641253 21.00597624802629 0
15.91640732807538 20.32637201598285 0
12.00535588665146 19.50501662234357 0
11.81150624615462 21.52067466136932 0
23.57481776420674 10.11161999487933 0
14.77959478262329 17.07150499539371 0
24.61834430499809 10.54166047675269 0
14.9068326846387 4.13987661358393 0
20.49690992238826 8.221963147422729 0
20.24047092811757 16.60664137112149 0
18.70870169326174 13.56442558728841 0
14.23265670395132 12.51095404679795 0
11.791125236865 17.54479549489085 0
11.02081864022329 10.47300278769463 0
19.72543097752362 19.57115409880333 0
13.86796249036109 10.3511101189755 0
15.52602569651908 13.02006962205752 0
10.33150636419516 7.878070522629596 0
22.54291603441187 4.049146431811254 0
20.47137172573494 16.97776141287568 0
13.73632085952116 20.66509514032266 0
17.28269021038436 13.02203855497644 0
12.49727449552872 3.208797643719447 0
23.31607023430131 14.27094957504121 0
22.38926486361884 6.827982898859286 0
21.04761038167571 13.62902325897825 0
11.65138183259371 7.011910312062927 0
22.88767675383131 19.75212659406063 0
22.46798437338505 12.36687212546535 0
20.66024963127172 11.74478515021839 0
21.27466534289874 7.218630205468106 0
11.96394754267929 15.96751392222203 0
10.76662682307917 22.78185340717649 0
22.08664864660791 20.33826819040098 0
23.29819902542808 16.78862673883144 0
21.67266381200444 5.384365533603699 0
24.58285804726964 12.13776513081464 0
12.97715953640416 21.14679330142668 0
22.51981898895265 18.65757992824996 0
23.28914419793729 13.79700421040077 0
24.55666577531946 14.68631699457033 0
14.53998164621642 9.438663866660688 0
14.9745092077706 18.32927727532498 0
21.76399750133564 6.310482679075581 0
13.55015522621763 19.24479356553686 0
23.88076214025043 11.73293691366827 0
13.31909110070515 10.56083009517583 0
10.5403307295929 4.591917078158875 0
14.60332570079935 5.882073106152029 0
24.77817501539415 10.18320262093707 0
18.94573035901887 19.85273357267572 0
24.21071062172832 14.46403600116111 0
22.72608626560459 15.11164102387356 0
24.31441972255682 15.50080527526201 0
24.14703965374636 13.67889551354766 0
21.18977710958743 10.55256547812301 0
10.91036866555079 7.56642741937364 0
21.35187478626905 15.59331202469799 0
14.98575014753595 21.9277299570533 0
12.53269696392721 23.45616320532208 0
22.01593514306847 18.08975296650824 0
22.96072068880177 4.357063081852168 0
13.2436998750091 21.33593429322149 0
13.45206927596348 23.48153137105373 0
20.57328999714908 14.04111907456804 0
19.03475783993948 17.29268781578276 0
22.0167093506007 9.10367630772383 0
15.35536054953143 18.98181394332587 0
17.50933666183743 19.36184335505901 0
11.70484404340687 23.68594022782501 0
14.52793016869452 3.191578665724331 0
10.7431539160462 5.261182435210696 0
24.05325683454667 12.29488412940938 0
23.48441509565302 18.55457274984221 0
18.8634167642291 21.47661397627727 0
20.59400702726687 14.69107274796403 0
13.51594037856534 4.121742605015014 0
13.26676749783955 4.294865116039489 0
24.16801360951154 3.875380260350037 0
13.41233631669673 22.57287530115363 0
21.26342651715362 4.581841585528486 0
23.49155047567561 4.123379555247975 0
12.07594440293938 5.957571783117503 0
20.55399264025965 19.53074789284784 0
11.66969254762297 20.78368082789707 0
13.80498350242413 6.758129237809407 0
22.08663722998077 16.176438689737 0
21.09730118995692 4.911252852546042 0
10.37181975538993 22.62707831443091 0
13.94321452159534 4.931903560265704 0
10.03881398397864 12.19708320340788 0
13.64584943669284 13.84708293176054 0
12.47464870243252 19.85289093693945 0
13.07140905669542 23.40238408694236 0
13.97648324680811 9.402976091576164 0
13.15632812521643 20.90811824955074 0
12.54582514098762 7.567713488845103 0
10.45979597532534 15.73118013396491 0
21.34288832341329 13.14194885827052 0
12.89199771831197 3.378441501348248 0
12.37835214747953 22.82322883154815 0
14.08586306342305 21.83091012518705 0
23.18853100855287 14.69307205254707 0
24.05271854568825 13.22846324816687 0
21.4695756773094 4.049641757927699 0
20.00083019959753 5.882487891536373 0
11.51664919006965 20.42797245897314 0
20.92309511135696 5.264780206992322 0
11.98994442047921 24.0053957279222 0
15.7861198012674 21.27722606528761 0
12.03177724386271 14.91363938571582 0
10.98896541927071 11.49283830887144 0
12.5793386418023 5.87814502259822 0
24.27947991408435 8.411638095432338 0
21.24600030910876 2.976933360383511 0
23.2804279702794 17.23198895237493 0
15.35266273449369 18.53737360116874 0
12.62510290978692 8.645456327290207 0
24.6992842692922 11.14248164733096 0
22.41602646418828 5.875647547063812 0
14.49608803367672 8.252787179144656 0
20.68562952708571 5.504788443081567 0
22.03364923999703 4.289674721306056 0
14.04133550440899 20.60637079212795 0
10.48130402708516 6.907411620897847 0
12.55309087053035 17.01710762264429 0
24.65458156150502 18.75684044963279 0
12.14695722555343 8.793656053512894 0
24.25729887194916 5.251968352008048 0
10.98522657615406 12.40849377172902 0
22.03619083634866 18.97761312463552 0
14.88663151070481 20.95626940136209 0
11.20270038157056 18.25107700903899 0
24.80843516688341 8.824947946589957 0
23.84986127681956 14.24633094259405 0
10.36922102881096 21.11335247952851 0
20.73107943079318 7.792197669977734 0
12.6373130759258 6.795362347258703 0
11.4433231734736 4.118346111161038 0
24.51950990588087 3.179157697712829 0
23.25192428625951 15.62703565187127 0
22.04613716270233 10.60581110558976 0
15.90097840422932 20.80861104663803 0
20.58435819065512 17.43367893905813 0
14.59300514141767 11.54128588440909 0
24.61148446815488 15.92137285283783 0
14.31217422243737 22.90509044701142 0
21.96096134442968 13.39776547953929 0
22.54853984008849 9.995066161436302 0
10.38640194352625 17.90192579040096 0
16.11530864563851 16.2852272962879 0
24.5738904728562 13.45113939509291 0
22.11589763849953 2.93196257897844 0
22.45535154566735 18.24043117972299 0
24.87905588974989 6.1305752683738 0
11.7467600783566 3.411606970545991 0
10.71665625142961 20.38656720734426 0
19.24693953822266 13.90014522080598 0
13.52429154519695 8.991592056299076 0
23.5085841412263 3.574790551160714 0
12.16013928511996 11.22075277702579 0
20.97329489790245 6.335891074158212 0
10.17652642480891 10.25220953937002 0
11.46678637360612 3.632729369866904 0
23.39783384540818 3.132658218836495 0
24.45093246406525 18.41782542301079 0
22.64704929486327 16.4348656421046 0
10.09702403049366 7.41119383345974 0
21.19396873080681 6.7422037901992 0
11.85452577968134 10.78972833856892 0
23.0822598823677 6.709960185909311 0
19.26659896917477 21.4864264137092 0
19.82635176544026 21.19983407412324 0
24.99161514494658 2.950687317157281 0
14.5339374695139 10.50341903508361 0
13.57096686225367 5.87728243723559 0
12.07788147945456 12.715946100416 0
24.63997641960284 4.419494725460835 0
24.28233415445527 4.741446584940427 0
14.20935272225181 7.05416695582412 0
11.42515566063125 2.902155788357016 0
20.66254441563875 3.554756760815917 0
13.5759840363673 5.088863909961797 0
13.13273269538306 16.34449254317875 0
24.82672578477827 5.041085571241613 0
20.27802524768305 16.09928757495293 0
21.18658012562956 19.63403265843477 0
20.27404707951523 7.736693512156987 0
13.84878183593569 18.06976114210087 0
10.47252029610056 13.57135765652735 0
24.38907173048168 4.162966622682028 0
23.33823214842951 7.009177224672555 0
10.46864552404935 17.21479021100521 0
10.05836916760784 6.130808701048247 0
16.19445036462295 16.8899463363994 0
20.20595450923761 12.75121140067501 0
13.29404673492532 12.98421959186159 0
15.39552745597726 13.89986655324344 0
10.32470477836837 12.42005653867285 0
14.55543937225177 21.97076056959765 0
20.40458793994111 10.69269738866897 0
24.24613192005359 19.5943139084998 0
20.45569464693126 10.20100099184549 0
10.47290621597926 18.48331487925831 0
20.85836000815069 2.918541554176656 0
10.41792067564312 2.842136673013933 0
10.20117394676938 9.047245264834636 0
14.47460254426617 19.77847583048052 0
16.93042724294612 20.81054387271662 0
12.05715271471679 20.95808874098667 0
21.522792931309 14.57796733865702 0
22.35795923200109 16.44755354958908 0
22.78648460788914 20.04313318659009 0
10.54530334894296 22.20365074841562 0
13.67499396363186 4.37270871814851 0
23.17648652268804 3.99515519826133 0
12.94378900766442 9.147972854078994 0
12.66866779494615 12.49888373614321 0
21.29693133461394 19.17429182309208 0
12.64955209649455 22.35137130618462 0
17.50076820255281 18.18772286238039 0
12.47788968645155 4.491512240117867 0
13.39985892741849 21.07564098744356 0
16.96627131093164 14.04672706222914 0
12.39021469574951 20.89007926981815 0
23.19572057988238 7.986141297764744 0
23.33018625898645 18.20154979679004 0
12.96091522810105 20.65384512079386 0
20.86824389534899 3.874808175684336 0
21.32158439547364 11.99082333302268 0
13.84251970178364 21.92293463402574 0
21.4649006178841 7.655693314720526 0
21.86755470844962 11.48064191504672 0
23.95190318746885 18.5249974661453 0
17.75728253180709 21.88101217886855 0
15.20668541635144 20.28175219733896 0
12.2829366667268 3.723600376561194 0
20.79595746325161 19.74308193816596 0
22.48817533342333 7.193737061746872 0
11.04258725666881 9.01216313067332 0
21.46236984091527 16.41887695292571 0
12.87545973906519 19.97170008844877 0
22.32437907536223 16.94202691582999 0
14.41275260173848 3.552488329270636 0
20.89003152710333 18.63417280454826 0
22.90734595348382 5.916279680494611 0
11.85452658132762 3.090042913707664 0
11.37161393253991 19.07906846357475 0
11.34298898137635 22.67469711900466 0
24.82439658772328 14.37335750814598 0
20.14282438313431 7.298709612494028 0
14.17950540068058 10.71334945018507 0
11.59885233570023 10.98091086561051 0
14.25709142372613 7.814037876510277 0
23.66014214688077 3.32692160579944 0
14.32375512263259 5.495484333676249 0
17.97288517866617 20.49441410449484 0
24.03347501570089 15.906948292121 0
18.32849113143476 12.76209323658878 0
24.2290838041232 6.730115386669773 0
21.63817628960986 8.056787120521859 0
23.91409756397761 16.5720379266863 0
10.08465151756996 14.99769290373716 0
11.96000333678445 16.94964803194749 0
23.03616114942761 11.66051316987792 0
24.38669267728989 19.92158361630226 0
19.75199344380617 14.06236637997056 0
15.33450672309633 17.66507315083351 0
23.1410498674799 18.59076194533692 0
21.98566401402098 19.79916574430548 0
13.34636643876694 8.083377108228836 0
21.19233842133767 17.4687907746364 0
10.09983503117606 11.91915692781344 0
24.69235176895275 12.85437902994253 0
24.94171139469309 11.44332396255186 0
24.50269967177036 16.8985531568076 0
22.92776055890042 8.276720462723302 0
17.05278677190834 20.37148716552557 0
19.10384474728385 19.34789456559807 0
13.32063933506801 10.97826999972759 0
13.76846688718602 8.519923239726088 0
10.41311323143191 3.824480057725197 0
20.38540627919242 11.07818689025514 0
21.84338302269664 4.032112718279798 0
17.38210636674722 18.62815095463819 0
20.14265933464471 8.327940719728995 0
23.20865960274928 2.81991765917304 0
13.62910952413674 13.37761982297903 0
15.28754036386201 21.46850484979697 0
19.22747859761741 13.45814145954937 0
13.69008634180948 4.670096226070603 0
14.79827588186346 10.25567923120823 0
13.11124687999851 23.00510020650297 0
22.38510233314732 15.12054855879607 0
18.32783123153169 20.35667725313576 0
12.22726543440277 5.626200407386486 0
18.34414091043188 17.96299558016839 0
12.38278632229964 19.35400543921104 0
19.28356946852339 16.01545927096833 0
14.6216758467947 4.128415715808816 0
23.55257167324579 14.62750818007113 0
20.08714603303942 13.01600088173486 0
21.66281087168603 18.32658468344416 0
11.84659157491498 9.172135606672624 0
21.84172108621617 14.44666673110092 0
19.84225594552237 3.121985744160613 0
14.08606911337575 18.89919638442217 0
13.83965549326239 22.75949698236968 0
13.64806854830872 12.69762584330198 0
24.73486827745937 9.483183570269732 0
24.22329464141445 11.07237338359212 0
13.68904086301053 9.2800249545143 0
18.32223670644234 13.88855563788406 0
13.05177247049511 9.561118597162626 0
10.19375788241796 8.486295860142288 0
11.30654297681118 5.228927975209125 0
17.89316063679507 20.85306908725568 0
13.62199913505954 5.359120593348313 0
11.62778428659055 19.60935047669356 0
23.83837259066297 8.728194286552288 0
17.58674683933716 17.1881032459507 0
12.88777673771485 3.922910257036384 0
10.93982907751332 23.88800578426688 0
10.56154388483833 23.31408547633861 0
11.44183260247493 9.001667609800364 0
23.95235266788232 19.65687565476874 0
14.09981393436815 8.381526521543565 0
13.0895524930333 13.74584303591735 0
12.05584535224734 5.201792848701018 0
13.8497717803405 19.47673877730981 0
12.8676244953051 20.93228731427036 0
23.35557368116748 9.749673539015994 0
22.53925144983656 16.73006086451436 0
14.40441910488753 21.71551562159026 0
11.4025899638035 10.72371150428416 0
10.36985003320582 20.28416500317922 0
10.30749213779786 16.82648423577914 0
21.23009855845758 9.582678903847953 0
16.60997673795889 12.76728702964477 0
19.76639108886624 18.07586744613354 0
16.27577706779152 19.62777883151714 0
23.68062406534654 15.07082132101744 0
22.16836679374001 11.74118981044739 0
13.55876380798446 20.01881941277448 0
10.75215637718141 6.726380259347421 0
12.65750626370142 20.13987900270521 0
18.81995215264378 18.69302988912924 0
21.03690044740616 9.292912092413335 0
21.59767373884627 17.38152808221043 0
24.7688653610911 8.453510365544883 0
9.96429717952791 8.807684728440643 0
12.82922114697194 23.11312347754462 0
22.37766385851447 4.358656041834474 0
10.78677649020487 6.124415805041764 0
10.13767236455988 13.92160791872681 0
23.19147066230624 6.259667612058923 0
11.52266277314873 15.96484391891677 0
13.24807719949786 17.60355822458016 0
20.21197533004354 17.24857178121668 0
23.18517421604768 16.27252761337486 0
11.40170091585728 8.21787510025734 0
24.06946759864313 19.95137217268408 0
17.11882111994712 19.45589911350336 0
20.45251649316123 20.39663438631463 0
20.15647403003565 9.475408751737033 0
24.73541781209901 13.79872908256817 0
18.30541935679945 17.53631485562566 0
20.18589016726695 19.14481383128492 0
23.94257326896649 9.042594556525295 0
10.5383593929637 7.568864021389032 0
22.34850306899283 8.636136942559975 0
21.75737003429584 18.771916452751 0
14.11174892887719 20.28060083120859 0
10.30643052277145 21.77247142966847 0
13.09549679034704 21.75195323796058 0
21.9259966174113 6.148975525939542 0
21.30560652249708 10.88883736830886 0
14.10445078125735 19.34247910379727 0
21.86480119222231 9.456960250393822 0
22.24021396831125 7.743294622203175 0
10.6875596940331 12.25112251881549 0
20.91192485994287 19.43161976908794 0
13.51223504472884 11.68883284141434 0
15.03486922423497 16.74568968713709 0
10.7688498712193 3.016354636045127 0
14.51134731202828 7.083210181095584 0
11.8951392045166 10.45210679776066 0
18.05837624156666 15.99159479480744 0
21.97720401458202 17.7763938250607 0
14.10786635880827 6.025629379375506 0
11.83762317356512 15.34189991652568 0
22.89222010809015 4.610130644693789 0
21.83557597470425 20.60574216016459 0
24.55117698772391 19.13358611138446 0
12.63993609457192 18.93239398656013 0
21.35782604688925 16.7165539898282 0
21.40961004844084 5.049358143804682 0
12.29219523493184 23.17057283888837 0
12.24457938521951 18.9428536882631 0
20.89174215425095 6.022367191823983 0
14.75303188842191 6.378292929642237 0
22.38416519394931 5.571248561309112 0
21.59373000757703 13.56898299965845 0
22.60211112588869 12.70219495874021 0
14.25301564523551 9.220474497658472 0
15.31168794750158 21.82561989631962 0
22.91783555550726 16.90671679745534 0
10.35132594028074 23.6801850538574 0
24.87387562326303 12.51429115288053 0
21.74555014526912 15.44700491808725 0
13.49820507936764 17.01695865642841 0
22.33433523984522 11.28796345342452 0
24.24121154402293 15.07648645208641 0
20.00075565558306 20.13860456737045 0
14.12171792780686 3.895068866284136 0
11.14070333555374 14.47082361991412 0
23.17880187021675 7.422792349280812 0
11.69611779263225 9.829449311929118 0
19.6241167862499 21.48598676689522 0
21.63121252673262 6.071303303756601 0
24.25101188449408 16.68570963163401 0
12.86539355024982 5.54646255128364 0
22.11916793740473 3.445747024113976 0
18.51164225688965 19.22043753411374 0
22.83861879646058 10.47044341532401 0
11.18405976594412 9.953105339235421 0
16.15137787530376 18.54532261463827 0
16.40472666174269 13.12032318521547 0
11.16376790341458 4.56180073007496 0
21.7612409481813 10.63591557179362 0
14.84873687779182 7.293761395040717 0
20.53071464305924 12.74377613440148 0
13.57248994035921 2.796506471883385 0
23.93733880741745 9.79485647590652 0
20.40019827831083 11.44993489074639 0
14.43727658768844 16.01164667686292 0
11.67614585541732 18.62674846401573 0
12.01594749368586 21.21521020841902 0
11.61511399976929 22.79908707545801 0
24.89860911419392 14.04566730005691 0
9.82137386908592 5.533233852111835 0
13.1944063072475 19.12100491103771 0
12.79370216715988 23.68951165499599 0
13.09886691734485 5.47876929031218 0
20.15519777003068 5.420467532111541 0
24.49503900818111 15.00897142466025 0
10.61855680371278 11.10807856421568 0
18.83589119254308 16.83510186615683 0
20.35446686333714 17.99067147680724 0
12.96086970011877 12.21663969319465 0
11.41397834404148 4.444114575244189 0
22.11673357805023 13.0364688483306 0
15.03428286560587 19.50632209238874 0
24.69180749121099 17.26465300274833 0
10.12437662768649 17.14057917791139 0
23.1585228306566 13.40738284286796 0
10.81683763847356 19.01406987094721 0
17.04140434244166 22.20779908934434 0
11.02342852841375 12.06279541824134 0
24.27332334033801 5.828314007821174 0
22.13804890190362 19.35580248965362 0
22.99510006136923 12.16809101665247 0
14.8449588006763 5.419237562717703 0
23.21699364203965 10.29263892538848 0
13.5230709481038 3.581211817816751 0
21.82896586416037 20.05030072013821 0
14.13989938351516 11.3917151238109 0
23.82812029111416 19.03424307604676 0
22.2549171864482 4.217006072121034 0
21.85932455332231 9.855405776091473 0
23.03624632115526 15.95470467375105 0
10.49910182334474 5.416386832976746 0
13.23185375262346 18.45741631898309 0
21.33167034699897 20.66077474248763 0
10.15642420376127 20.49036817688369 0
15.57250231919054 20.56864465956739 0
18.56092302810313 21.70271527683673 0
23.60310477174495 18.27708562366035 0
20.58396944290741 6.220165955050522 0
16.00653935662129 21.08197136384381 0
14.50272448096939 23.1599932359907 0
21.25997511644272 4.302225920035507 0
21.83849234821662 4.980941961532097 0
20.63459654550698 15.40362814493989 0
17.16839066125107 19.86268831863542 0
10.95543221459467 17.61223423043326 0
14.72365236888772 11.26600372500128 0
14.11471767809682 22.58952052172738 0
24.04130079171923 16.18393615730692 0
12.03310438259654 7.689117994182036 0
24.56199684434353 17.92610946101088 0
10.70738310253482 8.42265856171537 0
10.99625619459148 16.97717876489083 0
14.47512026063392 22.59594899772062 0
11.5925505441158 6.16659576843465 0
14.02132226115826 22.15703304570119 0
21.36997036659138 5.376685753218088 0
22.92241401825963 2.985911586002456 0
13.18567153712541 3.986185063356365 0
12.19221648090457 10.31819180275093 0
14.28755354957506 22.32415237227833 0
22.3871084246211 20.54918123232775 0
22.24249139707594 13.69089388742101 0
10.82823038188796 9.420622008066285 0
19.37607927382292 17.7009003694988 0
24.06239592950164 7.56061254712602 0
13.21194845825702 2.821745453205243 0
13.35172553494002 22.26092281796092 0
13.96666363193954 23.22000597116344 0
10.58871204628714 17.56691060594457 0
21.5887025005629 11.74121508440078 0
11.72814033075817 8.34159223317387 0
16.64257998684693 22.27336303841265 0
10.04146700186032 14.34767302130829 0
14.36380510800648 8.561932161428105 0
23.80044420467658 15.40396297302932 0
16.83642069522654 21.3513163607293 0
11.40862941290236 22.1863160710854 0
15.60390032042994 20.06588320695408 0
18.13780957945722 19.33260757846878 0
11.67614061323395 24.05482935542446 0
13.49798090005369 18.2094765819374 0
19.90675337756622 5.135228409760892 0
13.85642057547544 4.142580171045314 0
22.29193543731461 12.69853409289633 0
14.21272522830435 5.02536141795083 0
21.54214034785604 3.585680855459994 0
23.42701455341678 11.68832358448277 0
14.2352527104854 9.62480506063163 0
10.91288667924233 23.10971914018489 0
14.39796937824716 13.84537195837657 0
16.94175082204545 18.71011559624962 0
19.79426188430232 13.12686648271856 0
10.18715569185026 18.24259298701281 0
12.91978198399937 11.85837247439694 0
23.45284105087329 5.898379576649049 0
11.29916501285972 17.67299583423226 0
10.82912463830543 21.08761074825928 0
11.51963794483865 5.619846260135017 0
12.44915972286089 20.31180025357651 0
12.02120956035718 14.41375526145995 0
22.21902063119153 19.66182336396744 0
12.61602976298762 5.572757845449692 0
23.50239941934701 17.39455014602502 0
21.42535310731287 16.00442141769754 0
10.37129329369259 15.18012747462308 0
21.26327524405673 18.13137271421234 0
19.20793793536854 18.11422537489837 0
22.76307894939116 4.185973040709987 0
21.6962746381473 7.072765174925016 0
22.09507422893521 14.58880983799097 0
25.06198135737959 8.53304281796353 0
11.03573043127556 7.10394975052326 0
12.61711922714054 12.10763506651139 0
9.933737984455153 9.531870160695096 0
24.96053852627559 8.1564638621685 0
16.24164176593763 18.02456954279038 0
21.78749344574451 17.53518850807072 0
20.89624449252513 17.75660439834279 0
18.12216832229682 16.50113066995754 0
22.24859811176731 4.505721812148922 0
14.07770718553802 5.268353381331981 0
22.01993828689378 7.120719910032891 0
22.02315259360716 16.9610624329503 0
23.75923534296133 16.20556159487237 0
20.60919610793482 18.81642534359874 0
10.41689757661041 5.943929626782764 0
12.98115487380453 7.133472590809985 0
10.83642952348545 9.800713960484966 0
11.04903838761285 13.33526826961229 0
22.60013398620082 3.620029111308934 0
24.030987250115 17.38012392754884 0
24.99679082328082 3.475851937440751 0
11.24396780834923 15.14883120151344 0
20.1672548349793 10.81556266870591 0
21.82013565083402 16.42550269110902 0
12.48996633765022 7.27535385217962 0
11.90280692212882 5.044411442193517 0
20.61815945702722 18.39266287635727 0
14.80507905560622 22.88848908467248 0
11.23945921420177 16.66443830838931 0
23.9429706403763 7.101932544840969 0
11.08413317123737 19.88205015087089 0
13.29306858626828 20.21947987226802 0
23.24812784961084 8.325326352577576 0
11.90967988963048 4.776920206884943 0
25.04814304053007 9.529713391039612 0
19.57779822579399 19.98710257262526 0
22.66303199515528 8.507895335682063 0
13.81447733322529 2.95413727560461 0
11.72398006677495 9.510777101505187 0
10.71247427535649 4.401932821245111 0
16.7476974031075 19.62968571723386 0
18.26230154028965 13.46242634886446 0
23.61906328242015 7.832352245388607 0
11.89968394640783 10.09177788486157 0
14.49690197757756 12.0461886499492 0
24.8203926471521 16.15470477743449 0
23.17451355438904 4.512754376308607 0
20.24562271564383 21.19878195196816 0
23.84343661755391 2.964013136829607 0
10.75829434219105 14.39029782109415 0
22.8363781243031 3.934947195785571 0
23.56491560526928 10.97908985500739 0
14.60801491608468 18.21738684150404 0
24.82758632519231 15.00608668901025 0
13.20283166461786 3.381417589183768 0
11.50861993832664 21.39961057167324 0
24.68697355568582 2.844904860498243 0
14.96498110441976 3.481904895259977 0
12.07365327039542 18.43646318108302 0
24.31474096012509 16.05140515041916 0
22.62046138347181 20.29716944432576 0
14.15658897600892 19.93265946123428 0
12.03392156590888 23.11457552073619 0
21.42836050686642 5.872475640981375 0
11.11254676674697 22.50565936975191 0
23.46518082220251 16.19106519823761 0
12.20293995678671 23.78436951955451 0
24.87151862540399 15.83216624371998 0
22.27964139083062 18.82920142194709 0
22.12343799560907 12.3647101831881 0
21.48474583276887 6.571027042207683 0
11.88804621153126 12.06394067054777 0
21.55250059553188 12.48663191655093 0
14.66446242083171 18.61906412481102 0
14.02742994832277 6.341669648412359 0
17.80427560704484 21.23592781261713 0
12.85462518926794 5.7764148092469 0
24.98393834089301 4.800959736722977 0
11.97106556511119 8.571336510635764 0
11.79167942338696 7.439439464991805 0
19.78238838541507 16.11174305399583 0
13.27007151794382 20.55408692362778 0
12.84259530754958 22.03209750826054 0
12.4309830215654 12.80480674628872 0
12.009087464053 21.78498947814554 0
10.33400783165737 16.25228724373281 0
19.54129819093969 20.65444378697132 0
13.65724290167092 22.59832608046818 0
11.95629140067985 18.78601207694373 0
20.05490325922285 4.801623611980645 0
23.74988849758036 19.86502291585789 0
21.27612263280908 17.81980829760063 0
14.93783305046044 20.5991518207194 0
19.98264834244717 6.211590753014502 0
16.40183106360842 20.57753246138008 0
24.5445324455958 12.52048288913556 0
17.05134465865758 16.04337958282383 0
25.00496656180014 7.722804498727238 0
21.54897600670398 6.306125996032223 0
15.45454912297441 15.9891136114633 0
23.10453686872448 7.059067474850096 0
18.79176494528672 19.53066149353354 0
14.60354775333801 12.43373493299319 0
10.87371941349764 18.53479040652 0
22.50846956491072 16.99588100807992 0
13.51852304496308 6.579984177547848 0
10.95477903586305 15.05700413223353 0
13.89437640341708 7.018641659512809 0
19.40821528325593 17.19633099555623 0
10.92676241161292 21.32493674087275 0
14.22781179612621 3.223160491153573 0
11.52419121467982 6.408542478079554 0
10.18172271966127 18.6860356702745 0
22.07419016787215 8.786271839970077 0
20.6414573450744 9.960950299446848 0
22.77913962481635 14.12574979693709 0
12.26999498357364 6.675108950687347 0
20.50786447804803 19.20353926317165 0
13.05366994438072 21.53076490247633 0
10.27415365460559 23.05312267775506 0
13.79788097810477 12.12860792819908 0
17.80112916879281 16.83993822125359 0
10.66547321736234 3.726366037356163 0
21.98323821032415 4.633713175527844 0
12.06520930984567 4.626067241664709 0
10.78214765888227 7.010855882259277 0
24.48792438618143 11.79427636913754 0
18.62901927731455 20.6478944739611 0
13.7724280692905 23.42088537835275 0
20.74671810931335 4.747908489380137 0
14.25341111336834 4.743434347849695 0
11.18447574747604 3.566172802343777 0
12.9752524783228 4.674473968175759 0
21.80039860928372 4.751000809953864 0
10.23827072754955 4.43472923706911 0
24.69310898893115 18.20856413212129 0
11.37737126006594 21.8644734825144 0
17.250963948998 19.05280322585394 0
22.82259392909607 11.88279203347933 0
15.3447134352214 19.36356578945258 0
9.836270892411836 3.396449119482154 0
20.02398718664487 4.106812137644207 0
21.62387381268855 11.1846665392063 0
22.98254575923359 17.56972918835424 0
9.943292472086561 6.467115611749257 0
20.02941176558602 2.940777076788319 0
17.73319234196519 19.03626174275773 0
14.69811630448323 2.849758683642543 0
11.16739835082288 7.609624868548376 0
14.8365963802953 10.54305128008464 0
11.01405323743055 8.399514208269636 0
20.79449335551518 7.000247341147212 0
13.62840744959335 11.08699103098991 0
20.90627414516493 14.40615262526341 0
16.43435037039865 15.93772045171159 0
20.39308960453043 12.21747698293716 0
14.75589918177593 22.10104355270785 0
20.34903967055918 2.811684784230447 0
10.46333370639527 8.235584402671103 0
12.61187426564164 4.346777308162626 0
10.70173978151074 7.897672871225581 0
22.20656529428729 3.991836361623522 0
14.47575456139619 10.14912250380516 0
22.80132415073117 12.41079768106442 0
23.09779679991023 5.042819258088408 0
18.6996680695751 17.58597899016495 0
20.69802770590193 4.447613261495744 0
20.00535859794336 18.84053993515864 0
11.93516709552788 18.13170116759319 0
21.75493696663369 13.03472370708862 0
11.37138337065191 23.56860175725295 0
10.96268744725221 6.335011460746731 0
14.02713830094837 21.13533360691004 0
10.74819526592662 24.46124651491117 0
13.82439706852238 11.2750657924607 0
24.55865460840837 5.950517139565408 0
15.38612411342493 13.46076934925926 0
10.49180054992909 3.165007407464551 0
13.14594779408271 16.77317573965225 0
24.99926177811734 5.33698743230028 0
20.05270434908958 6.598074492808863 0
12.66726821864578 18.0270212114105 0
12.33100954159973 4.288792126273275 0
13.6876906876778 9.81369803264872 0
21.053752447413 20.0480171095347 0
12.56921486732786 6.193817737401597 0
10.31021858472498 18.97545882678723 0
22.91996587103901 18.82810307924608 0
20.19073273300079 17.62813992861055 0
20.11157860945828 13.76268807392916 0
21.92168555808447 18.31234821374532 0
25.12558140071445 5.904766726897529 0
17.46521947136638 13.42129834321541 0
25.05719682231237 7.087628162385116 0
24.26782928425054 19.2354064682213 0
17.44164963496835 13.89008620859283 0
20.89154617553261 8.355704113462934 0
15.60876534490843 21.58255786967387 0
13.368950333598 6.080047477744347 0
19.87563890328835 18.48477374653767 0
24.76490481318243 11.76692487815984 0
14.94862084569967 15.93469918944559 0
23.01010933246678 8.57550442011295 0
10.69625015197454 23.58543226758767 0
13.52482663151847 7.679115841124093 0
14.71934207789672 9.955815801991125 0
18.52071854265451 16.59453713647827 0
11.98955476439282 17.85002141028565 0
12.60320252715709 22.06582373927203 0
10.47346297871904 4.3352919935467 0
19.52276177541427 12.96851444108799 0
21.64242563210389 5.141440965795855 0
24.67991421624673 15.21857102035037 0
21.6054057656097 18.54579884767536 0
12.98125995421577 4.872851941831703 0
20.77204163439266 15.08483907871996 0
15.48355375451618 21.2095200359533 0
23.57837452467812 16.75594986759907 0
23.8589070432721 4.05978506344331 0
20.95924200863499 9.948899512352442 0
10.72967376600525 13.97865533249062 0
19.87889756797524 3.769907128563734 0
23.48268051960054 5.616315200155123 0
12.05652605643752 3.338156455938737 0
22.9747734398219 6.436711903221195 0
20.14641396564904 10.16914354617351 0
21.66019554667686 5.643864823115205 0
23.55841090308821 4.934152612339663 0
13.44427251656845 4.879998025193781 0
12.85586441227628 8.265977545113072 0
18.77091339848533 20.27435044626033 0
12.83116272461575 6.041348449357354 0
22.93972984432103 7.652910960855829 0
23.17415715080777 17.52592647336936 0
10.52445544706806 16.02071876576832 0
15.09323067210277 5.134628822972753 0
12.34825853814416 10.00936981529748 0
24.02645357232822 6.339562477684805 0
22.11306505116982 8.245457132320023 0
22.13936157497822 6.026609763887116 0
20.66751429174303 20.68666199739251 0
24.1048479874937 10.27845723729747 0
24.41129193282025 3.745821365667047 0
11.64547937204033 11.69573877241164 0
12.64703313592837 19.5723611388107 0
16.6756630655272 13.44075506654306 0
14.93849994309038 21.28049967309258 0
11.65105490351544 19.30246950818753 0
9.9728418201333 12.47724930376514 0
12.02807461512548 6.448405083742141 0
11.02912971521926 5.220644944072284 0
13.66790408006065 3.323170024079632 0
12.14109592784593 13.51599992368644 0
22.46633594933026 19.47797597488517 0
20.476018887626 8.920226375189866 0
21.70137646822343 16.11830604843069 0
12.06346257165904 23.35031440254878 0
16.37279502992904 21.94098830990958 0
17.70552777971035 21.53773437094302 0
12.38193156037851 22.05206385906581 0
11.31479721276155 10.98689192745358 0
12.00981824567951 20.12717321865152 0
11.45825316934547 15.48511503800613 0
23.91371159391676 6.825768242862822 0
14.15258714616905 17.26607338470389 0
15.01550153103016 6.247012359751585 0
13.87412990655938 20.40721040823795 0
23.08039109656898 18.26489744232487 0
16.23912814669091 20.04852815894264 0
23.72897323187508 18.48193166060991 0
24.41458651093943 10.2028803150718 0
22.87197557892924 11.16747262696239 0
9.878937464300451 4.011061937621296 0
16.71406366203713 20.55187677393886 0
10.86622089384472 3.405709014792487 0
23.63543529720923 17.82444557567851 0
24.04422005945091 13.98658376817313 0
13.61523476539905 5.603167802135026 0
13.34004580711803 5.648083221469946 0
14.85702881745083 7.999378480625187 0
24.15411537590009 5.001222816140496 0
21.3945605196758 5.607612256154105 0
21.63577942095223 19.70961885790076 0
9.84219312382668 2.835110216559094 0
23.00371390735236 5.592600671803269 0
22.01778783714994 11.2122424905903 0
15.17087834319226 21.04527394195683 0
23.20502658560678 4.255477672281881 0
13.79082439989173 3.812194786974896 0
11.96836540944878 17.28132620083042 0
11.06476376204098 3.076904439616301 0
11.40414158897757 8.555503530876635 0
20.83387104783544 16.51620153128601 0
21.717278375673 4.271536033466239 0
20.48559478128773 15.81422305017374 0
21.47435791757616 10.46565940912039 0
19.83827978998617 19.1879335694611 0
10.767562835545 15.68439815912286 0
22.67172173594198 6.945472376452885 0
16.82656233679489 13.02589973354478 0
21.18102801870194 6.037607757435111 0
14.84503830684674 9.071127584282085 0
17.57050626734933 15.89829090991005 0
23.54505011909542 8.926108144241256 0
10.80750955889931 21.93407233891031 0
14.15523618784223 10.34521719196011 0
22.87610345605014 9.41905389435955 0
21.34943859972025 19.91374608335441 0
14.81133509921684 12.77896770806253 0
12.05086060747738 8.293143091870688 0
24.19989226444534 6.12638046867146 0
12.13190008947071 9.043712880066845 0
15.01575570143368 6.95067414648886 0
13.0436155672727 9.933510330009014 0
21.27803354088005 20.94410454667613 0
21.3258326059227 17.18069085141093 0
21.39114867567967 3.295244234170666 0
21.83632494530058 18.54059081668885 0
22.83381541321395 18.18627447521092 0
21.5554891908506 10.07712739259736 0
9.819824708691252 7.394505673747906 0
13.65651606735153 16.09372410774797 0
24.1510230467888 17.0984077016824 0
15.82916077377941 17.69403489792666 0
14.12943959216878 5.714920765667985 0
11.71798696268194 22.19655666477856 0
20.72014137306608 9.217477107835926 0
18.7680055463313 12.82377232628507 0
12.18069207753219 18.68924521217269 0
18.13920268202515 21.12062514335241 0
14.8447120662005 20.03840253501643 0
12.70399384186699 10.9872882484745 0
20.18890514477847 13.3346381267251 0
12.12306141895897 2.810487715961751 0
19.15744768927538 18.93648480895212 0
13.27517136533138 7.793857376019237 0
11.26760377506715 12.26790056087394 0
12.38880239583504 22.25418719510248 0
12.90125939562898 21.83367886733978 0
15.1953810116877 4.131448818408867 0
10.84644911902655 16.02743688077216 0
20.57857439070328 6.824503341431402 0
24.41694076741247 9.595928376517323 0
24.71187222848089 17.65685331277304 0
24.42241250375194 17.17592297894134 0
16.24191212717204 12.75736632248456 0
11.2922578731898 12.78943122675066 0
10.80397411630452 10.75882529354174 0
15.23981502729659 20.62545137206332 0
10.73529411908969 2.729112138902783 0
12.71220655914905 3.15086071112913 0
21.96115468517628 17.27698167220355 0
12.01485179157748 11.51783313901283 0
12.71894174089085 16.62644968618565 0
13.20361614761463 4.75802287132673 0
24.18071087029842 18.17026733025291 0
24.66383881677394 9.87865167168248 0
24.11905118308997 11.34287682167777 0
13.77670298696473 21.64655083592938 0
23.33056646652211 12.50444005673709 0
13.72348638414084 13.02492490914585 0
22.56318624838257 4.258839233037901 0
14.26878873922627 2.886810033897996 0
11.01618327571966 7.805192495459371 0
11.29449219904168 3.84721616191734 0
10.23599148623261 14.64230078963577 0
12.14393020491443 4.042957713589255 0
23.54068814412 20.06048042288753 0
10.94607841458758 10.18245030936869 0
22.85527883446909 7.968821796350645 0
13.10673341483714 5.694717898079212 0
23.48733392905358 18.03325887928129 0
21.64436419240673 16.69527740114541 0
22.81428450558549 16.19506011617653 0
12.8520380902297 17.66261604679314 0
12.55330725310528 6.50254156229197 0
21.51145762439909 8.647306808851296 0
24.23195840805526 18.687901644633 0
11.3218383347902 5.804530505807382 0
21.57472593256879 12.16311629339183 0
14.90861320735421 17.89525000219267 0
20.93751860597903 12.83859888956593 0
21.75095157237197 20.331126923721 0
20.6416384314124 10.4935881868077 0
20.28122721475098 9.818670790994403 0
14.60927042938641 4.718017133327987 0
18.19629636024982 21.93428698848491 0
12.27260524683829 4.505090295402104 0
20.32549697791633 4.103178403139655 0
11.88916764215373 22.6244227672418 0
12.2967272416123 5.837852818311922 0
23.54142640043321 17.17444582873975 0
15.00608181866731 18.77150390066797 0
24.24079860525995 2.886193521275433 0
12.37490307781492 20.58409450026193 0
11.21528104216667 17.31990670644313 0
13.96280746703977 12.39497341170337 0
11.4350936366551 4.99533547269736 0
12.2297757467854 12.28096649522087 0
17.97886008611292 12.97964057916881 0
11.3323539278145 18.5533343324136 0
24.91253401814592 14.69483801183375 0
12.6245767370354 8.355699797373864 0
12.27949451941637 14.12833299993888 0
10.24644085509603 6.395199840308263 0
20.95392522235872 15.66271495013634 0
20.59173968918376 4.200013199693083 0
20.63964114250165 13.63342963223341 0
21.66809709431558 3.816308926191097 0
12.99640505329477 4.091211312129249 0
22.14939089434351 10.03434584383497 0
14.86040321911698 8.361003843065744 0
10.79689717715993 15.37399668657455 0
23.38485575957215 14.91958413758414 0
22.72384426979 4.415893457711692 0
10.33932692263746 24.05603558980025 0
10.89358101088071 22.57462539575758 0
15.79150464127339 13.22212488116545 0
14.75946607461509 6.110661066597746 0
19.4519880138088 19.26299786259628 0
12.18467572203826 20.78013862091797 0
23.30931840659468 7.680711100482345 0
14.4685301423261 19.4308282371104 0
22.29127167511509 18.00813010081588 0
10.64180738504361 16.89802964965068 0
14.31246564792573 21.36400767054853 0
14.58440119013968 5.615558951675472 0
22.40605353872849 3.427479283297525 0
20.89575579663481 21.00685394642209 0
13.87914387413813 9.025756185603411 0
16.49150001426917 21.52907114083884 0
12.13382034645961 10.6262527688204 0
10.38829021144613 24.4603251806534 0
15.74501475217474 18.7525862039022 0
21.85960777981432 17.93692743648263 0
23.21956496987037 6.499818109626708 0
14.83100367106031 11.57602427748987 0
20.51234082606008 7.652539898005753 0
13.28680128843108 21.61613866884905 0
11.81715977648063 4.084671894909224 0
11.07871495389225 19.16284303784895 0
11.2778345291654 20.24901755444098 0
10.2494591685092 19.36786524786549 0
23.31512792672339 18.41274101642489 0
18.6392027840233 17.24439102189045 0
24.20031542419319 17.89028599242913 0
13.87878739609278 5.803813023997963 0
15.9973260546854 12.99563665129968 0
10.05533201234568 16.18443845479689 0
14.72560581978425 11.85139565407864 0
14.02833215670441 2.763319419594301 0
21.57563985531357 19.96993636893828 0
23.87910471361595 3.744923865598321 0
20.04296142633494 16.90453431884077 0
13.93911855664046 7.586142404283672 0
20.89686658305664 14.80532398723096 0
13.8181665754068 6.042926527098739 0
20.11795427438913 18.24644180007974 0
24.12883614881373 15.31720419370659 0
13.13334618776527 22.66869261771138 0
17.30948182745268 12.7063316158402 0
10.0048913959173 8.146288817584805 0
23.95048263558318 19.36321477120737 0
22.66764386374662 15.87444406275773 0
20.97356103101272 11.39394488389914 0
20.86728561538249 7.271934227408947 0
14.52939919344136 16.61595526204019 0
13.9769176066626 11.00330978464641 0
12.68881955164905 16.05442088371662 0
13.86221806463299 20.12457416110554 0
22.21260082776463 16.7185583030453 0
22.36818679113358 20.26868521503209 0
22.66624392710034 18.06415051256754 0
12.71110884385451 21.90045501870013 0
22.81274058486988 3.683676198531158 0
23.03423140799752 19.55352968632374 0
11.35593151444332 7.842770120388161 0
20.88752095691756 17.21860924633746 0
14.35537107518672 4.222393057917721 0
18.4016394591279 18.42095853393189 0
10.47416694726705 16.56619618699821 0
21.22315694368885 3.775644451879824 0
13.56123805538472 6.89376113221318 0
21.88966601330757 5.686466577830441 0
12.19296162559693 15.2809071442296 0
10.26759660426885 5.265157732566227 0
24.5071241548171 14.35695496688401 0
10.33295060813387 4.797731403958248 0
22.88082883201555 3.342917190413304 0
21.47227200647136 2.769985735627253 0
10.78084899700011 4.98766201719862 0
11.34004904036916 11.30288708673975 0
10.33985300237141 7.388296515335174 0
10.00702561708838 9.914547417953205 0
15.92424071363039 19.84236698518482 0
23.62551010158073 7.049210271643707 0
10.51080579172892 8.594577505452149 0
12.24000424252581 21.06884294450681 0
10.42890040047264 12.83020641493035 0
23.69215695718726 5.227038090723013 0
17.21665090381037 20.75956675985944 0
12.81919797482324 7.784883860877152 0
24.71780333234969 7.132675818246396 0
21.4044111673321 8.244235328917028 0
21.414494299523 4.804182576925029 0
11.11959863468106 9.605362684204477 0
10.49264978461359 9.275454224267206 0
23.12935227729275 16.99624576953142 0
22.25073311861031 15.85882880540424 0
20.98469149892957 13.9733075596263 0
24.26584125271679 7.893846546630678 0
22.30660628085441 8.041502475030166 0
10.07782679936247 11.05014240215243 0
23.96844472105695 18.7807527367153 0
15.23242538399888 2.754714413834739 0
23.25130711791387 5.458760645661801 0
10.16612087198574 9.324441469893468 0
14.33744472901376 5.22312545572399 0
10.16088810507404 15.50392716274747 0
20.2338433807241 19.79505697215862 0
14.84896561710124 4.568294126333021 0
20.69134195609618 12.42238943489048 0
20.31478940750188 11.93833566162607 0
10.82915224055255 4.665675685115113 0
10.95500427051251 11.76964753617539 0
10.68023493168454 22.49246233817907 0
11.87069426470891 8.880105729160615 0
24.5414376429522 16.19393494834673 0
14.24017044561796 23.29696716398156 0
14.31256336745039 22.05424016283805 0
12.72297844638677 7.075439546467484 0
21.76822350104545 17.74445424629832 0
16.58428475947442 20.89142377303868 0
25.00264050122193 9.189559629242583 0
21.77510652232533 4.501876145352901 0
23.05064976214674 9.717856247668731 0
23.40135973535315 6.1607107408177 0
19.46428570502193 12.70519558103463 0
15.28033812795075 22.21215266888188 0
23.93403287644906 5.902709475890746 0
22.98833817415817 4.145723237778188 0
12.97563035162061 10.30134071253143 0
13.31453327197568 21.95188815078304 0
12.54138352203472 2.878256234415698 0
14.23076054899198 18.12066609237245 0
22.41069049125488 10.50534020162746 0
21.19507677837256 14.71057386429324 0
21.1398294721953 15.90107619588249 0
14.99944591156457 5.881629487563317 0
10.58294723062322 9.599265519387785 0
13.81000574431944 11.54680549885168 0
10.76592218305037 9.11675437173156 0
13.07564440746141 12.61541825095595 0
15.13369438551949 4.478138794370861 0
10.48661262411955 6.597816475967977 0
11.69707245980547 4.337181283406847 0
23.18587094426801 16.5473925976405 0
11.11954299640429 4.080513111585511 0
11.76877279693091 15.68793540329674 0
21.60568039040476 10.84752729843969 0
22.6802781840899 7.464136804981157 0
20.90575932235707 18.40643791029913 0
10.59816728885302 23.87550503414473 0
24.01334958271153 16.84386979575584 0
22.01272344363715 4.865285123644281 0
12.76034427976974 14.05434778043902 0
11.04456192200636 24.27932225333594 0
13.81693485789084 11.85367577883037 0
14.57107229807049 6.614149750976885 0
16.70247984410469 17.883379516731 0
14.71696945672547 10.85810628133457 0
20.96236751922762 12.09256550288278 0
17.84875213591917 18.53793660757633 0
18.86800612337876 18.35220129564112 0
15.11284661969674 5.526491356949286 0
23.18966941974697 18.02415780140096 0
11.22451597506733 21.25517186210115 0
13.85455135842417 8.255828242355577 0
14.42548351973207 6.227810218313556 0
12.37214411131412 11.57178994894705 0
13.06825028656657 6.157991874015973 0
10.91074226477402 13.60257246280588 0
20.79576469116524 5.018404574588197 0
21.08436388035604 16.60716707855007 0
11.16054820646584 22.28428728049896 0
22.7762655657949 18.62994357333534 0
10.18454392784072 17.55999988634429 0
19.34300464078567 19.67299292993314 0
22.8791452941525 10.84218274973269 0
23.62038759328563 13.95479376492446 0
13.46562788178495 20.80001133857803 0
20.85085771621986 3.256784307168433 0
20.38894052977603 4.717864151287057 0
13.2137720739601 11.94695555178273 0
16.73185204753984 13.77869767710393 0
14.02934324969815 12.81182603897944 0
23.01063434272901 17.77809290287433 0
22.63370700125647 19.3015223563819 0
10.05714195246047 12.80942941308904 0
13.54963630996122 7.933102893628377 0
21.09855239479826 2.741044819902004 0
24.39316564110564 15.75851972201294 0
22.99798251915928 17.31823312366256 0
24.11700350138727 4.113815885800479 0
22.11578969734193 5.367501540186541 0
9.91718078954446 7.076601564032946 0
23.23072997908724 11.95427631039101 0
21.7747931390741 8.888534028494222 0
14.1119301244686 12.02326164982092 0
14.61600342367344 21.13980105436574 0
23.55708403351597 10.53564956222367 0
12.62362160112096 3.362900300992288 0
24.90945642457726 9.757073734396958 0
21.12898940488608 8.229643648070303 0
11.50321641085239 17.477916891633 0
12.08286314753709 4.839397804947632 0
12.40611319311123 22.51036965293058 0
14.97288276863079 21.60474814417223 0
12.36794872321426 5.461741167727362 0
12.91795215325736 22.45524112046818 0
12.12335485964732 22.89245033145666 0
16.09997860167643 21.37373889220361 0
23.87936211249811 4.633183238096231 0
24.96639054480269 2.702418657680582 0
16.54004533203474 17.14276996632989 0
18.79343373372514 15.92411857073731 0
22.97797420060189 20.33783683459035 0
22.79106703229033 19.11478401900447 0
10.35018727148612 11.05012438183973 0
24.66225820680061 15.55375113035074 0
11.20552410544315 12.5327882099907 0
20.93788919794588 10.77349067510436 0
23.30540829352894 4.922319809952644 0
11.79517922349573 2.764288439082461 0
14.46641452550062 7.663154575796979 0
23.46937973550245 6.40473331101925 0
21.829708287987 13.79941462351489 0
24.31449966814471 4.452353093629076 0
22.92939341641835 4.838004406691486 0
14.08704666941355 4.123624323252272 0
25.21280424807988 2.779327202591348 0
18.71986129882167 14.07062528919569 0
12.89049367243828 8.530965823101837 0
23.47267562990893 17.64828462871392 0
17.91888254519572 13.71260522641043 0
22.30113288406398 3.684819269772481 0
21.49809941853967 16.94763310210625 0
17.32851231473153 22.29471710038158 0
20.15690390784419 3.668419959247018 0
19.81638982209218 12.79842176702571 0
12.28558399967198 7.485188669963048 0
14.84615406846216 13.98617407081071 0
9.812662276034276 4.588671987276608 0
23.43692303780189 19.7863188885247 0
22.42128127152751 6.185094755425149 0
13.5893081226424 22.35311296848402 0
19.89873465983871 4.456224146257076 0
11.85861283969444 20.41653224756212 0
13.48753746913261 11.3628450766973 0
20.67884476655901 17.97184643766538 0
12.00448852544552 5.594275138600899 0
10.38094941576954 12.08817512728645 0
9.914132317796748 4.329015876292847 0
20.86223164915543 5.715411853802536 0
12.23905325768618 3.127666294580762 0
12.88883050710367 6.653288169731086 0
14.86096742255777 9.722700316172542 0
13.76636811203293 9.570448523209134 0
23.32269572296204 20.2703407002198 0
22.18280139775996 17.09452744280589 0
13.82064632067121 17.28353664816006 0
22.33956376799469 18.51720611119619 0
24.48177026386449 5.411788374582166 0
22.64311975065879 10.23124979367666 0
11.19994611108866 4.313779946725484 0
11.6466545907046 23.05745559517415 0
12.1857382984977 20.35008754801391 0
9.756729078853425 3.738914497079094 0
12.12919749889137 6.936217373457102 0
23.9110191996367 12.87039586517123 0
24.5356616282824 8.198295512551649 0
11.67093698648479 4.844933627918397 0
17.14692588921286 21.14045338678888 0
14.01118157115864 8.682127617728606 0
16.0614342400783 14.00836217443003 0
21.94164958547117 15.64847142743962 0
14.47649310639765 17.38298435319637 0
12.16837104833814 19.87628943907954 0
24.75394834159899 19.37131207661056 0
10.16005354557483 5.006886496373975 0
17.03447663870644 21.84997989853752 0
24.22283005382399 11.97900370290757 0
22.50910441800514 3.822324054474938 0
23.75372775272778 12.49468588990118 0
20.15298744307696 3.888670839163915 0
22.80118324924671 17.90971583824387 0
24.77717186865966 18.4444093493921 0
22.11220247831382 6.641395250684221 0
11.54505565129733 20.96853382133747 0
20.73605993150136 10.20018447336429 0
22.84867761823796 9.051400233058253 0
16.50249373872435 18.84254908219899 0
22.47996682135771 18.00647101829189 0
15.89767736600269 17.26837292086258 0
17.15500041517111 21.56505639266344 0
16.16085903494759 22.61657430107741 0
23.98808302166227 2.753079709598401 0
12.83050512622842 4.46834540958457 0
10.68841039935145 12.58585929116324 0
10.89910271674373 22.28996673017616 0
21.69658636017008 6.484468434863633 0
14.34706627011696 20.50256019921373 0
23.36808321986542 18.84552689242645 0
21.30414152777876 3.54560981041673 0
11.29083798165757 13.52356251091987 0
11.20990854182333 6.370273022498393 0
24.4330325620855 7.570087378644502 0
22.24490664383754 20.00203219611144 0
11.02286763819026 2.790214280475376 0
11.64809226396123 10.58935789611469 0
25.02100155702712 10.01359444619677 0
21.49594965744322 18.09473764612848 0
10.62108802499075 19.60656269122681 0
13.38196829176042 9.855350096585092 0
13.1619333842665 23.69034564290613 0
21.67513938371593 7.78696157466041 0
22.14705881753443 2.689386744968167 0
12.11937590168951 7.991086309320136 0
21.59189550602943 19.02065314179739 0
20.81405286061851 16.78620456783203 0
22.25458554945784 9.371734055872597 0
24.85764796713318 13.18878046497644 0
23.96004975112587 8.387946133475168 0
23.96826495372492 3.178455389056116 0
24.64059114690406 19.72132290727696 0
22.30711329092294 8.98202660311738 0
10.22288856687999 23.35625283366782 0
9.94817818844491 11.37511189507306 0
10.64316367569134 10.48483970190461 0
10.6043019145618 21.22415208513771 0
10.01660155190669 10.61874752734194 0
9.969042539137394 14.65283844993649 0
21.61189847885252 3.380369549676873 0
23.74422962427436 3.545137899146298 0
13.85497620233967 4.475779262664783 0
24.71166122654827 4.167741324993651 0
11.49400735925697 14.17382503977691 0
24.88848143102026 10.81217525021573 0
23.77205686267122 15.77957535377508 0
22.61349686425688 18.89632575391018 0
15.74155974439594 19.22093622131166 0
12.12059388966081 9.41379937318873 0
17.93879432933581 17.32305664731049 0
11.54468650708396 5.88786380747969 0
10.11633015209781 19.73271953183585 0
23.18067418491906 6.038343508245278 0
13.31086572864133 23.19394202786524 0
22.15083523458577 17.8724047765474 0
24.07373293258748 15.61116930165115 0
21.13336650690054 8.90841092658571 0
15.33473089963732 18.10342072231312 0
20.89757510025789 5.498531549341299 0
10.05002057877586 13.4982409691679 0
10.0607539881336 19.00778968027406 0
11.59631049732954 13.70591872605771 0
11.83102274947369 22.00288903245593 0
21.73450033669675 18.09167898737724 0
14.86880158237183 20.31770850770457 0
14.47411578607431 13.38764608136315 0
13.18181376609355 22.43072312172936 0
25.17246795281841 3.776263662161776 0
21.80568228189398 2.838298686212811 0
21.19327319130372 18.445110136893 0
23.90145182413286 6.152424361886595 0
10.25411499610225 20.82994163789821 0
19.52120723016195 18.40254385539334 0
11.5704074133806 15.05063978856783 0
25.1228295100902 4.462294809400108 0
23.63644755510544 19.28992657677044 0
22.69216407598465 16.99007737437681 0
13.42562610545005 3.365111796620555 0
17.18801097591556 17.1282377644634 0
21.53702884330652 17.63926455095848 0
16.86840419874101 22.46347938912497 0
22.10760217404389 20.68038975328706 0
14.6210435712402 8.460705188208886 0
23.77765389384468 13.1535552977922 0
23.54620819235858 11.39213672448087 0
21.14360838364748 11.73720925397989 0
22.85149571730154 13.10817991396113 0
11.71920127385367 12.85837519318546 0
15.09709227422113 3.8249429652739 0
11.61796439892006 7.244803411730585 0
10.31232746305151 21.44756374572017 0
16.05774016126952 13.28167305315733 0
23.18491437317576 3.371719482387879 0
23.91008966383316 17.77049532342534 0
11.13553707851373 7.360678389289675 0
22.44897540634042 15.64680063638163 0
15.1082862812455 20.81195567844133 0
21.44142231818973 3.75457716037507 0
12.58859886558451 17.33400703485421 0
12.71741338996654 5.405127306623234 0
16.82145146817705 21.07676456425781 0
21.12038240609773 18.89582186950173 0
22.66577234961894 4.601444747459268 0
10.76794391306299 13.26253575901872 0
12.14031469627927 10.92554551546717 0
23.17805394485102 19.72502397080455 0
24.87986279274561 15.32915838078284 0
25.1365644846499 5.612797902935708 0
15.53377656962114 12.68825659575992 0
21.32981482811877 9.202928148789987 0
12.77757402887728 12.90084451134149 0
21.57466695143994 9.715172019982008 0
18.95588363433884 21.74919303642667 0
25.00933509151712 6.470720214155849 0
20.11122386820614 20.42908554099083 0
23.64086554318613 4.697224188831568 0
22.85331506113563 5.404603718387351 0
22.92910986589377 6.193009282560958 0
11.58550439714195 16.76400057138741 0
24.05831611508095 12.55118900330438 0
17.52633291115268 20.94352466047258 0
9.965106097236177 7.711387469212334 0
23.88324490443425 9.461022581741931 0
12.95461096062958 13.28665276508707 0
14.11963443740947 8.064124885383306 0
21.31671003581207 7.499425505858503 0
22.17891430415664 18.28726869924034 0
16.82667903932821 19.97275749161221 0
23.46012443193453 13.57508214078115 0
18.95040690554242 21.10464445498441 0
10.81102240112215 17.26484169472795 0
16.85284853525645 21.63111959035771 0
20.62680448956402 8.526724664742071 0
15.20609269942958 19.80507026874035 0
22.72120861971112 20.54998950836277 0
10.12907929757525 2.783945533291694 0
11.39511061237122 20.71198093023902 0
21.43574946883189 18.37585378911998 0
14.95595243288417 6.624722485669709 0
20.9192947258197 13.26082933842907 0
9.838464651144212 5.907632548895565 0
12.68442581712116 20.5011435732946 0
22.51246099743002 4.472796506916227 0
23.51730061946287 5.381076679030506 0
19.67494472348687 15.78688120057618 0
11.6385117718183 20.12787021213402 0
11.40459577098132 4.727958892807265 0
24.49331874643976 6.604010941961528 0
24.81706545924368 16.89325736310468 0
23.80715641209056 7.602104867777418 0
21.19406955983233 5.212101851913125 0
24.17650304250892 8.74346799658785 0
21.197516256493 20.39023996686578 0
21.08717938649469 16.26490475960785 0
21.50203672898358 15.10385862040898 0
24.21377513052302 3.214404605178139 0
14.49910499536399 9.783847079010318 0
13.58315035937694 8.268186023333243 0
24.99993265944981 11.10107499339928 0
11.08321605153697 21.78595138911106 0
10.88346680946637 19.37222150622553 0
14.86993686662413 17.49708006374172 0
15.86918023833678 21.76740617271587 0
10.59324883442214 18.20736923793387 0
15.88351773124245 21.52307599097573 0
20.82214447685858 20.36717340151622 0
21.29920092566803 14.28567689237455 0
21.04270063796599 11.07106501277422 0
21.33695806045338 12.78222995078328 0
20.27259122076471 20.76257325150501 0
12.14700415090236 5.40031768388532 0
21.07500004995208 4.088181640900534 0
23.200447576806 12.95964888037049 0
11.41417015952952 18.00484822668039 0
13.35958489945759 7.425631548240696 0
10.25495631841735 7.133056425501672 0
9.84403547212206 4.924499662297761 0
20.04419062757455 15.86242697593974 0
21.49685256891716 4.409967789739058 0
12.65720630345696 22.8965122728925 0
16.00318819557106 22.00092842861991 0
12.66146555104744 19.24477145375724 0
14.83437830635289 13.15270247909551 0
24.23783138968643 10.56992042611786 0
13.30372197086288 6.485966013049488 0
17.02144967067883 18.27290359501572 0
13.6362415561594 16.59092216553893 0
20.66344424036875 21.19487821349259 0
10.08871708666252 17.91025856361009 0
14.56246613077189 20.76889694735659 0
24.45985128558392 10.89331395618314 0
20.33266098893404 3.454601049256637 0
9.750557945265516 5.217550321115317 0
24.49193553610622 19.41118829439862 0
20.63188852460567 2.747508881412128 0
21.99021607316936 18.75206924232263 0
12.98347114651165 5.046794430473795 0
20.03828860338476 7.596731940484593 0
10.88229374727161 4.12156447542891 0
10.53470000197388 15.42966652073776 0
12.82018922786134 7.388913663784926 0
24.15738002254022 9.66236549184984 0
23.60202098070147 2.820655356871884 0
17.53499762051034 19.77600486250978 0
23.97979830466063 6.56501415458451 0
16.44008082684537 19.25649222166144 0
22.84340788373333 2.739043987956809 0
23.70721387740576 18.75951685251064 0
22.64949895126644 6.08200008739892 0
10.98763004318348 12.71019056428965 0
11.43648183521555 21.15502872788884 0
20.29570867745628 20.17668209913787 0
19.17918328535142 20.73008151304066 0
10.43800799426596 10.29563436339732 0
14.96368809638811 8.73275816044766 0
18.23740991734558 20.75038292359804 0
15.17731492367718 3.291170646515011 0
22.58239080298304 7.793434693727326 0
10.81986691928014 5.548285973525669 0
24.95090987878515 12.08885037848394 0
14.05296378678424 16.30756453117732 0
12.90054291744609 8.814277441595088 0
21.68128700496684 14.17923790931294 0
20.27071226779587 14.7368342275163 0
21.82522502880036 3.486149082656234 0
18.35996198547859 21.38891163228816 0
24.81905920393396 19.08262787725657 0
14.38196744121236 3.929460103744509 0
10.19037457479395 15.9111101361491 0
24.42126549713405 15.26389630586679 0
14.14861973203977 21.57584375377904 0
20.30178128563589 18.90378636078509 0
24.63263719600856 4.729770112242656 0
13.39245790655138 18.84200734215453 0
14.91283943838029 9.433932693701646 0
10.59533106699278 21.71150780952256 0
21.69892923262611 12.71214678696036 0
10.35640617264507 11.73740634646453 0
11.66658568096036 7.695422280814986 0
15.0162281211928 19.177264990696 0
22.9817833049915 14.42144602215346 0
10.18532342837937 3.382469993951165 0
22.01483360034474 5.044204262233679 0
25.26024711382241 4.131139686165848 0
14.96384514432723 22.25658873443227 0
10.42911906120985 9.935486816790615 0
20.14318247537443 19.47084565172637 0
12.71090736100649 9.367738954154463 0
17.37322948294154 20.14849555684911 0
15.27208551282899 13.18589389327316 0
22.61137114141773 18.4496931192595 0
23.95375904309556 11.02445767516329 0
13.4863366071212 21.50794483167839 0
20.66625980710509 5.223051508873513 0
22.42006369696734 14.33372198929637 0
18.51005524285947 18.85126343829536 0
12.95757378030122 21.36190451572466 0
11.06412280710283 22.78632840435046 0
15.0352792212086 22.59992874603899 0
15.60452619088804 22.32916153867431 0
24.96593320303247 10.39830063804426 0
22.68485751944125 11.47671974997555 0
21.46296805435395 19.43752176230293 0
20.4379465495797 6.571049641884931 0
20.19958758779017 3.173367287041977 0
15.18394204856747 17.20283434889285 0
15.9172381406658 22.30231917166187 0
10.19701521946043 22.27818009211241 0
23.51924438618339 15.38650406947853 0
12.17873381989571 22.14332366065929 0
13.20806977427197 8.92046542997101 0
11.17646059085376 23.33086807828618 0
15.586120225823 22.85959020196262 0
10.67892014694982 11.50686912836043 0
11.85222685671335 5.258578342284838 0
12.16192823786653 22.64179865092233 0
12.13602177916512 19.24494996164255 0
24.23331796137613 9.075450448181094 0
13.69500487820129 4.939574389824492 0
14.00284170245406 7.324293330284308 0
21.07948945245112 6.979871706092429 0
12.30931070017773 20.08791151578808 0
13.12461836202791 3.141555402272303 0
22.89531296226741 17.09578939952533 0
13.98789811742058 4.640680445139609 0
24.4437845799952 13.15464788830697 0
23.51029909166925 13.25589635422052 0
11.24139908921026 11.60870121437738 0
20.17511798625014 14.14865677744034 0
12.08712016538755 5.757101607253151 0
18.26500213776123 20.01602590556532 0
25.03590412305791 11.79120441687624 0
13.48130220606834 4.427108810361591 0
13.58938646328196 6.104868294426632 0
20.17758976323105 8.941303570876194 0
9.81910979464173 6.236781289987791 0
14.40375981002715 14.19553951762299 0
23.2397906432271 12.22912089996478 0
9.901663561752834 10.28369917132786 0
13.29347323242716 15.89820689176043 0
11.9169143409523 16.44742475452053 0
24.62224760994486 14.056157603426 0
13.96660852387903 3.146378088167258 0
24.72114513954994 5.302007861847632 0
22.6563320883955 5.852127820467119 0
21.80683884066726 14.75617056247314 0
12.44482183045123 10.52389862227766 0
24.67706975166043 3.515407409292004 0
19.69543495277981 20.32919448647438 0
20.20974707224348 11.65353198486985 0
12.49790938077714 23.83271744396337 0
12.79069675435085 11.52918047970519 0
13.82253307981513 21.21668151397816 0
22.51311038388804 13.93385348460181 0
14.11187940375948 17.65189258279949 0
11.11105870551614 16.25997365142292 0
23.7824346227057 6.369912131935809 0
12.33563901913003 19.63211271527686 0
20.15973617267893 4.322143552097291 0
10.89109135443034 11.24126547113197 0
12.94261846571455 19.6899201094594 0
11.33180832975781 10.32541466757074 0
12.61626114906204 20.95163888633366 0
12.04988654707334 3.573105337879565 0
13.35725382303671 22.90514157769482 0
21.60544911002964 7.445193952649689 0
17.65757607515872 12.80125510277839 0
20.22729082400503 10.46890309686966 0
23.68159519442371 9.764709566464404 0
12.84594518895453 22.24362807331021 0
23.35281123012225 3.799357131057727 0
15.90506877233912 22.82884273130844 0
14.82899564457533 5.664998093011562 0
12.26522954901842 23.53401359153389 0
12.6449700064288 22.63714657652442 0
25.10961513646943 6.754032373762478 0
12.76562235846956 23.38327125786671 0
14.26073942769241 20.74578587399514 0
20.13909238249347 7.980187646074963 0
12.32418273805741 8.488341415005994 0
23.22427430379416 9.455264012971963 0
24.36589335127879 18.94097801707989 0
22.95213049552511 15.39792230935595 0
24.1100852707315 17.62243548801099 0
10.1268102681511 21.17379213628059 0
23.86670947380212 10.43491846366441 0
17.61390009129074 22.19616148102802 0
21.64510505878909 15.7737475535675 0
13.17532166447652 11.63185049398508 0
23.6624188005534 5.812488980946234 0
24.45173420460633 9.267111336166899 0
13.79225483159352 23.05304062997835 0
10.43538185518526 13.93297650349191 0
10.1197506817836 16.50887508551379 0
11.86432603487019 12.42865670651035 0
10.80472692639711 7.304765797209248 0
13.23642930276806 14.13998511364356 0
22.90993493206939 13.74876324758885 0
13.54719175032095 19.65885789813407 0
14.71192633576879 3.500448151913441 0
10.8887578043919 21.60773629484014 0
21.41924389326439 6.887304435892023 0
11.998059176266 23.63610108248758 0
23.60252156900863 14.33484877127865 0
12.13221601053395 13.0977305148948 0
11.0916808880113 17.93981105729432 0
9.984993089020241 15.72674318212015 0
24.9776098061908 12.87267415302147 0
24.49670556265132 6.911984379584984 0
14.42674797675969 11.35179029775797 0
11.58803971216673 6.724357445137547 0
11.11595462270957 10.78814000562912 0
11.53555785286357 3.202720165551415 0
21.90174450761546 5.458895763968906 0
11.81896998566083 4.564860468178011 0
22.07602741624665 9.654873340499936 0
23.37994112935357 6.688017535924855 0
21.79359007504023 16.96442911542531 0
13.37554647226645 3.814512547868298 0
23.15950525252521 10.98370714716917 0
14.41561612453097 18.83297114345996 0
10.58550687508873 23.00815120494396 0
19.93888888828613 19.81955525152934 0
17.95044091212725 22.14677733111822 0
22.79095699940894 16.69528627030142 0
24.71449803571966 7.603334319037922 0
24.19640032124592 7.012067175284182 0
11.8303489039722 23.2059294973868 0
19.7943355653828 2.773486691833265 0
22.55345241927792 9.512709282833551 0
25.15351365410157 7.415993253960602 0
10.18686851281239 20.05148628095136 0
22.63124361172324 5.46695236399999 0
16.52494534689505 14.1935493410998 0
17.44453686897334 21.65020203321914 0
24.73037241615501 6.437554525120976 0
11.8817375982056 22.37342457970371 0
19.76155728858216 4.098082846246294 0
12.8096543675516 11.24422735454261 0
11.91387976339998 20.72178473230032 0
23.14078314938901 8.908931756564973 0
14.2988309803961 4.468646191238562 0
24.17034851759024 5.543413840294375 0
11.06792372272826 6.826109444468436 0
20.66352467512059 11.37171702464429 0
21.96575832891517 3.167891570470318 0
11.54404516022513 12.10956338543482 0
24.17195505765137 7.303555371749485 0
12.46845436876543 18.29151433834302 0
16.25598770239159 13.52907031246099 0
10.29944701919784 8.773705487816285 0
10.15395965141738 3.895190809844147 0
20.37230398483517 15.07539361755161 0
22.64247116689766 3.395524630601402 0
12.30906054262726 16.80732914441943 0
13.90674642265607 10.61902410046635 0
22.65187842817409 12.11508789142742 0
11.35425800861068 7.057414744642969 0
13.46059124716142 8.661718624787246 0
22.58520426540636 8.828822480077772 0
17.85714285031339 14.06498105623528 0
19.9766172140649 6.949720229630518 0
13.97096093091964 18.46856787000517 0
21.31303556204383 13.45587453285036 0
15.94408564218262 19.52108332936063 0
12.6497821509192 8.985404120662375 0
20.42487560474224 5.305197270083773 0
14.57589163956052 5.303662011320566 0
13.46736462261001 17.33838295454177 0
23.54114991075227 15.62578807618828 0
17.29622249599598 17.47144193521585 0
24.15198592036472 18.42197119753422 0
24.59470534365525 11.50646340006448 0
24.13252055834583 10.02024567942591 0
15.21623813725106 12.7425871841825 0
14.50299445225332 8.964342074383726 0
23.79128412342961 17.26041957026143 0
12.40772965739726 7.813565265871521 0
13.28932414805682 9.223586687327435 0
22.94374173441136 5.201501894387501 0
22.23949722381844 3.150788024439857 0
10.54977933569812 20.06980514702834 0
17.70815631785454 20.62598650910669 0
20.94271126944614 8.616940503463862 0
22.15584290904027 10.32715731194544 0
22.21659001429124 19.13183750207132 0
14.38252568861252 6.818206108845457 0
21.69719221500833 9.178771404265806 0
20.9775532266323 4.619442745021455 0
15.72593346324299 16.46940096170145 0
21.24088976833946 7.730578700346842 0
12.88467276789548 5.372945266841047 0
20.92239153555435 3.623164368404315 0
11.17650851076529 14.81998784484093 0
12.0639486617336 6.195353916087316 0
20.49690361971919 7.106414220085543 0
13.54003805059846 12.02457171979033 0
11.63255931261295 3.874202073626396 0
11.03914263196167 21.10193232169987 0
10.82034720051325 8.737466036771934 0
18.95653320924627 20.51626482081232 0
13.86032915086766 19.14861919215625 0
19.00523773927906 17.74821929038719 0
23.45830985944425 4.435609952056724 0
15.8984032723052 15.9196765113017 0
14.68085211460066 7.537940581160083 0
12.36154747182955 3.440256803741278 0
14.72008623553064 22.66206737536142 0
14.72664205469354 21.78720502171743 0
13.75557761527134 7.754023122236061 0
24.20109621671754 8.174737447589797 0
12.73537875877945 18.67954953602089 0
11.66347938536082 18.93692858107617 0
22.14809093710242 5.778073585826193 0
12.22672664201297 21.92366354969743 0
12.0954077105568 15.64899642022921 0
13.70822609865157 7.487574724860315 0
23.57163038747019 8.5427077840026 0
24.90630791696834 13.53564645925429 0
9.891045399320387 8.46909602989563 0
13.75465757460862 22.13992962978957 0
16.96428571286855 12.70836442144615 0
20.41741553018522 5.617400452753416 0
20.17164582820289 5.666157294608074 0
13.29832380766512 13.44961086111572 0
23.07558616606845 19.3172377589235 0
14.95579348402942 7.620769402762315 0
12.42373021279601 17.73963014263893 0
20.43198674096961 9.475826374121427 0
11.4629723314791 24.26045538420747 0
10.89886383765221 18.19178826441096 0
21.52314012293483 20.47791895086164 0
12.63849938551396 3.85462448608852 0
24.50860391216495 8.602689954827122 0
12.76799265605356 4.149468010403589 0
24.24359069117122 14.80247108607736 0
11.81875840948939 6.045756765024724 0
11.19331014936526 23.76332442704663 0
22.08707655654813 8.514379577106649 0
25.18217764720137 3.158273907115062 0
21.41196284293709 6.096311468171421 0
13.80237148685902 5.182405849978267 0
11.75140342836231 5.460657836453601 0
9.868974874728618 6.750376087846834 0
21.58053316052051 20.80415934933531 0
19.69259977760525 20.9681525564125 0
23.62461336918296 3.80936355219397 0
21.93523320450313 19.5456175618187 0
12.4006946996029 11.06779308908968 0
12.3917853787984 6.978908981171557 0
20.38916391110176 13.03361413646147 0
21.43309717927911 7.911248903764701 0
11.90308591512936 7.154728722079401 0
20.86153304619396 8.040055005053492 0
14.42551308712166 12.74331158694022 0
13.18610343847987 8.362717172903977 0
16.51502515891677 19.8653492501719 0
16.58694865607771 16.40389763496207 0
10.73716841619077 6.444839959291277 0
24.33255891483089 13.45214126768746 0
12.62824798961453 4.554632817874902 0
13.11401415171146 4.520049432777203 0
21.24876468446427 10.23835656171244 0
11.81107098510898 20.96798919942636 0
21.79348318110694 8.338369768256348 0
14.06046600098236 13.64372962646923 0
22.35227372570044 8.34887856690623 0
23.97054225359594 5.227482964944882 0
11.56980850788884 22.01943171609335 0
21.30010204040833 12.3361395000671 0
10.01840381181567 11.63792091183383 0
11.53244282603022 21.64362611692351 0
11.62543058609977 18.29438669341986 0
14.84967246275226 3.21198890880233 0
21.92086637610514 6.448052115347782 0
23.87752286386421 12.07924200968493 0
14.36643963082395 11.69883354941988 0
20.24156998399705 6.101610061897485 0
12.90095082736041 19.10651366753934 0
22.34200230642116 14.79299674646506 0
13.07506476407757 6.456652291792098 0
14.03060828399084 14.09304612518356 0
19.12190388346738 12.71083597551714 0
10.40557431726047 20.53469292080318 0
13.91808910477021 10.0747822057982 0
21.68057721195474 13.32007116128833 0
24.25311956161962 6.457823545346523 0
14.45282407826144 10.78304872363719 0
19.88718024710897 5.526624771851163 0
14.05445117798587 6.719922357269875 0
15.19485578115764 3.585011643730116 0
19.54946757086265 21.23877360003588 0
12.85294117889281 2.718658014473161 0
13.09526541651048 20.10732746569601 0
11.35398786805726 13.14560088998734 0
23.95603066919784 7.79747704684519 0
10.20908750940752 22.00494462924754 0
13.06288860027668 21.96297930213347 0
13.48205834523147 17.87418126254098 0
25.14106092603546 5.053103004751721 0
15.574378757351 17.92500163352915 0
10.47004565321354 14.8618769895575 0
13.02441527891913 11.03710746879984 0
22.57292694517312 11.06292536046431 0
14.78759663194667 19.69897978057791 0
21.93142586198045 16.72390831065498 0
20.93347395713311 6.703499919330251 0
24.81631227910571 17.95622204477011 0
14.2050231087495 19.61598578407261 0
11.57138355969978 19.85834137104433 0
22.9357620290084 15.69608500139619 0
11.82667212434067 23.43661134148162 0
24.84235613810931 3.187380521536028 0
11.59560163913625 9.279887162766144 0
13.38218241625619 12.54423963122033 0
19.98447289105204 21.4306914427967 0
23.37145407690426 19.15981242946459 0
13.80919931107021 6.512143857198512 0
20.61106465745745 3.916050866056487 0
19.88805192032839 16.48406420161514 0
24.44536132186844 13.74756029332289 0
11.01631236333208 13.02197312748606 0
10.7294450990855 19.85070095866828 0
14.11542673136529 3.627700245860862 0
17.64058385627986 13.13931481524067 0
17.06633577180456 16.4771992902874 0
20.4936357093876 19.78368733912584 0
11.96362124734795 3.846012037100754 0
11.47427970548526 23.81365928702828 0
14.53659092790248 22.84375523439887 0
22.5608942380389 15.39189468837445 0
23.18390423406836 9.980307856105922 0
22.97738790887695 11.39763335216919 0
11.77055983514876 6.522416799147719 0
22.5715566833184 5.684965891850492 0
12.73640321001395 21.09944972661751 0
19.79572603078625 17.72576777655917 0
12.40112219269094 8.81596478740767 0
18.01539777433447 12.70562411282419 0
20.21772727528464 5.049164418366386 0
14.7820175318072 5.048046388891049 0
12.2758024831557 16.08875137086081 0
14.54197381672252 22.25219859736834 0
13.64974152709523 10.09232206091593 0
21.99206284803927 17.56949983612775 0
24.16913639786144 3.581381354192211 0
14.50257041733972 7.944908935679292 0
10.52533892700372 13.14472386444295 0
23.84057469456089 7.355202959096601 0
13.19426161601204 21.11662170791062 0
15.69016154349113 21.00532291760962 0
9.920847455061633 9.192250684470046 0
16.52883938689606 22.53994133359117 0
13.36909135285079 5.153242093310237 0
12.42440578157261 5.676747188161915 0
16.21601546412271 20.84985231471651 0
12.99466254178305 6.891453404857739 0
24.86433381455265 4.341382745326577 0
14.7921541154237 19.37249950876935 0
12.33545037575439 6.082370056468521 0
23.14172218441898 3.118901640508955 0
11.10006259342765 9.301313378490878 0
21.18973589370457 6.501087989043422 0
11.51158218871748 10.04330659087626 0
23.05521445882317 14.07278257042428 0
12.7091550668504 13.53693148854325 0
18.85395618381044 13.1885015843702 0
23.8215510297173 20.11756441245025 0
18.55627932776704 20.03846958899105 0
22.24248050148817 7.062310329436439 0
24.3103621129731 12.33816064723811 0
21.9977502822987 6.879845523181936 0
13.78388288053079 3.558886363623569 0
13.59804641960008 12.34451235585929 0
14.04133643487172 22.96789014636396 0
18.85948212880203 16.36205050691987 0
10.52203777244489 14.57783213224037 0
24.44103912712722 18.15701149462599 0
14.33387418484809 5.908394813633608 0
10.65176262504637 15.1043695073937 0
20.17003652051194 4.540401352665589 0
20.06678545622668 9.167925615806322 0
14.19118381378704 7.581806910346809 0
20.65578163409069 10.81879827265431 0
16.21759343655641 20.34986024322936 0
12.85845848501456 16.92413867451415 0
14.28455596480508 13.06416824387571 0
12.65272194408374 10.72091331840764 0
21.61497624791361 4.894774572781541 0
9.76162399210228 3.089954250064813 0
20.66668028346802 5.905199509680589 0
20.48504173056455 7.918710356167011 0
13.02460842941912 8.059833367715875 0
20.28400601503481 12.477190105308 0
9.957929018697381 13.20075566724021 0
24.41064663629048 17.7157597219309 0
21.9595911720874 7.991802118864561 0
10.47598120526338 5.681846372281082 0
11.32879994321327 16.98228524087321 0
24.50177369210687 5.675763220684662 0
19.19552511405056 18.53883267912606 0
11.00705489642781 6.561970091565518 0
23.04334016933649 16.73474222870566 0
23.29047789293858 16.01942266811568 0
18.63487658312622 21.29965677450473 0
20.62122041081556 16.28125292895999 0
23.91457978561724 18.31809213257645 0
14.74755652641983 12.18956861505978 0
21.82245839922931 19.08600220921618 0
10.98103830927318 20.28648196942421 0
21.12073671462334 5.802043734382873 0
14.34575979550745 19.1109154623727 0
24.70078864410612 9.137307151230207 0
20.6761306563634 13.02285195248123 0
12.80355314228036 9.691378811028377 0
10.59972438312455 20.96611981315434 0
19.27353033822536 19.95230746632208 0
12.83264216902048 3.718820277875837 0
10.77228143627107 8.185530820175691 0
22.37962895389781 11.56154538704053 0
20.89011551535887 17.4694208395937 0
11.60721805478584 17.76970021577915 0
23.14572619544559 18.83570470075385 0
20.04934173875341 8.684372918687634 0
22.73169537471857 9.754212950674743 0
14.87896866876689 23.15963332831466 0
13.2889781615525 3.594358522969464 0
23.88196489172251 10.07250131940969 0
10.57905893485021 4.828086237292814 0
12.63261204733544 11.79005033067318 0
22.84905593273836 13.41861185243835 0
21.08735565389955 3.175133132066378 0
11.33388525553048 22.42690509101565 0
19.56208545000191 13.74914971196221 0
13.74640806684546 18.85927618801322 0
16.6091987540253 21.19008542801559 0
12.56311921144254 23.13482573748918 0
21.79667900172983 12.40350234833157 0
24.88707539199728 3.68869366637521 0
14.6699565076361 13.67414311169552 0
21.09562897633386 17.97718795772987 0
13.60916994049091 10.40324101942056 0
23.07181888139893 15.02312378143416 0
11.68212546981134 20.57922723384814 0
23.9763750025264 15.05510286277746 0
20.77619746747517 7.552502085126991 0
19.98756942329223 20.96067297977862 0
22.51510266889008 20.08583335134199 0
15.54503874020154 17.37501815489362 0
18.8485126599182 19.0968878416183 0
20.92186485429881 9.540182555216534 0
20.43283798723492 14.38906260034353 0
11.89247106159746 11.04631570840919 0
20.04505419807591 17.93337768563805 0
14.00272909039165 20.86929082108944 0
24.11905226928404 4.597098721481681 0
23.1471619272259 5.257672553037555 0
12.08796674714886 11.82883336783873 0
10.0272538269334 16.83003949807464 0
20.30022540841206 7.537003695701798 0
13.71653083569872 8.790399706446825 0
20.62575446427467 12.08383565475554 0
22.89123646439346 6.916729208207927 0
11.37727281570686 19.74791960460696 0
13.45732897140074 6.345975993822707 0
22.85723029525688 14.8116108399579 0
13.61704506777418 22.84302897245228 0
18.0480403493779 20.17639510850234 0
11.44097829889356 18.80646184458894 0
23.36903904665458 7.242737465524247 0
20.17786413301345 11.31094481191091 0
24.63378213726965 7.388919373146603 0
12.41295782646072 19.14379490588681 0
23.29164308385327 3.581900490556061 0
14.86377450855859 3.758730731885383 0
22.67015419463232 19.60748792672197 0
14.97025057102303 2.70398677661652 0
23.38247787973302 9.187354398314497 0
21.05764558328856 19.20716634934865 0
20.85874901889154 18.86269966771822 0
21.88594622926435 7.326469487086531 0
19.7812156669911 3.439717797491047 0
11.09325355458451 6.153085551516941 0
13.11138186740427 7.329861073001709 0
17.05435302073798 13.25278219843588 0
24.86217231186316 4.559426674650238 0
21.35074783240826 18.95057138518944 0
23.81122092623776 14.52318530884005 0
13.99537204974806 15.87483406269697 0
22.68339035726609 18.26718722721962 0
11.3090231748875 20.48029712067013 0
19.43034554836656 13.2028036829472 0
18.42540353249477 15.90533064477849 0
15.84745912323684 12.74355486526695 0
24.39763458445533 11.25903993330231 0
11.02766854513439 14.16345775560031 0
18.02113358415003 17.72894988914972 0
23.67920103027928 9.201945333425527 0
12.71705609222159 19.79687023931127 0
22.28253146515031 5.402989457408195 0
20.84646126697107 4.159074976689168 0
16.13056513931845 20.58244561638936 0
18.13166171164561 13.21514207940474 0
13.35343191994097 5.868283902040681 0
20.52866329352701 17.75542404828703 0
13.96702900689842 9.742665776255489 0
19.20848419834359 16.90580397417346 0
10.4927324014028 21.9253293911529 0
10.2584427594028 7.601247457042967 0
14.32257595471428 16.99229373473963 0
11.48121782638049 5.383420604640971 0
22.6264748095939 13.29301574800514 0
10.53434901058388 18.79648358093732 0
13.63246214183567 3.069761673815777 0
25.11685842126223 8.869935112774607 0
21.64644455451964 5.8609996428885 0
25.15497134012736 6.242815987015724 0
21.10558799119892 15.34737621047334 0
10.55068949116657 19.08523183183669 0
10.62294452016022 16.29887459318364 0
15.26194548201748 16.39473010612075 0
11.96363548607514 22.18300479681891 0
15.20083016543502 4.812273653881525 0
19.79909786722492 4.812277242999426 0
21.48806448035334 3.01442676335212 0
10.82618458508505 20.61511166861849 0
13.91553888723304 16.96801491695798 0
11.44076432594378 3.397169747892571 0
14.10378769909219 5.499188769178954 0
21.26018544570013 11.19968707472882 0
24.06403959847594 4.79165405903616 0
20.03043771507793 2.685473191517265 0
23.64540028124006 3.072501723793206 0
23.41372324770252 3.371826640079997 0
12.25930276389401 17.14851917398058 0
11.10331756366334 15.41071957558235 0
13.51563690836986 20.60263229913217 0
23.43088266288093 16.98772951107407 0
12.91961911920533 21.66022176979173 0
11.72995563861064 16.18789060644052 0
25.25987061798269 3.446661235053573 0
11.43422346018833 9.729494893472808 0
10.30589744178248 10.49668419695936 0
17.80681186255099 19.46637514343895 0
12.5665341754626 10.24613196626967 0
21.61114495601345 11.44191639346183 0
10.28070567333469 3.612720222461517 0
22.59327622697615 14.89665201320747 0
19.56669109767634 16.3900212987641 0
20.39195833585642 8.432312213368638 0
14.00412652596308 7.817966665715137 0
24.15936104958525 10.84635662536058 0
22.15353470661652 11.45671661130989 0
13.61575535161449 21.91061238435493 0
23.06750498359223 12.3994349864194 0
20.9812785898866 7.778240872955492 0
13.72924632767807 18.33146383589711 0
10.84035024795894 23.38961881005383 0
18.72195754498927 20.9383283038995 0
12.6705507435513 8.068452115586897 0
16.12012172197633 19.30019955820798 0
12.76333381632272 20.75865619917431 0
10.31015042233345 6.181947717369478 0
21.18888422146519 19.38205504841996 0
14.31127293405977 12.25682353023318 0
20.58088003208865 16.64900436981223 0
12.04282269705065 7.390152461451662 0
POLYGONS 5276 21104
3 1331 271 821
3 889 1663 1348
3 1388 284 1829
3 763 365 1495
3 1452 484 1892
3 15 284 1273
3 281 1397 1479
3 1073 348 1741
3 2037 472 2069
3 884 787 2097
3 716 18 1349
3 977 620 1240
3 906 533 1279
3 1026 929 2406
3 349 1042 2536
3 1185 504 2201
3 1806 676 759
3 458 1448 1988
3 458 1026 2406
3 635 1333 2014
3 340 988 1133
3 1566 754 2403
3 434 816 767
3 1097 1539 1442
3 644 739 2338
3 928 794 1552
3 1136 491 1232
3 404 340 1133
3 335 1186 1579
3 1552 794 2431
3 689 610 2666
3 754 1117 2403
3 1397 281 1972
3 389 1526 2113
3 381 1050 2077
3 804 1040 2452
3 875 1758 2213
3 691 2055 2332
3 621 1806 759
3 573 1073 1741
3 25 1196 1559
3 569 1188 2578
3 252 253 1189
3 664 1185 2201
3 1569 370 1974
3 1342 193 2527
3 1663 930 1348
3 958 684 1549
3 576 1135 1910
3 2055 889 2332
3 910 466 1949
3 1497 480 1129
3 455 757 2326
3 589 945 1055
3 904 883 2344
3 284 1388 1273
3 1552 774 1805
3 448 884 2097
3 1783 54 975
3 794 559 2431
3 1052 1260 1217
3 491 688 1232
3 867 556 1440
3 870 723 1002
3 399 1707 1987
3 1733 294 2267
3 1388 835 1273
3 572 401 1307
3 1225 414 1170
3 1539 611 1442
3 758 425 1240
3 922 1150 2491
3 466 910 1441
3 484 1452 2650
3 1807 1087 1703
3 15 1273 2110
3 1727 648 2043
3 308 309 870
3 389 715 1952
3 924 1045 1735
3 497 1766 2168
3 1766 809 2168
3 801 745 2349
3 361 1807 1703
3 367 1030 2469
3 902 424 2575
3 2443 24 2569
3 312 1460 2388
3 1025 310 2388
3 875 2213 2181
3 18 716 1150
3 561 1139 1698
3 568 867 1440
3 772 1155 2278
3 652 1166 1608
3 800 1394 2416
3 315 316 910
3 1746 817 2139
3 533 906 2108
3 1043 808 750
3 1188 855 2578
3 401 938 1307
3 1547 982 1178
3 1000 804 2452
3 910 357 1441
3 1454 351 1597
3 364 1223 2053
3 390 1107 1111
3 523 758 2052
3 1412 655 2501
3 1498 371 1861
3 1420 145 1787
3 397 1351 2276
3 1395 802 2252
3 365 763 2644
3 1553 789 2346
3 535 784 1184
3 720 566 2702
3 252 1189 2080
3 1494 2483 1907
3 1803 702 2226
3 1756 507 1508
3 945 589 1223
3 428 716 1349
3 1803 2226 2212
3 274 1831 2457
3 814 943 1623
3 783 1412 2501
3 1598 96 1808
3 1202 573 2206
3 757 1042 2326
3 1274 367 2469
3 851 1704 1820
3 835 1388 1799
3 225 226 340
3 434 767 1541
3 1302 1145 1715
3 772 2278 2301
3 739 644 2480
3 24 1733 2569
3 386 1069 2283
3 867 568 1456
3 2193 377 1594
3 1526 1922 2113
3 1605 386 2283
3 95 96 1598
3 387 1704 1631
3 2492 1503 2466
3 723 870 1906
3 715 389 1031
3 1706 400 2113
3 556 867 2363
3 1584 1560 2490
3 531 2348 1338
3 298 299 1364
3 610 689 2010
3 117 118 1143
3 883 904 1365
3 33 34 801
3 2385 520 2062
3 1147 742 2277
3 277 28 1697
3 789 927 2260
3 1050 1060 2077
3 819 1706 2113
3 357 910 1916
3 1209 493 2118
3 377 1340 1594
3 480 1497 1825
3 195 1444 2527
3 702 544 2240
3 714 855 1188
3 814 1623 2198
3 1470 125 1004
3 333 981 1850
3 63 985 803
3 2483 1494 2620
3 1225 577 1522
3 24 294 1733
3 1064 514 1005
3 1558 817 996
3 957 2037 2069
3 723 1025 1306
3 1460 463 1457
3 928 1552 1805
3 1693 614 1505
3 2024 502 1641
3 974 558 1277
3 1607 1022 1621
3 893 606 1555
3 493 820 2118
3 351 1454 2661
3 424 902 2027
3 1854 434 1541
3 350 720 1785
3 1624 425 1958
3 1197 1075 2171
3 30 31 1120
3 271 1331 2278
3 1662 525 1028
3 1260 1052 2040
3 1766 497 1600
3 1223 942 2053
3 425 1624 2265
3 1503 2492 2624
3 1448 458 1932
3 1589 968 2606
3 95 1598 1898
3 219 220 962
3 463 1460 936
3 426 1646 1786
3 1034 384 1211
3 790 638 1674
3 193 1342 2042
3 691 1517 2029
3 610 903 1507
3 490 1492 1764
3 938 1497 1686
3 296 297 1148
3 315 910 1949
3 748 1491 1546
3 843 1173 2636
3 355 2024 1591
3 841 457 1937
3 891 457 1545
3 808 1043 940
3 1022 1877 1621
3 479 1359 2612
3 520 2385 2057
3 533 329 1750
3 301 302 1361
3 621 695 1806
3 648 590 2043
3 482 958 1549
3 115 2106 1530
3 456 1760 2576
3 1756 1508 2255
3 601 1560 1584
3 2024 1060 1591
3 723 415 2594
3 1075 781 2171
3 919 446 1771
3 742 1787 2277
3 879 1045 924
3 414 1225 1522
3 1025 723 1906
3 1368 1169 2740
3 208 2228 1985
3 454 1141 2114
3 1092 420 517
3 896 1733 2267
3 1145 100 1715
3 693 1092 517
3 145 1420 2621
3 618 2024 1641
3 1186 335 2120
3 639 394 1834
3 790 789 2260
3 513 593 1006
3 608 2104 421
3 910 316 1916
3 806 1064 1005
3 876 326 2425
3 1086 36 2058
3 326 876 868
3 27 823 1253
3 888 1542 1711
3 1173 843 2413
3 1990 420 2624
3 1346 808 940
3 1359 479 1538
3 1958 425 2503
3 813 1881 2302
3 986 323 1360
3 898 722 2547
3 829 780 1657
3 1657 531 1338
3 784 535 1755
3 776 592 1393
3 1394 800 1847
3 767 816 2487
3 420 1092 2624
3 802 1395 1238
3 988 1587 1133
3 721 2306 2619
3 968 1691 2606
3 1333 635 2413
3 1161 1291 1722
3 1177 1553 2346
3 870 309 1906
3 1546 1328 2638
3 657 1198 2333
3 643 639 1834
3 1646 1144 1786
3 635 1173 2413
3 457 841 1545
3 1760 456 2697
3 904 2344 1760
3 985 63 2498
3 907 499 2417
3 593 513 1122
3 926 1569 1974
3 748 1209 1476
3 846 354 2461
3 1137 468 1810
3 453 1169 1368
3 388 949 2460
3 380 1380 2208
3 2344 352 1760
3 340 226 2116
3 2101 1595 2532
3 1062 846 2461
3 679 901 2526
3 960 411 1705
3 1393 592 2319
3 846 1062 1264
3 359 1639 1070
3 519 711 1517
3 1209 748 1546
3 1102 1843 1339
3 1568 1032 1081
3 916 1368 2740
3 1544 833 2574
3 158 159 963
3 945 1407 1550
3 2464 795 2422
3 1323 1149 2500
3 524 1169 2128
3 796 2214 1382
3 236 237 1074
3 1949 466 2377
3 1150 922 1762
3 1178 982 1982
3 834 1928 2618
3 749 1465 2187
3 958 2020 2085
3 1972 1424 2462
3 1173 635 1518
3 758 1240 2052
3 720 350 1012
3 899 1449 950
3 419 894 2546
3 685 641 1897
3 461 1115 1901
3 1426 835 996
3 1766 1600 2620
3 789 790 1211
3 2310 336 2558
3 1176 717 1875
3 1196 25 2380
3 2338 739 2385
3 543 2492 2466
3 454 1662 1028
3 1205 417 1293
3 1316 647 1875
3 439 928 1315
3 1727 2043 1180
3 505 672 2239
3 319 804 2509
3 471 1316 1875
3 415 723 1306
3 566 720 1012
3 647 1176 1875
3 498 1834 2153
3 2450 834 2618
3 1013 433 1054
3 1030 563 2581
3 550 1159 2241
3 388 1424 1447
3 2483 692 1907
3 68 69 1758
3 1492 653 1764
3 1 89 1548
3 1415 1073 1556
3 498 1269 1834
3 1049 905 1167
3 1993 378 2230
3 1368 916 2131
3 758 523 1622
3 561 1588 1269
3 2190 461 1901
3 329 533 1153
3 1652 280 1389
3 337 460 2016
3 1198 1249 2333
3 544 702 2227
3 641 685 1311
3 1021 909 2542
3 342 758 1622
3 17 1524 2442
3 485 764 1541
3 949 388 1631
3 1298 1946 2342
3 487 1141 1788
3 1169 1705 2128
3 892 418 2247
3 1211 790 1674
3 460 462 2016
3 11 280 1652
3 1291 669 1722
3 410 1217 1373
3 758 342 1956
3 1662 454 2114
3 449 1037 952
3 595 1584 2490
3 981 1452 1850
3 1230 1401 2496
3 325 2338 2385
3 619 716 1320
3 1444 568 2271
3 625 1654 1151
3 1498 828 1256
3 863 907 2417
3 1184 2186 2625
3 755 829 1657
3 921 990 1765
3 1137 403 1176
3 25 1559 2145
3 33 801 1384
3 1460 312 936
3 1543 563 1542
3 1109 800 1769
3 1735 1276 2533
3 310 1025 1906
3 1047 726 2289
3 1209 1109 1476
3 1444 195 2075
3 1114 13 2360
3 721 998 2306
3 1168 752 2325
3 1141 454 1788
3 292 22 1616
3 511 976 1554
3 1148 297 1466
3 71 1063 2579
3 1129 1365 2697
3 800 793 1769
3 93 94 893
3 68 1758 2266
3 590 648 1918
3 1624 666 2140
3 1200 362 1208
3 948 1595 2101
3 647 1137 1176
3 324 411 1295
3 620 1536 2347
3 1323 2500 1433
3 9 1255 1883
3 2136 426 2497
3 1076 501 2133
3 809 1766 2405
3 348 1073 1415
3 1654 356 1151
3 613 1143 1098
3 829 561 1698
3 1143 418 1098
3 1326 349 2536
3 397 2276 2082
3 1295 1706 2637
3 697 795 2464
3 1129 480 1365
3 1676 833 1544
3 1995 779 2000
3 536 412 935
3 590 2453 2544
3 417 1205 1689
3 1173 378 2636
3 1843 402 1339
3 764 847 1541
3 88 1 1548
3 475 1624 2140
3 496 1922 1941
3 1449 501 950
3 1037 436 2589
3 1037 431 1791
3 579 1733 1618
3 298 1364 1466
3 494 1672 1597
3 974 330 1482
3 447 793 2146
3 2228 762 1985
3 1598 959 1898
3 976 2268 2382
3 851 1820 1163
3 895 1030 2581
3 1449 899 1572
3 1517 711 2029
3 1016 1037 1791
3 558 974 1482
3 1646 426 2136
3 927 789 1236
3 990 633 1765
3 1407 596 1550
3 813 2302 2147
3 323 986 2253
3 247 1312 2155
3 1150 619 2491
3 1717 791 1483
3 726 1047 2339
3 725 575 1472
3 657 862 1222
3 1368 2131 2458
3 1137 1810 1938
3 962 220 1666
3 462 1501 1308
3 23 292 1934
3 955 1276 1735
3 2104 343 421
3 931 1993 2230
3 274 275 1831
3 2241 1159 2287
3 1501 1212 1308
3 746 1178 1982
3 2445 401 1997
3 878 839 1642
3 385 1449 1572
3 1597 351 1245
3 1313 2170 1971
3 762 719 1535
3 1591 492 2456
3 370 1401 1230
3 1831 405 2457
3 559 429 1887
3 855 714 2729
3 101 102 1627
3 1704 387 1820
3 652 1608 2623
3 765 2310 2558
3 1026 458 1988
3 515 992 759
3 1449 385 2120
3 446 919 2378
3 1344 1202 2206
3 27 321 823
3 984 1742 1580
3 1569 926 2735
3 1380 380 2222
3 638 1972 2462
3 468 1137 1853
3 462 1130 1303
3 1553 1127 1236
3 1707 399 2019
3 1092 693 2185
3 557 1394 1847
3 1395 553 1238
3 785 1958 2503
3 28 29 1697
3 2047 984 1061
3 1547 1178 1716
3 503 1346 940
3 903 610 2010
3 460 508 1501
3 894 941 2546
3 563 1030 1542
3 462 460 1501
3 209 210 2012
3 2170 183 1971
3 1542 367 1711
3 907 643 1968
3 620 977 2560
3 1137 647 1853
3 1133 1587 1828
3 976 511 2086
3 804 319 2324
3 188 2467 1905
3 1536 620 2560
3 453 960 1705
3 992 621 759
3 929 1026 2215
3 984 1580 1061
3 793 430 1194
3 958 482 2020
3 151 152 1649
3 122 123 1566
3 716 619 1150
3 492 1591 2678
3 457 891 2200
3 493 1546 2638
3 1123 416 1443
3 1345 898 2547
3 401 572 1997
3 1217 778 1373
3 1321 886 2540
3 371 1498 1908
3 296 1148 2716
3 808 1346 1855
3 905 1049 1689
3 1333 751 2014
3 949 477 2460
3 1191 1112 874
3 816 323 2253
3 817 1194 2139
3 1672 1454 1597
3 862 657 2131
3 1184 784 2186
3 2106 1113 1530
3 696 654 994
3 815 736 1013
3 1040 804 2324
3 308 870 979
3 1806 695 2772
3 793 447 1769
3 1445 161 1358
3 1047 2289 1984
3 1148 624 1731
3 117 1143 1577
3 510 1568 2368
3 988 340 2116
3 1571 537 1965
3 1365 904 2697
3 1346 503 1296
3 708 1930 1640
3 125 1470 1931
3 1524 17 1473
3 1424 388 2462
3 1744 562 1837
3 1127 2551 2195
3 630 1571 1965
3 1946 634 2342
3 1588 643 1269
3 508 460 2642
3 1169 453 1705
3 1571 630 2308
3 184 185 1658
3 291 21 1688
3 1731 681 2188
3 699 1949 2377
3 559 794 1483
3 1197 990 2095
3 345 633 2216
3 722 898 2633
3 508 1806 2772
3 1213 1200 1208
3 1295 411 2691
3 646 1164 1237
3 1694 565 1117
3 1517 509 2593
3 1690 396 1437
3 1465 749 1391
3 1173 1254 2475
3 423 1259 2037
3 1808 735 1929
3 472 1084 1993
3 1560 601 1142
3 2504 1179 2337
3 1384 801 2349
3 1074 237 2595
3 614 1693 2155
3 959 1488 868
3 429 559 1483
3 601 1182 1675
3 807 1694 1117
3 53 54 1783
3 568 1444 2075
3 2282 372 1809
3 1983 893 1555
3 1588 561 2528
3 1497 1129 1686
3 1927 84 1537
3 1540 366 1636
3 1357 844 2157
3 1003 521 2260
3 777 1454 1672
3 1707 524 1987
3 1930 850 1640
3 1063 919 2579
3 432 715 1512
3 2071 902 2575
3 2370 334 2495
3 60 1863 2622
3 954 503 1058
3 448 1351 2473
3 501 1076 2179
3 2283 417 2747
3 828 1498 1867
3 1923 1439 1815
3 65 66 1777
3 562 1136 1232
3 2534 874 2590
3 1336 2322 2374
3 1182 601 1584
3 527 682 1962
3 716 428 2499
3 60 61 1863
3 1616 1270 1061
3 793 800 2416
3 1095 1923 1815
3 1599 339 1684
3 2214 1080 1382
3 1089 1560 1824
3 1639 416 1070
3 366 1190 1636
3 311 312 2388
3 310 311 2388
3 700 937 1659
3 672 782 1435
3 1165 2101 2532
3 2551 956 2195
3 22 291 2572
3 339 1561 1684
3 209 2012 2228
3 2489 521 1619
3 2035 689 2666
3 1777 66 2005
3 14 283 2210
3 1407 945 2773
3 1737 21 1960
3 330 974 1828
3 1001 1511 1551
3 488 2186 1515
3 2192 576 1673
3 783 956 1375
3 901 679 2282
3 1148 1731 2188
3 501 1449 2133
3 500 1191 874
3 719 762 2228
3 1977 786 2175
3 250 251 884
3 959 1598 1929
3 1130 462 1308
3 418 892 1098
3 653 1492 2083
3 276 277 1697
3 1389 280 1880
3 436 1037 2541
3 868 1488 2291
3 1037 1016 2541
3 686 1445 2231
3 330 1587 2404
3 2522 691 1979
3 990 1197 2216
3 1547 378 2475
3 416 1123 2396
3 1027 1423 1761
3 1169 524 2746
3 391 1695 1886
3 1416 1730 2423
3 288 1150 1762
3 272 273 1233
3 731 1626 1181
3 412 396 1623
3 438 907 2485
3 956 566 2195
3 1262 327 2599
3 2020 1068 2085
3 1339 2517 2545
3 670 1630 1226
3 247 248 1312
3 907 863 2485
3 231 232 839
3 1092 2185 1776
3 894 419 2159
3 970 1277 2013
3 659 1680 1827
3 406 2175 1180
3 722 2633 2793
3 2492 973 2624
3 561 1269 1139
3 682 737 1962
3 909 1021 1625
3 841 1937 2370
3 291 1101 2572
3 525 1662 1946
3 1394 557 1857
3 402 1843 1833
3 505 1242 2225
3 2405 1766 2787
3 476 678 1747
3 412 1623 2220
3 334 1487 2111
3 431 1037 1556
3 983 2483 2620
3 1922 1526 1941
3 971 1664 2566
3 1680 1120 1827
3 1013 1054 1678
3 743 1262 2293
3 850 1930 2584
3 1639 359 1446
3 1351 365 2276
3 683 1361 1567
3 732 856 1071
3 1269 498 1139
3 1018 171 2356
3 1147 995 2372
3 835 1558 996
3 549 1357 2157
3 326 868 2291
3 529 1295 2637
3 817 1558 2146
3 1081 626 2090
3 1296 712 1056
3 1037 449 1556
3 227 228 1166
3 1036 1120 2001
3 1427 586 2124
3 981 333 1532
3 2056 720 2702
3 817 1746 2065
3 553 1395 1650
3 1234 504 1185
3 424 1863 1763
3 96 97 1808
3 1180 2175 1778
3 947 605 2362
3 476 1747 1372
3 2370 1937 2627
3 777 1418 2679
3 1251 697 2018
3 1315 731 1957
3 1258 1783 975
3 1251 488 2738
3 2044 1045 2352
3 354 846 2640
3 680 1744 1837
3 995 588 2372
3 1733 896 1618
3 956 783 2327
3 1492 490 1897
3 1189 787 2080
3 300 1419 2432
3 231 839 1961
3 576 1426 996
3 920 1595 707
3 404 974 1201
3 443 1756 2287
3 1598 1808 1929
3 1168 2325 2658
3 511 725 1879
3 721 2619 2481
3 1526 389 1952
3 283 360 2210
3 1693 335 1579
3 903 791 1507
3 370 1569 2127
3 1020 362 1200
3 926 801 2235
3 666 1624 1958
3 1962 737 2599
3 852 1321 2540
3 955 23 1934
3 750 808 2577
3 362 1020 1352
3 1143 613 1577
3 1481 1001 1551
3 1892 484 2453
3 93 893 1983
3 745 801 1790
3 1315 1957 1739
3 482 1487 1248
3 1361 683 2553
3 549 707 2032
3 486 678 2584
3 976 2086 2268
3 923 2122 1811
3 1626 1065 1181
3 278 8 2164
3 624 1148 1466
3 1855 536 935
3 705 1346 1296
3 193 194 2527
3 1262 743 2329
3 1726 730 1423
3 1081 2090 2725
3 1271 984 1356
3 1561 1080 2214
3 928 439 2298
3 694 2464 2422
3 1221 266 1393
3 2359 1048 1187
3 1488 959 1929
3 406 1977 2175
3 801 926 1790
3 674 1179 2504
3 711 519 1668
3 1817 909 2078
3 1122 770 2122
3 2574 833 2092
3 2289 704 1984
3 21 290 1960
3 512 278 2164
3 1034 1211 1674
3 1795 850 2584
3 790 521 2489
3 449 1415 1556
3 425 758 2503
3 959 893 1898
3 1423 1204 1761
3 208 209 2228
3 1316 523 2052
3 684 958 2272
3 316 317 1916
3 1381 363 1640
3 1111 1107 2700
3 1484 492 2678
3 1195 360 1476
3 1027 1726 1423
3 982 1547 2475
3 2282 1529 1951
3 266 1221 1793
3 366 1710 1620
3 1072 435 1638
3 1568 510 2445
3 1605 2283 2747
3 84 85 1537
3 639 438 2046
3 917 609 2162
3 1758 875 2266
3 1032 1568 2445
3 789 1553 1236
3 1861 371 1840
3 1867 2251 1772
3 697 1251 2470
3 1730 422 2423
3 1843 1113 1833
3 1275 1262 2599
3 1120 31 2001
3 122 1566 2182
3 1470 1427 2124
3 1085 836 1531
3 742 1147 2372
3 1242 745 2225
3 562 1232 1411
3 1457 637 1909
3 40 2359 1187
3 1627 783 1375
3 1079 567 1709
3 372 1317 1809
3 631 696 1387
3 372 2282 1951
3 941 894 2420
3 30 1120 1680
3 394 639 2398
3 1418 788 2679
3 1188 948 1231
3 713 1690 1437
3 947 377 1651
3 1560 1089 768
3 2368 1568 2705
3 512 663 2581
3 519 1517 2593
3 573 1202 1992
3 1756 824 2287
3 2186 612 2625
3 475 2054 1116
3 856 732 1742
3 421 677 2753
3 1135 576 2192
3 1836 1786 2689
3 323 816 1944
3 1836 426 1786
3 927 1003 2260
3 1742 459 1580
3 1487 482 1780
3 743 539 1730
3 491 1136 1366
3 678 476 2142
3 633 345 2410
3 539 743 2093
3 1120 1036 1468
3 833 1039 2092
3 1462 1001 1481
3 1254 982 2475
3 1337 2136 2497
3 825 1496 1450
3 963 159 2389
3 1397 2489 1619
3 301 1361 1419
3 933 997 2153
3 620 1316 2052
3 715 1010 2285
3 364 1729 2757
3 736 752 1854
3 412 775 935
3 696 631 2166
3 1504 832 1919
3 1361 302 1567
3 707 1595 2032
3 2109 940 2789
3 363 1381 1514
3 688 345 2171
3 614 1312 2137
3 411 960 1512
3 677 421 2643
3 170 171 1018
3 725 511 1554
3 952 1037 2589
3 643 907 1889
3 850 1381 1640
3 602 2510 1802
3 795 697 2257
3 963 686 2423
3 575 725 1554
3 737 2597 2599
3 422 963 2423
3 335 1693 1505
3 1114 2360 2562
3 1236 1127 1904
3 686 963 2389
3 521 1003 1493
3 1483 794 2474
3 1454 979 2661
3 500 874 2534
3 537 1995 2000
3 411 324 2128
3 1697 29 1680
3 753 962 1666
3 1277 358 2013
3 413 538 682
3 632 1663 2685
3 378 1547 2230
3 763 991 1852
3 865 642 2408
3 1452 2014 1850
3 591 1445 1358
3 2054 646 1116
3 937 19 1762
3 651 1773 1728
3 1073 573 1224
3 369 1611 1895
3 625 1590 2364
3 678 1280 2584
3 188 189 2467
3 555 1616 1061
3 1475 602 1802
3 974 404 1133
3 1291 957 1278
3 1460 1457 1909
3 491 763 2596
3 2268 579 2382
3 1067 58 2027
3 1654 625 2364
3 272 1233 821
3 1426 731 1181
3 1497 938 1634
3 400 1706 1295
3 714 1188 1231
3 1302 1715 2270
3 424 1763 2575
3 1883 1255 2582
3 542 1128 2011
3 47 48 1851
3 1461 721 2481
3 1644 589 2665
3 57 58 1067
3 2043 590 2544
3 672 1435 2239
3 1764 334 2111
3 783 1627 1412
3 526 1926 2205
3 893 94 1898
3 1128 534 1314
3 1128 542 2421
3 1050 381 2079
3 691 2029 1979
3 537 1571 2357
3 503 954 2521
3 595 1484 1050
3 896 1586 2154
3 1447 1424 934
3 488 599 2186
3 1339 402 2517
3 2137 1312 2674
3 345 688 2695
3 365 1351 2180
3 499 907 1968
3 1044 717 2559
3 601 854 1142
3 589 1055 600
3 763 1495 2596
3 816 434 2051
3 1305 1053 2173
3 1690 713 1874
3 1356 667 1986
3 1663 1336 2685
3 643 1588 1968
3 1715 1627 2270
3 836 1085 1976
3 843 1084 2163
3 269 270 1155
3 901 1234 2526
3 1472 575 2455
3 1140 1564 1510
3 822 1462 1481
3 715 1031 1512
3 915 1649 1379
3 2122 923 2273
3 593 1263 2507
3 1611 369 2055
3 1313 1658 1998
3 857 2504 2337
3 1260 552 2430
3 1729 2135 2757
3 963 422 2687
3 639 643 1889
3 18 287 1349
3 1658 185 1321
3 2109 700 1659
3 2104 608 2718
3 1558 835 1799
3 1419 863 2432
3 672 505 1940
3 727 1561 2214
3 1533 714 1759
3 1411 1232 2771
3 2322 369 2374
3 119 1544 2454
3 538 737 682
3 709 1777 2005
3 563 512 2581
3 583 1268 1945
3 1483 791 1868
3 521 790 2260
3 1032 2445 1997
3 538 413 1489
3 906 1279 2790
3 1725 734 2449
3 1290 525 1946
3 641 1492 1897
3 1351 397 2473
3 852 1658 1321
3 1312 614 2155
3 996 817 1673
3 1887 653 2083
3 734 1564 2449
3 488 1028 2738
3 267 268 776
3 542 2011 1253
3 938 401 1297
3 730 1726 2089
3 729 2076 2721
3 1434 811 2136
3 852 698 2123
3 1050 1484 2678
3 2209 658 1442
3 421 1250 2643
3 659 1697 1680
3 1804 334 2370
3 2329 743 2248
3 10 1290 1880
3 1539 631 1387
3 2101 1165 1404
3 415 1664 971
3 890 2200 1902
3 914 1074 1038
3 1334 589 600
3 1712 729 2721
3 1360 323 2598
3 1268 1062 1945
3 718 1731 1096
3 90 91 918
3 410 587 1718
3 1122 513 1950
3 658 918 1442
3 732 722 2793
3 418 1143 2433
3 515 759 2669
3 2453 484 2544
3 423 2037 1826
3 1281 516 2213
3 700 2109 2789
3 705 1056 1734
3 383 1690 1874
3 884 251 2080
3 328 1375 2551
3 1574 573 1992
3 360 748 1476
3 101 1627 1715
3 1510 1564 2712
3 2014 751 1850
3 2619 849 2481
3 714 1231 1759
3 363 1450 1640
3 873 615 1844
3 1627 102 1412
3 841 2370 2495
3 1531 705 1734
3 1233 782 821
3 1336 1663 2322
3 606 893 2340
3 453 1368 1665
3 1194 817 2146
3 1658 852 2123
3 801 34 2235
3 1005 514 1724
3 323 2087 2598
3 365 1300 2276
3 490 1429 1897
3 441 1891 925
3 1970 544 2234
3 1710 1203 2605
3 577 1970 2234
3 327 1262 2329
3 1429 12 1903
3 567 1079 2017
3 202 203 1268
3 2421 542 2041
3 589 1334 2665
3 214 215 1121
3 2551 1553 2600
3 1949 699 2361
3 997 1244 2153
3 546 992 1923
3 1211 384 2346
3 1293 604 2086
3 2491 619 1963
3 1590 625 1230
3 379 1861 1840
3 503 940 2109
3 568 1937 2271
3 609 917 1856
3 1717 1483 2474
3 1445 591 2231
3 1189 253 1651
3 1755 454 1515
3 893 959 2340
3 428 1349 2030
3 654 1927 1537
3 915 1648 2295
3 1649 492 1379
3 720 1818 1785
3 1239 2192 1673
3 1952 715 2285
3 2125 2386 2483
3 1450 708 1640
3 1547 899 2230
3 1648 913 2295
3 346 1574 1992
3 1426 576 1910
3 525 2470 2738
3 71 72 1063
3 799 440 1773
3 2125 993 2386
3 474 1244 1402
3 474 1305 2173
3 688 491 2258
3 902 1067 2027
3 676 1806 1578
3 2467 886 1905
3 507 873 1617
3 7 235 1999
3 341 2101 1404
3 1381 644 1514
3 36 37 2058
3 1056 712 2326
3 2011 711 1253
3 1217 1260 2430
3 1078 864 2446
3 2058 473 2203
3 2306 157 2165
3 1523 947 2362
3 73 74 1726
3 633 990 2216
3 938 989 1634
3 754 1931 2124
3 1910 1135 1692
3 1922 496 2367
3 1141 487 1939
3 515 2669 2383
3 835 1426 1181
3 1276 1616 2345
3 782 672 2539
3 1661 1873 2792
3 127 128 1835
3 523 1316 2219
3 534 1128 2421
3 461 738 2391
3 1241 807 1117
3 234 7 1999
3 2462 388 2460
3 754 1241 1117
3 1375 956 2551
3 907 438 1889
3 642 332 2408
3 1136 562 2223
3 1637 953 1288
3 47 1851 2156
3 1695 690 1886
3 1074 914 978
3 1729 742 2372
3 1257 953 2121
3 2200 891 1902
3 1617 873 1844
3 356 1654 1885
3 1084 843 2636
3 2076 729 2402
3 1127 1553 2551
3 194 195 2527
3 1010 715 2244
3 894 609 1856
3 528 2123 2573
3 455 518 1154
3 460 337 2215
3 812 384 2645
3 599 612 2186
3 1566 701 2182
3 373 1654 2364
3 1170 414 1955
3 1149 1323 1353
3 837 1057 1390
3 729 470 2402
3 76 77 1870
3 1659 937 1685
3 742 1729 2053
3 859 1793 2602
3 1368 845 1665
3 1744 552 1838
3 430 793 2416
3 395 1341 1635
3 722 732 1718
3 1654 373 2243
3 1620 1710 2605
3 1242 1036 2349
3 717 1044 2296
3 444 1094 1382
3 2186 784 1515
3 1166 988 2116
3 1139 706 1698
3 1820 387 2342
3 989 344 1634
3 736 815 2208
3 271 272 821
3 473 2058 2004
3 743 1730 2248
3 1107 664 2506
3 698 852 2275
3 1919 413 682
3 438 639 1889
3 106 107 2184
3 2184 107 2518
3 1316 471 2219
3 395 1496 1341
3 390 1323 2376
3 796 1784 2214
3 1641 1768 2492
3 1586 896 2267
3 1788 454 1755
3 746 1105 1647
3 1988 1448 2571
3 1688 866 2094
3 577 1225 2580
3 1183 853 2631
3 2011 469 2029
3 502 1768 1641
3 477 812 2645
3 36 1086 2524
3 377 947 1523
3 2633 1557 2793
3 439 1753 2060
3 941 1746 2139
3 2470 525 2242
3 1263 331 2222
3 611 1539 1387
3 787 1189 2632
3 1094 796 1382
3 489 1735 2533
3 1932 807 2733
3 851 1163 1939
3 527 1504 1919
3 1663 889 2322
3 405 1831 1035
3 799 489 1288
3 1780 490 2111
3 1496 708 1450
3 990 479 2095
3 1631 1704 2555
3 715 432 2244
3 227 1166 2116
3 654 696 1474
3 1454 777 2256
3 573 1574 1224
3 800 1109 2118
3 19 937 2290
3 527 1919 682
3 814 1046 1794
3 384 1034 2645
3 1172 1804 2370
3 1705 411 2128
3 2307 840 1343
3 2441 623 1748
3 1710 366 2061
3 338 1035 1468
3 929 2215 2393
3 984 1271 2648
3 1511 383 1874
3 1226 1630 2006
3 1265 2385 2062
3 1175 2395 2568
3 1105 746 2049
3 448 2473 2519
3 754 2202 1931
3 1268 203 1264
3 1498 1256 1908
3 1632 238 1933
3 436 1303 2769
3 1434 2136 2204
3 609 1422 2162
3 883 538 1489
3 238 1632 2595
3 2123 698 2573
3 853 358 2631
3 859 1193 1793
3 1857 617 1431
3 2078 909 2091
3 1290 1298 1880
3 2394 1157 2567
3 972 2336 2354
3 1926 985 2205
3 1658 1313 1971
3 1164 376 1237
3 1039 833 1227
3 859 1200 1206
3 678 486 1747
3 596 854 353
3 1863 424 2622
3 1574 346 2307
3 940 1043 2789
3 899 1547 1572
3 20 293 1867
3 416 1639 2066
3 1291 1161 1924
3 1616 22 2572
3 1642 839 2309
3 1733 579 2569
3 825 1450 2587
3 1244 997 1402
3 1504 623 2441
3 340 404 1792
3 630 2368 2705
3 1731 624 1096
3 917 827 2659
3 703 861 1675
3 1252 2109 1659
3 1006 593 2507
3 1539 1097 1555
3 1820 634 1163
3 2390 1019 2662
3 807 1241 2733
3 303 304 1100
3 609 894 2159
3 1364 299 2432
3 731 1426 1957
3 1259 1356 1986
3 504 2390 2662
3 1624 475 2782
3 861 687 1675
3 1729 364 2053
3 1166 228 1608
3 1268 583 1362
3 1184 533 1750
3 1646 811 2107
3 1293 2086 2626
3 773 1688 2094
3 745 1242 2349
3 1107 390 2439
3 1637 1288 2533
3 668 1292 2226
3 162 163 818
3 1028 488 1515
3 503 2109 1058
3 1242 505 2239
3 986 1996 2253
3 1100 304 2720
3 1544 645 2454
3 45 46 1246
3 566 956 2327
3 1466 1364 2748
3 1042 1090 2536
3 382 1896 1648
3 155 156 998
3 403 1137 1938
3 1244 474 1966
3 113 114 1813
3 1031 411 1512
3 288 18 1150
3 846 1264 2742
3 384 812 1319
3 685 1429 1903
3 1830 519 2593
3 507 1617 1508
3 4 145 2621
3 1000 483 2493
3 490 1780 2684
3 1397 1972 2489
3 828 1867 1772
3 1632 441 1918
3 1183 1072 1638
3 1351 448 2180
3 236 1074 978
3 1988 676 1578
3 809 1289 2168
3 552 1260 1838
3 695 621 2615
3 1071 410 1718
3 974 1277 1201
3 732 1071 1718
3 794 928 2298
3 158 963 2165
3 526 1171 1093
3 1595 948 2032
3 673 1807 1220
3 554 359 1185
3 1729 588 2135
3 1851 48 1167
3 1046 912 1794
3 844 1511 1874
3 11 1652 934
3 662 1033 2017
3 1144 1646 2641
3 1753 439 1739
3 989 938 1297
3 1529 2282 1935
3 334 1764 2495
3 218 1078 2446
3 125 126 1004
3 821 782 2330
3 28 277 0
3 1996 864 2253
3 1536 1853 2347
3 1645 755 1317
3 629 853 2310
3 1173 1518 1254
3 1508 545 2255
3 1919 832 2176
3 1143 118 2454
3 721 1461 2100
3 314 1949 2361
3 1293 417 2283
3 1065 1273 1181
3 752 1168 2096
3 1346 705 2764
3 561 829 2025
3 1741 348 1628
3 634 1946 2114
3 1155 806 1989
3 393 1044 2308
3 488 1251 1643
3 344 989 1301
3 1034 2462 2460
3 1273 835 1181
3 2122 770 2745
3 262 263 668
3 1561 339 1432
3 763 491 1366
3 1036 1242 2785
3 1119 2044 2352
3 130 131 1714
3 381 1091 2079
3 1728 1773 2063
3 966 2574 2092
3 656 1301 1467
3 330 1656 2765
3 1560 1142 1824
3 962 753 1751
3 1655 825 2587
3 2229 977 1403
3 806 776 1989
3 642 865 1991
3 662 680 933
3 951 693 517
3 1760 1294 2576
3 1649 152 1077
3 1652 387 1447
3 452 874 1565
3 1649 915 1490
3 1091 1182 2079
3 582 1191 2505
3 1663 632 1266
3 359 1234 1185
3 1587 652 1284
3 1707 1451 2746
3 1320 716 2499
3 1121 986 1360
3 743 2293 2093
3 964 580 1732
3 82 83 2144
3 1200 1213 1206
3 1121 215 2335
3 1616 555 2345
3 1019 1090 2429
3 239 240 1891
3 1695 391 2663
3 1116 646 1237
3 441 1632 1933
3 1491 748 2341
3 1349 287 2442
3 38 2039 2312
3 664 1107 2439
3 199 200 1458
3 1082 769 1425
3 1078 218 1152
3 1001 1118 1882
3 1595 920 2532
3 1044 393 2296
3 887 964 1570
3 1723 1228 2672
3 1218 1981 1775
3 1819 1057 837
3 309 310 1906
3 1966 706 1139
3 292 1616 1934
3 442 1817 1162
3 1894 766 2197
3 58 59 2027
3 350 1650 2369
3 1807 660 1220
3 423 1291 1924
3 937 700 2290
3 775 412 2220
3 290 20 1408
3 1320 710 1841
3 1134 1255 2067
3 1228 1054 2672
3 981 1532 1708
3 528 1717 2008
3 1822 851 1939
3 1040 1830 2593
3 1153 533 2108
3 396 1690 2198
3 1114 616 2727
3 1159 709 1612
3 717 1176 2559
3 757 455 1154
3 1166 652 1609
3 563 1543 1156
3 854 601 2412
3 184 1658 1971
3 394 662 933
3 572 1307 2523
3 641 1311 2431
3 1972 638 2489
3 1411 997 1837
3 1059 1744 1838
3 490 1764 2111
3 1717 528 2573
3 1969 1229 1947
3 1339 627 1721
3 981 786 1977
3 25 307 2380
3 580 1835 1199
3 42 43 1707
3 1807 361 2781
3 1247 1162 1266
3 469 2011 2723
3 864 1078 2548
3 991 763 1366
3 631 1539 1396
3 669 1291 1278
3 2178 1320 1841
3 1263 2222 2507
3 1672 494 2107
3 1834 394 2153
3 1171 842 1093
3 1482 330 2765
3 1679 774 1104
3 225 340 1310
3 711 2011 2029
3 717 2655 2313
3 900 2306 2165
3 726 2003 1633
3 737 538 1563
3 640 1219 1145
3 1690 383 1046
3 2011 1128 2723
3 1273 1065 2110
3 568 2075 1456
3 1697 659 1438
3 2003 516 1633
3 1430 552 1009
3 1587 330 1828
3 1586 295 2716
3 567 2017 1386
3 951 737 1563
3 1835 128 1199
3 1691 761 2606
3 1323 570 2376
3 675 1256 2404
3 489 799 924
3 832 2272 2176
3 1045 2044 1369
3 1071 856 1453
3 651 799 1773
3 1861 290 1408
3 943 814 1208
3 312 313 936
3 655 1412 2704
3 21 1737 1967
3 540 1969 1947
3 1484 595 2490
3 1492 641 2083
3 243 1105 2049
3 939 1190 1708
3 1517 691 2332
3 2294 139 2566
3 877 999 2170
3 854 596 1142
3 1449 2120 2133
3 1487 334 2317
3 2039 848 2312
3 382 1484 2490
3 507 1756 965
3 1650 597 2568
3 570 1472 2455
3 1101 291 2022
3 565 1694 1948
3 1028 525 2738
3 1263 593 2273
3 524 1707 2746
3 605 947 2314
3 598 1892 2453
3 808 1855 935
3 1704 2425 2555
3 827 917 1865
3 972 2115 2336
3 638 790 2489
3 2306 900 2619
3 1069 604 2283
3 1171 545 1601
3 616 1869 2727
3 120 121 1676
3 1957 1283 1739
3 1115 461 2391
3 1741 520 2206
3 784 1755 1515
3 179 180 642
3 645 1544 2574
3 617 1671 1431
3 1197 1305 1075
3 811 1646 2136
3 662 2017 2724
3 498 1244 1966
3 1281 2213 1814
3 278 512 2419
3 1831 659 1035
3 1758 69 1267
3 776 268 1989
3 1394 1857 1431
3 2066 838 2613
3 1090 1019 2639
3 1875 717 2313
3 416 2066 2613
3 1079 1430 1009
3 1851 862 2156
3 802 1003 2252
3 378 1173 2475
3 1385 1873 1661
3 1650 1395 2369
3 690 1695 1522
3 740 441 925
3 1714 131 2635
3 2016 462 1303
3 552 1744 1009
3 145 146 1787
3 582 2450 2618
3 1856 571 2420
3 829 755 2025
3 1870 465 2143
3 2419 1134 2067
3 1462 495 1118
3 874 1112 1565
3 1255 1134 1341
3 1559 898 2145
3 2213 516 2181
3 492 1649 2456
3 377 1189 1651
3 1277 970 1201
3 1418 777 1774
3 514 1064 2147
3 1154 664 2201
3 1468 1035 1827
3 762 1535 1621
3 903 429 1868
3 387 1631 1447
3 1500 1175 2568
3 1140 1712 1610
3 149 2295 1287
3 616 1114 2441
3 588 1729 2372
3 295 1586 2267
3 839 878 1961
3 744 2443 2569
3 1157 1235 2567
3 787 884 2080
3 1695 414 1522
3 2120 335 2133
3 1652 1447 934
3 927 1236 2009
3 1269 643 1834
3 8 281 1479
3 269 1155 1989
3 603 1019 2390
3 464 587 2734
3 423 1271 2668
3 141 142 1592
3 977 1240 1871
3 2222 380 2507
3 886 1321 1888
3 1286 2421 2041
3 909 1817 2542
3 1675 1182 2343
3 1001 1462 1118
3 1278 444 1382
3 155 998 2651
3 151 1649 1490
3 360 283 1869
3 664 554 1185
3 1272 567 1386
3 219 962 1152
3 1189 377 2193
3 724 1661 2792
3 1298 1290 1946
3 477 949 2434
3 305 306 1011
3 2417 499 2748
3 862 1851 1222
3 115 116 2106
3 175 917 2162
3 930 1663 1266
3 438 551 2046
3 738 1672 2107
3 1111 432 1353
3 530 1376 1980
3 2498 550 2205
3 2002 550 2498
3 755 1645 2025
3 1739 1283 2381
3 1289 574 2477
3 287 17 2442
3 2043 406 1180
3 920 1687 2532
3 1948 1694 2688
3 647 1316 2347
3 468 1853 2531
3 2142 476 2444
3 1118 771 1882
3 558 747 1821
3 1281 1216 1770
3 1062 1268 1264
3 1102 1339 1721
3 1256 1656 2404
3 894 1856 2420
3 530 599 1643
3 2144 83 1917
3 903 890 1902
3 32 33 1384
3 451 1458 1767
3 1478 472 2105
3 1224 431 1556
3 498 1966 1139
3 1086 2058 2203
3 1508 1617 2685
3 953 1108 1848
3 1011 464 2603
3 1311 1552 2431
3 992 515 1417
3 727 1300 1852
3 1163 634 2114
3 540 1947 2088
3 1843 761 1683
3 502 2024 2411
3 1354 1857 2567
3 791 1717 2573
3 545 2374 1601
3 843 1333 2413
3 1539 606 1396
3 456 1307 1686
3 1429 685 1897
3 62 63 803
3 654 1537 2379
3 1349 649 2030
3 86 87 1405
3 823 542 1253
3 1900 541 2284
3 1081 1032 2119
3 1198 657 1222
3 2500 398 1433
3 1753 1739 2381
3 753 1318 1158
3 38 39 2039
3 1853 1536 2531
3 1533 479 2612
3 2222 331 2281
3 1006 765 2558
3 284 14 1829
3 2327 783 2501
3 1227 701 2403
3 750 289 2563
3 448 2097 2180
3 26 308 979
3 652 1587 1609
3 1630 670 2604
3 1073 1224 1556
3 1946 1662 2114
3 1316 620 2347
3 977 1871 1403
3 387 1389 2342
3 276 1697 1438
3 988 1166 1609
3 1495 365 2428
3 499 1096 2748
3 562 1744 2223
3 1084 472 1478
3 429 903 1902
3 713 1437 2682
3 703 2357 2652
3 1155 772 2304
3 587 410 1373
3 1727 914 1038
3 766 1894 1866
3 861 703 2652
3 149 150 2295
3 712 954 2288
3 1402 997 1411
3 602 1002 2594
3 522 1727 1180
3 1587 1284 2404
3 706 1966 2173
3 1452 1892 2014
3 805 1058 2249
3 1726 74 2089
3 954 712 2521
3 455 712 2288
3 752 736 2592
3 774 1552 1311
3 360 1195 2210
3 914 1727 1459
3 510 1297 2445
3 926 2524 2735
3 2140 666 2254
3 1658 2123 1998
3 168 169 1486
3 621 992 2530
3 1871 1174 1403
3 840 2307 2565
3 917 175 1865
3 754 1566 2202
3 930 1817 2078
3 644 1381 1943
3 1627 1375 2270
3 2425 326 2555
3 1305 474 1075
3 670 1485 1314
3 432 1111 2244
3 1566 123 2202
3 1217 410 2564
3 314 315 1949
3 1774 461 2134
3 545 1508 2374
3 2233 980 2129
3 1400 230 1961
3 1817 930 1162
3 619 2178 1963
3 1402 781 1075
3 1803 771 1118
3 565 1227 2403
3 1335 327 2329
3 1105 2472 2459
3 1058 1252 2249
3 318 319 2509
3 825 1255 1341
3 964 887 2515
3 359 554 1446
3 1830 27 1668
3 536 1855 733
3 2003 726 1612
3 1246 46 2156
3 1744 1059 2223
3 1340 540 2088
3 562 1411 1837
3 1688 21 1967
3 578 1758 1267
3 2055 369 2322
3 1804 541 2317
3 459 1742 1994
3 546 1923 2316
3 1297 401 2445
3 48 49 1167
3 1418 1774 2134
3 1234 359 2526
3 2100 355 1519
3 495 1803 1118
3 1236 437 2009
3 1114 832 2441
3 2385 739 2057
3 1085 707 1976
3 202 1268 1362
3 1210 1753 560
3 760 1752 1399
3 160 161 1445
3 806 1005 2021
3 331 1263 1017
3 2282 679 1935
3 665 2100 1519
3 1246 916 1377
3 696 2166 1304
3 485 767 2548
3 559 1887 2083
3 986 1121 2335
3 804 1000 2493
3 1571 2308 1800
3 1743 437 1904
3 1758 578 2213
3 606 1539 1555
3 779 1995 1091
3 1130 1308 2591
3 1803 495 2227
3 560 1753 2381
3 1190 786 1708
3 1262 1275 2708
3 702 1803 2227
3 1191 582 2618
3 1008 1925 2138
3 992 546 2530
3 980 1588 2528
3 2472 1186 2459
3 1410 1422 2232
3 871 1024 2406
3 1747 798 1372
3 1508 1336 2374
3 339 1464 1432
3 580 964 2515
3 1222 905 2098
3 1113 2106 1833
3 449 952 2427
3 1052 1217 2564
3 472 2037 2105
3 1105 243 2472
3 1493 1003 2246
3 1202 1344 2794
3 612 599 1066
3 1045 879 2352
3 1477 1894 2197
3 1561 727 1684
3 1106 839 2194
3 2097 671 2180
3 554 390 2376
3 352 2284 2172
3 1587 988 1609
3 995 913 2611
3 2274 1212 2772
3 1347 673 2297
3 889 2055 2322
3 1549 684 2084
3 730 1425 1423
3 262 668 2240
3 2154 1123 1443
3 549 2157 1976
3 1281 1138 1633
3 1301 656 2387
3 713 2682 2305
3 2058 848 2004
3 98 99 1219
3 731 1315 1261
3 1002 723 2594
3 547 2229 1403
3 2121 953 1848
3 1890 1011 2603
3 1200 859 2602
3 1303 436 2541
3 181 999 2174
3 990 921 1538
3 839 1106 2309
3 1168 2140 2254
3 23 955 1369
3 2200 1342 897
3 760 1788 2656
3 1039 993 1842
3 588 995 2611
3 466 1441 1682
3 516 1281 1633
3 668 702 2240
3 1727 522 1459
3 705 1296 1056
3 57 1067 1226
3 1980 325 2629
3 904 1760 2697
3 1976 2157 2305
3 181 182 999
3 898 1345 2145
3 853 1183 2538
3 138 139 2294
3 649 1349 2442
3 1198 1222 2098
3 791 903 1868
3 824 2241 2287
3 2106 613 1833
3 2122 478 1811
3 1654 2243 1885
3 386 1605 1562
3 663 512 2164
3 806 1155 2304
3 92 93 1983
3 1574 2307 1343
3 1085 1326 707
3 993 1039 1948
3 1837 997 933
3 1422 609 2232
3 1080 1561 1432
3 1020 1200 2602
3 844 1357 2064
3 1784 501 2179
3 2427 952 1816
3 919 1771 1781
3 1280 678 2711
3 1067 902 2320
3 1257 2121 1812
3 518 455 2288
3 781 1402 1411
3 230 231 1961
3 999 1210 2174
3 1029 1340 2088
3 437 1743 2369
3 176 1754 1865
3 2532 1687 2586
3 2121 1557 2633
3 1451 1707 2028
3 166 167 1921
3 747 558 1482
3 1212 1501 2772
3 793 1194 2146
3 2252 437 2369
3 592 776 2021
3 1746 941 2420
3 1426 1910 1957
3 1317 755 1338
3 1831 275 1438
3 1623 396 2198
3 331 1215 2281
3 1328 1565 2638
3 960 453 2696
3 520 1344 2206
3 19 288 1762
3 1221 1393 2319
3 109 1818 1604
3 1522 577 2148
3 358 853 2397
3 666 1958 1944
3 1300 1126 2276
3 1922 2367 2671
3 359 1070 2526
3 1743 350 2369
3 753 1666 1318
3 440 799 1520
3 1007 1495 1392
3 576 996 1673
3 443 1159 1612
3 799 651 924
3 1005 1724 2292
3 291 1688 2022
3 774 1679 1261
3 1303 1130 2769
3 1993 1084 2636
3 1535 532 1621
3 502 1461 1878
3 1172 2370 2627
3 32 1384 2001
3 588 1896 2135
3 730 1082 1425
3 520 1741 1413
3 216 217 1996
3 504 1234 2784
3 1231 948 2101
3 1836 742 2053
3 1616 1276 1934
3 573 1741 2206
3 1645 980 2025
3 1509 518 2288
3 571 1746 2420
3 258 2580 2048
3 98 1219 2520
3 1528 352 2172
3 1721 888 1711
3 1219 506 2520
3 673 1347 2525
3 1671 617 1653
3 648 1727 1038
3 949 1631 2555
3 486 1370 1747
3 480 951 1563
3 1381 850 2477
3 1804 1172 1575
3 853 629 2236
3 2485 1361 2553
3 1521 1110 2301
3 1536 2229 2531
3 690 1522 2148
3 1123 2154 2754
3 696 994 1387
3 1305 1197 2095
3 1753 1210 2588
3 2346 384 2654
3 683 1100 1272
3 1290 10 1041
3 667 1356 2047
3 1461 502 2411
3 65 1777 2002
3 325 2371 2629
3 1344 2480 2794
3 548 2121 2633
3 1100 408 1272
3 2480 574 2794
3 707 549 1976
3 538 883 2690
3 1580 459 1911
3 1670 1196 2745
3 951 517 2597
3 1323 390 1593
3 1344 520 2057
3 1473 1347 2297
3 1602 373 2237
3 2229 1124 2531
3 595 1050 2079
3 2240 544 2299
3 190 191 2035
3 1384 1036 2001
3 66 67 2005
3 1270 1616 2572
3 2434 1488 1929
3 1247 1266 2657
3 1141 1163 2114
3 1818 720 1604
3 761 1843 2606
3 1916 317 2264
3 479 990 1538
3 882 965 1984
3 293 23 2044
3 2278 1331 2301
3 1189 2193 2632
3 905 1851 1167
3 1170 605 1912
3 965 1047 1984
3 1278 1382 2199
3 1301 989 1467
3 709 1159 1893
3 1240 620 2052
3 767 485 1541
3 713 2157 1874
3 1051 136 2449
3 111 112 1500
3 776 806 2021
3 470 729 2217
3 574 1289 1915
3 250 884 1131
3 951 480 1825
3 676 1988 2571
3 2158 831 2722
3 1419 1361 2485
3 1737 866 1967
3 390 554 2439
3 214 1121 2187
3 1777 550 2002
3 1129 456 1686
3 1732 515 2383
3 1340 377 1523
3 164 165 1235
3 1155 270 2278
3 1240 425 1871
3 1191 591 2505
3 1255 9 2067
3 12 1429 2407
3 1076 2133 1505
3 1126 1300 2350
3 839 232 2194
3 860 1115 2513
3 818 163 2516
3 492 1484 1379
3 2154 681 2754
3 970 2023 1866
3 1190 366 2634
3 1110 772 2301
3 264 265 1193
3 434 1854 2096
3 964 1732 2383
3 926 2235 2524
3 737 951 2597
3 177 178 2036
3 113 1813 1839
3 1754 827 1865
3 975 1630 2529
3 1676 121 2182
3 1534 1190 2634
3 1783 810 2196
3 390 1111 1593
3 480 1563 2690
3 680 1837 933
3 890 903 2010
3 1484 382 1964
3 1981 583 1775
3 862 1246 2156
3 13 1114 2727
3 108 2056 2518
3 559 2083 2431
3 1307 938 1686
3 1019 603 2348
3 1250 1374 2004
3 916 1246 2131
3 1151 505 961
3 1258 975 2529
3 373 1881 2243
3 781 1411 2771
3 109 110 1818
3 758 1956 2503
3 730 2089 2736
3 1775 583 1945
3 738 461 1774
3 1178 746 1647
3 239 1891 1933
3 245 246 1693
3 1307 456 2117
3 864 1996 2446
3 1308 704 2591
3 73 1726 2447
3 192 193 2042
3 799 1288 1520
3 412 536 2280
3 659 1831 1438
3 703 1675 2343
3 86 1405 1942
3 90 918 2103
3 644 1943 2480
3 1704 851 2425
3 1271 423 1924
3 1485 902 1846
3 456 1129 2697
3 1580 555 1061
3 328 2551 2600
3 1374 473 2004
3 1115 860 1901
3 932 1473 2297
3 253 254 1651
3 501 1784 2554
3 709 2003 1612
3 554 664 2439
3 701 1566 2403
3 2107 811 2391
3 1365 480 2690
3 394 933 2153
3 1870 77 2471
3 497 2142 1600
3 1495 1007 2596
3 1756 443 1525
3 1854 752 2096
3 800 820 1847
3 372 1645 1317
3 1053 1305 2484
3 3 1367 2635
3 1196 1480 2745
3 128 129 1199
3 519 1830 1668
3 465 837 2143
3 1274 802 1238
3 1159 443 2287
3 1851 905 1222
3 472 1993 2714
3 879 435 2352
3 2192 347 2373
3 597 1650 1785
3 512 563 1156
3 1896 1089 2135
3 1288 489 2533
3 1692 1135 2408
3 387 1652 1389
3 1588 980 2676
3 1395 2252 2369
3 1203 1710 2623
3 1788 1755 2656
3 1923 1095 2316
3 1246 862 2131
3 826 1945 2461
3 1352 792 1920
3 586 1570 2512
3 1784 796 2554
3 1159 550 1893
3 1014 1597 1245
3 619 1320 2178
3 2088 1947 1765
3 1069 386 1527
3 1570 728 2512
3 1746 571 1978
3 45 1246 1377
3 1500 112 1839
3 816 2253 2487
3 866 1688 1967
3 824 1756 2255
3 2094 866 1936
3 949 2555 2291
3 717 2296 2655
3 736 1854 2331
3 2189 929 2393
3 2580 1225 2048
3 1043 750 2563
3 1024 458 2406
3 624 1466 2748
3 1945 1062 2461
3 812 506 2250
3 1783 2196 2334
3 593 1122 2122
3 2168 1289 1795
3 1648 1896 2611
3 950 796 1094
3 683 551 2553
3 515 1732 1417
3 671 1392 2428
3 1081 2119 2245
3 881 2329 2248
3 304 305 1890
3 2142 1469 1600
3 1430 1079 1709
3 244 1579 2472
3 1564 1140 1051
3 1289 809 1915
3 693 951 1825
3 1113 1843 1683
3 1175 1500 1839
3 735 2434 1929
3 107 108 2518
3 173 174 1422
3 2470 1251 2738
3 1279 612 1066
3 789 1211 2346
3 1777 709 1893
3 1194 430 2139
3 1249 1198 1660
3 1881 373 1602
3 812 477 1876
3 164 1235 2516
3 869 1048 2409
3 764 433 2715
3 1742 732 1994
3 1441 729 1682
3 778 1217 2430
3 540 1340 1523
3 599 530 2710
3 1374 710 2328
3 2336 451 1767
3 1936 866 2218
3 1126 1784 2179
3 1770 1216 2589
3 605 1170 1955
3 865 2036 1991
3 365 2180 2428
3 505 1151 1940
3 5 172 2356
3 1392 1495 2428
3 719 2012 2158
3 1259 423 2668
3 1191 500 2231
3 979 1454 2256
3 1995 537 2357
3 932 1884 2302
3 1894 858 1866
3 1067 670 1226
3 1235 1157 2516
3 1401 710 2499
3 998 665 2651
3 20 1867 1408
3 587 464 2776
3 396 412 2280
3 1121 749 2187
3 1029 969 2183
3 2268 744 2569
3 2440 432 1512
3 42 1707 2019
3 550 1777 1893
3 1088 527 2502
3 2157 844 1874
3 1631 388 1447
3 410 1071 1453
3 171 5 2356
3 300 301 1419
3 1292 668 2653
3 901 2282 1809
3 2012 831 2158
3 1097 918 1614
3 820 800 2118
3 1810 687 1938
3 1064 806 2304
3 642 180 2174
3 1172 1440 1575
3 2036 178 1991
3 371 1540 1636
3 1891 1325 925
3 780 829 1698
3 1401 370 2127
3 675 1540 1908
3 237 238 2595
3 866 1737 2717
3 102 103 1412
3 2215 1026 2642
3 1891 441 1933
3 469 1485 1846
3 541 1248 2317
3 701 1676 2182
3 162 818 1358
3 802 1274 2469
3 179 642 1991
3 642 2174 560
3 599 488 1643
3 773 2094 1455
3 1726 1027 2447
3 1504 527 1088
3 702 668 2226
3 1357 948 1613
3 1732 1439 1417
3 611 2209 1442
3 1857 557 2567
3 1023 2158 2722
3 1524 1602 2237
3 1744 680 1009
3 1326 920 707
3 1406 1921 2365
3 792 1220 1920
3 710 1401 2127
3 1999 914 2161
3 918 1097 1442
3 1707 43 2028
3 634 1820 2342
3 960 2440 1512
3 1999 235 978
3 708 1496 1845
3 290 1861 1960
3 948 1357 2032
3 710 2127 2328
3 1300 727 2350
3 2185 344 1776
3 977 2229 2560
3 1764 653 2495
3 1553 1177 2600
3 241 242 1214
3 980 1645 2129
3 911 1093 1973
3 847 764 2715
3 1573 470 2150
3 201 202 1362
3 454 1028 1515
3 602 1475 2719
3 629 2310 2670
3 947 1651 2351
3 1786 1144 2621
3 586 1241 2124
3 2187 1465 2259
3 2018 530 1643
3 750 775 2224
3 474 1402 1075
3 459 1108 1911
3 881 2534 2590
3 1664 2294 2566
3 2226 1292 2435
3 1524 1473 1602
3 1836 942 2497
3 341 1231 2101
3 350 1743 1012
3 1921 167 2365
3 304 1890 2720
3 135 136 1051
3 89 90 2103
3 2151 719 2158
3 1922 819 2113
3 2039 677 2643
3 426 1836 2497
3 2247 418 2610
3 1401 428 2496
3 347 2036 2373
3 668 263 2653
3 1053 1533 1759
3 1066 599 2710
3 1271 1356 2668
3 685 1104 1311
3 2251 1119 1772
3 761 1813 1683
3 366 1540 2061
3 1256 828 1656
3 953 1637 1108
3 818 582 2505
3 228 229 1608
3 749 1121 1360
3 2215 337 2393
3 899 950 1094
3 392 1279 1066
3 969 1007 2183
3 765 1006 2775
3 185 186 1321
3 1688 773 2022
3 1813 114 1530
3 1082 427 2323
3 591 1191 2231
3 1564 734 2712
3 708 1845 2508
3 727 1852 1684
3 710 1320 2499
3 748 360 2341
3 2293 420 1990
3 1773 440 1950
3 211 212 987
3 788 1418 1720
3 1342 2200 2713
3 442 1162 1858
3 553 1650 2568
3 2047 1270 1796
3 1244 498 2153
3 729 1712 1682
3 1612 726 2339
3 918 91 1614
3 1162 1247 1858
3 1405 409 1942
3 749 1956 1391
3 1966 474 2173
3 1440 556 1575
3 267 776 1393
3 531 1657 2207
3 2284 541 2038
3 1315 928 1805
3 1843 1102 2606
3 636 1591 2456
3 1487 1780 2111
3 409 1405 2209
3 769 1082 2323
3 1788 760 1304
3 746 1214 2049
3 902 1485 2320
3 848 2039 2643
3 942 1223 1644
3 74 75 2089
3 718 2233 2129
3 1110 813 2664
3 2060 1753 2588
3 587 1373 2734
3 1256 675 1908
3 257 1170 1912
3 80 81 1153
3 1251 2018 1643
3 2036 865 2373
3 879 651 1638
3 2015 780 1698
3 1583 1737 1960
3 1904 1127 2195
3 1410 1018 2356
3 944 2293 1990
3 628 2183 1392
3 238 239 1933
3 877 2170 2760
3 1956 785 2503
3 582 818 2451
3 1970 577 2580
3 289 750 2224
3 584 2094 1936
3 1763 911 1973
3 131 3 2635
3 509 1517 2332
3 152 153 1077
3 1813 761 2300
3 2094 584 1455
3 84 1927 1917
3 661 1573 2150
3 1491 2341 1748
3 1485 670 2320
3 735 1808 1615
3 674 1873 1832
3 1225 1170 2048
3 779 1378 2000
3 2226 368 2212
3 100 101 1715
3 2024 355 2411
3 513 1006 2558
3 1219 99 1145
3 875 2005 2266
3 621 1596 2615
3 1170 257 2048
3 1058 805 2726
3 1112 1191 2618
3 1223 589 1644
3 1066 1436 2486
3 1336 1508 2685
3 2054 475 2140
3 374 1981 2375
3 2298 439 2701
3 529 869 2409
3 195 196 2075
3 1743 1904 2195
3 1540 371 1908
3 1016 2016 1303
3 1271 856 2648
3 603 1317 1338
3 486 1930 2508
3 1730 1416 2248
3 1333 584 1936
3 1362 583 2353
3 1104 774 1311
3 2113 400 2537
3 2480 1344 2057
3 1927 654 1399
3 1817 442 2542
3 1243 1916 2264
3 487 1788 1304
3 2436 771 1421
3 1881 932 2302
3 379 1583 1960
3 337 1576 2565
3 493 1209 1546
3 1030 367 1542
3 1857 1354 2608
3 1981 1218 2375
3 1376 325 1980
3 255 2314 2351
3 948 1188 1613
3 2003 709 2770
3 69 70 1267
3 684 2360 2084
3 667 2047 1796
3 1883 1008 2138
3 593 2122 2273
3 1325 1891 2102
3 1282 2522 1979
3 1822 631 1629
3 1319 812 2250
3 706 2173 2788
3 223 1894 2074
3 2241 526 2205
3 1300 365 2644
3 751 1936 2218
3 871 1694 1024
3 751 1333 1936
3 1548 89 2103
3 1298 1389 1880
3 127 1835 1414
3 1570 964 2383
3 615 873 2476
3 349 1056 2326
3 764 485 1751
3 706 2015 1698
3 625 1151 961
3 1835 887 1414
3 78 1409 2471
3 1168 2054 2140
3 275 276 1438
3 1000 909 1625
3 199 1458 2303
3 2012 719 2228
3 207 1877 1299
3 1568 1081 2725
3 395 1463 1845
3 530 1980 2710
3 1787 742 2689
3 1474 696 1304
3 757 1154 2201
3 334 1804 2317
3 2021 1005 2292
3 329 1153 2160
3 428 1401 2499
3 332 642 560
3 2166 487 1304
3 1190 939 1636
3 1176 403 2559
3 1203 1608 2535
3 331 2190 1901
3 1229 1695 2663
3 863 2417 2432
3 681 2737 2754
3 728 1570 2383
3 1596 621 2530
3 435 879 1638
3 2279 546 2316
3 771 1803 2212
3 1234 901 2784
3 1884 932 2297
3 77 78 2471
3 2276 1126 2082
3 505 2225 961
3 1657 780 2207
3 1808 506 1615
3 392 1066 2486
3 1509 805 2285
3 640 1145 2741
3 914 1999 978
3 1907 830 1667
3 1473 932 1602
3 1502 1575 2514
3 1804 1575 2038
3 650 1458 2358
3 1031 389 2537
3 235 236 978
3 884 448 2519
3 161 162 1358
3 712 1296 2521
3 1156 1543 1635
3 953 1257 1520
3 2517 798 2545
3 213 214 2187
3 999 182 2170
3 2417 1364 2432
3 481 1927 1399
3 50 51 2321
3 1100 683 1567
3 541 1804 2038
3 570 1323 1433
3 1033 551 1386
3 270 271 2278
3 1420 1787 2689
3 1070 416 2396
3 1042 349 2326
3 1873 1385 1832
3 2270 1516 2741
3 536 733 2682
3 1413 1741 1628
3 681 2154 2188
3 153 154 2609
3 1452 981 2650
3 305 1011 1890
3 1248 1487 2317
3 44 45 1377
3 1983 1097 1614
3 1377 916 2740
3 1518 635 1862
3 1618 838 2382
3 813 2147 2664
3 447 2146 1799
3 1806 508 1578
3 1435 338 2239
3 574 1943 2477
3 114 115 1530
3 339 2628 2040
3 2302 514 2147
3 873 507 2680
3 1579 1186 2472
3 1247 2279 2316
3 1048 869 2511
3 2133 335 1505
3 1921 1354 2751
3 187 6 1905
3 1881 813 2243
3 2151 1506 1535
3 1405 658 2209
3 1420 1786 2621
3 1153 81 2160
3 2477 850 1795
3 1870 880 1585
3 698 2275 1507
3 2295 913 1287
3 259 260 1970
3 234 1999 1953
3 773 1455 2031
3 495 2148 2234
3 468 353 1810
3 433 764 2463
3 1712 1140 2059
3 1356 984 2047
3 353 854 1810
3 878 1400 1961
3 712 455 2326
3 6 188 1905
3 1322 2327 2501
3 592 2021 2292
3 457 2200 897
3 1918 648 1355
3 104 2 1779
3 2275 852 2540
3 434 2254 2051
3 1422 1410 2759
3 2071 1282 1846
3 747 1772 2630
3 2 105 1779
3 40 41 2359
3 320 27 1830
3 509 2332 1348
3 954 1058 2726
3 673 1884 2297
3 912 2436 1421
3 2022 773 1699
3 506 1808 2520
3 352 1900 2284
3 1423 1425 2646
3 759 676 2669
3 29 30 1680
3 2121 548 1812
3 446 2427 1816
3 616 2441 1748
3 183 184 1971
3 880 1870 2143
3 1509 2288 2726
3 1055 547 600
3 120 1676 1544
3 1575 556 2514
3 1965 537 2387
3 1496 825 1341
3 517 1275 2597
3 724 1860 1661
3 99 100 1145
3 1464 669 1432
3 860 1215 1901
3 205 206 1798
3 2296 1146 2655
3 1660 1198 2098
3 1861 379 1960
3 764 753 2463
3 1357 549 2032
3 467 1596 2476
3 1003 802 2246
3 1277 558 1330
3 483 2033 2493
3 1193 1292 2653
3 415 1592 2594
3 303 1100 1567
3 1458 200 2358
3 1511 1001 1882
3 483 1000 1625
3 1797 1359 1538
3 2015 341 1404
3 1891 240 2102
3 1591 1060 2678
3 851 1629 2425
3 786 981 1708
3 994 611 1387
3 1664 415 2730
3 522 1180 1778
3 1632 1918 1355
3 1867 1498 1408
3 832 1504 2441
3 580 1179 1732
3 1218 1775 2523
3 255 256 2314
3 1135 2192 2373
3 631 1822 2166
3 1003 927 2009
3 1341 1134 1635
3 435 1072 1821
3 921 1797 1538
3 847 1854 1541
3 157 158 2165
3 1592 142 2510
3 753 764 1751
3 1291 423 1826
3 797 2491 1963
3 1457 463 2712
3 851 1822 1629
3 476 2247 2444
3 2227 495 2234
3 1623 361 2220
3 141 1592 971
3 509 2078 2091
3 2275 610 1507
3 1307 2117 2523
3 991 1599 1684
3 688 2171 2771
3 1026 1988 1578
3 347 2192 2007
3 957 1291 1826
3 1132 623 1088
3 1101 2022 1699
3 76 1870 1585
3 216 1996 2335
3 670 1067 2320
3 2005 67 2266
3 911 1863 1513
3 427 837 1390
3 1860 1021 1661
3 1540 675 2061
3 242 243 2049
3 1048 2359 2409
3 1860 724 2482
3 1109 1209 2118
3 182 183 2170
3 92 1983 1614
3 2279 2657 1844
3 295 296 2716
3 1793 1221 2602
3 1015 1455 1582
3 1859 936 2361
3 664 1154 2506
3 1486 1406 2365
3 83 84 1917
3 1693 246 2155
3 414 1695 2099
3 1953 1999 2161
3 266 267 1393
3 1205 1660 2098
3 2359 399 2409
3 1884 514 2302
3 26 979 2256
3 1645 372 2129
3 1996 986 2335
3 264 1193 2653
3 465 1870 2471
3 2151 2158 2779
3 1962 327 2502
3 1069 1527 1823
3 1376 694 2561
3 1458 650 1767
3 1463 607 1845
3 2042 689 2211
3 937 1762 1685
3 332 1692 2408
3 1231 341 1759
3 154 2262 2609
3 1808 97 2520
3 775 1383 2224
3 805 1952 2285
3 1877 1022 1299
3 932 1881 1602
3 626 1081 2245
3 1072 558 1821
3 1596 615 2476
3 579 1618 2382
3 346 2405 2787
3 1289 2477 1795
3 2083 641 2431
3 345 969 2410
3 780 2015 1404
3 463 1510 2712
3 1011 1345 2776
3 551 683 1386
3 613 1098 2414
3 615 2279 1844
3 332 560 2381
3 2078 509 1348
3 998 156 2306
3 1608 229 2535
3 2081 198 2303
3 1353 1323 1593
3 1434 376 1164
3 2015 706 2788
3 856 1271 2732
3 2314 947 2351
3 464 1011 2776
3 439 1315 1739
3 955 1045 1369
3 166 1921 2751
3 1752 481 1399
3 918 658 2103
3 299 300 2432
3 734 1457 2712
3 198 199 2303
3 579 2268 2569
3 1639 1446 2455
3 265 266 1793
3 325 1376 2338
3 1425 769 1628
3 820 493 2026
3 689 2035 2211
3 2171 345 2216
3 1762 922 1685
3 2247 1719 2444
3 681 1731 2737
3 1931 1470 2124
3 1606 686 2231
3 1596 467 2615
3 741 1334 600
3 2290 700 2789
3 2336 374 2354
3 902 2071 1846
3 123 124 2202
3 1179 1439 1732
3 1010 1509 2285
3 699 1859 2361
3 2546 941 2728
3 1474 760 1399
3 919 1063 2378
3 1458 451 2303
3 2324 320 1830
3 119 120 1544
3 433 1013 2715
3 1206 1213 2570
3 596 353 1550
3 1608 1203 2623
3 1863 61 1513
3 993 1948 2688
3 1839 1813 2300
3 1068 1900 1700
3 1835 580 2515
3 995 1147 2698
3 233 234 1953
3 1162 930 1266
3 782 1233 2556
3 818 2516 2451
3 2146 1558 1799
3 1030 895 2469
3 1564 1051 2449
3 367 1274 2756
3 118 119 2454
3 489 924 1735
3 380 2208 2693
3 411 1031 2691
3 909 1000 2452
3 1664 637 2552
3 357 2033 2150
3 470 1573 2402
3 1486 169 2709
3 1296 503 2521
3 887 1835 2515
3 1478 1015 1582
3 452 1335 2590
3 987 212 2259
3 1695 1229 2099
3 2253 864 2487
3 1340 1029 1594
3 2181 2003 2770
3 173 1422 2759
3 1040 2324 1830
3 1197 2171 2216
3 1629 876 2425
3 2655 1506 2313
3 2036 347 2752
3 926 1974 1790
3 2025 980 2528
3 1896 382 768
3 1431 430 2416
3 1026 1578 2642
3 2591 1138 2769
3 1944 1958 2087
3 244 245 1579
3 694 1376 1207
3 1900 352 2344
3 2171 781 2771
3 1436 1066 2710
3 1998 967 2760
3 525 1290 2242
3 1370 627 2545
3 358 1277 1330
3 1775 1945 2438
3 561 2025 2528
3 168 1486 2365
3 1089 1896 768
3 1956 749 2598
3 532 1607 1621
3 217 218 2446
3 1535 1506 2401
3 1091 1995 2343
3 797 2104 2671
3 444 2069 2706
3 861 403 1938
3 2323 1265 2062
3 2144 481 1954
3 1354 1235 2751
3 465 1409 1669
3 405 1035 2465
3 485 2548 2269
3 1742 984 2648
3 719 2151 1535
3 224 225 1310
3 1689 1049 1745
3 1412 103 2704
3 1324 970 1866
3 544 1970 2299
3 383 1511 1882
3 249 250 1131
3 1280 2168 1795
3 1488 2434 2291
3 820 834 2221
3 1506 2151 2313
3 2005 875 2770
3 979 870 2661
3 1771 578 1781
3 609 2159 2232
3 2151 471 2313
3 968 1274 1782
3 1500 597 2750
3 1856 917 2659
3 1199 129 1701
3 881 1335 2329
3 1607 626 2318
3 2293 944 2093
3 785 1956 2598
3 192 2042 2211
3 506 812 1615
3 261 262 2240
3 496 1659 1685
3 756 1132 1088
3 1161 1453 2732
3 880 2089 1585
3 2614 1860 2482
3 827 1581 2659
3 869 677 2511
3 1278 957 2707
3 463 936 1859
3 1163 1141 1939
3 174 175 2162
3 1925 581 2138
3 615 1596 2366
3 1518 445 1254
3 222 223 2074
3 1819 465 1669
3 1022 1607 2318
3 1051 1140 1610
3 302 303 1567
3 1370 798 1747
3 1294 2375 2576
3 1465 987 2259
3 445 740 925
3 2033 661 2150
3 1138 1281 1770
3 1453 856 2732
3 196 197 1456
3 319 320 2324
3 34 35 2235
3 1573 3 2402
3 628 1392 2786
3 1772 1119 2630
3 1833 613 2414
3 1219 640 2250
3 1083 1301 2387
3 860 1434 1164
3 1451 1377 2740
3 631 1396 1629
3 1863 911 1763
3 79 80 2108
3 1877 207 1985
3 2035 191 2211
3 64 65 2002
3 1233 405 2556
3 594 1549 2084
3 763 1852 2644
3 1446 554 2376
3 2307 830 2565
3 1429 490 2684
3 757 2201 2662
3 35 36 2524
3 1892 635 2014
3 888 1543 1542
3 2081 451 2363
3 1188 569 1613
3 176 177 1754
3 604 1293 2283
3 1900 1068 1801
3 545 1171 1789
3 1469 2142 2444
3 481 2144 1917
3 1671 1653 2546
3 150 151 1490
3 1232 688 2771
3 1276 955 1934
3 662 394 2398
3 2027 59 2622
3 2304 772 2664
3 327 1335 1975
3 1376 530 1207
3 942 1836 2053
3 1208 814 1794
3 605 2314 1912
3 1496 395 1845
3 815 1013 1678
3 744 2268 2767
3 1455 1015 2031
3 809 2405 1915
3 1214 1325 2102
3 1064 2304 2664
3 341 2015 2392
3 867 2081 2363
3 2086 511 2626
3 433 2463 2672
3 718 1096 2233
3 2316 1095 1858
3 1894 223 1332
3 353 1124 1550
3 2572 1101 1796
3 63 64 2498
3 444 1278 2707
3 1248 541 1801
3 258 259 2580
3 813 1110 1885
3 368 1206 2570
3 2223 1059 2677
3 1638 651 1728
3 1409 906 1669
3 2069 444 2707
3 2318 354 2640
3 959 868 2340
3 896 2154 1443
3 2463 1125 2672
3 1867 293 2251
3 51 52 1713
3 2089 75 1585
3 1930 708 2508
3 1390 1057 2371
3 2405 1202 1915
3 1606 1416 2423
3 623 1504 1088
3 206 207 1299
3 506 1219 2250
3 2024 618 2077
3 2395 553 2568
3 1694 807 1024
3 675 1284 2311
3 2378 1027 1761
3 285 1104 1903
3 858 1894 1332
3 2154 1586 2188
3 1021 1860 1625
3 1242 2239 2785
3 124 125 1931
3 1164 646 375
3 756 1088 2502
3 2086 604 2268
3 1095 2424 1858
3 1036 1384 2349
3 1060 2024 2077
3 2185 693 1825
3 1321 186 1888
3 856 1742 2648
3 405 1233 2457
3 1370 486 2152
3 1312 248 2543
3 2397 853 2236
3 324 1295 2550
3 703 1995 2357
3 1326 1085 1734
3 349 1326 1734
3 484 1977 2544
3 156 157 2306
3 1255 825 2582
3 1335 881 2590
3 545 1789 2255
3 530 2018 1207
3 451 2115 2363
3 738 2107 2391
3 1543 888 2731
3 2061 675 2311
3 2023 766 1866
3 1394 1431 2416
3 1472 398 2649
3 557 2394 2567
3 952 2589 1816
3 1216 1281 1814
3 1265 1390 2371
3 1498 1861 1408
3 471 1875 2313
3 2087 785 2598
3 999 877 2588
3 2174 1210 560
3 221 222 1318
3 218 219 1152
3 1302 2270 2741
3 1491 1328 1546
3 1235 165 2751
3 1497 2185 1825
3 2033 1243 2493
3 2589 1216 1816
3 478 2122 2745
3 1606 500 2534
3 995 148 1287
3 637 1664 2730
3 1165 2207 1404
3 860 1164 375
3 1526 1952 2249
3 337 2016 1576
3 431 1224 1343
3 357 1916 2667
3 581 2470 2242
3 1751 485 2269
3 1280 1795 2584
3 2392 2015 2788
3 1977 406 2544
3 798 1370 2545
3 417 1689 1745
3 714 1533 2612
3 2016 1016 1576
3 2239 338 2785
3 832 1114 2562
3 1485 469 2723
3 1335 452 1363
3 111 1500 2750
3 739 2480 2057
3 580 1199 2337
3 294 295 2267
3 1611 2055 2522
3 834 820 2026
3 514 1884 1724
3 94 95 1898
3 1039 1227 1948
3 541 1900 1801
3 1045 955 1735
3 958 2085 2176
3 1328 1491 2743
3 2012 210 2126
3 1653 419 2546
3 438 2485 2553
3 460 2215 2642
3 1671 2546 2728
3 1894 1477 2074
3 445 1518 2703
3 1274 968 2756
3 972 2354 1528
3 389 2113 2537
3 1416 1606 2534
3 1227 565 1948
3 1295 529 2550
3 1096 499 2233
3 627 1370 2692
3 2077 618 2415
3 1014 1914 908
3 1532 939 1708
3 1183 1638 1728
3 1033 662 2398
3 1055 945 2780
3 499 1968 2676
3 2119 354 2245
3 532 1535 2401
3 328 1516 2270
3 1210 999 2588
3 857 1199 1701
3 1345 1011 2112
3 355 1591 1519
3 1116 741 1428
3 333 2218 2717
3 148 995 2698
3 1367 1309 2635
3 2091 1040 2593
3 381 2077 2415
3 1896 588 2611
3 1970 260 2299
3 2555 326 2291
3 885 1312 2543
3 912 1046 2436
3 2354 1294 1528
3 1974 1329 1681
3 190 2035 2768
3 2071 450 2549
3 487 1822 1939
3 1952 805 2249
3 1780 594 2684
3 1070 679 2526
3 1297 510 1467
3 1151 356 1940
3 1985 762 1621
3 1591 636 1519
3 1877 1985 1621
3 1367 3 1573
3 775 750 2577
3 611 994 2774
3 2348 603 1338
3 1798 846 2742
3 241 1214 2102
3 56 57 1226
3 424 2027 2622
3 622 1486 2709
3 2109 1252 1058
3 527 1962 2502
3 224 1310 1332
3 2100 1461 2411
3 770 1122 2315
3 2244 1111 2700
3 1845 607 2508
3 2500 845 2141
3 205 1798 2742
3 1797 391 2583
3 1233 273 2457
3 1183 1728 2538
3 1138 2289 1633
3 2017 1033 1386
3 542 823 2041
3 392 1819 1669
3 1974 370 1849
3 1007 969 2695
3 2289 726 1633
3 2628 1260 2040
3 680 662 2724
3 1618 896 1443
3 479 1533 2484
3 355 2100 2411
3 1910 1283 1957
3 1007 2258 2596
3 1509 1010 2149
3 1154 518 2506
3 371 1636 1840
3 2104 819 2671
3 628 2193 1594
3 602 1592 2510
3 661 2033 2614
3 2332 889 1348
3 1382 1080 2199
3 981 1977 2650
3 2429 757 2662
3 52 2196 1713
3 1308 1212 1099
3 1193 859 2557
3 1914 4 908
3 1784 1126 2350
3 518 1509 2149
3 2159 622 2232
3 1377 1451 2028
3 1117 565 2403
3 1969 605 1955
3 1309 1367 2792
3 2089 880 2736
3 704 1308 1099
3 2310 765 2670
3 1581 571 2659
3 1860 483 1625
3 1270 2572 1796
3 535 1184 1750
3 1215 860 375
3 660 1807 2781
3 376 1434 2204
3 584 1333 2163
3 635 1892 1862
3 1846 1282 1979
3 1592 415 971
3 495 1462 2130
3 811 2513 2391
3 1054 629 1678
3 1533 1053 2484
3 2017 1079 2724
3 950 501 2554
3 1318 1477 1158
3 2233 499 2676
3 769 2323 2062
3 833 1676 2050
3 1927 481 1917
3 481 1752 1954
3 597 1818 2750
3 1380 2222 2281
3 811 1434 2513
3 987 1465 2400
3 2136 1337 2204
3 755 1657 1338
3 558 1072 1330
3 1224 1574 1343
3 725 1472 2649
3 1043 2290 2789
3 536 1437 2280
3 805 1509 2726
3 1004 887 1427
3 778 1160 2734
3 2207 780 1404
3 177 2036 1754
3 1362 650 2358
3 1649 1077 2456
3 54 55 975
3 1972 281 2488
3 1527 1286 2041
3 2225 1329 961
3 823 1103 2041
3 44 1377 2028
3 1676 701 2050
3 1494 1907 1667
3 1283 1910 1692
3 1855 1346 2764
3 564 1215 375
3 1054 1228 2236
3 430 1431 2728
3 413 1919 2176
3 1331 821 2330
3 1103 823 1749
3 1450 363 2587
3 1013 736 2331
3 1002 351 2661
3 547 1055 2647
3 1581 827 2752
3 1576 840 2565
3 1887 429 2683
3 220 221 1666
3 1590 1230 2496
3 1104 685 1903
3 1996 217 2446
3 1724 792 2292
3 1958 785 2087
3 1771 1216 1814
3 465 1819 837
3 1337 1644 2665
3 733 836 2682
3 669 1464 1722
3 994 654 2379
3 1665 845 2500
3 449 2427 1415
3 1435 782 2556
3 1562 810 2167
3 651 879 924
3 1446 570 2455
3 2018 697 2464
3 1854 847 2331
3 1445 686 2389
3 2055 691 2522
3 564 2325 2281
3 13 282 2360
3 1884 673 2034
3 1578 508 2642
3 2427 1204 1415
3 578 1771 1814
3 279 9 1883
3 2375 1218 2576
3 1310 858 1332
3 226 227 2116
3 792 1352 2694
3 482 1248 2020
3 1046 814 2198
3 1366 1136 2677
3 653 1887 2758
3 2292 792 2694
3 1562 1677 2763
3 1012 1743 2195
3 2422 795 2587
3 653 1545 2495
3 87 88 2617
3 1285 2275 2540
3 72 73 2447
3 2208 815 2693
3 989 1297 1467
3 935 775 2577
3 2190 331 1017
3 1453 1161 2681
3 1257 770 2315
3 533 1184 2625
3 1956 342 1391
3 1575 1502 2038
3 678 2142 2711
3 1060 1050 2678
3 658 1405 2617
3 1329 1974 1849
3 679 1070 2396
3 2157 713 2305
3 1359 1797 2583
3 1215 331 1901
3 126 127 1414
3 845 1368 2458
3 385 1178 1647
3 836 733 1531
3 1677 1562 2167
3 1334 741 1237
3 930 2078 1348
3 1193 265 1793
3 2115 556 2363
3 297 298 1466
3 1097 1983 1555
3 796 950 2554
3 16 289 2224
3 2434 949 2291
3 1583 333 2717
3 1354 1921 2608
3 887 1570 1427
3 486 2508 2152
3 338 1435 2465
3 210 211 2126
3 475 1116 1428
3 2388 1460 1909
3 629 1054 2236
3 2119 1032 1997
3 1921 1406 2286
3 201 1362 2358
3 1063 72 2447
3 600 547 2384
3 2169 532 2401
3 2035 1285 2768
3 1437 396 2280
3 2295 150 1490
3 1292 1193 2557
3 1636 939 1840
3 39 40 1187
3 1937 457 2271
3 1470 1004 1427
3 699 2377 1510
3 429 1483 1868
3 2258 1007 2695
3 1690 1046 2198
3 826 2119 1997
3 146 147 2277
3 2669 728 2383
3 261 2240 2299
3 2238 692 2386
3 2097 787 2632
3 249 1131 2543
3 1694 871 2688
3 1313 1998 2760
3 1969 540 2362
3 1035 338 2465
3 1396 876 1629
3 1822 487 2166
3 357 2150 2217
3 1892 598 1862
3 1406 1486 1959
3 2325 1380 2281
3 1930 486 2584
3 1282 2071 2549
3 871 2238 2386
3 747 1482 2765
3 1186 2120 2459
3 1853 647 2347
3 2033 357 2667
3 2115 451 2336
3 1160 778 1709
3 1995 703 2343
3 376 1334 1237
3 1136 2223 2677
3 2524 1086 2735
3 2033 483 2614
3 528 967 1998
3 1502 2284 2038
3 1439 1179 1815
3 1916 1243 2667
3 2400 1465 1391
3 1511 844 1551
3 1312 885 2674
3 876 1396 2755
3 2131 657 2458
3 440 1520 2315
3 245 1693 1579
3 2241 824 1789
3 213 2187 2259
3 2737 1529 2754
3 116 117 1577
3 1004 126 1414
3 1010 2244 2700
3 1179 674 1815
3 160 1445 2389
3 2214 1784 2350
3 2091 909 2452
3 2371 325 2385
3 2473 885 2519
3 366 1620 2634
3 1053 1759 2392
3 408 1100 2720
3 1818 110 2750
3 2150 470 2217
3 395 1635 2731
3 1054 433 2672
3 683 1272 1386
3 1131 885 2543
3 627 1339 2545
3 2069 931 2706
3 622 1018 2232
3 1063 1027 2378
3 1016 1303 2541
3 741 600 2384
3 1600 983 2620
3 656 1965 2387
3 613 2106 1577
3 2548 1078 2269
3 1635 1543 2731
3 1437 536 2682
3 175 176 1865
3 710 1374 1841
3 469 1846 1979
3 1029 2183 1594
3 406 2043 2544
3 1018 1410 2232
3 427 1082 1757
3 1318 222 2074
3 2277 147 2698
3 2037 1259 2105
3 786 1190 1534
3 1486 622 1913
3 159 160 2389
3 1786 1420 2689
3 2360 684 2562
3 874 452 2590
3 1229 1969 2099
3 1178 385 1716
3 1852 1300 2644
3 197 198 2744
3 2597 1275 2599
3 831 2012 2126
3 566 1012 2195
3 1943 1381 2477
3 1937 568 2627
3 1213 1208 1794
3 61 62 1513
3 965 1756 1525
3 2692 1463 2261
3 148 149 1287
3 991 1366 2677
3 936 313 2361
3 913 995 1287
3 324 1987 2128
3 144 4 1914
3 1464 1052 1722
3 2682 836 2305
3 974 1133 1828
3 243 244 2472
3 526 2241 1789
3 198 2081 2744
3 203 204 1264
3 2106 116 1577
3 1611 2522 2549
3 1763 450 2575
3 1008 1883 2582
3 1167 49 2686
3 1049 1167 2686
3 728 2669 2571
3 397 2137 2674
3 1205 1293 2626
3 2125 983 1864
3 445 1982 1254
3 650 1362 2353
3 2293 1262 2708
3 1982 982 1254
3 598 740 2703
3 31 32 2001
3 831 987 2400
3 1748 623 2743
3 1367 724 2792
3 1042 757 2429
3 361 1623 2781
3 543 1872 1641
3 2085 413 2176
3 998 721 2777
3 1532 379 1840
3 1022 1798 1299
3 567 1160 1709
3 211 987 2126
3 1104 285 2070
3 1103 1527 2041
3 987 831 2126
3 605 1969 2362
3 557 1847 2221
3 770 1257 1812
3 1980 1436 2710
3 1872 618 1641
3 1491 1748 2743
3 2367 797 2671
3 256 257 1912
3 1333 843 2163
3 1981 374 2699
3 437 1236 1904
3 289 19 2563
3 2183 628 1594
3 555 1580 1911
3 1545 841 2495
3 352 1528 1760
3 1238 553 1782
3 407 2125 1864
3 78 79 2263
3 665 998 2777
3 513 1773 1950
3 80 1153 2108
3 808 935 2577
3 863 1419 2485
3 10 279 1041
3 720 2056 1604
3 327 1962 2599
3 1215 564 2281
3 378 1993 2636
3 973 1990 2624
3 1521 2301 2330
3 1388 1829 1398
3 688 2258 2695
3 443 1612 2339
3 2029 469 1979
3 1479 1397 1619
3 740 598 1740
3 147 148 2698
3 1087 1383 1703
3 268 269 1989
3 408 1890 2603
3 282 12 2407
3 2522 1282 2549
3 1409 78 2263
3 945 1223 2773
3 1288 953 1520
3 973 1768 2479
3 1390 1265 2323
3 803 985 1926
3 1873 674 2504
3 962 1751 2269
3 819 1922 2671
3 2685 1617 1844
3 1011 306 2112
3 1132 1363 2468
3 1689 1205 2098
3 382 2490 768
3 2490 1560 768
3 1046 383 2436
3 386 1562 2763
3 2020 1248 1801
3 1396 606 2755
3 1456 197 2744
3 1953 1106 2194
3 1754 2036 2752
3 1650 350 1785
3 848 2058 2312
3 1520 1257 2315
3 1199 857 2337
3 2200 890 2713
3 169 170 2709
3 677 2039 2511
3 913 1648 2611
3 2042 1342 2713
3 1267 70 2579
3 1987 524 2128
3 1448 1932 2733
3 1759 341 2392
3 1768 322 2479
3 1570 586 1427
3 2229 1536 2560
3 733 705 1531
3 2393 337 2565
3 1409 465 2471
3 1130 2591 2769
3 1309 1873 2504
3 88 1548 2617
3 1389 1298 2342
3 2097 2632 2786
3 1431 1671 2728
3 1992 1202 2405
3 1160 464 2734
3 1660 1205 2626
3 2039 39 1187
3 363 2422 2587
3 1462 822 2132
3 1235 1354 2567
3 79 2108 2263
3 597 1500 2568
3 516 2003 2181
3 911 803 1926
3 1040 2091 2452
3 1819 392 2486
3 2090 393 2725
3 1131 884 2519
3 451 2081 2303
3 868 876 2755
3 709 2005 2770
3 2119 826 2461
3 1424 1972 2488
3 2183 1007 1392
3 2308 1044 1800
3 632 2685 1844
3 1829 1195 1398
3 608 869 2637
3 1214 242 2049
3 1082 730 2736
3 551 1033 2046
3 1434 860 2513
3 1265 2371 2385
3 663 1479 1619
3 2018 2464 1207
3 1270 2047 1061
3 354 2119 2461
3 2075 196 1456
3 348 1425 1628
3 1977 484 2650
3 689 2042 2585
3 2120 385 2459
3 1821 747 2630
3 1294 2354 2375
3 464 1160 2603
3 2455 575 2066
3 2321 51 1713
3 895 1493 2246
3 439 2060 2701
3 1285 2035 2666
3 1266 632 2657
3 273 274 2457
3 306 25 2112
3 342 2400 1391
3 569 1481 1551
3 1027 1063 2447
3 1317 603 1809
3 1090 1042 2429
3 985 2498 2205
3 2262 665 1519
3 1309 1714 2635
3 1019 2348 2639
3 803 911 1513
3 17 286 1738
3 636 2262 1519
3 293 2044 2251
3 384 1319 2654
3 570 1446 2376
3 887 1004 1414
3 1383 775 1703
3 669 1278 2199
3 1787 146 2277
3 1160 567 1471
3 207 208 1985
3 223 224 1332
3 1057 1819 2486
3 2513 1115 2391
3 838 1618 2613
3 699 1510 1859
3 637 1306 1909
3 1639 2455 2066
3 526 1093 1926
3 1719 2247 2610
3 994 2379 2774
3 663 1493 2581
3 779 1091 2415
3 869 608 2753
3 1703 775 2220
3 1091 381 2415
3 2208 1380 2592
3 583 1981 2353
3 56 1226 2006
3 830 2189 2393
3 2056 108 1604
3 353 468 2531
3 2168 1280 2711
3 727 2214 2350
3 1441 357 2217
3 1775 572 2523
3 1400 878 2605
3 1914 1014 1245
3 736 2208 2592
3 740 445 2703
3 1350 2196 1499
3 1072 1183 2631
3 596 1407 1824
3 370 1230 1849
3 1473 17 1738
3 1497 1634 2185
3 2189 692 2238
3 929 2189 2238
3 2031 667 1699
3 869 529 2637
3 607 1463 2692
3 617 1857 2608
3 724 1367 2482
3 2379 409 2774
3 2719 1475 1245
3 993 2125 1842
3 91 92 1614
3 1356 1259 2668
3 1459 522 2309
3 556 2115 2514
3 1623 943 2781
3 1968 1588 2676
3 1468 1036 2785
3 537 2000 2387
3 343 2178 1841
3 1274 1238 1782
3 511 1660 2626
3 1405 87 2617
3 189 190 2768
3 1378 1083 2000
3 2213 578 1814
3 1089 1407 2757
3 2148 495 2130
3 246 247 2155
3 1253 711 1668
3 870 1002 2661
3 1518 1862 2703
3 1177 1516 2600
3 1528 1294 1760
3 1832 1095 1815
3 1847 820 2221
3 251 252 2080
3 1056 349 1734
3 347 1581 2752
3 1264 204 2742
3 441 740 2073
3 729 1441 2217
3 1132 756 1363
3 2148 577 2234
3 85 86 1942
3 27 1253 1668
3 2249 1252 1941
3 1457 734 2552
3 41 42 2019
3 1862 598 2703
3 975 55 2006
3 233 1953 2194
3 1581 1239 1978
3 1334 376 2665
3 1124 353 2531
3 346 1992 2405
3 62 803 1513
3 2058 37 2312
3 1002 602 2719
3 983 2125 2483
3 946 1534 2634
3 1651 254 2351
3 134 135 1610
3 1077 153 2609
3 2127 1569 2328
3 336 1728 2063
3 1284 675 2404
3 1378 779 1872
3 257 258 2048
3 1035 659 1827
3 2294 1664 2552
3 281 11 2488
3 2115 972 2514
3 2502 327 1975
3 1203 1400 2605
3 1670 548 1559
3 512 1156 2419
3 1275 517 2708
3 943 1208 2448
3 1407 1089 1824
3 97 98 2520
3 1768 502 1878
3 1322 2184 2518
3 163 164 2516
3 1993 931 2714
3 112 113 1839
3 2044 1119 2251
3 567 1272 1471
3 939 1532 1840
3 1464 339 2040
3 1526 2249 1941
3 1923 992 1417
3 329 2144 1954
3 540 1523 2362
3 677 869 2753
3 1208 362 2448
3 1353 432 2440
3 1400 1203 2535
3 142 143 2510
3 1607 532 2169
3 286 16 2766
3 1430 778 2430
3 140 141 971
3 2196 810 1499
3 1358 818 2505
3 701 1227 2050
3 1322 2056 2702
3 1029 2088 2410
3 1023 1622 2219
3 180 181 2174
3 132 133 2076
3 1146 2169 2401
3 543 1378 1872
3 742 1836 2689
3 1372 798 2517
3 351 1002 2719
3 351 2719 1245
3 1425 348 2646
3 1134 1156 1635
3 1223 364 2773
3 695 2274 2772
3 1622 523 2219
3 1059 1599 2677
3 1422 174 2162
3 1085 1531 1734
3 1230 625 2660
3 1790 1974 1681
3 137 138 1725
3 571 1581 1978
3 2189 830 1907
3 1978 1239 2065
3 2512 728 2571
3 497 2168 2711
3 830 2307 1667
3 1634 344 2185
3 2088 633 2410
3 1768 973 2492
3 1440 1172 2627
3 1501 508 2772
3 2386 692 2483
3 467 2476 2072
3 1592 602 2594
3 2247 476 1372
3 440 2315 1950
3 1852 991 1684
3 1769 447 2616
3 1516 328 2600
3 1813 1530 1683
3 522 1642 2309
3 1439 1923 1417
3 1679 1104 2070
3 154 155 2651
3 248 249 2543
3 343 2104 1963
3 1156 1134 2419
3 2104 797 1963
3 2333 1249 2141
3 229 230 2535
3 1271 1924 2732
3 1514 694 2422
3 1375 328 2270
3 2044 23 1369
3 878 1620 2605
3 1557 2121 1848
3 2367 922 2491
3 551 438 2553
3 1480 478 2745
3 2082 1076 2137
3 1214 746 1736
3 1325 1214 1736
3 892 2247 1372
3 339 1599 2628
3 344 1301 2494
3 946 1642 1778
3 1642 946 2399
3 2069 472 2714
3 2325 564 2658
3 1783 1258 2167
3 450 2071 2575
3 1798 1022 2640
3 1728 336 2538
3 846 1798 2640
3 1620 878 2399
3 1314 534 2604
3 1204 1423 2646
3 2054 1168 2658
3 368 2226 2435
3 1106 1459 2309
3 1731 718 2737
3 1068 1489 2085
3 1083 1378 2466
3 19 2290 2563
3 766 1723 2197
3 2380 788 1480
3 1548 658 2617
3 70 71 2579
3 1239 1581 2007
3 1630 975 2006
3 1882 771 2436
3 2615 467 2274
3 640 1319 2250
3 604 1069 2767
3 2620 1494 2787
3 1696 882 1099
3 1647 1105 2459
3 2341 360 1869
3 1314 1485 2723
3 652 2623 2311
3 857 1714 2504
3 1648 915 1964
3 2056 1322 2518
3 1041 581 2242
3 1241 754 2124
3 2328 1569 2203
3 410 1453 2564
3 1723 1125 2197
3 1329 2225 1681
3 923 1811 2134
3 1145 1302 2741
3 517 420 2708
3 941 2139 2728
3 646 2054 2739
3 810 1783 2167
3 922 2367 1685
3 1659 496 1941
3 2341 616 1748
3 667 1796 1699
3 2623 1710 2311
3 1407 364 2757
3 915 2295 1490
3 436 1770 2589
3 1272 408 1471
3 920 1326 2536
3 572 1775 2438
3 2173 1053 2788
3 397 2082 2137
3 144 1914 1802
3 1766 2620 2787
3 892 1372 2517
3 810 1562 1499
3 129 130 1701
3 1241 586 2733
3 2144 329 2160
3 121 122 2182
3 842 1171 1601
3 2315 1122 1950
3 612 1279 2625
3 1493 895 2581
3 313 314 2361
3 594 2407 2684
3 1818 597 1785
3 232 233 2194
3 543 1641 2492
3 1144 908 2621
3 75 76 1585
3 877 2060 2588
3 317 318 2264
3 321 24 1749
3 53 1783 2334
3 751 2218 1850
3 364 1407 2773
3 400 1295 2691
3 1656 330 2404
3 409 2209 2774
3 1149 1353 2440
3 872 2008 2474
3 1589 1102 1711
3 2135 1089 2757
3 1142 596 1824
3 1015 1478 2105
3 363 1514 2422
3 2272 958 2176
3 872 967 2008
3 1714 1309 2504
3 1227 833 2050
3 280 10 1880
3 616 2341 1869
3 59 60 2622
3 1537 85 1942
3 1945 826 2438
3 658 1548 2103
3 637 1457 2552
3 627 2692 2261
3 908 1144 2478
3 415 1306 2730
3 2252 1003 2009
3 2207 1165 2586
3 568 1440 2627
3 12 285 1903
3 200 201 2358
3 240 241 2102
3 1306 1025 1909
3 263 264 2653
3 899 1094 2791
3 307 26 2191
3 67 68 2266
3 1755 535 2656
3 2443 1103 1749
3 2159 419 1913
3 379 1532 1583
3 37 38 2312
3 741 2384 1428
3 230 1400 2535
3 383 1882 2436
3 1642 522 1778
3 178 179 1991
3 733 1855 2764
3 594 1780 1549
3 473 1374 2328
3 186 187 1888
3 906 1409 2263
3 1537 409 2379
3 1310 340 1792
3 2170 1313 2760
3 1799 1388 1398
3 772 1110 2664
3 1112 1928 2638
3 2288 954 2726
3 2470 581 1925
3 103 104 2704
3 1175 1839 2300
3 81 82 2160
3 2296 393 2090
3 931 2069 2714
3 1672 738 1774
3 2442 1524 2237
3 1516 1177 2045
3 1597 1014 2478
3 108 109 1604
3 1049 2321 1745
3 2108 906 2263
3 670 1314 2604
3 718 2129 1951
3 1581 347 2007
3 914 1459 2161
3 531 2207 2586
3 1147 2277 2698
3 1706 819 2718
3 323 1944 2087
3 1432 669 2199
3 1562 1605 1499
3 2081 867 2744
3 110 111 2750
3 1146 2296 2090
3 878 1642 2399
3 791 2573 1507
3 1373 778 2734
3 837 427 2143
3 165 166 2751
3 2516 1157 2451
3 105 106 585
3 1489 413 2085
3 686 1606 2423
3 2123 528 1998
3 191 192 2211
3 1120 1468 1827
3 259 1970 2580
3 1220 792 2034
3 2175 786 1534
3 967 872 2761
3 1374 1250 2426
3 1746 1978 2065
3 167 168 2365
3 1098 892 2414
3 2367 496 1685
3 2230 899 2791
3 1364 2417 2748
3 2632 628 2786
3 49 50 2686
3 374 2336 1767
3 2272 832 2562
3 746 1982 1736
3 2333 845 2458
3 694 1514 2561
3 382 1648 1964
3 2624 1092 1776
3 362 1352 1920
3 43 44 2028
3 2037 957 1826
3 1791 840 1576
3 695 2615 2274
3 260 261 2299
3 1196 1670 1559
3 2180 671 2428
3 2496 428 2030
3 2476 873 2072
3 859 1206 2557
3 1087 1807 2525
3 1079 1009 2724
3 212 213 2259
3 2178 343 1963
3 344 2494 1776
3 591 1358 2505
3 1016 1791 1576
3 1811 1418 2134
3 721 2100 2777
3 1514 644 2561
3 1077 636 2456
3 204 205 2742
3 1982 445 2675
3 823 321 1749
3 967 528 2008
3 409 1537 1942
3 1475 1914 1245
3 1110 1521 1327
3 172 173 2759
3 2321 1350 1745
3 215 216 2335
3 2225 745 1681
3 494 1597 2478
3 649 2442 2237
3 544 2227 2234
3 1383 1087 2766
3 657 2333 2458
3 1279 533 2625
3 2100 665 2777
3 82 2144 2160
3 50 2321 2686
3 367 1589 1711
3 1532 333 1583
3 1706 608 2637
3 46 47 2156
3 254 255 2351
3 929 2238 2406
3 1319 640 2045
3 1009 680 2724
3 1171 526 1789
3 1687 920 2536
3 1900 2344 1700
3 656 2368 1965
3 883 1489 1700
3 867 1456 2744
3 825 1655 2582
3 2395 1175 1691
3 26 2256 2679
3 1243 2033 2667
3 744 1069 1823
3 2060 877 2761
3 9 278 2067
3 134 1610 2721
3 1095 1832 2424
3 569 1551 2064
3 1138 1770 2769
3 1252 1659 1941
3 509 2091 2593
3 2338 1376 2561
3 1069 744 2767
3 64 2002 2498
3 1943 574 2480
3 1076 1505 2137
3 1505 614 2137
3 831 2400 2722
3 1677 1371 2763
3 2510 143 1802
3 500 1606 2231
3 138 2294 1725
3 2218 333 1850
3 2368 630 1965
3 608 1706 2718
3 2238 871 2406
3 905 1689 2098
3 1530 1113 1683
3 1383 16 2224
3 1090 1687 2536
3 2008 1717 2474
3 1157 2394 2450
3 779 2415 1872
3 1206 368 2435
3 2243 813 1885
3 622 2159 1913
3 283 13 2727
3 697 1925 2257
3 1093 911 1926
3 1503 2624 1776
3 55 56 2006
3 1798 206 1299
3 399 2359 2019
3 692 2189 1907
3 1008 1655 2257
3 2076 133 2721
3 391 1797 2663
3 16 1383 2766
3 143 144 1802
3 2289 1138 2591
3 136 137 2449
3 133 134 2721
3 137 1725 2449
3 2384 1174 1428
3 1559 548 2633
3 1080 1432 2199
3 1094 444 2706
3 795 1655 2587
3 1928 493 2638
3 447 1799 1398
3 2141 1249 2649
3 2190 923 2134
3 140 971 2566
3 2301 1331 2330
3 1418 1811 1720
3 3 132 2402
3 458 1024 1932
3 886 2467 2540
3 52 53 2334
3 804 2493 2509
3 1306 637 2730
3 2125 407 1842
3 1102 1589 2606
3 170 1018 2709
3 2493 1243 2509
3 26 2679 2191
3 1363 452 2468
3 2573 698 1507
3 1489 1068 1700
3 2467 1285 2540
3 640 1516 2045
3 1014 908 2478
3 1797 921 2068
3 1102 1721 1711
3 1324 404 1201
3 132 2076 2402
3 285 15 2070
3 2547 722 1718
3 881 2248 2534
3 877 967 2761
3 403 861 2652
3 373 2364 2749
3 1261 1315 1805
3 797 2367 2491
3 1093 842 1973
3 398 2500 2141
3 1832 1385 2424
3 969 1029 2410
3 970 1324 1201
3 792 1724 2034
3 1780 482 1549
3 2415 618 1872
3 1228 2023 2013
3 421 343 2426
3 1613 569 2064
3 1600 1469 1864
3 1590 2496 2030
3 1928 1112 2618
3 1108 1637 1911
3 2547 587 2776
3 654 1474 1399
3 965 882 2680
3 139 140 2566
3 1261 1679 1626
3 661 2614 2482
3 705 733 2764
3 2202 124 1931
3 697 2470 1925
3 1678 629 2670
3 671 2097 2786
3 135 1051 1610
3 1052 1464 2040
3 1128 1314 2723
3 1109 1769 2616
3 2321 1049 2686
3 1947 921 1765
3 1565 1112 2638
3 393 2308 2705
3 1247 2316 1858
3 1378 543 2466
3 1885 1110 1327
3 1947 1229 2068
3 447 1398 2616
3 946 2175 1534
3 2394 834 2450
3 2229 547 2647
3 1413 769 2062
3 2310 853 2538
3 633 2088 1765
3 1179 580 2337
3 777 1672 1774
3 2359 41 2019
3 322 1768 1878
3 2254 666 2051
3 2079 1182 1584
3 507 965 2680
3 983 1600 1864
3 684 2272 2562
3 1914 1475 1802
3 595 2079 1584
3 461 2190 2134
3 2262 154 2651
3 2448 660 2781
3 1463 395 2731
3 2107 494 2641
3 1216 1771 1816
3 687 1810 2412
3 2139 430 2728
3 1771 446 1816
3 2424 442 1858
3 1099 882 1984
3 858 1310 1792
3 1290 1041 2242
3 1480 788 1720
3 1789 824 2255
3 402 1833 2414
3 968 2395 1691
3 1810 854 2412
3 2158 1023 2779
3 1149 1665 2500
3 1589 367 2756
3 1347 1603 2525
3 1986 1015 2105
3 944 1990 2479
3 483 1860 2614
3 1610 1712 2721
3 655 2184 2501
3 2031 1015 1986
3 636 1077 2609
3 2570 1213 1794
3 819 2104 2718
3 969 345 2695
3 815 1678 2670
3 1665 1149 2696
3 1267 2579 1781
3 1481 569 2578
3 1083 2466 2494
3 1476 1109 2616
3 2673 539 2783
3 587 2547 1718
3 571 1856 2659
3 2248 1416 2534
3 2196 52 2334
3 391 1886 1192
3 822 1481 2578
3 1182 1091 2343
3 923 2190 1017
3 1047 965 1525
3 1516 640 2741
3 393 2705 2725
3 687 861 1938
3 493 1928 2026
3 2218 866 2717
3 921 1947 2068
3 2407 1429 2684
3 1599 991 2677
3 1250 421 2426
3 1990 973 2479
3 968 1589 2756
3 943 2448 2781
3 473 2328 2203
3 2129 372 1951
3 1218 2117 2576
3 980 2233 2676
3 442 2424 2601
3 1653 617 2286
3 555 1911 2345
3 957 2069 2707
3 912 2570 1794
3 2409 399 2550
3 336 2310 2538
3 1655 1008 2582
3 1563 538 2690
3 2539 1521 2330
3 942 1644 2497
3 1279 392 2790
3 690 2148 2130
3 1928 834 2026
3 1807 673 2525
3 967 877 2760
3 1455 584 1582
3 427 1390 2323
3 666 1944 2051
3 471 2151 2779
3 2179 1076 2082
3 1752 535 1954
3 1687 1090 2639
3 1192 822 2578
3 1655 795 2257
3 2424 1385 2601
3 1031 2537 2691
3 1599 1059 2628
3 2209 611 2774
3 2397 1228 2013
3 518 2149 2506
3 1168 2254 2096
3 2184 1322 2501
3 1111 1353 1593
3 2193 628 2632
3 774 1261 1805
3 1124 2229 2647
3 2258 491 2596
3 915 1379 1964
3 623 1132 2743
3 404 1324 1792
3 2175 946 1778
3 1479 663 2164
3 2469 895 2246
3 704 2289 2591
3 1212 1696 1099
3 1719 2610 2778
3 898 1559 2633
3 610 2275 2666
3 531 1687 2639
3 603 2390 1809
3 286 1603 1738
3 2657 632 1844
3 1258 2607 2167
3 2610 966 2778
3 2377 1140 1510
3 1493 663 1619
3 1687 531 2586
3 581 1041 2138
3 1284 652 2311
3 1342 2527 897
3 2196 1350 1713
3 1195 1829 2210
3 718 1951 2737
3 2549 450 2177
3 2407 594 2084
3 1472 570 1433
3 1644 1337 2497
3 419 1653 1959
3 625 961 2660
3 1174 1871 2265
3 2527 1444 897
3 1626 1679 2110
3 644 2338 2561
3 1886 822 1192
3 888 1463 2731
3 731 1261 1626
3 734 2294 2552
3 1065 1626 2110
3 1603 286 2766
3 845 2333 2141
3 338 1468 2785
3 2235 35 2524
3 778 1430 1709
3 1773 513 2063
3 1174 2384 1403
3 1596 2530 2366
3 1108 459 1848
3 1347 1473 1738
3 1195 1476 2616
3 2318 626 2245
3 601 1675 2412
3 1406 1653 2286
3 348 1415 2646
3 1675 687 2412
3 2344 883 1700
3 883 1365 2690
3 1436 1980 2629
3 1324 858 1792
3 2450 582 2451
3 2390 901 1809
3 2354 374 2375
3 1730 539 2673
3 2533 1276 2345
3 1415 1204 2646
3 1053 2392 2788
3 665 2262 2651
3 855 1192 2578
3 1656 828 2765
3 578 1267 1781
3 1443 416 2613
3 2467 189 2768
3 521 1493 1619
3 2149 1107 2506
3 278 2419 2067
3 2530 546 2366
3 836 1976 2305
3 1572 1547 1716
3 1669 906 2790
3 2262 636 2609
3 880 2143 1757
3 1380 2325 2592
3 2325 752 2592
3 1165 2532 2586
3 399 1987 2550
3 2486 1436 2629
3 1565 1328 2468
3 888 1721 2261
3 1477 1318 2074
3 749 1360 2598
3 849 2673 2783
3 1723 766 2023
3 2508 607 2152
3 2374 369 1601
3 761 1691 2300
3 546 2279 2366
3 385 1572 1716
3 2279 615 2366
3 479 2484 2095
3 1722 1052 2681
3 2254 434 2096
3 931 2230 2791
3 760 1474 1304
3 741 1116 1237
3 1327 1521 2355
3 864 2548 2487
3 2371 1057 2629
3 2517 402 2414
3 1869 283 2727
3 467 1696 2274
3 2440 960 2696
3 1132 1328 2743
3 2275 1285 2666
3 2237 373 2749
3 2294 734 1725
3 771 2212 1421
3 1149 2440 2696
3 885 1131 2519
3 1126 2179 2082
3 550 2241 2205
3 1350 2321 1713
3 435 1821 2630
3 890 2010 2585
3 2340 868 2755
3 773 2031 1699
3 1653 1406 1959
3 450 1973 2177
3 892 2517 2414
3 2649 1249 1879
3 1527 1103 1823
3 437 2252 2009
3 494 2478 2641
3 1392 671 2786
3 407 2092 1842
3 1463 888 2261
3 398 1472 1433
3 961 1329 2660
3 2192 1239 2007
3 1249 1660 1879
3 429 1902 2683
3 475 1428 2782
3 1911 1637 2345
3 2201 504 2662
3 452 1565 2468
3 1670 770 1812
3 1721 627 2261
3 1084 1478 1582
3 2548 767 2487
3 1545 653 2758
3 1135 2373 2408
3 445 925 2675
3 2142 497 2711
3 802 2469 2246
3 2607 1677 2167
3 1057 2486 2629
3 1087 1603 2766
3 2348 531 2639
3 2092 1039 1842
3 1119 2352 2630
3 2314 256 1912
3 673 1220 2034
3 834 2394 2221
3 2298 872 2474
3 1997 572 2438
3 2395 968 1782
3 2023 970 2013
3 2357 1571 2652
3 1618 1443 2613
3 972 1528 2172
3 1767 650 2699
3 2279 1247 2657
3 1140 2377 2059
3 1239 1673 2065
3 826 1997 2438
3 2394 557 2221
3 1096 624 2748
3 1022 2318 2640
3 1918 441 2073
3 1435 2556 2465
3 1899 418 2433
3 1521 2539 2355
3 2149 1010 2700
3 552 1430 2430
3 553 2395 1782
3 2284 1502 2172
3 2484 1305 2095
3 1603 1087 2525
3 1666 221 1318
3 130 1714 1701
3 590 1918 2073
3 1646 2107 2641
3 520 1413 2062
3 2307 346 1667
3 1106 1953 2161
3 450 1763 1973
3 1024 807 1932
3 420 2293 2708
3 2701 2060 2761
3 2308 630 2705
3 638 2462 1674
3 1328 1132 2468
3 745 1790 1681
3 1371 1286 2763
3 1969 1955 2099
3 1301 1083 2494
3 2364 1590 2749
3 1886 690 2132
3 1192 855 2583
3 2010 689 2585
3 1196 2380 1480
3 1590 2030 2749
3 626 1607 2169
3 361 1703 2220
3 908 4 2621
3 548 1670 1812
3 756 2502 1975
3 667 2031 1986
3 477 2434 1876
3 2654 1319 2045
3 1944 816 2051
3 1502 2514 2172
3 2669 676 2571
3 2352 435 2630
3 1330 1072 2631
3 891 1545 2758
3 391 1192 2583
3 1660 511 1879
3 1696 467 2072
3 279 1883 2138
3 453 1665 2696
3 1571 1800 2652
3 422 1730 2673
3 1228 1723 2023
3 794 2298 2474
3 2360 282 2084
3 1902 891 2683
3 925 1325 2675
3 1800 403 2652
3 2443 744 1823
3 2466 1503 2494
3 2373 865 2408
3 2481 322 1878
3 2556 405 2465
3 2268 604 2767
3 2117 456 2576
3 1107 2149 2700
3 1873 1309 2792
3 443 2339 1525
3 2607 1258 2529
3 2339 1047 1525
3 566 2327 2702
3 1461 2481 1878
3 2256 777 2679
3 358 2397 2013
3 1603 1347 1738
3 1367 1573 2482
3 725 2649 1879
3 418 1899 2610
3 2705 1568 2725
3 1177 2654 2045
3 1696 1212 2274
3 1379 1484 1964
3 354 2318 2245
3 2514 972 2172
3 2464 694 1207
3 2462 1034 1674
3 1059 1838 2628
3 1954 535 1750
3 1677 2607 1371
3 1220 660 1920
3 1103 2443 1823
3 872 2298 2701
3 1068 2020 1801
3 422 1702 2687
3 1174 2265 2782
3 1899 966 2610
3 1829 14 2210
3 1890 408 2720
3 1871 425 2265
3 1125 2463 1158
3 2601 1385 1661
3 2583 855 2729
3 584 2163 1582
3 966 1899 2574
3 2679 788 2191
3 329 1954 1750
3 2463 753 1158
3 1125 1723 2672
3 1021 2601 1661
3 1724 1884 2034
3 770 1670 2745
3 840 1791 1343
3 608 421 2753
3 1791 431 1343
3 1459 1106 2161
3 1899 645 2574
3 1838 1260 2628
3 8 1479 2164
3 392 1669 2790
3 2327 1322 2702
3 1041 279 2138
3 2039 1187 2511
3 2184 655 585
3 872 2701 2761
3 1550 1124 2780
3 1601 369 1895
3 1955 414 2099
3 827 1754 2752
3 282 2407 2084
3 343 1841 2426
3 1259 1986 2105
3 1710 2061 2311
3 2212 368 1421
3 1864 1469 2437
3 2147 1064 2664
3 2030 649 2749
3 648 1038 1355
3 1691 1175 2300
3 1230 2660 1849
3 1146 2090 2169
3 2090 626 2169
3 1177 2346 2654
3 1025 2388 1909
3 1987 324 2550
3 1714 857 1701
3 2434 735 1876
3 2377 466 2059
3 2603 1160 1471
3 2290 1043 2563
3 1052 2564 2681
3 375 646 2739
3 1018 622 2709
3 606 2340 2755
3 1841 1374 2426
3 2368 656 1467
3 1702 849 2619
3 740 1740 2073
3 1161 1722 2681
3 510 2368 1467
3 106 2184 585
3 934 1424 2488
3 788 2380 2191
3 1637 2533 2345
3 1673 817 2065
3 858 1324 1866
3 535 1752 2656
3 2478 1144 2641
3 944 2479 2418
3 1157 2450 2451
3 704 1099 1984
3 529 2409 2550
3 2400 342 2722
3 407 1864 2437
3 1557 1848 1994
3 1143 2454 2433
3 1019 2429 2662
3 2384 547 1403
3 2454 645 2433
3 1033 2398 2046
3 885 2473 2674
3 2542 442 2601
3 2604 534 2529
3 358 1330 2631
3 2494 1503 1776
3 2143 427 1757
3 1398 1195 2616
3 1034 2460 2645
3 446 2378 1761
3 1702 422 2673
3 2398 639 2046
3 1038 1074 1355
3 2473 397 2674
3 1021 2542 2601
3 374 1767 2699
3 1982 2675 1736
3 564 375 2739
3 2479 322 2418
3 2390 504 2784
3 2564 1453 2681
3 2066 575 2762
3 1848 459 1994
3 679 2396 1935
3 849 1702 2673
3 25 2145 2112
3 875 2181 2770
3 2386 993 2688
3 822 1886 2132
3 1204 2427 1761
3 575 1554 2762
3 871 2386 2688
3 2163 1084 1582
3 2427 446 1761
3 674 1832 1815
3 769 1413 1628
3 408 2603 1471
3 1486 1913 1959
3 534 2421 1371
3 2453 590 1740
3 900 1702 2619
3 398 2141 2649
3 714 2612 2729
3 1527 386 2763
3 24 2443 1749
3 598 2453 1740
3 2165 963 2687
3 2000 1083 2387
3 2219 471 2779
3 1737 1583 2717
3 1158 1477 2197
3 660 2448 1920
3 356 1885 1327
3 900 2165 2687
3 1125 1158 2197
3 1286 1527 2763
3 828 1772 2765
3 1023 2219 2779
3 1770 436 2769
3 830 2393 2565
3 2448 362 1920
3 1752 760 2656
3 901 2390 2784
3 1573 661 2482
3 403 1800 2559
3 1800 1044 2559
3 2663 1797 2068
3 2117 1218 2523
3 882 1696 2072
3 1554 976 2762
3 1020 2602 2319
3 1250 2004 2643
3 1094 2706 2791
3 2460 477 2645
3 417 1745 2747
3 1611 2549 2177
3 574 1915 2794
3 368 2570 1421
3 2204 1337 2665
3 1887 2683 2758
3 2380 307 2191
3 1359 2583 2729
3 815 2670 2693
3 376 2204 2665
3 1551 844 2064
3 2512 1448 2733
3 586 2512 2733
3 2595 1632 1355
3 2670 765 2693
3 2396 1123 1935
3 2655 1146 2401
3 356 1327 2355
3 838 2066 2762
3 1228 2397 2236
3 1124 2647 2780
3 1428 1174 2782
3 2579 919 1781
3 187 1905 1888
3 342 1622 2722
3 1187 1048 2511
3 2421 1286 1371
3 782 2539 2330
3 1973 842 2177
3 1285 2467 2768
3 1352 1020 2694
3 592 2292 2694
3 2537 400 2691
3 1615 812 1876
3 945 1550 2780
3 1622 1023 2722
3 1796 1101 1699
3 1283 1692 2381
3 1905 886 1888
3 1915 1202 2794
3 2004 848 2643
3 976 2382 2762
3 1692 332 2381
3 2602 1221 2319
3 2273 923 1017
3 104 1779 2704
3 2509 1243 2264
3 1586 2716 2188
3 2265 1624 2782
3 1772 747 2765
3 318 2509 2264
3 2716 1148 2188
3 1925 1008 2257
3 735 1615 1876
3 1779 655 2704
3 2740 1169 2746
3 1451 2740 2746
3 2382 838 2762
3 690 2130 2132
3 655 1779 585
3 2634 1620 2399
3 1152 962 2269
3 1357 1613 2064
3 1078 1152 2269
3 2437 1469 2444
3 1811 478 1720
3 1719 2437 2444
3 1410 2356 2759
3 2356 172 2759
3 2539 672 2355
3 2093 944 2418
3 1924 1161 2732
3 1981 2699 2353
3 539 2093 2418
3 385 1647 2459
3 946 2634 2399
3 1951 1529 2737
3 15 2110 2070
3 1757 1082 2736
3 513 2558 2063
3 2558 336 2063
3 842 1601 1895
3 1745 1350 2747
3 2612 1359 2729
3 1630 2604 2529
3 457 897 2271
3 1448 2512 2571
3 1494 1667 2787
3 1510 463 1859
3 2607 534 1371
3 2557 1206 2435
3 1363 756 1975
3 966 2092 2778
3 607 2692 2152
3 1074 2595 1355
3 478 1480 1720
3 1682 1712 2059
3 645 1899 2433
3 897 1444 2271
3 1350 1499 2747
3 11 934 2488
3 1702 900 2687
3 2042 2713 2585
3 2203 1569 2735
3 2570 912 1421
3 1940 356 2355
3 1229 2663 2068
3 1263 2273 1017
3 649 2237 2749
3 2054 2658 2739
3 1345 2547 2776
3 2092 407 2778
3 1292 2557 2435
3 1779 105 585
3 534 2607 2529
3 2715 1013 2331
3 1913 419 1959
3 1506 2655 2401
3 880 1757 2736
3 847 2715 2331
3 2481 849 2783
3 1529 1935 2754
3 2680 882 2072
3 2699 650 2353
3 873 2680 2072
3 1335 1363 1975
3 466 1682 2059
3 2692 1370 2152
3 2658 564 2739
3 1935 1123 2754
3 322 2481 2783
3 1020 2319 2694
3 1740 590 2073
3 672 1940 2355
3 2647 1055 2780
3 2110 1679 2070
3 1499 1605 2747
3 2319 592 2694
3 2145 1345 2112
3 617 2608 2286
3 1086 2203 2735
3 2706 931 2791
3 2660 1329 1849
3 2693 765 2775
3 2683 891 2758
3 2675 1325 1736
3 2177 842 1895
3 1006 2507 2775
3 2437 1719 2778
3 1667 346 2787
3 2713 890 2585
3 539 2418 2783
3 2608 1921 2286
3 407 2437 2778
3 1611 2177 1895
3 2418 322 2783
3 2130 1462 2132
3 2507 380 2775
3 380 2693 2775
3 1994 732 2793
3 1557 1994 2793
CELL_DATA 5276
SCALARS Von_Mises float 1
LOOKUP_TABLE default
12048548.25832696 34824795.85083505 5708988.9575751675 31668818.987463865 24208077.1749971 47762243.09552488 6706422.960080381 30383541.611883774 14495030.907569498 40342225.89178853 6264949.262223309 27679206.760152478 13698800.47898296 31308229.349165134 32383990.320309244 33361721.365002837 31068988.613853794 30966652.92717609 31137530.740487453 21440355.768487994 22138092.224389493 30589969.279462382 27968710.151307683 1881469.8383857985 35572369.61058156 2335892.2861013347 27215276.66934177 18852493.465350904 28386525.637355242 7904042.097222768 4988872.202094799 30653192.071616977 35561123.335968025 37493549.85592745 30275805.616625674 39007923.90669462 26591719.311683286 31044456.615354773 30851505.20591107 30770468.346766263 68031826.43747121 23817533.032463312 43729447.268385254 33815647.918698974 11084176.717082554 8885151.678136984 36499158.07265935 52853971.04738851 14564610.806032944 34206825.525035724 3901168.320893698 36444019.13024013 35439739.69072968 29311510.68723182 35897618.83759456 44866799.80152855 13535919.132242348 35774708.90647613 18862103.44118978 8231976.521191225 42001541.510197625 29802429.355140377 17334403.77386261 37628595.87000044 14593287.505461141 30828594.672881752 10041475.443156172 30582533.180111445 30277133.5364415 2596159.5249566566 27591940.794669833 50235993.38748138 12835461.732415987 20807507.32796122 18249917.677073848 75492829.91555247 7742632.798509657 21363667.461927935 37500880.247071736 34279194.80628172 36702510.31409677 36865532.37293912 6204417.589149408 17640980.634737507 16987257.80584779 23062372.660508495 28557891.750880137 9870044.408146579 8908358.43811421 26766991.587271344 41933571.0562869 24404176.157388467 14115894.036651509 15277538.042427404 16154573.842459232 12942338.55284595 4116085.281920234 5720547.845583205 14636102.323549813 52676384.2800052 24972765.93725713 30929020.978173498 12021169.315956146 37117026.94360918 11826564.249592215 82363531.56886579 31534058.20653876 33552109.887866113 28550469.125897545 1508856.5920308966 13939578.028946921 41967897.992084265 33268411.040323276 13667607.28180138 27664511.990488768 2727655.952263865 13198170.993242702 5622570.2395047005 40289506.04969498 33150547.04106221 19585574.079340495 29597190.032625463 29569079.738632664 20707776.175325893 19919774.30363002 4168041.3902343144 22050147.126285117 1182049.437258604 17705807.076408956 33226421.8188483 35028001.623083346 18658070.05083364 2447286.56045192 7515122.153356098 31960437.378252827 25227566.080661546 8704665.63362366 11692401.063543951 37966352.85746274 46394387.94406012 4673041.108769978 14923521.819734495 36380288.857765876 41345954.487660035 2029129.7152005327 24009912.486451417 16100735.673383221 32624537.11758313 16989496.73699357 35959157.13054114 27239656.580942035 17731273.15229389 28900462.157505125 27459811.59213003 18105647.96397382 7107688.252996548 22139107.15021339 38356232.38049362 10218602.264027001 31219992.102066647 37402786.07746406 78742.75216843917 8281490.29347232 30395062.029543377 30464524.17897058 15381667.954234742 17210855.887484625 31382020.40959291 37265226.77613322 9314204.835833533 19517552.679476712 22936606.169415515 21347269.744115204 32591446.478989154 38418126.063705295 25682842.615425948 33732282.88807087 27199588.77187369 34162839.058349945 10421941.161224961 726520.0352313092 14970164.961324675 24945581.71932261 14869067.284768216 3265359.550041867 36033645.58281951 30852118.055144858 11313424.521572309 28275900.279931728 6309720.643893106 18674742.466458805 66316328.873324566 23556897.796906948 24889598.00184934 8407584.773476562 27904113.519226298 26791507.313561577 1958610.8728318883 13251198.212657807 14850375.308927888 33939920.40226083 35568116.375325516 31531490.076389637 27073781.86208632 33351078.488552324 31105566.634688754 17025539.562661327 15875504.231558453 37910805.60729966 9997318.884634392 50149343.32004612 9065367.862796893 11259899.103029368 7726772.975303675 29892055.464634407 6847645.878686333 15066912.555627612 33319150.455782074 19781877.397302557 5167482.280357716 29184981.887716588 14134625.895143883 30590274.732641965 13157275.773655096 12017854.319588277 51824785.20543005 28051194.65207376 24001863.637491964 31717299.305929977 12729518.70675163 20834696.328367624 30971812.4051106 8636334.541987022 50597652.13195446 17285196.363532744 31502693.405341662 28859446.8116327 29088549.68551404 30536601.369867835 45083014.42584613 25502727.529271953 26513852.888957035 39678076.83495749 42921408.62545747 26074447.820482265 16156420.154236013 16458385.766978966 29246662.741789162 14274645.649340158 36616216.37046256 27610457.462427348 8266365.587348875 36573954.22343922 43498677.98813309 30726941.12375743 28528815.303844888 24204996.639848467 9797682.441059258 5760732.187172145 18177466.546267282 8782443.956695985 6685007.730320009 4896572.563240133 11980928.4526828 5798731.4235737985 32685725.667031318 25320160.02716949 13611646.881776972 34630461.691173024 43105688.12544726 26802025.133513987 27968991.5187508 24471707.54585383 31693736.929257367 69941739.82587929 24890867.40274463 27417112.362959117 14039708.994322456 5482862.600889502 13845576.342953144 27168654.89182606 34883074.12413822 13688459.8090365 17199825.446686566 28110293.131846625 17478096.094504047 19934313.198130853 32177922.885437798 878086.7603067622 19858069.51845483 25500964.257067934 11606530.339133779 21611004.521282747 64790609.82216256 15959044.64220545 14648055.14867065 31955095.47124261 35052079.726087436 26091915.07591128 20101937.902785875 4966202.556975241 11125195.895404067 22009928.232016522 26987096.733304538 27208629.48660588 16855349.34178467 31363431.997344475 15367173.886026276 32045909.30035854 23823868.870545518 26212325.589276962 26233299.04225417 30054129.52466447 24364093.831714272 3855931.8833374116 26254385.216709666 30866556.308813464 37057114.16873102 22719439.125701968 22902952.647379953 28624174.270517554 13566571.710140163 28249143.451330647 21921147.19411146 27705525.536956124 48192892.19229083 25422768.49106118 17546070.09594156 23726359.712075423 2230533.691282748 9323804.65418213 53996521.84309032 13105726.991022088 16960478.316956963 31945475.821501236 48748012.521370605 28928750.142846387 16388222.028880555 27996814.514919695 8611796.594768291 18734069.218387675 5685732.449044715 17446321.207038056 33169638.648320574 16467309.596675735 34495687.997311234 1669049.1215298746 5676988.082984568 27999904.48729806 27861677.93430987 34535183.96851774 31931788.352612503 17698107.77620527 4499453.317046673 27867822.50745849 10267597.195908543 8486140.69481314 3757828.9728122037 32264076.284809526 27830313.770667177 25799392.956262942 7005493.353823438 27676912.167988826 24493265.39385555 17482368.263166644 15070173.098660925 22004796.022890825 27010183.117924258 36445702.17793651 32595872.210423823 26246922.908094436 18020542.162066035 150265.821309798 29789624.4692959 22310585.69447541 2293024.1875661593 10516935.079176236 11664157.470761852 28395802.21155801 23060644.988264766 27928964.16872998 11385028.46084571 53603690.38385337 30946012.905137632 14022121.289207377 20834846.138420325 6625000.2063008845 39180216.66101655 28999787.910020016 54926337.988343425 25294237.77471053 22219650.637956455 8686985.28615028 11516851.464601088 18816876.661967065 27285071.477570508 2636400.8903689263 30281413.336226292 52286908.83425424 27508230.38251732 48956334.44073194 29721120.476614807 14422869.431331703 28418489.70834708 29913373.029860016 27282684.063801855 13127021.986928064 31517700.864526253 21161801.85078564 13061979.487659775 2483047.7011521733 3957314.4766932763 19285660.511561733 14200367.87541219 25821753.422497395 28626311.285118725 27804824.2398113 149126340.36706737 6751561.898563403 9824075.574665368 29050616.65804303 16091432.69312537 25121656.735755593 9578460.782102317 28490640.806080334 17512919.323985245 11337227.866550371 91539328.40416466 27664021.336921405 23245537.827881683 14015243.712821752 38226759.794231504 20675103.18559751 19635437.25598086 25323477.85597535 36193399.15457243 12889008.334842796 13667403.960267883 26391301.256127235 7858380.46074998 26777049.66779746 18337431.46664592 24263195.3731111 27679808.73213527 22969991.548444565 27573493.095581353 25827604.85602888 91412229.05004759 44294376.441330135 27466843.245861035 36525921.79989911 28670440.72645164 9279527.635495013 22786048.54869541 23629016.600363515 25003045.826311093 29691686.34589152 29404377.328818176 21641130.235518385 41777782.3123369 37034046.33065329 27699723.58352977 30162030.86424802 23227463.576373167 12057713.049673595 1740938.9960104441 10619087.89926564 23233461.338065825 25705337.73156757 163260.99067210383 26639407.066483233 51942922.173813574 23078640.02434451 28971598.63729049 30449878.86800338 33786102.96215969 18577010.6064112 69930776.07819092 15027583.838067805 10787970.108272161 29499018.72006756 16724385.882847028 19398846.029970232 9269611.536904074 17524437.228151742 18448055.3662585 33302922.185897302 30388696.132030617 7070414.623386006 50336774.013444334 9692150.774658972 27583598.79265242 28163785.5541392 19567902.899152942 30478515.983034454 40331801.721598014 31503559.865781814 5640824.141846537 28047158.622210648 24265825.24785149 6877369.397564244 14729914.869878221 27770221.542014826 33644488.288808085 29921057.270846166 51302291.305649295 32725111.125871237 18187196.5420514 11783230.028792387 2823512.8780564675 27111832.315030515 30094571.212710388 13373221.681856466 29916675.281483635 5960803.463322735 20000616.65797819 64392066.17855201 8952780.976458326 29303271.72138734 31222617.549447004 11821146.659250569 4670604.708757846 13100240.104593467 25567629.730228428 4098688.152275687 3519728.533589179 12091905.572653819 2385347.082661035 31155510.584534086 31107691.397324454 20001153.189004302 25723806.344418123 34532152.746848345 7950762.723360269 19013333.73677257 10845567.13483658 16068693.030326882 27566434.74557274 27483989.698551964 29508145.400949817 7010560.120844297 13703073.548802221 36424648.9499884 12733413.019236095 12873553.095458651 28196468.05977407 319108.53441058047 12343626.334033744 15629966.205295429 48506592.018095255 6942923.2452372685 30535897.86449365 5453551.109572269 21969307.282519717 30474014.854461525 30929809.749482915 8317575.593498107 20861906.529149346 21278394.748250835 27135469.80544164 27359432.396567706 18195587.8434402 15507461.724710342 31427696.69277848 612608.655525487 26998324.865627028 21353202.917707406 31279954.640593864 31371925.9342782 21502618.382244747 12173795.314326286 41600357.830508105 34239015.77452774 30803875.474262502 15598229.139350133 31072166.753216263 12617954.945198415 20867746.63191574 30094362.430732653 87468436.33715887 29017297.123582143 46159340.6022948 1482931.7604499378 11947636.336508237 21069441.36624483 39586320.44850875 676677.9516956139 29894160.29769349 21801342.029904053 22844617.50630446 29527871.016970478 8709234.705509942 70891987.70353925 10470604.840252466 14975788.038043944 17940222.035983197 6479455.098259085 15945576.018633407 41658136.179144494 48630495.15123898 30658924.612807915 16826519.65021876 16866981.46768861 28599665.925289635 21701940.385682333 21131251.30460025 30162172.28140188 24333006.509377327 29697339.756028138 35282920.14304207 41449689.459077716 47236413.01736992 31950964.96308719 81814059.66318212 44814285.72473491 27390468.95561095 5956204.621366893 29635142.697284374 15197496.91516609 21615983.740454398 30773331.869539447 20590459.40914261 29276524.577342495 4099136.2405080125 53529443.49342536 24517237.51086885 7228714.65057366 9730145.418633446 24450873.97586714 27552236.088742618 70001286.73803721 30663895.999030866 19325187.044339392 24304359.93210313 30468721.40544261 30663644.516219225 41291340.330777116 24308180.805677038 31312666.555186063 13323794.913022514 15041107.477385735 16283326.276893936 9007667.183165599 28012909.314261027 31998269.731595043 7415989.779691265 1992748.638259012 35704252.318003535 10890282.29236106 9255293.033906145 28685050.721111648 30893917.552200068 21547021.704486888 11148563.91181636 27576849.139159046 8495428.830842972 22542373.111771412 34706001.508320846 5985279.859275762 8612850.403057486 22859915.175689083 11713137.583784932 67414662.14472908 16173023.518386139 44699653.87710136 25248873.61308692 32303334.871747606 23305077.363777954 16028300.461657424 24151306.12869599 46747614.011042744 36720427.19821242 25646536.08603574 1486673.3613439205 21181432.88182633 31858787.357412457 26448359.673246376 29610582.25087075 26199329.701021858 31398059.024660774 28605154.46986546 47222139.19182005 10521984.56779776 24486394.195402175 11364708.927529467 15446201.060928738 32262205.300044797 28625609.567481447 24936396.430687252 29005725.869746044 30876844.357227195 11469883.776889438 9807421.241772732 9807421.241772732 70225616.32759921 7077854.826940836 26010529.067603488 5209331.385948701 17094796.020560272 30987079.446594346 29913757.73631478 10104252.367631555 5457955.882320919 26535363.46945778 77855896.07442293 29282535.227389086 64195725.12431937 14062026.062500324 22902858.771941744 16035682.946544789 7170270.220076794 3387571.895197715 28986154.216276303 21855224.44793427 22143720.893592224 23038960.76265727 29122518.980503153 16426687.732143452 46608655.24898521 13233763.822064124 29707324.79841489 26452159.743973937 13476640.691465326 148819.84684818413 12424121.424188241 29132656.381638646 12870133.159498334 29611467.82310612 21712155.3970537 13274146.373282613 26576634.941547237 28065507.644095495 11025835.875294225 29513082.576712854 25608690.958217125 16328996.527106937 25380811.9564229 27128437.730795834 80024556.7506992 9905396.252689185 37069300.57393364 21164123.068653814 20729685.89241667 5372740.250491832 37591132.04861937 41952319.65877203 26329470.185757123 20520239.15701028 46253988.04998445 18938513.17572215 913514.4964100228 34946912.28905739 4240458.526217838 9736843.526024152 746030.3301182783 11781404.089448316 47621538.50293419 32846459.986726552 22481006.689229026 44987280.92122019 38187137.183273554 15055883.034753436 32622921.24335124 18610878.20287715 12791837.238961846 21352442.23347332 2892161.9438317684 35107590.375934534 33765631.38976189 23512189.68564805 23147294.71168893 29804992.54219541 33220949.31661214 43476939.873349324 50954413.76785251 1662592.362633398 16484351.382437065 34405352.13115606 43240155.70218295 31035947.85363737 29483059.47704065 24278379.21201129 42276978.975649364 24005223.290976845 527480.2086586648 36856805.84855424 4349126.578861901 25599446.989155576 10273323.968504706 20885716.415396962 7785608.981457601 28247818.29699694 39566501.495148554 29550339.454811558 22369371.25741845 2491501.29174116 31784996.90533055 29768702.311047856 5888642.631480619 2422842.822516561 12854491.491626928 32341850.701935016 24191713.376181103 25011772.62488573 9407935.498666279 34182229.80029643 32777967.99503018 14396422.398130324 58766510.04935629 29765368.702591438 29464515.027486112 18665644.75835288 22921980.29751488 61291712.58883513 27250316.046890028 30763626.06636865 33647084.80139108 32197566.312979586 2634012.59432053 19943155.293465257 40089720.351129025 18634236.800342973 5135873.247508426 11479807.803599142 27482936.994205877 14280938.11854266 27984834.748984832 19124882.69914297 22397057.46441915 17099148.67184268 28435539.203852218 42456728.88470766 41868121.84479588 34623619.03275746 7086850.489123651 12176541.068247806 15813639.734275147 8974842.064292863 26884465.899644095 43357354.71065332 1137591.8009579736 60473060.356011026 38767604.87251413 14210511.097319417 23200511.59610342 24135593.526729427 16771784.783592582 7696912.615706511 7285944.6868 20970273.751039073 29623226.761302613 21442701.0051626 25698170.270696316 37739532.078089125 18560684.61643534 19310349.9192511 47449076.329597026 78198168.80724868 19839853.957636546 31480906.187373765 40181712.006535664 7346019.5118860705 33319820.960072443 24309459.825770866 28421533.840599637 20346093.57695981 24771717.6131699 9018883.63274977 41952858.60711271 5345078.006315622 13001209.645329464 15498007.537243601 11875800.503740475 10212845.553076087 31847510.328386642 49684779.14563008 39565767.85649157 6147788.151377107 28560193.884661593 29028947.88577947 99852152.55790672 41425456.181846224 14775251.092397997 41450454.61419767 8172329.9790616315 28674454.977870353 28696246.259297512 11355469.279402766 25947710.267180618 30062149.733954515 27835605.290931102 62700410.88968782 12170306.221737362 47586707.996253304 35775251.4215759 30833303.478727415 22462097.690466084 24797171.537580885 13263587.966039196 26714303.855426945 3493647.161359697 8440263.77795439 22291769.934412993 29749517.058768656 5493299.288791951 4986101.533710972 21800570.757150657 4478472.7411348475 26364216.837700654 29535688.67474452 6936906.141686512 20872235.35844936 17175937.31657172 33865940.04374559 25989304.3787673 21595275.629425906 39045097.47265714 3866643.8269785754 29610382.20875817 31606183.53621844 27123780.02256325 33042486.367732957 3747838.970788774 27509687.242669947 21349435.023622334 13106654.745901067 1681248.4721958241 35463435.931923136 27328488.558718424 6363439.881881831 26376389.655647177 5166686.549651881 1420540.7640479808 23021947.409945726 52594294.61246982 23203547.652500387 22212579.94849302 36369641.17088211 29110972.40624578 29516366.403668024 21813347.212019246 46906393.85912152 34510979.88403144 27871825.502662398 17783516.28596586 26238161.527723994 35904347.85948269 16232234.898249837 13841287.94646512 40760815.81254736 28580770.60797419 48588088.21847917 13404447.868095018 26813813.550137345 33548359.487736236 30351678.607590917 30147979.62705461 34902427.79226618 28080892.12190967 31662824.463154845 2705469.1559151704 29700263.7848199 23189327.538064737 10089456.451411761 40225630.26779648 58769957.944940686 21000934.882597405 5801087.737064584 20125133.473809168 24622081.406702522 27931841.851697836 39699079.281575575 29949440.859799128 19546009.51756883 27968946.616034098 7886317.780651533 58457979.199825324 22369943.741745435 25056667.9842144 60759876.11632698 46740370.61073835 26788063.275174312 36707082.31025896 25328182.686026335 13822295.323210528 222613.46349989163 19763699.395057276 28356278.459191415 20348571.26828798 46806632.29338134 81241861.79721603 50786971.58000723 22724643.639670223 22486170.368220873 40982086.938370444 25315578.68911017 30182814.464265507 75130811.5029613 8743206.110113535 23073557.374043714 16134501.240392806 4789280.203869627 101100860.15553959 26407558.07993964 30238822.930305477 20500385.78800738 496288.14734365145 33159567.634016544 10276125.259415502 48072265.78751387 33158105.274297073 12053156.681861209 30760719.28959199 18053019.636137035 33655196.76887074 17659580.948840063 28261980.932550173 80631625.1145085 19270677.720302258 31780514.20109697 27776748.088958275 2108959.864232172 39166098.84229872 203569.02731798057 20712076.531749696 61169727.446098454 20090872.221596673 23892873.06355326 14921297.46374678 29305823.855398793 24712106.02754664 23157926.705028027 8817885.218261244 9405204.42135019 32084099.379856426 34479263.21190273 25860794.378406122 25835212.052253686 6957263.954789173 24402971.134537492 75664610.7869914 21731443.2798562 188036.258651841 29548465.782994527 32895240.113617394 23583360.804173812 13018084.017772775 4033614.0139000975 17066185.257523905 2712811.3361027846 26264104.24166329 14018536.54694019 17919723.952863913 17835061.766664844 29800057.365531247 27759772.852122188 29540972.031293426 47613195.15266525 30106679.24329686 26170863.977329746 62914270.57813731 20209085.698976632 26404356.6447811 35742919.07920331 29388931.1030509 33860350.47613003 19803108.363576405 28240562.56580137 28267419.71397423 30116639.610625327 27434663.437473673 25864322.489887808 25625165.261765037 23998767.364525374 7730476.823787112 32432182.738489013 21700178.083742615 3626109.658252411 28072850.850253645 15247053.534421492 19352104.737367257 30947511.81892021 25739965.675443534 19595715.096242093 23761136.843342815 31098443.266882077 33381388.73272616 13655028.802544923 9057055.693888001 29200852.923425484 5445926.62161971 31969797.379706614 39861562.79554525 31000466.35238729 25423507.325240493 22197092.229732573 1452228.5746859552 2570674.78568309 66053114.77981029 23699168.286866363 3187902.05140843 18427990.03371934 4465192.488963573 28267744.00943985 25282153.19032424 28183810.978739478 29948020.829850405 25539436.29931792 46377904.64597653 26566683.167729896 24460749.22083587 24982747.656402506 8633130.70444366 10543224.559917508 28954047.97385637 46912771.5600869 17258284.44126354 32346903.667719938 16320512.430550285 12336016.763975738 32274678.17295617 2956923.1117089563 40800042.822469555 778854.6252049683 14921888.673265718 26687923.496728275 16855727.1315232 13629444.556001337 21401162.229003977 31729344.32248725 23064317.59411139 22023543.03258312 42820340.658728406 3189172.2880260316 30972116.619588435 2335640.6390689006 14325052.31044378 976411.7658604601 20429498.637810934 32059342.57987015 1168851.5816261247 3959443.048680946 24373161.32281953 42591318.470695496 10360231.2019308 2116425.2730128057 29423284.08009214 15733631.611898087 29900037.05866323 25755428.45765272 22091139.935253587 1554855.8984286257 53989683.47033243 9474926.344895555 1067810.5116050732 44249217.81832461 25640317.418516595 31295890.48776255 18816917.952539876 21088719.873413067 27195580.1851144 60270050.843941495 34726660.31165286 22711562.05909597 41630709.85010644 3457714.867530918 33378782.55000796 23890901.191207986 6624886.629752307 20516697.908562467 28813664.99360414 28549216.58381397 23421372.830714073 51104500.27472519 31646181.481013488 2318010.558451789 16396554.126373501 30484072.17477231 10323648.208969733 31947840.74614187 6684919.631115354 20015804.03632414 7182360.929108465 1970302.4300700075 10318274.589025462 5268390.406964351 30180943.37763852 30887767.712435395 16568993.519809458 6864108.435205541 23194989.235140957 8126946.024603178 23359825.003953177 36446903.35913131 347284.1757825147 34462488.22646458 23693989.515810806 15323606.193378307 32616858.84487858 35970427.310799934 2944997.861910726 5677903.708557108 26042458.10206868 31860958.202195644 7955150.847071879 9646654.50547228 22897061.236473117 6411314.677524062 26568505.80218619 51350574.89581845 12396424.326473583 1967142.6141827714 5533270.710945361 18918966.13384537 38061413.82602905 15766140.346997537 11106841.394636223 8900260.710502062 6489100.403105891 33581659.6781462 31971887.164562043 7827343.913191598 6567679.782834164 41331360.58548696 32155808.287935294 51365589.903368644 14605392.30912588 35373894.23940794 33664620.23401956 22435491.88794871 21685997.224354714 24752383.059976406 17229649.942580733 31729830.871126898 26302527.712709963 23557601.93501585 26819087.428687442 22772722.714899268 30763828.53955017 916650.5108572365 30792836.692072906 499817.5042372764 26085486.239693575 43214458.28965837 12236215.725046122 36008494.18384929 26860040.357830025 36520096.57404314 32588061.24847975 11915130.9067615 25382901.089410264 31799136.784783967 22707067.597231727 26541862.32968189 33201705.22231143 31202238.820606843 19874371.742230553 45098053.21438792 12060288.859111695 31105175.857620288 23682489.948629577 22515058.050510485 8111048.734645376 33788879.140422136 34726139.24685142 28260821.4738674 17722225.018947147 42907722.05454663 31017865.90404106 1092642.1932149904 26500685.079243302 30758786.527600538 2640843.5457265414 20036634.149393663 15386990.266818004 28869512.718213115 17788849.84596787 4125393.2933812337 26663731.257197894 2323944.27184336 33521252.65375543 16976947.63924884 11151474.540087298 31141445.722302187 11759140.656956576 9139465.934805721 18408790.314569768 5743676.690737451 8339033.176369898 35989034.130078554 3307016.595830076 3087425.1212343588 37266705.262210675 30920883.34638355 14168696.23425866 17154903.414522596 30088102.139867563 9268718.511545824 28098444.580285963 28611673.26264749 24334521.31045371 17600778.585324425 17122385.306225162 67487770.82683013 33148592.055492803 9050415.245276466 18037272.95775655 36429348.23407204 12487871.747161588 44598018.18126584 59269215.634559676 21326264.08924768 8286330.401383566 4120107.384912943 28243242.414047617 20251233.559715495 16289731.696003344 20006977.482276913 23166301.528518092 2520693.8929009116 33455700.9317129 14856555.962888952 14262363.880884947 12911826.669758726 29463833.492189236 36317441.173323914 2254003.2109791585 51176186.839046896 22069040.721956182 1157011.1173450793 2383082.493734141 28425452.24418465 54587630.62428619 31156529.307324283 23328890.015266526 31649650.926027697 28544567.415209077 12661558.551014114 17385812.188425355 31145974.912075475 38711972.41832984 25806346.66349923 1032812.2544930755 21715904.412039008 31245679.580041904 17800191.521369066 11750091.040755711 33984768.09380731 46952650.03227158 12978138.383373035 6948497.092688753 27946553.43066431 16364808.065105619 4313013.60742965 39559064.32887331 20765387.956507925 25094772.60177957 31091007.36918241 8919773.600659477 51223338.295096144 33905997.38451732 4446023.236803552 20709654.16267347 21770032.375836484 51652962.35604173 26270903.34796993 10174958.409066055 35454840.80702803 22413134.891721986 8866022.274868483 93201126.42164741 32197646.567521203 16772207.588234587 92146082.2430701 51624889.08828139 21571286.836958755 19314560.917586986 17405419.503358312 21529098.44115193 32000035.661249854 44613673.29877119 8357764.968833385 1977835.7531983142 31423226.859827556 24635604.45803896 23318054.06069061 22012937.66832914 29107685.0747301 11714733.789764527 22961534.670942586 35156678.10788518 31633633.919213984 25079106.333823077 8094658.438076247 5326239.415075736 28957294.290267587 40252759.28775559 1956569.1574964717 43565486.13227866 1934348.9426951918 2340782.4453976396 1665418.1801446162 9312096.716550115 10657076.664964437 43002743.54296209 16070649.254062207 11622332.045170352 24776257.02208997 26231096.54152743 4731215.730929671 30969967.8877166 29698931.953307424 15770126.87735532 36791662.63086765 27839849.4660099 24367001.57026312 33358126.613627385 59379542.65544887 14285074.291082796 46557304.12761551 29881696.808150273 25524219.759067006 12479741.408985982 4869827.222978162 28913423.656028677 58700963.58958337 24113461.61184436 53713799.72425316 24968648.489599217 29757524.02084839 21558642.868562397 5797022.445115988 28637909.93388302 57623081.998355255 8158523.5345278345 4321085.6062811725 10374660.659769805 31139667.167685438 30908379.052999403 29766186.23124607 2309537.632964189 18231190.552146226 26505734.7801348 13892502.841046406 31694351.016085647 26741946.789945792 27956181.948032603 30408826.248275697 15596046.719709288 23914461.393047802 12159180.88895183 52993915.407680005 9150017.090108609 30296581.29234862 4890433.711368542 34926808.709844954 19413735.949346818 15167626.874177795 11562292.2247488 18927293.56944216 53777296.65292471 684450.6080045501 32680075.32583781 35552519.75232755 26536022.408780567 6924481.296992693 4737188.951043713 18954237.245836306 30684702.9098695 31097671.676743124 28274027.377865665 27670205.85641826 23472589.72054206 11741878.886356046 29688179.330222864 64819208.38077672 25847385.313459817 13238358.561368437 18230706.81561825 51424100.1032754 30012130.373345565 77415315.32159518 33772012.40042136 27731127.800502833 7340840.654052802 13141338.686942406 6717262.789963474 9907556.177097108 32086485.4280858 651203.0824847682 31049961.48744557 37947273.45366593 34151895.59951983 30823909.201802406 56315984.38551948 13291358.666871227 46925531.00344881 156251.8928320094 24323222.68025278 26673282.60934918 25726403.272177298 14350382.502141824 32557814.479506243 30613288.5033142 714100.0595661475 22977390.33598296 22584199.014429115 74466237.81630202 26635045.652780693 60663769.995259196 14251115.267446248 32088016.326967563 26930214.66458513 19105942.804889176 34781612.506133474 33366221.658992097 9749742.911827596 34202.70512033392 31612369.928029492 27202245.94159664 25844073.7389012 4106458.2686232454 11545587.876748966 28730148.878659673 58770801.81267607 24466543.856315788 29629977.185985915 5627502.192347406 1454652.9504567627 36802628.718697816 21829989.831277657 33880942.93502326 24154383.34770603 28594890.82383424 12177329.60575278 13617004.769787164 28635009.01242842 23245087.67297459 32817577.12900479 27987287.397300944 36197694.96205564 10620758.908401255 15033467.56926383 27378585.474518213 29810177.786640372 1778141.8527082156 44917438.61701075 38324204.4655884 29872232.595801253 8957137.991397627 28736019.26480218 31354511.294612776 13404124.31379398 28491303.379460808 29048445.470944162 58840908.05079606 27012704.9668299 8165188.061331943 17715161.41096108 28856949.051098753 38176093.61706569 29546577.495188273 32389957.76197044 39974414.85557834 26276757.419396706 33315210.27845716 29294750.362655368 17269911.4420248 33678716.84560758 32291972.25764449 14459420.698610544 13316263.253162133 13725417.319083747 32487000.985879906 32116497.425109446 31889141.56658777 7371073.584619327 17598164.55038714 34344325.98323253 22753476.67598545 30818490.09825169 7749292.323333496 25375759.811513364 27888117.319721047 3781110.661897277 28581603.785145544 42982482.3464653 12274054.969711738 34673971.14423332 17663871.00332623 26320483.761450376 34693090.14169677 21989001.833867215 25973747.844884433 28432458.96754869 31669918.443609856 17709176.51794325 26941684.283126425 21425299.826052558 706228.7897042278 24865032.430856794 54862852.22109683 36979053.51894097 25182547.02262149 23737340.067641176 10722585.583602253 14621465.731284035 25919889.638588503 73157956.54924804 19397145.859554153 67356631.345294 13549759.963706242 82074043.28447609 14610296.95531593 26151727.66479385 3631647.8452497795 9553581.907902274 51665930.63093785 11485465.679798255 21435896.86277688 82347209.89772795 27166546.455888472 27960791.34688074 37029745.23667702 15992272.35617176 28664573.522245925 27802828.695151728 6578431.173615747 25335847.829743534 29018645.654172238 13894673.752082255 10352053.056013748 25829585.06785312 31573246.52929563 22111021.71540838 3147301.7567908214 27578545.804813 26382650.039795417 17017543.727879524 11405460.641968822 33593185.820465915 12286218.6118504 21664035.786894098 34870566.84768394 22420503.43714332 31643970.84975101 27249989.07342214 4145771.1108983117 24353096.98363675 17474611.71664634 14562722.991219796 64310686.328693286 22839331.104969937 27095017.94262877 11070839.031263417 19357911.43038563 28331344.87045341 24406818.906302296 28266152.61975551 26390646.734198306 27655027.395518232 43207458.30646186 13072179.68757099 22884771.758998137 18368764.81309684 47103957.88306391 12034476.454589885 754556.3441946339 27278256.777473528 36940286.148772694 17389675.995476384 23557944.2890791 28832747.44557048 41257501.49450113 33525423.633757357 16353250.39368405 29041169.526678488 11894978.792856067 22524461.74167302 59843582.05042535 57009838.88301693 42209706.99623491 14366996.66581131 24105772.193639982 21019299.870264694 8282739.333519509 1266417.3962438176 86491725.3910217 30907745.04563007 29958834.20738329 16504943.282055294 22420900.19230293 18312024.01046389 35722764.78800398 46026419.048946165 12683834.914915536 27575248.61173969 24879731.088951442 23669832.51647082 12524822.592835674 30895463.117209975 29350443.766277093 11526280.066155726 27791844.571624257 46592938.345869936 30540998.55923899 21917937.650384784 11966202.312691402 14881136.818306005 32231839.74927395 17989627.551712263 31416927.00510984 7506998.335507866 5241360.3302681185 21900727.30405221 1651462.5796547441 26435560.99761619 4588159.175696443 28370005.713799704 62133667.427003026 28281714.38784649 18768844.527829863 36603553.18525864 31500504.073855538 13243986.166410431 25114057.166791238 26612397.78442468 9407090.154797569 25441043.606561113 48597197.84887195 30786137.815486245 25105815.563827094 26920823.413662147 60707302.01157341 2184413.1580610434 26072478.737750493 12615412.11396601 11476033.046080584 28722041.62458079 30715266.21059613 27996115.237069722 30309075.531413812 33524989.89370868 3298619.683910843 15072192.127694694 10911133.85739333 33322674.035058375 11570319.536376668 24081146.100642793 10087502.775138138 33410221.67127308 30222489.289736092 31330610.30852029 53332768.9390755 16247282.243608788 3532334.810541554 24388299.230574008 19851075.084316153 62136375.21284322 21988083.781815022 24103234.755579174 61569765.78884668 76139009.31811747 26851110.349812943 32098285.03901913 37781299.00494101 15500435.1884474 43285121.13579901 11148949.454435378 35454803.93614764 2049617.591079841 28565857.484836034 8955920.17374853 21040259.227938525 12167795.991643148 18358977.707332026 36905268.593720876 61536194.82280353 33755321.01973952 23782175.965556428 3579718.513962411 16217830.1265242 12076451.884743392 39650204.54993342 27830811.630306635 24523546.006027505 40173390.67723633 11333275.01538294 23045076.28403076 3198791.172921289 12871853.594821654 29976669.237944987 60296049.86351863 22600058.732250784 80589531.85398243 27011242.778852206 12386486.905263083 1392576.8025191715 14931454.786702435 39394861.25502612 28721694.575114515 24086648.003557775 22478172.19323341 29098093.26431988 34517275.49837707 60947920.95043598 33807754.03092268 33467230.867289837 33917715.19636723 36249469.96165624 33297763.88885034 17924479.473469593 17759536.606074363 59197222.61739377 19360011.9779544 6068421.894805396 16620830.410260715 3389733.0929813646 35399528.51885023 22649235.336634178 54377020.92371723 31165606.773037475 29989286.55759327 26499107.592955817 26233871.7821066 24985592.06945222 16976275.856174074 40696470.30673761 56334922.05367334 10170574.705509055 28204847.317187596 31069050.184845835 27598434.717659865 27197256.064136278 32530448.05192311 23408640.585286245 5600442.506600843 27525979.932603847 24716565.609474245 24131640.741265878 10821627.401555378 2674840.9175535934 26152456.24432829 8014930.224474029 9318920.748200636 7592622.511888891 20282521.4971874 9789051.711919703 30956868.82601489 22923851.969811887 12169134.954311572 31056017.141765136 19569234.24689651 62861095.110455774 5192548.557373603 31597858.45472892 26782285.802413814 14005869.538586074 27796845.34601184 17396866.71321792 30750402.811624866 11436237.700903108 5038553.4684284665 28670670.6798683 17719145.867526542 2273062.419998021 31757425.052238543 15619302.972191628 25533146.99428021 5994481.447059457 8796436.401128776 1295245.6625034832 23017068.42601274 30201510.4601841 28551910.131331693 9642746.35505364 22946332.518250797 17599306.59596578 28680924.85972139 11366680.907479323 27269993.350274876 25954643.65567023 19740191.52628083 4314281.785069851 3134142.3109289818 2921948.5296972576 30062435.653789856 82666757.84703213 37293025.20951892 70980240.36864288 15275505.762539461 20740144.802653447 30093428.494014367 15884410.651319843 27301600.798381828 27834101.47307115 11070513.488168059 812121.1424395563 19489401.02801094 29734288.710406028 20664185.856919687 32512698.121275138 8711638.37656584 10836777.6744765 24936652.287098896 29013198.953763966 11592571.911432317 59609218.46035774 5190548.66099412 22486482.674361292 28348311.822466988 37990674.14225198 42561363.660464555 27745629.0387273 50157577.48815212 6511603.522152127 15127663.420629222 23490472.141697783 22404466.167538777 46784367.17990463 22684150.144529283 44053809.30404543 39420562.1136275 20883009.62157984 2622307.897927395 33962888.922649324 3540049.811414194 30790976.561031908 10953600.660713345 26024738.665047694 3414177.9267241834 3079014.530361674 31291674.33525667 26909101.770286832 32284667.168058414 7288555.728809449 30711176.100735184 39148704.567029074 41292930.94155331 3761644.033608473 6103037.811921831 26416860.033572957 20093326.52604181 34002219.82616429 30981928.266490545 45079881.47382705 3012048.3479522564 34560297.303884625 29620297.81599717 23273188.041706115 4998473.625484278 36858494.77838174 22378965.629434418 27664563.76428226 20842023.209991734 29882655.23431236 34340527.11797047 22786692.40195567 53153900.08490943 23800405.764344677 69610547.73831046 32563552.400949243 31869631.130617857 79445503.92775646 27069889.277949706 27496591.837402295 5558461.201046752 31031761.045303367 32113858.319451865 29677476.807423446 82093124.34840944 26249631.681057867 30526584.520383082 26452254.430354908 29265179.422858275 32321933.736633472 30174416.309027243 4378562.716571621 37439527.69121766 31273286.651803467 29851897.044235345 23698667.577150386 10465508.066789571 69990535.13146622 34220750.906350285 26013737.978224646 23470052.619778134 16433985.510219313 10304551.18283295 16417760.417701952 5665528.074449471 18901516.11242225 28965099.919275247 30178612.501971357 9487590.95262838 9575922.646110194 28275620.04868235 11899110.506988477 33848564.67541275 36907786.88998618 28797849.413340464 9572742.22832578 26442456.223564554 3550857.02071555 30062577.86603939 29285257.58873192 20428237.549430016 15106876.364345938 13782651.61188542 36822498.9680063 21337974.185115512 19449475.04073708 64975024.857579544 31703910.546099715 22158153.08471489 27388423.518209103 1548379.2773964948 31223432.39593168 30621000.227752592 30190161.071432017 32262183.58875325 32326923.358034737 5177211.384621917 19172351.67564527 28174028.65495085 39132944.795399316 11210926.891041577 29403004.077964928 14576597.45830285 35894098.26016586 19354744.35955842 38141840.93001185 28429868.119854767 26452411.2059982 3255166.2379872147 32914950.876240727 31498956.93677072 28905758.717976186 18794017.096535977 36158772.29942018 30466835.504621938 20877596.151232325 31976637.77148843 64597004.49801103 25437970.449750308 15399898.029452974 28119627.32314008 24087207.00271332 27692974.10969863 31555082.24536553 23941536.090347145 12285994.487748379 19506132.252057973 29730970.86446884 33806305.02796792 27889812.42368491 23644876.75612829 45089658.9650161 12885277.890955916 29294202.377554495 17228858.094399218 25030110.528594736 3032832.997523654 24858726.441978816 79581345.10632223 10889771.423444008 11889156.85878561 30773267.652369786 33306034.42518234 10049306.720896734 27421325.063731734 18608626.83952391 6592504.5366247045 35154147.3703342 22203402.239733998 28604675.153568137 34548249.24131901 25614826.951735385 19518274.056536976 143530405.15063524 6763277.455657453 44780006.34116627 10309441.212512 7293583.4328800235 7689722.7294976525 27655048.00611546 22034458.725643832 14423854.592926271 15449583.17732832 8258239.748412216 33697698.834029295 10322470.028879153 8967429.547254177 32379821.0528236 29032243.756081205 30637770.3865555 28264394.732075807 1623988.533324652 28823848.600952942 13027777.772043085 25015725.46221751 25201808.998471584 27409266.510144904 25925106.39785333 37127420.37455459 21997439.2745723 20675779.306330048 40115237.29192615 25096271.052829374 3193039.3024492553 16439791.303098295 28895804.40043929 11166468.95027303 9351563.840664508 26535140.614614796 31230918.119818807 13170839.741193274 6676957.366660267 7735970.221482419 30232154.34158983 13005038.311727578 11688096.696448494 2675203.749432166 4815587.249981075 20805313.075447228 26784117.788469393 1579346.0166038512 24353231.919279262 22842636.54122342 24542146.630102612 23738982.94451363 33273758.418142427 93512479.1484668 4399767.510841918 6387439.680601149 23908280.53485792 5212014.328675194 27776873.50112073 28136424.12529302 41145279.12117045 31219898.900307324 9850453.290002154 32447784.35099139 13261021.504183872 28998606.477713924 9232763.648543099 27456525.948440153 25613195.727838263 3892315.1188606233 53295862.213071905 30044071.929824717 29421953.186366726 10558638.897481669 28611213.250915255 30546763.80712931 17990632.423740666 4625114.6527079595 31356998.175472975 24862697.0653164 30939841.92442584 37228397.25066488 31794983.074786395 25737833.959013432 32626396.254807454 28926231.319835577 32760728.16104455 23801099.142469205 40518677.92460244 2876554.8963403627 27245580.743195068 17626209.154014807 27783564.973606005 24568618.497044403 16589600.037621493 7111508.484583417 8906337.142305624 5298476.817154611 21947405.743047215 34471337.76714481 40790250.38060008 42865247.968538046 19668890.845849957 5065741.473044667 21633347.140513495 12661390.324094137 26962995.32556794 26164161.638315696 28239368.13993854 6682032.877839022 26484338.24036749 13397357.909193614 5924701.366384797 30391637.913686793 48173799.181554236 10345705.213344319 30365689.772124298 26330030.23371416 27299563.797670893 36733554.23395782 27996048.620053988 29906709.50146959 37362110.46629118 26873249.672775958 41446829.61964931 18470204.641212523 20609623.275323845 39511375.68558593 31106752.928159967 33792277.09274238 22251241.515657272 30487968.87597995 27463588.146580465 30101165.152589936 20931629.177236274 3079496.7891337285 5039647.918025626 26490682.44250675 14992415.645198891 13924067.169217972 33999966.04500428 13049252.71561932 6971818.775382104 19471468.183133133 14845352.70349817 26401235.635706346 29223186.98338803 76252012.58204569 13955486.057645584 34767708.545672365 563253.7413495212 30715349.663858637 29120315.241651125 21997974.225595698 31958126.159690462 26820971.280633256 27359476.875359695 27270979.15587966 23186580.878922544 28858866.414613616 8830449.430749888 7900375.324932265 20424925.309717502 38311564.598780036 41683267.87103098 38182520.24517671 30912587.388063755 29625187.238700382 19127173.99294399 62779578.50819566 33672036.08860985 33336978.24418192 26486926.850923005 33479795.212487604 31572426.15559768 34319054.235142246 8745195.074905146 13349873.909801023 28021848.99574991 18072825.108867504 78650716.2585481 48284614.99457838 26848704.129911397 27834639.72052681 1188415.2369296968 34749951.48183101 12284296.614090007 31823376.38903561 25607881.659381166 17119209.832576502 9030156.19204036 14566783.754031038 5226814.370841422 23217823.670294363 31407804.88764063 11335781.265490219 42260110.063365854 19237486.53530236 12399493.891294489 9825197.601380732 20451504.878765315 29070022.986883126 10995011.323548798 14996499.550358117 32730414.61774019 39839613.14511854 26722987.889177058 8852174.209559467 30788823.163192146 25435006.308893166 7309077.722248284 78737753.31762955 3326084.8440723037 13903263.827315241 32877851.76504759 29472446.536501322 13789312.378206417 11427020.732285097 668604.1818801268 17013149.328686826 21888894.85752631 27882282.505094055 6710691.216009564 28512863.838869598 23241446.64090971 26031052.442188073 42586421.900731705 17542396.273814704 7490199.225979329 41337661.500179656 31244053.73201129 34453086.10632306 29166497.093242574 24004680.67694978 6507229.814526876 17816053.18448663 25897891.429755352 2665563.1000714498 28724603.193403564 3162259.233808379 1394205.7700228062 38546985.38097268 1525468.0491596493 24510005.26208144 21133676.00886014 33990782.91483531 14713969.932543002 2595938.650762304 12230353.565271564 30617494.777743146 36788210.50208024 42223619.60692161 23238040.36394643 27183080.14464611 33384733.5161547 29746497.203186926 48471288.72532254 39300554.923642345 26491517.943529762 17691160.785189155 34574260.42443315 31364813.628586225 28553017.22701474 23885081.469468262 16095749.561407508 26085337.994640965 23692118.507596295 37618967.910524994 9051837.405211385 35595233.22905963 48920334.157530606 20700098.315594636 16113552.78957587 27547034.3275251 2905376.294319007 11802923.291574655 38375324.509096 12221153.43487865 9291122.200887555 35528543.90111807 30508885.74230508 20820072.1777433 14747666.039258521 11826823.680481896 22698078.59931429 12803085.189031778 10906786.738727003 13397052.64069034 32626374.839698307 7615148.467383156 26558368.683147706 12154272.656867793 31583351.255474225 23443381.0641907 26729250.01712075 75139197.02348976 14967978.601669231 30072586.027706686 3285875.3037158553 31204384.552420203 3247904.19172551 9255102.844722945 11036974.712073833 29903528.26336714 60039340.726226605 28485632.531771366 35168496.39269839 14650238.994359657 28204968.118318774 20963939.52850959 31903062.146855336 29123856.332360394 62202005.81562207 31213537.891631573 19956696.177453168 26324935.205364965 13306221.224842057 14920270.642778182 9896028.710330486 39740272.06775084 33072983.958871346 19637479.67710586 22522940.474243283 31343250.594477452 31173698.649935793 27832080.712451063 30421774.276830927 42897138.99927932 34252519.82267736 39398253.03711994 33752377.1893242 21927268.059744082 38235514.11268371 38446698.107162066 18104717.514628444 10760141.263507972 18145171.56504237 3139523.940576742 1354041.755069028 24070384.800276283 18442643.959200084 554201.7335063738 26761539.918192483 10114402.396380806 12774741.735408166 34210373.2410273 17765950.339004565 10935701.710258929 15700378.423847001 20271121.25998011 33738256.79328388 14073097.150343247 44094960.52942007 30082477.426729213 23782523.313020077 13572681.052228728 21235529.16632494 45384841.0027442 27571743.273064576 28023306.36519662 31812254.85315591 15745816.62175245 30872980.333526958 5047405.097142033 223345.362693132 32998837.94985676 29476217.78135275 19072232.331632018 21349993.957995944 95373799.9305999 29491682.28565158 25148331.75123243 27644078.06088684 22299734.954650067 10659891.082992755 12189804.83604508 28626839.78761267 7525438.42262257 70175565.38438603 22479606.23534038 33413537.602911077 31901908.961101763 14064083.012690663 28909460.920582008 13320410.918202475 26622326.522265866 44642361.40796555 24403609.8884005 39148438.60132504 43091959.769824296 257624.65212795732 18797739.3523632 14488248.547546022 28937301.269329507 30472830.43572961 2578782.4551385357 14475961.624691125 27599497.34431009 12409601.975872144 18450756.927103885 18719882.647136085 18139585.11365209 12684346.701986913 10749451.849892883 25138919.271190926 12832671.656109845 9256978.55769691 1977508.630971975 61594384.77106722 1447139.8753519724 30943379.698188033 7553967.360395002 22588358.744038295 26709723.717229992 28650274.7868481 14947398.937612208 14468798.772726016 19205135.75410356 19936755.77124876 20179466.1669523 16536463.33535567 23728672.26968786 50914774.64577365 17223015.608188044 24239913.80341643 31614568.72600741 2395693.948912432 11018417.949368352 29747063.02241593 47017093.342996396 31512249.010903552 26933380.448716052 6913116.702903709 12069125.359073225 14788090.892894488 1860937.3807511474 3213583.587214068 11998696.029496968 9732759.584890785 27838780.76616734 274885.6568755079 50575733.59427088 57848329.71012154 24108688.836646862 11709596.420306727 29244922.80451867 34500545.03073849 27505688.22178627 14517817.252592908 3303297.558288223 20183693.19110347 24235833.893370707 26006798.173200656 21434226.37366513 31207089.393230323 21962363.741646934 14355004.395638155 67277696.5160352 5309070.765618887 36407557.974006325 62657870.27689281 31162352.735771503 33119972.85964621 26595941.886554398 47236288.26690092 24096990.58041927 21493731.545550052 29684188.684079316 41579776.70144267 16261131.146871502 48696709.37953638 36684654.50406933 23710003.59412456 8872022.073129654 5890543.144215122 35287318.68306208 28921073.986214798 348580.1526004134 29511389.434799075 32775434.00452249 13999102.986112183 42572548.25291245 28600082.61908144 11017770.357640985 10844043.538446434 10343518.881723808 23702592.77302716 23102787.28945344 17889957.858079385 10309129.433830833 35755907.86255793 16994921.20762772 9114577.049934607 16457242.04456516 19488347.40377801 16914639.123306498 15512935.996489521 31714315.03762278 31515363.086957954 18929913.471708633 18008142.811838973 28902592.025412556 6377441.777324641 1487448.6674030821 25770772.870643016 15199494.13237571 24420685.819120385 21495436.7770836 26272862.92229194 44522030.73860694 29800116.12025754 15259767.453861438 35515633.76663831 34269677.404201075 10439125.569864644 33073685.887466755 37949377.27349616 8858612.917641936 35376869.64478127 11116212.227927702 3286106.0891808555 23408496.98518343 16109041.4720316 27898853.330272917 3976464.3965652096 34848277.51371399 2590257.0886523663 31040243.029882915 25578405.51833759 18511062.038934655 6853797.70367117 26224997.421807326 27313444.850682553 15737367.230320072 19095141.36952531 31623448.87694298 24166904.1396354 3425863.33631092 26181743.93344919 10777093.72678907 17110043.220957752 22321978.900140602 12432978.68838538 32789685.94649174 21127189.946267042 23150503.746149775 17840434.398151513 11254430.772286763 52345189.1880619 6623178.099530693 32431077.758917954 9146913.740465723 28960473.869755354 16079486.179826848 28792072.190727923 24045309.30148215 67698898.25970025 7284183.101820929 912836.5217335828 34051142.62184659 30410984.583706126 2882452.429608482 7564830.351908453 29257366.883813497 14118393.498746704 26606865.102019954 54803378.968113765 26255560.484200027 25070057.64831841 39146523.761802465 37046757.83687393 32922254.95497473 14225294.315004084 20419546.423903845 7248143.615837848 29105678.07725835 40916498.289770484 21451079.478596605 15211668.399243012 32210291.134761076 28069395.874732118 30914697.810843937 18596331.84158385 8595970.225806614 30192014.054428592 2060681.4995528932 12278939.711423151 26519059.55216044 31007026.79745251 30147338.074259102 47699472.16142181 19057583.78747562 32023595.610284857 21305719.25220335 31070756.963764764 26147912.216024708 24995253.43251732 6645781.174554403 16803316.17678107 9068006.583314765 8840506.208368564 8640635.730334753 30115570.466810904 25300330.008330587 27527416.363552548 41702958.56464611 28064644.01748769 24601201.222869948 23891836.071024705 14237998.440190434 31246102.897691943 35529870.29362486 7840959.227936028 37418428.788974166 22354336.909172002 12217606.190563438 22725538.96530087 26571266.600193445 59892907.983592086 31555861.757515665 21785577.24481206 21951623.005257554 9239887.130464364 26645236.64941783 29858853.303050507 35579728.329642475 25192690.735668145 26846224.019951895 25948087.58789313 66907781.965302676 4619745.4420757415 67095614.06818661 10667397.674863657 9057835.245563073 25605325.130200982 6650913.762918492 11013297.882493986 24616059.607861124 33171360.468480855 26870151.219705045 29596745.539386045 35272259.114479385 31220097.063229788 28307199.22184509 674658.4158347782 11634488.937778851 33220611.83829277 31753790.122924156 31170340.551687416 35572754.69861213 27242761.679843497 24689957.569771633 2335698.706517465 33223762.251278087 16528928.061350992 25654418.72238359 805102.2915958832 38973318.2552366 18176620.934232622 30261725.38072877 27994961.16907611 28879214.918504406 43655359.51864422 27038388.46155738 35699872.926312916 8719339.271246353 34643489.203958996 20418939.66963693 2041018.3814176146 10239008.939796597 16942639.1684565 16880095.757233106 9651449.342932267 11216801.217097389 28029921.17083007 12505202.714301854 25801857.417209692 28039833.95152582 18700317.129070427 25856278.470120806 31360295.368770488 31342353.874171883 21185968.763410907 32519356.99350742 22157254.037220344 30877614.480785783 21293521.451104246 14745378.141214797 29856156.779775918 1342824.604609415 26351479.002450887 17405954.38831798 21431365.207716808 43690585.68851756 7679185.6069938755 719486.9107922557 32973192.249947388 44664276.115688585 21642338.071679655 23345943.95328648 20031082.340687003 31905637.774247687 1895841.327187144 39925240.114643216 13635408.08480109 39908804.13506336 41009652.20975009 17106285.705231577 29871100.532889042 35148790.28342552 12343646.784902439 18489755.714552514 8600811.380928503 13105972.5398273 24117923.069044903 23923114.21524482 27984926.54792276 24765729.83552546 18603609.320329882 40338879.58603757 29698594.863726273 32644476.82222369 33166026.75738996 4944027.203996805 27916553.25865304 29392551.171430416 24924951.92340329 31402355.054144572 24313087.54442296 48894780.42605253 28873349.582390208 9447200.514854526 5514992.222075389 12162852.56645459 16312599.45851726 28881337.76728801 14512745.904656675 14414544.117305972 30860487.60647193 3580644.579705094 40070598.84331579 13787351.979971739 32068528.74080559 17251984.789263412 30081266.188187487 29568859.222452294 33215057.846387967 14106267.293544758 30226825.390518647 8097673.915134272 233878.64370930954 22166471.466332212 28807295.973209437 1429949.8056348339 58624266.62788768 9747334.93767737 43050079.278038636 19490353.582280874 4167564.955779 36342640.2241322 25693374.01489935 31648.17059960819 12880340.224276925 22414565.630473014 27604443.97614104 24543873.19404771 18346000.962849576 15030833.911264867 27197976.248377986 6846883.264408289 38971949.45275092 270690.3215923151 2160156.663171198 1302065.3847928287 10680498.764881399 6154896.743076372 204414.63452624733 2815899.7965493896 26555863.35624584 1323337.2957291417 22690925.529740907 14200485.711739458 203972.8221637707 12033204.154844537 46797538.74143525 38335661.571795285 46701178.93275615 12201947.212787198 21337617.791448127 21792112.812789302 17038122.317309383 30201016.818729583 26341076.027084045 30892468.7271522 492497.58790343796 21532331.62125457 27261788.661951993 58850185.74462456 8772189.89049783 21016975.79210344 43745499.234849155 28029565.991438672 27567233.28091995 21800688.82548282 30482094.99124116 56115342.35699432 38673123.19884309 35613141.94591282 13934765.221602893 28492489.00481005 28799371.705718342 27255226.237077586 28324847.10705029 9860895.222739428 30742048.67272602 24268714.588783536 24264313.395409413 30848182.777318053 14539252.264580583 2017426.0356580655 34420623.37576836 10059338.123904727 43672952.68979992 27896274.775471754 20377523.12029216 24178661.194741458 38355476.63703298 24662813.0373619 23774086.639149264 13155247.16594167 30996530.47863679 4009968.3641280206 21109865.30758307 4267649.732341154 42241720.711389504 8374806.905654205 4102770.7009529066 4727901.239343516 56713935.55156578 31631248.992772125 27750996.846723385 37608821.089640856 11260246.30768087 7520725.397274689 13163038.554042263 58820306.617054544 10107940.900697153 27457313.964232113 22359357.508728307 24196429.747498076 74422922.03730977 29431660.65018016 21111534.383941375 29111862.30746678 19844275.273875237 5408609.866092447 31905192.07482059 23303455.405637164 21273607.6358893 57330847.38756127 41218543.30056752 4801311.445149208 29733401.27144068 31016094.65446078 28466065.17715215 30888075.11656857 7278825.592756741 19261528.241993327 43187374.34326115 9702450.53861936 19753220.148524884 34661651.29591479 20984162.581457287 26447313.526065156 24840129.460092906 23258710.53148128 36110036.38543168 7997032.834490382 27477264.08128905 14220534.528467149 36585921.17586839 19383329.082957618 13859586.675007148 4967478.404993297 32952969.462108724 21173746.233884882 5275043.519012428 10607315.19358845 7235246.008819059 35866139.51334965 4818798.45501425 6336697.690254791 40766409.765278034 27330895.791931573 635252.9234624272 7458184.780091601 7477468.825233571 14802446.459000623 13803204.950181609 178549397.91253835 25050959.81111758 33960947.161652 8479641.42798808 18238348.688334532 28895027.6056228 41730859.968050376 5693348.552351126 38541071.817701556 21630119.847132348 39276964.52670229 6760649.054504334 76900379.05476117 18122672.401119128 25347721.85216094 31143192.83273681 18695866.519024733 19759959.962489713 42043191.85904481 28331780.66192288 32878355.071730796 28131733.243204817 9314348.965224098 31338698.82348826 26353702.57009879 34880775.51131568 40111817.17366654 11437364.751501948 29839479.073282864 25677366.411365382 15920449.71274338 74280193.12351476 26523483.58887572 24822901.0665779 32003282.284407172 17183603.841597058 40163441.12557739 27493656.773794424 10856192.254854472 17006338.84920922 29116747.76610945 34321556.91723422 24456740.803479813 34088304.16893708 37439481.577370346 67617483.47686309 20069478.590870745 65407074.42139305 8301550.622221236 9289781.793092575 1821082.6668941164 18127790.03309114 21036795.36379724 15051098.869365595 26665033.73646519 30077747.971571356 3093998.019180669 33582699.58880676 27293071.85616481 16323262.32309777 4665420.009112776 28402987.203559607 67277009.56450126 30263619.008254744 23749980.239395123 32227474.69526959 21777642.167738136 30979866.665746927 30085931.868471965 74718896.58646213 23796720.762035 23345583.65241516 31886609.03919207 31819471.686623715 39834700.50378742 8548502.017687239 7574924.060851668 9725311.974027453 25789089.669537783 18769244.311418064 42753473.93781825 26525338.00262784 20650203.09676233 18688404.767827876 27236717.259166386 10205311.381213414 25029714.551462155 31042439.195560485 13606936.652657093 38708657.1213381 32274351.03920949 36440962.007171035 2366730.964593278 35914696.08953325 7401275.42072986 13484024.75027903 5486844.322855522 19619933.72335662 27280795.6327068 16392783.872059794 24334211.50284122 31683425.908505067 12607664.707429752 27485688.768603507 40950041.88527605 31039781.516771868 23606221.566761542 25523155.51867545 2707795.0331701087 44039400.040142305 32517512.33802593 6519667.2948188465 30533080.093577787 32750786.63732169 26413530.70071763 30685477.504802093 33678811.65834211 26898846.409030136 759002.6077218481 41186429.730828315 25039783.420367334 1011030.4266845384 28224938.06431085 10982442.879707478 9620554.77065414 23752599.210600115 31120765.326842863 12382835.08910021 31023898.061413437 28719694.685041133 27853019.66588959 37968966.471692994 34463035.12996984 33806783.60237544 26819904.81192171 23438637.403140415 4826015.967434849 26820922.815561064 30628555.879081313 4998701.654487222 26918049.044730607 24034769.20380411 5149375.129460625 29655412.134671062 29980172.217687488 28193987.615570765 37932324.39705338 28398804.011859138 29380909.763237715 31573023.684490994 16345551.025053596 27992214.35912399 28007785.13935955 9370476.476576604 9724017.017738076 18467160.663530525 3811244.417644255 29333948.157060787 28161155.24708405 28783591.030907486 35991606.066876 3580158.7177203484 612223.8874293854 20929171.20896513 23064905.80570934 22389436.090685174 48139424.908306256 38681159.264185734 15031251.862862866 15339223.914891826 28527780.957398906 26593693.91343376 51571903.97645057 26426880.224942517 2802327.2316156635 28326863.83714154 15311495.489287794 9783402.152795143 3807011.0271340758 34363099.104081914 33392741.97259526 28001937.250660606 32976339.14811846 29902603.333050117 5722227.329851746 15765693.16938716 19096143.758617237 62027893.436564386 39195236.20056269 33224996.608560942 21613216.86168569 34609635.67137425 4451043.0927386815 14940083.330015117 20014798.982272595 9985301.121603288 12177669.004924169 4453327.781581621 47526680.92310969 31509970.311037626 13181523.560731215 37399637.325732104 18219755.983866323 27834614.866339315 24477418.07523516 24332003.511858363 33577128.91684644 28420337.013948023 32288289.667539626 9066566.27941057 32630643.78926889 28043656.19435286 33585001.003467284 10801022.921348264 34919266.669365555 12304578.33905095 31454464.478026945 34602868.29514928 17848312.172889933 21788766.68876166 10601848.290355565 31558243.296961073 31759968.701641865 12323399.284107609 3525809.8870694586 25194364.60268972 10487630.314344134 28916673.12705125 5027283.904743879 26258884.895606317 7093640.47669999 47084708.43199372 28198873.28840645 31314601.772470918 32341079.330725286 26617770.694846537 33949358.42628329 12755825.718626525 25567966.25374328 26686735.660947897 18940630.253744897 23159433.484952755 13875571.209880218 4182387.0111590303 34763059.49081678 27661193.91102245 33187824.375964127 8248429.03132584 8149483.966113686 36223903.590737805 25633852.121073555 34639208.3855884 25993379.067023475 23818358.172595467 13849622.058779841 37669610.18302628 32816716.544097345 35737064.19464558 22245275.429404434 34814879.750064045 44780538.16912094 13360871.65695283 15023230.41396139 5300210.753466895 36167008.51997096 15120867.34179578 10818773.85084922 25496307.65311666 16127913.18534022 14730383.409576721 19454468.30743462 22235344.995769814 33356303.88049502 31142291.694726672 27567497.869640473 15035506.335487107 25951477.986173216 18442536.599438526 32695910.83883535 28993768.726639546 15239831.844788449 19880002.845042147 30435822.65437797 14508986.166766334 15487866.760642296 18624861.863139685 27471898.40224559 10248245.020051576 29338278.037858713 23303910.60847265 34176922.18535926 17473590.777148142 20321367.567686915 44901453.19074601 24809480.41057708 36458377.38899732 24391389.967885103 44430532.26866708 28305167.423272856 15163482.297108542 30669505.433752745 13321499.849980496 30889376.455261834 11238045.517025344 25621939.86460804 19097846.67001922 27673392.27288559 25808127.703679156 38353998.76635332 2589271.741795062 32700111.351309787 28127653.17766875 43604354.94660735 10864934.704102973 33754287.00350074 4074327.9817026122 30436010.63175828 36203245.71944415 684847.9563843379 28824463.38231485 7262354.945157379 37717767.508670956 43643111.60388195 7962546.5929770395 19541643.544879872 29203703.87882293 28480762.906082213 31987229.689481728 15802820.56214204 26419419.27646847 68105974.10862231 30047601.966675553 28497141.698649935 32381635.295992006 18782140.86211565 47871304.73775987 33545941.01959483 9517412.776370311 23026567.98388459 12637672.67310145 22312600.609250963 13225645.213584075 28059186.75867079 27399106.05187622 27809694.100942716 23270039.705267396 28326037.724932745 28923387.974664614 10752099.743220303 14330291.07633858 37640741.37008616 38387449.72000944 5920972.5028413115 26599330.615697365 8892666.577538133 36417892.90716762 26493429.689181585 27397490.352132022 11156972.640165282 24082014.377723616 38064093.5276653 32847112.944783095 26380968.631997503 30610836.400357578 43737320.76424506 30780266.48800684 31199732.951374672 17164109.07047396 29521650.722442105 29342391.335769676 39413459.835803926 23798561.165151615 15611744.649650019 30180809.17853725 865994.5701983029 24165720.218537785 30734107.954629343 1517011.6467108163 68870090.51923856 19479276.921054054 33013163.994657423 8932384.654153561 35064103.52905915 32268243.64499991 25093130.397689052 27767869.29835722 16928531.412248477 12671642.288352294 20127833.549520053 30096971.816845868 33101586.055808347 44208763.36236575 51249701.15549207 33464168.592570886 31188795.299242653 6413255.033893623 20007053.375181753 31003895.401862513 8334616.266972108 28297056.933685496 11333461.243608091 17043620.259163592 25289120.35123883 34010659.55424174 26842010.327920593 30434033.79610722 18999429.92708992 21008218.13335558 32978563.33797291 30477027.932514045 85501050.83443518 18402691.694698416 18160089.150260534 26984694.116938643 27956808.587329376 21399177.808736555 27827385.779988416 28509444.34597212 3901135.6921129753 14997285.286294403 33811369.43744304 97612390.84570211 30693844.412516207 27345441.901860103 50995740.346598335 40647312.07285494 30059298.519075572 44808591.16203181 30244361.945620004 32967482.9831459 21427695.21793591 13657461.132342795 39461609.86175751 22124970.436970674 28249047.296066232 8805955.97574431 2662679.470191676 24517392.742389064 9256373.396899233 47665680.21274801 29573533.44331261 29922949.418959912 30935822.350174796 6132283.806045586 28964412.946476005 30486616.37189911 28378685.384602096 29202741.6661256 32594692.17013044 4655472.030008404 28383363.575764086 26936596.3700771 15117179.095168907 23762855.970207985 23500629.02388872 3451133.5997904236 53118156.933314174 45098821.51544006 30421571.31651553 29973081.923516765 11200445.891621215 33775571.72320037 43513962.97043717 19609109.390205145 26428012.85439786 25533476.584306926 6290001.047956934 6097618.0878810175 28203568.24081809 29719845.066646066 18362189.887989547 19979342.959264994 11033283.215358365 30737549.878247272 27864767.90611427 36464196.35168587 28120874.65716189 30494584.835117858 24588936.389765855 30373672.428075876 24952109.138348393 28681737.218485046 39591206.22350171 37893784.889026895 11902151.907285906 27199520.03012621 32154720.429039862 65878886.3181448 30976493.66265479 35279723.68764214 26214530.411768235 24038130.167582892 33024527.849773277 13337815.135612931 29607926.929229315 11365368.024492111 71382148.67862059 25512570.745168306 39718679.24162539 1901800.0476764934 11059869.899949413 30573622.35486694 30079571.474120207 32878284.6631351 21703581.6265591 29549233.212458383 4028690.510075666 4533814.973269692 35842913.71918711 2792624.878299017 12856487.85068656 26972251.05271071 18820851.433990467 35939944.42759721 19270295.595341504 18137617.082433023 23980247.504803285 58699154.60146267 24295134.742096942 42023497.48743106 10819687.78433233 25852967.904298775 30321963.681420244 21871546.362213597 29670357.728199456 21374408.566987433 27356298.325492967 28907021.215354033 7178678.490632455 10161971.865487982 8078530.646341471 18484000.1478599 39626816.7322531 31766180.82813496 40490496.06797967 26132942.983141594 1842550.3392519217 32063064.934138928 21634815.79110229 65475378.19393658 24822537.345650975 42978093.31783599 32222358.543502904 46016599.98104042 25054969.637279596 12332020.45198477 22368844.594349887 32916304.441894393 23466319.786845937 53118479.82998241 8855790.512405803 5730860.8751583565 8515837.880963076 11300744.303883538 29374527.407572504 33350318.26998241 17572450.922364116 34280754.41427837 25839491.55101417 13452282.052956117 10263825.847348303 54973726.751271956 13088051.049371544 9060500.399227226 54178401.70693791 17195649.747793525 73778151.95541932 28382489.7225856 8398713.660309361 31463948.66694768 11308289.56100568 38540565.6981965 10167043.90091052 9237896.704623949 34364035.1238712 4487749.311338953 29240622.67354023 26924593.328323558 21439481.488535758 35772360.621746995 25939117.99676862 32344155.823665757 6990538.719096361 21019767.27035698 28053952.07317204 7628876.003713903 13720745.413280234 25036660.227080032 28747290.41360465 39755937.38827593 20603207.7255834 19414931.771501984 30068013.780984707 22326323.051404864 81612567.2357885 5150932.842767609 30752763.693476666 27438302.989887714 26647990.306783766 81854542.1406748 27877791.402802836 30205483.793394655 29315040.1412889 10972776.582422784 39966890.71839005 23691305.08750151 28490178.653045714 14246946.584702983 5136764.016446309 12580280.964835314 8212517.003900202 50498560.75901972 15770360.12856388 303593.0783921461 1973889.1571908898 23777912.40731761 13059633.436031701 31727402.964711998 29500862.08170999 20760760.70894119 39463244.25717593 13436513.100848276 14935853.511353273 29591132.850623667 23758634.706376202 35977410.63758425 30515243.82452968 1757201.4413340965 8512896.03341275 30139152.623324543 24465684.217838384 26157082.936330862 24562313.640911438 34235936.4852852 15087776.407814026 17913228.655703876 29275994.981438685 11134525.207836779 29318335.519943666 38148246.79874306 3374445.3731576717 20425270.552932262 18674900.156131078 3899018.144729104 23190669.776117597 74073211.64390664 19756509.68222431 47998410.277524605 9368036.38676035 32124437.20461746 38587631.36135359 3793780.5108502894 32060261.74470146 27891620.109308466 11062779.877985718 10209670.476750232 28400891.517064035 6788036.866580728 20972724.609801844 24394032.46727329 28668898.31602426 28253418.73356694 3299467.5720065627 21243124.392595883 35178106.784984455 13484140.58191259 17491309.071900222 11359686.140663292 13149198.932457162 32294373.34987271 12294724.300920656 10050203.10298249 28569658.59138694 22822005.798717972 27989302.08381757 50028536.40953741 31411756.417048175 19060247.303755358 32047563.45517332 35173709.86791072 42826631.30796084 31085837.832056545 6122038.3082221355 29372625.864273787 3636857.8155575185 3335200.9556750758 9635060.247424344 23058328.151886083 18775024.845125765 5833493.299652296 20277875.561654266 40518331.93987612 25028824.41837716 31590222.453651864 9552818.538970333 22842243.905373853 27477332.7999654 25255501.16028527 21907950.85676159 46256521.88776113 29252947.381826393 32194817.832778577 30406970.38794066 12129219.051593704 32711792.235240333 3863245.1389382747 25189534.997414183 31559836.306711376 19235195.19350547 30745273.814745482 23772356.59514931 40219450.54481434 2150362.8078234713 11127676.579955235 13842616.946394218 35862339.78573035 27585772.604174253 33155091.758460738 25770294.41629094 19180749.869937006 33066170.59644063 37199580.41997699 31859509.867928155 19933731.967027333 27126055.494081207 41449739.684455305 30904805.38885487 39908397.00795859 8479127.760218084 24990802.39937139 36127837.28163142 8269212.23536047 19384219.45883008 42667925.09194967 19068914.89373863 25774398.238237116 43943690.45279548 28671751.084566943 15608446.276394377 2290864.915389329 25050557.84506527 29815570.473312132 27910833.171841785 33798919.60939228 30644243.38307624 19674301.530745592 30980953.09503195 33179050.001855217 23897977.519998066 8294734.183122949 14170518.214423088 21907799.183407277 29820994.381758947 10943953.984204544 802472.6937198996 24312843.1319664 32802301.738066275 41096850.91188546 14575677.191078922 12760933.66454306 3308316.2701568096 18904678.551475536 43670676.81521905 79903931.96831958 28606676.099009544 29814450.42262534 15370578.96606119 30807314.760493707 12817253.58365427 39152183.630608104 30478137.247053605 7044022.797568998 43748693.63515501 15086896.101578072 20269590.855330564 25062502.658166137 28634652.680885397 33754122.31310117 41370460.87540189 30890881.87792707 8361371.797810296 36149740.58813954 19414271.841779593 117171100.29256615 33394571.471326087 27020799.9175028 14467381.035333626 32093161.719937634 26996356.044031832 14217303.789167667 24957484.40734908 20062053.86341664 27359630.44055584 24255761.992242 80515734.92976946 5597568.132697048 3439469.8867540397 31059600.90434213 33561867.558113195 7545005.071686147 32291684.724058267 10324975.488914622 22327715.619005926 35465003.37071613 12523492.32028275 13312002.745568255 4572521.855310093 30724664.26776267 42778693.76433105 34545881.451582365 32670069.976671595 19495686.43868854 31290975.785925943 51208560.52870306 28905261.50747385 27495394.336636223 27478474.23435998 38442268.297595724 31454698.13043135 63210420.7526164 11086484.824187646 31675663.306582216 30479927.734128546 14628646.395304559 12825311.075756539 24942461.184646767 30841503.762074985 33060333.750033695 33262263.03731313 34964829.81878063 14814826.601658484 24872779.56393368 10355304.984624986 88716682.77653785 34259286.232559256 20716726.83288771 13233151.072375702 31372746.996379893 14677085.22096581 32016476.438484684 12410767.878529724 29468613.129679978 7347461.962398849 11600498.967715112 36240537.62902988 19492942.647338 71104483.50411211 5053674.496541046 40442435.09566425 22953000.280872688 9915803.432709027 33292735.461574856 13090534.022328615 5265307.596596556 29095789.701085273 27859440.858534317 23809478.164554 3319441.801729283 12241659.650359498 44614189.007550016 14491427.254256425 19003134.290701672 45804442.08531506 71488424.9490992 25153421.633781087 14033233.172036698 29000905.166753236 16119151.527181381 31980997.40992665 25963185.02851412 25885691.191168606 31550138.79520224 30990338.149323214 35355975.785743184 31430943.11490139 69800536.36875564 33765742.89686544 4881364.854412749 29813050.200635538 29857090.78626053 22269401.04032782 8167885.684174089 33847862.78708324 4267536.306051675 13587389.487780565 751089.1333367911 13144111.871792348 10260444.213886784 12202145.356337724 13085094.086373094 33187432.427379902 10012880.410176823 1089028.388015553 13365180.654188855 32930096.07139447 9082543.652485171 25741321.34537074 16644773.9427632 30906812.094313037 23647639.339410126 31737292.909423377 31370999.086204752 27520252.277768634 30349114.22272971 31556052.339490667 16328040.178737307 28916611.619987447 32331018.22036799 768389.0635003987 10537884.28897367 36695410.56683856 10698914.594728284 34659239.67848745 55821656.30033001 10802080.074628292 12803228.341613041 51173843.36899402 24633911.48593581 9661772.522738898 13202481.247316951 9740784.577247662 27201706.179537274 25694297.181943107 45627569.831607476 19769531.948145006 28589578.67708038 42098097.00193352 16792359.77327484 6065309.955284292 26725415.168626953 27413150.477042034 53727610.19528725 32661571.391522314 28683843.185309734 32512808.144301247 15683202.328636186 19281491.405037016 21609378.606880173 24056883.14308521 24947517.026130963 36719577.85912348 28185096.03625051 17061539.301081147 33433770.268918835 13738503.108178778 27231343.41634357 12117358.829169638 28201974.952391908 20404506.6111574 6689244.496451602 22962742.99823635 9771477.536974128 26446357.945524346 48272587.77962654 28004313.42431573 11328517.068396334 17966941.28274943 7960497.941098978 3116688.1570161018 33982895.10886882 6367252.89886915 89252233.87732834 30649339.249532 23232158.54325374 24783883.574896123 28068033.86310445 32581990.61073227 26007083.726238012 29773002.06837369 34121530.414008185 29002081.66217881 25429826.5157584 50583090.924957566 31036334.825522784 87423342.50055991 7434437.93494139 30240648.762209345 32937776.97254388 23296252.977920048 25117903.439000625 40790097.77787117 40995532.612289086 29101372.84358019 37730787.14418443 22970598.16273335 37751425.09318114 30945285.476510867 9428967.018040044 23735437.20504203 29206081.151547793 26590153.213658933 29537669.13746144 4838730.583591378 19122329.433514755 30028053.044033315 16259799.869965203 21933879.171673678 30060159.205113105 17244246.158139613 24769860.834790517 22029557.07516432 32106349.34541957 5440229.5762870945 27156797.642114647 38397616.93469439 25387413.0519404 13474724.845742304 28644607.681820758 7153467.5610562675 62470567.481279425 16650875.638276545 12376833.89856187 10360393.441767523 9749083.01074951 28155237.634466797 11665439.34938962 55625184.65232642 34595304.83285392 32148412.92332563 31799038.220788106 4190531.529379866 17672588.912526406 36552264.48195926 10283392.202229789 32686996.02992864 5190487.241842643 57796064.98609694 31328241.744705856 4459848.2212096 14120779.450515294 4347203.998977873 20145514.82720341 22756330.570848964 21102005.41698051 1653180.4788350635 30488855.61380286 16174535.505633062 14022917.812864259 11586534.0147053 1301841.251626996 1186759.7831799285 31199021.864206053 26802646.717794668 29575073.00011477 23788606.99289955 45996583.04701841 24687936.281517968 41513563.20688524 14755216.157923339 2031660.274653009 28597360.453888822 32478959.196148343 13894937.728940148 47033194.081845656 32182803.262149226 8637913.420909587 26029541.69827365 7937621.001071915 13408500.750781663 36526902.50994935 24975886.53386474 2962741.6426227246 55280863.43639449 49955966.097487845 29246203.124355868 12228670.959565116 14438482.927215036 21430907.186906144 513008.18173083174 3013194.7162489 32124385.068158142 27159175.300085325 34810475.220027536 25207607.6362781 12127987.452108087 59329491.83257155 32762983.533678737 8678667.542738147 37677427.16738849 27770219.67486134 31426422.348509863 13273859.665667059 10817286.640071588 10830899.990785394 30833668.528595515 32576895.268990044 1877462.0219306853 37243599.74932892 51631886.65636366 23344926.746464856 38539236.142305285 9282357.99081352 25177002.263772946 35130272.78224392 38340599.65064258 21348302.860134427 28083756.060334675 25108000.205059033 31024008.485003367 2136959.079776281 9573302.130038226 11237828.774296949 9717190.79760692 40489217.49248666 32796425.422921095 21561461.741298907 31654161.234737456 50135279.37243443 31589347.880405884 10268380.847993271 33064885.34019764 15873574.727617715 19203140.3297282 30683281.86299481 7963537.313686167 96993287.2208761 28320469.983779375 7181837.764761266 41979839.53564196 67624533.76930383 10780519.727560746 14703911.751072463 29274533.54740887 3800234.403142568 31212284.751996458 28973414.78995822 25082532.427910667 30311776.956545107 28328993.367639687 31371384.23358783 39435309.20164919 29643341.97467524 51898041.24901332 71447222.17463544 26958278.399502683 42339412.40779954 28784309.67965656 30513926.178003926 28690321.804310374 31296745.658296984 2991371.2465642006 30820178.36300936 7199056.448883004 8136387.612663582 37624783.13801736 2907005.5652168747 32552598.130882535 3251458.6542052627 31294424.90215572 36601982.24539098 33071134.315326713 34503336.369878955 28714606.596149214 32292154.781967 15624281.605270777 30598277.45665169 32397310.603403196 30798826.51533484 57653121.30241386 30087641.82816872 12391929.478871044 27203407.33414403 13875979.488489231 3251829.7089475826 14955313.53040915 6683632.503951694 31636954.95826538 41043388.68413415 29960497.651993476 48756741.61782082 21742754.534325633 58177408.236168616 23653926.64256549 16149625.409694022 8491171.936507566 26354366.993080866 44595634.48769411 2641969.816943706 76202473.97889416 7146816.908969801 24246207.411829475 42673527.64547726 22397624.158114206 12030978.222479329 28836204.821000606 15609544.824094936 12225176.562386766 29477964.482212916 32979454.724434894 33024274.25114484 8528008.758743184 7303798.641360086 12335123.362977186 24264907.537887663 17056552.574830048 24605618.26042982 27618360.488988467 9393915.846335268 26788469.81570114 7684910.434564906 18325609.82085052 26760462.295914114 24475754.579012282 18813458.50856888 4575848.864437215 23839132.73415422 44651817.23922551 31790189.09105675 82425817.124616 22648629.89829017 20482840.987785283 511822.20758644666 25440997.4538078 6509967.146784294 20429331.18276281 21640875.0749936 30546240.153551504 11516342.091597788 4392558.207396763 34033647.095797606 29651897.910476647 22647820.731374167 35148995.08222994 19968565.252998967 12931004.668500263 33259472.60775425 33036897.889543336 4090756.9851120124 43556942.619220175 31455211.13054723 11788732.29168788 45791769.373934105 22175066.960200448 5624826.587213248 24329240.8608997 7753428.490368443 36196478.56710308 8132719.285324931 25246274.890088994 12551641.481777417 55651309.41786556 52994764.981588595 42071326.134754345 3566103.267632913 9725948.961003695 28896025.74993391 35549177.94876201 28219166.869642276 38162886.31663654 29962296.342034563 27508136.808338698 23183657.042066276 33211582.62332522 79285319.51127136 35335821.475586876 27697717.078440573 9864833.41610651 37557383.518635005 31338494.015504643 9092312.5274668 29675342.643332116 27373685.66005822 7374060.040850573 15408305.34076554 15251133.355868366 6895632.410586378 43714345.54838613 9502654.778420728 2748364.7427118146 31773673.0980498 78131819.48403732 19035732.424535673 11361144.026671518 18029070.988705836 4080523.7545098863 17808608.258821774 40391933.75109034 29154572.811203137 26160207.272444185 14843402.452266878 2988794.651254482 27334420.66577042 2835928.7173734475 20360736.35584698 29228873.920690764 28130600.02658995 8248150.436716753 46821880.5801556 59264353.915076345 2465492.148251788 31062475.762833573 28646425.741148315 5606976.762648981 58267854.85479181 24084189.3488479 3875847.1294652545 27344393.786724746 832401.6542227884 24042539.468639612 31622804.42185416 76663577.38831128 35117566.11012959 12436804.647399314 26020077.26161201 16054397.335808918 6886732.056169321 19717562.739757072 13283262.808956662 15974486.621078221 10758239.33466897 16273730.60726653 42670259.92463375 26416112.074544635 11666245.01366873 9088781.730660308 4050849.1405187063 39665681.38664021 11520227.050623516 28664715.773359556 9325435.868485374 23482776.335945535 6529866.633484896 24968263.324380025 33681779.52795684 44337574.20157028 12750665.15223676 426244.23246091645 15887453.244495055 4517737.24340464 25358071.068230327 7372097.362569295 11870658.706627095 12946887.048179306 20341612.88903415 43917118.399741866 44376464.32826526 460898.65940337285 13322468.31821154 7899684.147300736 28447115.76811601 11845886.90947762 48967882.486136414 42195990.56879186 6140619.3915895345 79784892.25972629 4973297.259692815 4683254.946414671 12837460.93037106 19225561.40976073 24205819.516352553 6919839.178821616 3580504.5886302204 26866438.938073672 41879178.77424103 24246536.973962117 28543795.7463267 27817096.833419 8897271.787636101 16404276.786247125 7734454.931152359 28266779.465099335 6278915.36770438 5151609.274720914 53874188.25394492 22635543.38627919 7643970.948925856 13220462.05737576 412156.7933327661 47211643.833454445 24576296.82731497 2943032.313142041 4898100.54257516 958866.506348172 24327485.24015037 9140341.476293877 11007806.341987055 6141548.073569291 12956320.51038984 2045269.1808442287 4876927.470076161 24699060.598753802 53993683.56564488 13982849.268561844 19227252.792357273 32406758.740357414 9455676.109842073 23135164.809619233 69555183.87403984 14123122.796015326 15169042.092072213 39915183.54192284 32256467.975244544 34959562.738061234 15044293.084215274 11009162.70424829 19085788.335302804 31305128.290217772 30819312.635624 23291393.405648418 31020498.834879227 34149104.10479468 16250118.84936368 30635678.82965876 14599401.458995387 12591875.108903494 33369880.64270999 34366770.13825112 18094193.10598055 33646747.326047465 17933549.26009223 30525460.325845588 30589598.950266372 28581275.67256423 40171738.01117427 31296145.68654995 26214963.017816156 11637116.566214029 7529610.6124885 2702062.5565226916 4903869.818251241 70637846.0293302 12407471.724056337 468127.47934945364 7841500.315737159 37322767.15419645 6332700.287257372 69949316.86906558 33214668.10172984 21205034.581295803 15722912.795718012 13472744.031139674 15851830.430967612 29197628.96929961 9168149.085447574 7091901.75559034 20788781.7032995 43760467.247145735 20044590.7341364 3398629.3945804834 40639342.29060695 31579876.43299357 7314344.34037618 31599433.012728717 27517650.078768525 27965864.830336772 35116664.21033161 30483669.006624382 40535931.47260938 13134589.745954948 70169388.82216264 14505301.2299064 131710147.02298713 27611014.87124727 4119984.2973720185 7672522.363618049 90281808.72896269 23355890.18149491 33375530.66255201 23869044.967493318 28237011.026671972 59066795.83599229 46722613.9736032 34620055.88465424 8846067.806088602 26268611.235758137 39794757.731768735 32188561.790893756 31913645.63689177 30756338.65681241 13836259.769512275 78435623.1194155 23822511.72444756 35644481.86711325 36061318.26620061 29800982.439133376 23546596.977551498 31516416.81434555 2269160.183292342 18198500.304217864 38667347.23805476 29982083.920184057 2320691.693177442 14426768.150911087 30594217.544660307 16758852.781425193 18596479.654594097 3968486.3279820196 90629242.3194944 51126459.322098784 25934360.696299344 33642981.122269265 24162452.998764355 27636793.608781442 13457024.60691185 32383790.097323015 64361351.867154196 21717422.584075235 25651875.808481824 3740579.671097586 112742369.04434396 28491997.68408843 32562541.88900466 27947905.92166005 32318200.26630217 27072827.93967557 41118562.51758955 25349681.3257946 16877548.80380368 59455240.59092163 20807514.79598052 9360235.610858472 17934518.580804646 25142395.834923405 50499183.35277793 11126966.194353947 29702322.527427003 30744758.43057505 30998599.972907 787248.7393139909 20582675.942393254 28780445.19487675 25547026.680125486 31092349.55945224 20301367.804735772 1784348.2000917993 29771269.10313477 105966218.71783051 31308279.576722443 3928473.498905853 39910606.56299117 2373559.557306891 6157211.6988500655 77997451.219702 25292717.443829075 23325016.784990955 19908519.12561369 19527238.62310469 51833366.864001215 60782142.04703661 29154141.45826406 6165387.62176754 28446663.31774364 12759215.541981062 19754823.909517597 37598928.35543687 26146352.302772693 22392459.329784527 33481841.570253305 28026861.689452805 15009453.127369314 5079108.968705865 35591893.89552007 30552324.027014766 12173859.077183126 14778108.131624263 24304531.014231004 33108873.630337365 9309545.385519577 20138242.56209021 17610995.406101733 70291959.48785192 7977526.543242176 29730976.807276487 55328913.06936686 38459589.24278764 36679208.98364614 33180292.73338628 31417025.89833707 36641886.21429299 9984156.059426855 33301416.388253678 24533393.33331986 36800230.03003868 20103605.045914352 15933170.739670606 7901741.362760979 26360773.649350863 23284069.206914503 28880709.78666345 33700249.10872189 31649306.798277453 15516206.000026919 28356611.914855428 16593777.28835103 11049509.200521706 14098287.196650129 27305643.192075532 29162089.512382563 2246757.142086535 28058364.43018278 32312840.233542904 55435559.49799715 13243000.777878568 30819947.70655943 25982823.86554284 29436310.4951299 29770783.01277373 33420272.4897317 64679612.33538132 74463015.02449322 29319100.01415147 30460990.816218052 29735773.776202507 20738637.570415072 35229454.210116275 63323981.3056751 27172709.253237654 27662627.743192885 10240419.160655484 26552685.87698229 34981228.01545167 29595065.763371877 25687170.834639616 20893130.54984722 23143400.68545467 27777942.340888657 24384435.533774603 14157589.397343934 27956084.748896234 29097754.21587586 23861579.531896934 17610162.813164596 13012083.023497468 8698285.934436087 32741154.944155242 37159558.42527969 23672326.798854522 979379.4717868222 6154845.785977397 31942680.95617181 21117907.598674726 24716589.07951761 27265225.821451556 11608376.852384228 23671223.764775038 25822363.27788306 24580697.725649957 32311440.10529362 16485895.736311052 29789004.10099026 70661787.65470243 2699880.469877121 27220490.359777983 17415360.41306887 25147710.513851456 23905322.756937888 29407087.583302666 22697717.218451858 28736194.664332386 8067104.534282731 28809460.187032938 28161415.07532796 17479812.41919991 45498925.40754181 28332967.385027546 20926669.596242663 29020137.188122224 15521880.458771095 33030492.511178203 18360730.849929817 20283707.171718948 12900089.900473632 25459182.617529258 29546062.226162843 22009253.90087199 35184932.04053009 8253017.805167666 16005734.486804282 20044234.191235438 20671545.109861374 16069933.785068749 2018280.2434884163 63885549.054491304 43646914.63854905 10308200.331776883 36286607.5642493 16756189.207428781 23364469.063812803 18387918.979365308 10190340.072013022 8052647.856215846 12709244.831298066 25508580.113254372 27147714.83684624 28902701.69915124 29647008.154336102 10868744.587314166 29360435.297672853 24242574.982559416 53703953.05683487 34907846.00056687 31180563.859684844 31219914.78347565 3563837.1714997576 12033595.590647427 37772276.36966234 24792632.68236775 2628872.797803525 31245854.896415934 36987321.74659523 17126921.89944516 27348748.804360736 30518985.25158201 32130192.725401353 35218655.124525204 19737495.370488524 8718358.367726035 15354244.714415396 14953804.325352823 28854920.9945516 30064064.38666 30009808.97817027 47913703.48534462 4764893.68083819 28232827.472206164 29228062.964057233 54348508.85054513 32670694.64762086 14532456.974160863 28911500.365335878 14012981.238980671 12497631.045035878 28134544.60729985 53181059.20041985 11816859.913169099 8925181.89502634 12770420.508165894 15645348.751071941 24227189.307858907 26014932.17908458 53635270.79146108 25781455.15581227 37526351.95128651 6713870.744365449 5875406.24793972 27558090.255178627 10885518.586219843 49598713.35713259 38440421.73620509 24522528.64243549 34304478.00049621 39298045.981203124 29359313.063945945 61737510.201987535 17147731.780869722 17332475.70013321 2273537.8539308477 11027481.749811893 38917954.73137434 10083327.903577175 28084061.99547516 31585970.66241745 25199274.559395492 50352916.73558092 17932036.9640665 27903138.706382778 28119024.610743023 7870351.475300044 28314925.665844504 28187789.231117316 38690389.37046227 39118021.34123705 25290110.78501225 25088938.318636242 16219578.248681776 29533841.51900824 25984076.010416456 28383037.825156644 23802471.194157865 26965201.338173844 24809249.91408106 30268477.072619863 24348927.06937376 10176382.504279258 25997577.780469935 29788266.275155123 1838720.6692114654 14110731.56960333 37014912.75196815 90865857.64772274 31804697.224334817 24692034.66299427 16121737.659125956 17448152.83018268 30472331.789051916 21629107.598464835 20531828.791540973 19650115.29870749 27009984.40392174 16596833.321902521 24621576.140938517 29476421.812159255 29544590.499052975 33156722.25477309 31872793.16329 28576852.691690784 18824170.95476987 39594899.45289672 29462007.726436935 16318810.916901736 32081537.327024776 15883135.823824633 32143858.368806105 25233179.27977395 35412356.32373856 24582932.862406906 14335386.834605254 10676485.234309025 29490775.44082747 11672338.917789644 30176733.12435053 26419177.792738996 24374713.235535014 91145574.6347255 30521348.357877698 24413010.54289186 34253758.43576977 3903041.368879242 23323371.60151215 36517321.097103454 20262100.284450073 26525255.08867155 38865665.162528105 26914604.402850024 26521088.884271625 10387804.77041345 22890920.474945627 8018254.181978832 6074462.308394238 4261723.173280935 5969221.039881822 25504090.031771265 26861322.379733358 17611519.55073524 4001738.913801721 13246204.663310632 70190315.79830842 32473164.568148818 30894487.62441581 29898330.04319101 25281951.658860885 4943583.037106003 6819741.660813493 14329859.783407781 11985800.047952909 26596898.126780476 19879414.896189723 32837490.079946734 28776612.730872415 18140383.463963035 28859717.487158645 9408102.285522489 29732253.466255996 13020646.399418756 15653498.442814304 10552675.319193173 36346809.5699436 17097370.43748007 15348924.981339563 23211621.22992573 8366147.393324235 29167188.967385076 30060674.2812229 37914987.55668666 32645772.99013567 9646748.648156205 15214896.582216123 586134.7086168639 28724879.027881246 15262135.983228251 16829541.00823102 28846755.801914185 29631378.21984118 26819380.328398593 22177572.453484286 33116527.31174313 14228315.915031042 1213587.0838187444 27480714.277105253 12606011.794335201 20347369.934096437 27572443.989867672 7966634.476728078 5760022.271292471 27022648.48643263 10453054.94196754 37492608.61289305 37129347.99682437 12721412.100629494 25677091.301464092 25898756.252902903 10680988.283496808 33613998.917837664 34660470.02072703 10001848.105153142 61434548.299140275 29697266.41149427 33576731.46526182 2484074.756967582 25413197.635965027 30991295.30617861 35888701.997159794 8426839.415261324 29122781.788234286 14811200.31731675 29801320.180692043 6931935.831607639 12492841.788081992 28258578.82318978 32380066.383954562 8784537.25284383 23742853.435811516 24310021.601092786 7712915.028009381 28574766.280660063 5326453.804243629 28102380.26025951 20307126.471889738 71983762.18539342 22023741.94498802 39619879.27248218 6464611.222378349 18089712.55150505 8233901.219517654 28200110.627767473 24962946.479062717 31181042.705124576 24940021.703580108 4297380.304748828 14066520.70180576 25399180.47515005 16117467.162016464 30251249.367133904 93461967.12451854 21458888.927270453 28893271.66989364 28219947.147434566 17940423.671609078 2577454.3195608505 92830836.10904568 12020703.53541084 9183598.411309814 28314626.75954154 11931586.166371576 32773699.142510425 13606285.397394624 30672686.87455842 5735100.50780048 10863018.823189497 30071836.11798507 36607216.01903178 30957392.51195186 28091387.906187065 18347671.0924854 28518483.350204557 4469785.351910387 29922389.271579027 61169821.42026571 5062827.094309848 17115162.753569044 37193779.89621103 18885191.109183613 26857631.857292186 29057850.566492278 4685782.106013293 30110433.30338136 32088448.380916864 27647395.70389951 23691134.25009065 40212369.74292289 17539412.563109018 34100960.041990034 11836105.991714898 13448639.671500275 16243064.76432392 5131153.829737062 5621414.29466572 40279145.633222446 26757577.486347083 26993322.80569694 28686332.997592956 18126792.79588147 35596346.781690665 27034190.719354767 23162826.149769392 35104804.13682083 24815836.27603068 15347955.245262412 27576284.580194905 73797355.58831765 10695441.559949685 27791102.12298133 19822683.051421866 36387308.80357366 3507122.5240647695 11435262.416729301 31382667.531084318 16646104.569477018 31146152.341400728 2429488.924815349 27589732.90693689 35230866.74375667 16558129.986397916 17023126.09630783 4109628.243851411 66646948.67734697 12756888.193598598 1380024.0079414726 4997310.280079936 27388831.97423445 28240474.20334872 30087116.11897952 8180329.290834136 66974776.09688867 15807180.920510938 9831638.919247601 9803955.931705672 21585774.074903853 32705442.269639794 15935656.894541861 11100965.393621486 4208518.548475357 13343023.861328071 7418553.825514676 28284188.77714379 28209618.855637424 4927933.518282115 12115834.306916783 17974248.28132987 33276398.429343432 15474684.471719911 9578354.819607621 46263612.25890992 79572094.0239556 39995507.390972905 27770335.494950768 1601773.1414651591 5904493.832597096 14510653.457255704 30794024.732223757 27411365.175583348 12208496.463390185 32841171.317407038 30541246.801291864 816999.5229501679 52645526.639428735 53981969.87995923 18827279.06732034 2649585.163223322 21597349.26665136 12360932.700027969 71725366.59333026 32388189.93236521 13238503.399951119 29108751.409661263 17628084.976422112 29804613.106547352 31556675.728092086 33829779.06332877 23659176.455710124 31890937.688851044 27217672.803243585 26008601.411345974 23555115.221418504 35634556.22758819 36908201.12536399 18988266.77898765 2444203.6239503054 33613534.97437435 22627003.25672037 11458235.978840237 19539352.204148013 26250209.692798696 26728120.52518462 24643050.27350055 3799039.947989975 36361255.07341806 36670758.18688006 23183298.68459076 10312802.32017289 25850041.17874444 31254708.326300412 31477396.66785072 37560347.05886049 26103783.634939678 27190725.339662112 28701334.369791534 28461142.57696373 165466598.6623273 26768968.282840084 31379846.160183106 24833114.26766138 26824550.00731521 25078845.517279074 31478857.05200922 10246814.86083233 26624256.49343158 32047266.58871914 28253408.954630006 37777059.34136013 4998025.101796876 15438855.01206751 14143643.625201425 27406081.490181133 20640438.69019536 23666712.346492913 9229847.67309055 4314817.619204921 13218643.284332339 23518470.7283117 31303390.132389374 28435962.17879007 57984319.99141638 26455252.445132695 17868993.12102223 11374314.714615293 25806952.00964653 25225519.746390432 11433752.909033388 12086747.132930566 28965309.30887656 28780907.298694503 32193971.618581295 18129983.908452906 11095999.218172017 30582326.1230671 34357058.54670879 28339123.0601368 28275288.458602868 27317071.363314647 28712557.06666967 30201240.055969276 21235635.418535475 9469382.815694444 12984082.031835878 16647866.55952858 21667035.1390443 4626387.965326209 26205863.13876831 38424220.983198605 19664629.18465211 35311396.55847644 13719323.611219712 18871890.420051318 24795554.81209672 10095224.345072327 35722779.62795594 23352323.357978124 31234457.158329394 31059735.128328253 4359320.091081277 7379101.212048408 29294035.729708094 28258587.820773337 10499477.823407277 28399783.440838978 7976897.609491225 27757868.391915448 27618184.610980727 25905105.893334534 374748.77523137484 29765522.978203546 14116846.382130293 15261687.094292983 11259546.136634395 26574316.058061633 1662229.9698605903 10766913.753175706 5415812.035801472 27348778.05195595 14995705.69524459 28430606.522906594 29124808.875968076 12193435.04048528 19302036.814294472 387913.49524826533 36228225.87910318 13168746.92207865 24595037.419889737 15718751.717276623 7126065.76756704 19457545.356466446 336366.1521432958 21506641.688511588 22646891.46361923 27714253.021259446 11165979.558876457 24032245.121843927 22322868.211162798 54172115.7414346 17869821.98826608 524929.5556274898 14841318.273759635 14140960.37494729 25915039.650681954 25427932.409329407 430002.09189037787 7831320.644688331 33549776.85866162 23559249.208561823 32739921.51446806 31932727.259408467 23941261.338147126 31580635.069869295 322273.5844474393 360954.2752402253 8539964.355765281 31625807.62317086 33017379.433488447 23678852.889362246 31437835.324117135 18967744.76652024 8387408.30197151 25738360.79302131 69481051.47887035 23091357.016752288 6106376.786927034 2537945.937000475 27771772.787654582 5373721.747215333 26114390.6078979 18038280.55555676 12100994.35111317 31020671.46890432 34060708.58487681 14625182.905224785 17565603.944521733 16582804.13470716 37326438.78364919 29816857.34851583 37519044.01542441 1945566.4199219362 13938898.649694206 13386007.749082731 25942515.861237276 10795332.051387055 7964941.6374741085 81132224.07007998 25773904.30651543 8291009.242670788 12377876.377529938 22113453.256179363 8329879.1278266655 26008697.09536624 14860855.747802364 14103520.98669443 25639879.211151313 98133154.87192807 30093453.985066496 13925538.976199834 435777.96817000397 15874083.16574989 18016326.42150597 4908377.9033068605 28455608.510671306 23091651.763562944 21446560.48530999 29654577.892513163 27680107.896580264 29842309.97821873 23716218.743090093 30521195.728321455 34838164.39892528 14217615.097132452 34832148.16926612 24188882.611002058 27436717.22713943 29966920.931722682 9300714.39199736 9070243.66453297 7272754.49586162 27818875.37689813 57989795.009714544 5953984.204737688 5274912.460511253 91961786.0369748 8808799.905775115 11174298.51422222 14701544.945380092 8618049.651600137 6563487.923668339 12239606.284678807 13360458.64267584 26769610.38357904 5684638.564448853 30205745.111928977 34087088.07555861 8479470.845580906 30204406.678488437 8488109.511635788 31232715.705698982 27500020.773246396 31002108.81025342 22583992.950238213 10537341.906928841 9564977.008214772 43512949.70758577 36081467.99539924