# vtk DataFile Version 2.0
Really cool data
ASCII
DATASET POLYDATA
POINTS 1947 float
10.0 25.0 0
10.25 2.5 0
14.75 2.5 0
15.0 12.5 0
20.0 12.5 0
20.25 2.5 0
24.75 2.5 0
25.0 20.0 0
13.625 5.0 0
12.5 6.125 0
11.375 5.0 0
12.5 3.875 0
23.625 5.0 0
22.5 6.125 0
21.375 5.0 0
22.5 3.875 0
13.625 21.5 0
12.5 22.625 0
11.375 21.5 0
12.5 20.375 0
23.625 17.5 0
22.5 18.625 0
21.375 17.5 0
22.5 16.375 0
12.5 15.5 0
20.0 15.5 0
20.0 14.5 0
12.5 14.5 0
10.00403225807093 24.63709677361622 0
10.0080645161563 24.27419354593253 0
10.01209677424696 23.91129031777318 0
10.01612903230577 23.54838709248107 0
10.02016129035602 23.18548386795797 0
10.02419354841103 22.82258064300752 0
10.02822580648097 22.4596774167125 0
10.03225806456681 22.09677418898731 0
10.03629032266798 21.73387095988129 0
10.04032258075012 21.37096773248903 0
10.04435483879861 21.00806450812494 0
10.04838709688005 20.64516128079578 0
10.05241935495465 20.28225805408125 0
10.05645161303756 19.91935482661994 0
10.06048387112473 19.55645159877427 0
10.0645161292065 19.19354837141498 0
10.06854838727757 18.83064514501887 0
10.07258064536606 18.46774191705492 0
10.0766129034346 18.10483869088549 0
10.08064516151669 17.74193546349787 0
10.0846774195907 17.37903223683728 0
10.08870967767305 17.01612900942542 0
10.09274193573161 16.65322578415481 0
10.09677419381719 16.29032255645265 0
10.10080645190677 15.92741932839017 0
10.10483870998482 15.56451610136578 0
10.10887096806891 15.20161287379791 0
10.11290322615036 14.83870964646787 0
10.11693548422069 14.47580642013797 0
10.12096774229187 14.11290319373216 0
10.12500000036691 13.74999996697819 0
10.12903225842383 13.3870967418552 0
10.13306451647886 13.02419351690233 0
10.13709677451437 12.6612902937063 0
10.14112903255518 12.29838707003324 0
10.14516129060447 11.93548384559769 0
10.14919354865313 11.57258062121796 0
10.15322580671374 11.20967739576328 0
10.15725806477384 10.84677417035441 0
10.16129032281338 10.48387094679534 0
10.16532258087472 10.12096772127496 0
10.16935483892187 9.758064497031445 0
10.1733870969857 9.395161271286613 0
10.17741935503843 9.032258046541457 0
10.18145161308684 8.669354822183982 0
10.18548387114214 8.306451597207326 0
10.18951612919923 7.943548372069355 0
10.19354838725904 7.58064514668658 0
10.19758064530033 7.217741922969729 0
10.20161290333043 6.854838700261147 0
10.20564516138313 6.491935475518151 0
10.20967741944725 6.129032249747367 0
10.21370967750003 5.766129024997362 0
10.21774193554038 5.403225801366053 0
10.221774193581 5.04032257770997 0
10.22580645163059 4.67741935324665 0
10.22983870969496 4.314516127453131 0
10.23387096776351 3.951612901284103 0
10.23790322580145 3.588709677869551 0
10.24193548386297 3.225806452332522 0
10.24596774192589 2.862903226669555 0
10.59615384879596 2.5 0
10.94230769598397 2.5 0
11.28846153932223 2.5 0
11.63461538477885 2.5 0
11.98076923215367 2.5 0
12.32692308114312 2.5 0
12.67307692536209 2.5 0
13.01923077070862 2.5 0
13.36538461224543 2.5 0
13.71153845566042 2.5 0
14.05769230141394 2.5 0
14.40384615085709 2.5 0
14.75892857144616 2.85714285784649 0
14.76785714288078 3.21428571523109 0
14.77678571432 3.571428572800198 0
14.7857142857668 3.928571430672074 0
14.79464285720148 4.28571428805915 0
14.80357142863987 4.642857145594823 0
14.81250000006625 5.000000002650031 0
14.82142857153606 5.357142861442594 0
14.83035714299431 5.714285719772646 0
14.83928571446538 6.071428578615361 0
14.84821428592949 6.428571437179454 0
14.85714285740048 6.785714296019075 0
14.86607142885319 7.142857154127467 0
14.87500000027791 7.500000011116425 0
14.88392857167472 7.857142866989042 0
14.89285714308988 8.214285723595362 0
14.90178571450818 8.57142858032706 0
14.91071428590076 8.928571436030644 0
14.91964285725977 9.285714290390665 0
14.92857142864635 9.642857145854018 0
14.93750000005199 10.00000000207956 0
14.94642857145045 10.3571428580178 0
14.95535714287157 10.71428571486281 0
14.96428571429883 11.07142857195331 0
14.97321428570877 11.42857142835066 0
14.98214285713628 11.78571428545122 0
14.99107142858074 12.1428571432296 0
15.3571428591223 12.5 0
15.71428571719138 12.5 0
16.07142857423201 12.5 0
16.42857142974857 12.5 0
16.7857142846084 12.5 0
17.14285714112862 12.5 0
17.49999999772317 12.5 0
17.85714285297952 12.5 0
18.21428571083795 12.5 0
18.57142855939082 12.5 0
18.92857141386655 12.5 0
19.28571427430228 12.5 0
19.64285713574168 12.5 0
20.00892857145444 12.14285714182253 0
20.01785714288121 11.78571428475149 0
20.02678571430391 11.42857142784392 0
20.03571428575173 11.07142856993083 0
20.04464285716307 10.71428571347709 0
20.05357142862058 10.35714285517672 0
20.06250000009985 9.999999996006125 0
20.07142857160473 9.642857135810823 0
20.08035714307449 9.285714277020388 0
20.0892857145293 8.92857141882806 0
20.09821428593644 8.571428562542428 0
20.10714285739586 8.214285704165588 0
20.11607142887573 7.857142844970847 0
20.12500000035236 7.499999985905506 0
20.13392857174129 7.142857130348313 0
20.14285714310267 6.785714275893214 0
20.15178571450528 6.428571419788685 0
20.16071428590087 6.071428563965252 0
20.16964285732718 5.714285706912793 0
20.17857142873676 5.357142850529643 0
20.18750000014888 4.999999994044952 0
20.1964285715605 4.642857137580068 0
20.20535714293256 4.285714282697754 0
20.21428571435444 3.928571425822371 0
20.22321428574628 3.571428570148774 0
20.23214285715693 3.214285713722903 0
20.24107142855655 2.857142857737868 0
20.596153845103 2.5 0
20.94230769181397 2.5 0
21.28846153698369 2.5 0
21.63461538161964 2.5 0
21.98076922946485 2.5 0
22.32692307653609 2.5 0
22.67307692028468 2.5 0
23.01923076562454 2.5 0
23.36538460449588 2.5 0
23.71153845024273 2.5 0
24.05769229413811 2.5 0
24.40384614838844 2.5 0
24.75520833333718 2.86458333360238 0
24.76041666667798 3.229166667458308 0
24.7656250000173 3.593750001211001 0
24.77083333335809 3.958333335066103 0
24.77604166670141 4.322916669098772 0
24.78125000004511 4.68750000315787 0
24.78645833337953 5.052083336566992 0
24.79166666671298 5.416666669908391 0
24.79687500005813 5.781250004069072 0
24.80208333339111 6.145833337377437 0
24.80729166673437 6.510416671405975 0
24.81250000007497 6.875000005247864 0
24.81770833342114 7.239583339479573 0
24.82291666677311 7.60416667411762 0
24.82812500011363 7.96875000795414 0
24.83333333345632 8.333333341942213 0
24.8385416667967 8.697916675769235 0
24.8437500001361 9.062500009526882 0
24.84895833347101 9.427083342970692 0
24.85416666683082 9.791666678157132 0
24.85937500017594 10.15625001231616 0
24.86458333353615 10.52083334753068 0
24.86979166687154 10.88541668100752 0
24.8750000002114 11.25000001479821 0
24.88020833353079 11.61458334715515 0
24.8854166668455 11.97916667918503 0
24.89062500018088 12.34375001266188 0
24.8958333334951 12.70833334465707 0
24.90104166681805 13.07291667726343 0
24.90625000014924 13.43750001044626 0
24.91145833347969 13.80208334357788 0
24.91666666677206 14.16666667404435 0
24.92187500007075 14.53125000495268 0
24.92708333337507 14.89583333625455 0
24.93229166665025 15.2604166655177 0
24.93749999993438 15.62499999540688 0
24.94270833326972 15.98958332888 0
24.9479166665939 16.35416666157307 0
24.95312499989663 16.71874999276385 0
24.95833333321826 17.08333332527833 0
24.96354166655782 17.44791665904754 0
24.9687499998933 17.81249999253098 0
24.97395833322337 18.17708332563618 0
24.97916666655323 18.54166665872609 0
24.98437499992156 18.90624999450882 0
24.98958333327948 19.27083332956353 0
24.9947916666537 19.63541666575921 0
24.65909090697006 20.11363636434331 0
24.31818181387862 20.22727272870713 0
23.97727272112545 20.34090909295818 0
23.63636362933978 20.45454545688674 0
23.29545454074166 20.56818181975278 0
22.95454545175678 20.68181818274774 0
22.61363635870555 20.79545454709815 0
22.27272726938004 20.90909091020665 0
21.93181817642107 21.02272727452631 0
21.59090908415283 21.13636363861572 0
21.24999999070893 21.25000000309703 0
20.909090898365 21.36363636721167 0
20.5681818062032 21.4772727312656 0
20.22727271532826 21.59090909489058 0
19.88636362288735 21.70454545903755 0
19.54545453222531 21.81818182259157 0
19.20454544067146 21.93181818644285 0
18.86363634917439 22.0454545502752 0
18.52272726008306 22.15909091330565 0
18.18181816691119 22.27272727769627 0
17.84090907624678 22.38636364125107 0
17.49999998161302 22.500000006129 0
17.15909089129634 22.61363636956789 0
16.81818180107666 22.72727273297446 0
16.47727271035784 22.84090909654739 0
16.13636362113641 22.9545454596212 0
15.79545453028867 23.06818182323711 0
15.4545454400335 23.18181818665549 0
15.11363634812483 23.29545455062506 0
14.77272725866684 23.40909091377772 0
14.43181816866006 23.52272727711332 0
14.09090907805834 23.63636364064723 0
13.74999998745307 23.75000000418231 0
13.40909089754563 23.86363636748479 0
13.06818180839043 23.97727273053652 0
12.72727271853859 24.09090909382047 0
12.38636362812021 24.20454545729326 0
12.04545453791708 24.31818182069431 0
11.70454544876188 24.43181818374604 0
11.36363635991656 24.54545454669448 0
11.02272727049761 24.65909090983413 0
10.68181818161208 24.77272727279597 0
10.34090909059876 24.88636363646708 0
13.53936447392977 5.430518861761812 0
13.29549512714208 5.795495130527656 0
12.93051886163336 6.039364473982978 0
12.06948113743464 6.039364473596931 0
11.70450486924562 5.795495126915347 0
11.46063552506678 5.430518859339278 0
11.46063552603309 4.569481138327832 0
11.7045048727207 4.204504869609567 0
12.0694811382365 3.960635526070925 0
12.93051886277896 3.960635526491545 0
13.2954951309342 4.204504873264463 0
13.53936447498188 4.569481140778189 0
23.53936447355998 5.430518862654571 0
23.29549512629944 5.795495131370292 0
22.93051885878755 6.039364475161753 0
22.06948113763989 6.039364473681951 0
21.70450486886492 5.795495126534648 0
21.46063552518245 5.430518859618539 0
21.46063552641138 4.569481137414567 0
21.70450487359473 4.20450486873554 0
22.06948114105052 3.96063552490532 0
22.930518862583 3.960635526410373 0
23.29549513128127 4.204504873611536 0
23.5393644748571 4.56948114047696 0
13.53936447365637 21.93051886242186 0
13.29549512687994 22.29549513078979 0
12.93051886148198 22.53936447404568 0
12.06948113686453 22.53936447336078 0
11.70450486830503 22.29549512597476 0
11.46063552461264 21.93051885824288 0
11.46063552634363 21.06948113757814 0
11.70450487312006 20.70450486921021 0
12.06948113851802 20.46063552595432 0
12.93051886313547 20.46063552663922 0
13.29549513169497 20.70450487402524 0
13.53936447538736 21.06948114175712 0
23.53936447334172 17.9305188631815 0
23.29549512485563 18.2954951328141 0
22.93051885758087 18.53936447566158 0
22.0694811368185 18.53936447334172 0
21.7045048671859 18.29549512485563 0
21.46063552433842 17.93051885758087 0
21.46063552665828 17.0694811368185 0
21.70450487514437 16.7045048671859 0
22.06948114241913 16.46063552433842 0
22.9305188631815 16.46063552665828 0
23.2954951328141 16.70450487514437 0
23.53936447566158 17.06948114241913 0
13.0357142863834 15.5 0
13.57142857334916 15.5 0
14.10714285783675 15.5 0
14.64285714470339 15.5 0
15.17857143070267 15.5 0
15.71428571720997 15.5 0
16.25000000702564 15.5 0
16.78571428904744 15.5 0
17.32142857412979 15.5 0
17.8571428511085 15.5 0
18.39285713616606 15.5 0
18.92857142211578 15.5 0
19.46428571101452 15.5 0
20.0 14.99999999601014 0
19.46428571160309 14.5 0
18.92857142040583 14.5 0
18.39285713577575 14.5 0
17.85714284336419 14.5 0
17.32142855637984 14.5 0
16.7857142655791 14.5 0
16.2499999775787 14.5 0
15.71428569556309 14.5 0
15.17857141150299 14.5 0
14.64285712475407 14.5 0
14.10714284117721 14.5 0
13.57142856006613 14.5 0
13.03571428124737 14.5 0
12.5 14.99999999867727 0
12.61505809755876 19.12003336864332 0
10.47246937178155 17.56145487315556 0
23.37580068991059 9.763494545618205 0
14.53432467509359 4.825509455550188 0
23.55304525478217 11.6329892825637 0
14.53554405327832 9.115923150230307 0
15.99202403367873 17.6145208013089 0
22.6167344168785 9.91333210730953 0
15.90045690119218 16.98163992242823 0
13.76849787668495 3.840347992385422 0
14.2902843199815 10.21592861000933 0
11.28097450427624 3.823357194272364 0
24.58832848529083 17.21105719622699 0
14.1193872665333 21.4692554638487 0
16.58652299864333 21.30215415140161 0
13.36415298614565 20.28924070442591 0
20.3886122488681 11.67340437761522 0
22.65651325528783 12.44151142179651 0
10.44549208014184 16.50212794300466 0
11.12016791599565 11.63387158577913 0
20.55109253990842 4.890201149202389 0
11.73152690520744 23.55355935657596 0
20.52092499098893 6.705001573853835 0
22.66985759589896 9.374070373220395 0
22.26208611533903 14.48149717623337 0
23.35967143342446 8.333262840808935 0
23.66787684235903 18.35476934511698 0
22.67745224906534 8.415942489772105 0
18.12682104642132 15.86817552668983 0
23.20274107371107 11.61381773435032 0
11.27771759579132 14.86436566713636 0
20.59606089782008 13.4371882038343 0
10.9521290989554 16.10383980762378 0
22.98470632024033 15.06145760928501 0
14.49880917843267 23.1084046500585 0
12.84615384803536 2.773439107182364 0
18.78678212776958 20.97602084759608 0
22.82283732518048 6.455488903615724 0
22.54583018669162 19.72402606496032 0
17.98006384517334 12.97713982583744 0
11.43098935996312 9.97289752856837 0
20.87392454822692 10.46078466822379 0
18.91132918263145 17.86890624146987 0
23.03757424358319 12.28231565405036 0
23.70541806845593 7.7090844995535 0
14.48997888316219 19.30286695780603 0
24.3918404664034 5.623592820604015 0
22.25160169493584 20.08189338815687 0
11.93850482525817 19.00338379337477 0
12.27093001292373 7.482545041584889 0
10.41775958610245 19.71453623014467 0
22.87975268090442 13.0864857002426 0
10.62143344881875 12.69902873931892 0
11.19240107413237 6.760660540146343 0
14.62931589409439 9.512064323052872 0
16.20190175956629 12.84061742325225 0
13.45379147509819 18.7347971064444 0
21.47092807520218 18.69536594034282 0
24.53089813740727 13.26251356310173 0
16.81900062547956 16.42556008828031 0
10.66436943880649 7.936340759479633 0
14.52472618125058 8.389285007385977 0
13.80934726871469 16.88205341150645 0
13.16662649592805 10.43329071218112 0
24.48967562167555 6.049408211095153 0
10.37361553044376 19.3462949633836 0
14.63402618861248 8.759279892618245 0
17.86413903902966 21.99168306361703 0
19.51419432071626 12.83566708327823 0
15.87010515957757 22.66859414886904 0
24.65865441193432 19.76176539234823 0
10.39957309936491 23.699854368895 0
11.0625717563301 24.2454371055029 0
13.85623177811746 13.3724099085573 0
22.21247875818539 10.3633382787834 0
12.39250079754765 23.0697467680835 0
10.46073686018414 8.203235825046784 0
19.90895411856575 18.58731108772946 0
23.93435990928019 4.4444271645637 0
23.55110919607532 14.18820896086545 0
14.60456276089155 19.83041849749314 0
14.75535774322126 18.47551192272111 0
21.12909159444173 20.06180250341155 0
12.24789253214691 15.75367168433741 0
11.42898790563736 7.953183557382034 0
11.05938898127767 23.88810597587144 0
24.16782961845535 19.27622945998653 0
20.55317164127019 5.545190891177189 0
23.70308883569031 16.64596704937062 0
21.18802449384518 11.63608830103365 0
15.80654116432947 22.26982972631901 0
12.70828192777906 14.02162118576116 0
22.86904629247842 19.99703883324887 0
24.50066974338285 10.00106770658824 0
11.04935420283804 12.23380217920937 0
15.97365603064348 21.09925494844156 0
19.23407285204287 17.0740441188197 0
23.54953575251812 6.723272893077374 0
10.42165251001469 20.82862855753122 0
11.46267762698962 3.356393093143207 0
13.47355299214337 13.46461478272517 0
20.53026330523113 7.398966686480686 0
23.93754094666886 13.52396120025082 0
13.91441060719313 22.91344992811608 0
21.07742587831886 4.535126886239482 0
22.42012248003018 6.984683329004876 0
12.70112327115007 13.50404947220739 0
22.89290801811963 19.33997190220853 0
10.47968217848825 16.09288562537665 0
23.20456398623962 2.781159610221905 0
13.66870963699455 9.908380489041626 0
17.60660780178154 20.12082994442832 0
18.9407621552632 20.53759752693761 0
15.37659917779476 19.31947103091598 0
12.21967532706791 20.00692851308744 0
16.59715653545826 12.78281296517988 0
14.40668266596263 4.463935452321341 0
24.38868709253584 4.323988393691658 0
18.77189327940585 19.22383486830798 0
11.36922163942754 7.561056607669419 0
16.96069982102954 15.92728388661608 0
11.82847945002578 19.4236410874464 0
18.96019348172474 21.76694412876448 0
13.45569895441043 12.67091530824724 0
10.49180921445973 9.62171906516092 0
14.44115259738613 5.187966724256684 0
13.88766620667222 15.97859916500978 0
19.97632886608408 14.00577872642948 0
13.18770969134921 16.52597490616579 0
14.66541923675687 20.68455311183424 0
11.86391250850962 16.63152002861435 0
23.73280308025889 6.312131245658429 0
13.93352014957997 9.400677213039778 0
14.05579622152372 7.212628383131909 0
11.9924682231853 17.99315077260869 0
23.43266389439384 8.693689259442431 0
13.73866724056916 20.26660713103985 0
11.20847543912697 18.38628560972773 0
15.57401104656724 13.29531628295251 0
24.60194847736959 18.01555730285493 0
14.58196044267117 11.31382699494312 0
20.57249116824862 20.61295764004596 0
15.17954537834098 22.85106531187839 0
12.60547424304714 19.99330354399281 0
10.88557641728665 23.07114567371183 0
21.09488308627202 16.86344581272666 0
12.46169943914727 10.3119501424861 0
23.69212157067424 3.773066329003179 0
24.21274004467419 11.25888050826846 0
13.94717599066932 17.85100732572519 0
14.72336311024343 11.93479095377683 0
18.26506449614273 19.74859949636293 0
11.10929925220321 19.09489065810507 0
24.55146679759001 9.344485545417806 0
13.37731558404742 9.363126615199347 0
20.48342748550901 9.973689785089993 0
12.82205799202996 12.35013964775098 0
10.60469763508435 4.4954955281575 0
16.88862751949263 18.72409110010152 0
23.06160368962341 7.657804017865028 0
13.02004077775662 13.28647805702231 0
12.83141241799819 11.38164433212134 0
13.14610377299694 23.01847955311819 0
24.52133480135682 8.442640047024815 0
19.48414454171342 18.90443416711289 0
13.87303456996382 6.434765511606184 0
10.53251523150346 7.015208571334973 0
14.01855063522423 20.99481850535928 0
18.58546758875392 21.81995914675241 0
12.32889072500703 9.685625830643154 0
24.05859628559977 11.8283581688249 0
17.74963953072664 17.13642262754002 0
12.08202165880496 15.33483065545438 0
23.34136954645023 13.5281495823985 0
12.96813857836485 8.74964488712858 0
23.01377676204489 8.311872172224097 0
14.48729725053381 4.028645857174037 0
11.72652331898809 17.10594879982668 0
10.58485987877882 5.230858459223596 0
21.64089653941533 10.6494422156866 0
24.52416497976585 10.68174448761783 0
12.68203032367673 7.676139398299565 0
24.61235382307398 19.34354879276095 0
22.43574772713811 6.598633889704282 0
17.65774804073881 12.80089785230247 0
14.87457689670538 23.07162156146944 0
23.68250763278967 5.891512507528793 0
10.34104047298917 21.99768325418438 0
14.05839433344598 9.70162187113615 0
11.09996819741223 16.83439125842088 0
11.33068752905749 4.18545870700228 0
20.90775502538735 8.726960916998973 0
19.86862558730171 16.00011745127688 0
14.03423201946032 11.5438938727989 0
22.50950006112886 8.134674991813435 0
12.1275219902266 8.933186210596725 0
11.68884967908188 12.15288645465366 0
14.7881277718519 16.07188379075323 0
17.11963504026175 21.05453825024189 0
11.44944572817007 10.59492379505884 0
21.76877529960886 20.63029695284737 0
13.65312034822857 20.69785170936987 0
11.75572475536403 12.77183559669165 0
11.75193784067203 9.788739261813804 0
17.69713405209935 16.09782177085794 0
23.94234949725972 10.4358296251012 0
12.01269919936926 7.76953233899635 0
11.02150226285789 22.29800437270172 0
24.51843779837072 14.88193814208895 0
14.50105187805558 7.296073150420441 0
20.47710319235915 5.87231892574394 0
14.47230254763788 3.393241850860066 0
12.39354895886905 16.55238336567344 0
24.54199472746745 7.092091600484713 0
11.23004321394599 15.30509752798898 0
13.02901749935882 10.0626336680793 0
19.96654307210106 20.61091108166869 0
16.530672558629 22.43944343159303 0
16.69180721580287 20.62000733106716 0
21.12096090567294 14.7431147344533 0
22.12092162135611 11.32167036501064 0
20.24186126406799 20.83193967398774 0
10.96155949083507 13.99506265863553 0
21.42593736044447 8.213094271337372 0
11.67268822762715 20.29245387351559 0
11.85134425105915 10.43597559082433 0
21.71803666877799 11.29648578627561 0
23.295595642536 13.07982301561081 0
23.55364473639387 19.03842570699756 0
12.27935077986406 11.28216064600761 0
11.44378591666039 10.98887120847195 0
22.23002306164984 15.99207176278425 0
11.3031716312605 18.7388003305926 0
18.67332445605727 20.29018537302529 0
24.42188220915108 6.779448081105531 0
13.89034054319532 3.163270472602161 0
21.84437256119247 16.15044537789314 0
23.9728221113863 16.95498308935355 0
19.95920977773483 16.53401947829522 0
13.85787001619041 22.19765243943875 0
10.42959420348308 10.99372683834043 0
10.45897639896864 21.5924839343432 0
19.43293142106839 20.92946520554167 0
21.66080850302733 9.288592369687343 0
13.0995538116008 8.206592610582247 0
23.39960161037086 19.46265565719559 0
12.66294270193992 9.245392344812256 0
20.28122051964506 21.21029733064556 0
12.88935827249334 11.05049903228332 0
20.96983561990293 4.906587585673716 0
17.62096752773782 18.75820137702801 0
13.40674397548647 11.86428513758216 0
21.80057565863349 12.60109650206526 0
19.63697932052879 19.45455902459939 0
20.49416049259465 9.246983235996941 0
22.13366507605976 8.85370448136243 0
23.94871045127867 18.10314649266504 0
10.82883170403637 9.107898496307813 0
13.50261428682412 13.93903734397398 0
14.95726154026536 19.98614085299772 0
12.36585289322414 13.25437645185675 0
23.29775592362642 10.46866802835603 0
17.28171940132667 16.7745828142743 0
17.45971474024173 19.29003691845681 0
20.8025419614122 11.80006063791497 0
24.43465315957414 7.449379331480327 0
22.92662846044501 11.00809584274132 0
10.47403324351755 6.308756871136921 0
24.44953183393582 9.023795036860431 0
21.0603941000722 7.380148705179063 0
22.49999999841045 2.770129473381878 0
18.34684734363694 12.7390344914999 0
16.03513008804611 14.00395916413206 0
17.4128205995137 17.90843076468505 0
12.04476291830284 8.18627326655748 0
23.67147931147656 20.15417397879161 0
23.85690622249063 19.597733093175 0
11.83205007667259 3.315264566361837 0
10.91032917343849 17.65668397412994 0
21.29244837122386 4.212835462804276 0
21.22778725428677 3.838843937736472 0
22.32137289187249 10.9661335373354 0
13.81863715460619 23.32865058544013 0
11.32383283838817 13.50735533959783 0
13.36863720703763 8.922424359606078 0
14.46638092608712 17.5241543460437 0
14.47656826986203 22.73312167926583 0
10.45832210297363 11.69087330428489 0
13.82778755436204 7.807380374344722 0
11.65833262557079 11.61038513128309 0
13.42625033574835 7.776519681242203 0
23.97348889971995 15.34067968885505 0
14.01521399528419 18.75743443121684 0
22.51470103442541 7.829669541467062 0
20.87335427925054 8.163870404998478 0
23.28419811669614 10.95125351485726 0
13.31682944387581 19.56216531640268 0
14.08322432927971 12.15642584948778 0
14.29331081037462 11.41055959628816 0
18.75169086521104 14.05965114010291 0
16.96627131093165 14.04672706222913 0
13.77279498187308 10.92873444210604 0
16.79617051339348 20.98953705304276 0
18.72324259613821 17.06266994787392 0
10.37668770190095 14.27516623011721 0
12.33906629756643 12.25232427644912 0
24.58908477171732 11.81570201724313 0
20.47492529288435 14.65817109758265 0
13.51708125598276 3.328479896626528 0
11.35581790398095 8.822132393080127 0
14.60906460298714 10.19566499190843 0
14.97794423168971 13.48164704151286 0
14.14284371715009 8.494174189061889 0
21.60370555156093 10.0114033235109 0
10.79146029600594 19.71551083114353 0
14.10142528754666 6.662186727449385 0
17.3095162205687 12.70626016574501 0
23.29760714155794 18.71717214652569 0
11.73024563120476 9.357092266200587 0
21.37888792133579 12.12697108175452 0
24.54292734587367 17.60857557809681 0
21.56525432497811 11.63508729763855 0
22.79064428459803 13.98657681786297 0
22.84615384295452 2.839292081103477 0
22.57984148209848 3.383071039873837 0
12.15384615664841 2.839292080596309 0
11.63661401834701 24.11291041525904 0
17.22815634995299 18.41521032609612 0
11.44778205955317 19.69941710396223 0
11.02497151260777 21.01247826595933 0
10.93939614935445 10.92228720315905 0
14.13266345759842 9.123043285756914 0
24.17753640759661 10.63663255135312 0
17.00817413063507 22.22712141579542 0
14.10854748302538 20.0637332815448 0
22.00151871803709 15.35050522396534 0
15.53646489697931 12.84648292508546 0
17.00724300599853 19.15398951897005 0
22.23259223354837 15.64868161634024 0
18.50336500551799 17.37574034446184 0
16.84219457806515 17.50789414777408 0
20.48915000462112 19.63817251122051 0
21.82670129213529 20.07937397785026 0
11.02892230587103 4.514462047926429 0
15.19149125220358 12.74795393642009 0
10.4033343697246 17.18042901894814 0
20.19314083158995 12.79369738657498 0
21.3069857778951 8.771323926111231 0
22.37003561151511 20.50551957525477 0
24.05480123601356 13.19155671160854 0
22.79861783843323 15.4520167259105 0
24.06609845025976 9.683491180354121 0
10.50005379566968 13.5362208782528 0
24.01533785562924 18.91852862615087 0
11.09964169492998 7.052837954504549 0
20.52255107091139 18.23014102703334 0
12.72513913678051 23.73448828898065 0
15.02071318110058 22.42669746415418 0
11.01850451332505 5.219599994325869 0
10.92308750121479 14.57994694547568 0
24.05179489272559 17.59049319441776 0
21.57482802612068 11.00731403839091 0
22.8013251909616 18.94343034446144 0
12.97820056814848 17.98184778803046 0
24.61534162505803 14.26967903231633 0
23.97081017790746 8.10592265091366 0
11.9893881804427 10.78915808927242 0
16.93110147358615 20.00435401178294 0
10.28179344486457 23.33651752427327 0
14.56512308379993 16.98473253682039 0
18.04701292035676 21.38262333672599 0
20.83992859315361 12.887818096896 0
14.53221338335127 7.739873837256831 0
15.28105699193451 21.17380392022881 0
14.60765901575607 12.56614932511865 0
23.95714093337731 5.58546940167612 0
10.86984893129076 23.61328545974179 0
12.05595220770549 18.3878136101277 0
12.98658051556065 9.469491477866228 0
13.21623365935732 2.816772049507671 0
21.78376633768734 2.816772048588692 0
21.05916460231276 9.356682851531302 0
20.45265877962829 6.996272285060579 0
12.74730676828998 22.91952704200052 0
13.60844904049027 11.54515777972479 0
13.97789864391577 4.494004472598961 0
12.229326050375 6.43395940244604 0
10.40863598004023 20.4408684560894 0
23.39184485248774 16.31346991163171 0
20.65823680120955 18.85126898996136 0
21.51869680134101 14.33830287051006 0
14.52674855367873 21.72782106735358 0
10.96770606051849 21.57902091503621 0
11.07080404185758 11.95554333494981 0
13.96974538837705 5.19640263415179 0
12.61186035447515 10.60943253609355 0
22.16139916448878 19.40212511126209 0
20.55838135149084 15.43222086263565 0
12.01759292232266 13.39280242176322 0
21.79447860264649 7.122110350856517 0
21.7774656253858 19.47719957883588 0
11.07583241618808 8.112200625978426 0
15.98353378669104 20.71247927662721 0
13.49262325055009 12.17574627497929 0
17.8571428503134 14.06498105623528 0
19.27401834941313 21.57205509341143 0
20.40209964279859 7.696488348692629 0
20.83025525290439 13.8540372585116 0
20.93865188819143 17.58212222508181 0
17.51777073255423 20.81114252281745 0
19.79189501976148 19.93080962020921 0
10.35504673728006 13.19702423684952 0
20.53177893408804 4.080373527969083 0
20.5285298564502 3.396969698111944 0
17.56262814690853 22.15134708687843 0
23.31495126968757 19.77770493382704 0
16.43278826132572 16.75903411921887 0
10.84217564140377 11.47451523118295 0
13.42902715832845 6.759441561635742 0
10.54367286178397 3.384493748430563 0
10.49761883028481 9.219879569851477 0
16.96176868622841 21.83353614670826 0
17.99928975653004 18.02154066287619 0
17.29504652380788 21.64312311961109 0
15.98214286211778 15.94715088562123 0
10.79649540074808 8.622954738776142 0
23.01081436443772 20.33099921259009 0
11.55225287594062 15.93032545187125 0
12.25608333845211 6.790454651474485 0
23.22203919191298 9.043616323656105 0
13.92784137534276 12.75842573872855 0
14.87352473157257 20.39270166453997 0
10.91308198677315 15.45758408229825 0
11.08576313199809 9.33607667976296 0
24.14139605671701 16.04678369699436 0
20.24327062102934 13.40486947052047 0
24.01302021368645 8.90239764452717 0
11.57148012224975 6.669382284722752 0
20.54486977418655 2.804100159088649 0
23.9113687192249 10.99498894197297 0
19.38353209008337 15.90087017356843 0
12.05595425234023 14.85907771219173 0
15.62758284092711 20.53297422466835 0
12.75803620820837 11.73365989097366 0
10.86327566319502 18.22886427668606 0
16.32797692407281 22.12362440471406 0
14.83073749963684 13.84472690632112 0
16.28464225422471 13.50797194154149 0
21.01777025763117 5.487124470453637 0
18.43162480226461 16.60897342988979 0
24.67191392299939 18.72838485390671 0
10.87964454496642 20.28956006166926 0
18.29227483760141 13.4282846813149 0
17.4652194713664 13.4212983432154 0
23.29615438922046 14.46771459642922 0
24.54656869505884 11.06915370696812 0
20.92650874431994 21.08030759979128 0
23.17973640119402 3.311990708685101 0
24.62356633633619 13.65820672180699 0
13.82353380095729 10.272748162326 0
11.61537575298708 14.19153955446626 0
24.45820423425711 3.372244187326182 0
11.80769230846624 2.795535809856671 0
22.68999359508287 13.42843598222424 0
13.31954423696467 22.68097713793035 0
21.10429109686103 2.802466229836106 0
13.89570889799965 2.802466230336206 0
21.1096594526939 3.163270471438727 0
24.42348490908353 4.927094226890531 0
17.29684979545143 22.29260581486334 0
11.6113677864806 17.88087764706554 0
11.25551008738819 23.01315557225049 0
13.71893395448 4.20354804739967 0
12.42011061524999 3.382326349057188 0
24.51886941712852 7.848881992227565 0
14.12788770815368 10.78928607365087 0
20.15358692949441 17.6800439483958 0
10.478869956701 12.05694138935644 0
22.18999723188933 7.272145355420147 0
24.06444709272443 14.56584383169808 0
23.41716508410785 12.73534403740923 0
12.53859487091079 18.38325886684121 0
11.64419215621691 14.66751442630678 0
19.62289800421969 20.62212986422915 0
13.6022485159112 8.383542352558738 0
16.47796528312434 17.94546463381482 0
14.23407596671304 22.26541821512881 0
23.71039009663239 9.27755226185342 0
20.42745336783383 14.20991945301738 0
21.48291874017999 3.328479895028674 0
10.53135966824064 4.056500465408094 0
10.38387483801063 21.1802537450669 0
21.24012799881458 19.43188248758496 0
14.25904251383869 20.7336488869321 0
22.15766441921389 14.05647668097427 0
16.27004734087562 20.09251433112501 0
24.38282022447439 19.91694167566087 0
22.68139478048152 8.740267265913795 0
24.42084955092369 3.975083271067266 0
24.57696835530144 12.1754213371687 0
13.15252480290567 6.389866204282562 0
18.26292109477744 18.78203355897766 0
13.26428035085782 7.436874861613057 0
14.54123435991516 5.546425322325271 0
22.25113042808331 9.281620058462712 0
15.72362565714211 18.2468678841805 0
13.55346029054593 17.35654414690045 0
10.39750798243011 12.45326930915221 0
11.96343614888458 23.01772125073932 0
22.15307910384594 11.63940275634521 0
19.12938536306864 20.8302521462503 0
15.75931371798112 21.65557097474693 0
22.00851008180541 6.406450062407199 0
15.59680176993035 20.14205397896904 0
11.88569939098774 11.32656582654628 0
24.0525851636836 13.84021614932385 0
24.05961130936272 12.77795684924624 0
12.75970920588708 6.963841526064721 0
10.49321730304502 8.515042746824099 0
12.28459195634214 17.63247647716872 0
21.53338877534183 7.710761925917791 0
12.23772010022789 14.15583635130345 0
21.3026485562911 18.27692843262096 0
12.06937237435558 3.570407256437392 0
13.81933367123586 19.51956738215016 0
11.30322208819255 12.8347084651326 0
15.15376742291334 18.34866869929629 0
22.93755689407763 3.57421108346489 0
24.51343851455892 5.262584090404759 0
21.1297012794071 6.839226950017526 0
12.45732838869826 8.294552781600188 0
12.77930090462236 12.71692913237334 0
21.93986354041452 8.249033614385278 0
19.92038056346034 21.37273715300665 0
11.7865311565196 7.976021745341131 0
23.49573515813625 15.53128965845985 0
10.32622212531762 22.64218749870838 0
10.32319962159604 24.05060265737481 0
12.32092285932788 9.391146625438296 0
11.49542391336477 2.760253726864944 0
22.15384615300048 2.773439106496109 0
18.47597629380994 21.49501605970977 0
16.31204794299773 20.48922841487046 0
20.31342798897115 9.510493360645384 0
10.78978804494127 24.42790756493153 0
12.19823053130713 23.96049972705726 0
20.29275499566173 10.95094443586914 0
10.3498299476788 18.65229648027423 0
21.162765380149 20.42309890170977 0
20.88150116709284 12.22576943635331 0
21.22494051953523 7.618818786375106 0
14.67275264413731 10.55833467491258 0
12.50000000325257 2.770129471885986 0
15.55006735147684 22.84560240850718 0
24.65051201305262 16.54588716165221 0
21.02218022962226 15.29117926990173 0
14.56686916107306 6.259216254307326 0
10.49451127478877 5.662169276475093 0
19.45014111347021 13.4733834506794 0
16.92200399032574 20.35898328358139 0
22.43470895470304 11.85508397123436 0
13.47145892810695 17.85940811927603 0
10.41063265641946 15.02471935617828 0
21.16642846961679 9.9304444268851 0
15.20248885133575 21.86655443315313 0
23.49434790975707 2.757982958708034 0
17.92768586895411 19.53139814608901 0
21.50524202848331 15.894127551073 0
20.12707115234772 19.30074571992258 0
11.62689423659392 7.353973918431199 0
13.50160210585169 23.57298817589041 0
20.94362153599137 6.200584438633933 0
11.00650230186872 9.61822480875887 0
16.57520692408484 19.91882533521769 0
19.2159073713445 16.59318376720046 0
20.28876873959623 12.22207497443825 0
20.47148853976458 4.471050602201879 0
20.86868028889856 16.06101225072495 0
15.06840086281078 17.63786940894148 0
12.66817395695744 19.46873346179815 0
10.40018552055919 10.66799935109449 0
12.85912909626467 8.432365428673283 0
15.93073044734587 19.91873902812141 0
24.01313217444774 7.387187184901786 0
23.97122446420381 4.875827850895057 0
19.44747555006409 20.20404434975794 0
15.21963594690691 19.71408575606585 0
24.63534714424228 12.8943834446161 0
11.09055870595452 21.91190061404517 0
23.354423735757 6.129661660134787 0
23.7181736231665 9.862166198647135 0
19.11728311299332 12.78239201928612 0
14.20417007412278 13.49149515134698 0
14.45513022404361 2.804100160286617 0
13.87337587994075 21.72741040081106 0
19.21672766146098 18.36009520803253 0
21.20179844515776 12.66714869281802 0
21.29877723608251 13.70872631228027 0
22.96946403138291 13.67396720481493 0
11.2892191145965 13.90130944687117 0
15.88490940373516 19.52120318911981 0
23.90351403022025 17.29424768883787 0
20.91089435147573 10.79142239803563 0
24.08387142350444 8.460946393586934 0
10.54786329234251 2.803810604647405 0
24.45278907359229 2.804433836407695 0
13.00232786523504 17.20533350322177 0
24.63541484765815 15.56725622042849 0
12.35079473420647 10.90999509049163 0
12.3397408924069 11.84506317444576 0
19.28303390808688 17.59551696619252 0
16.24830484752179 19.30141641223246 0
12.67459197932651 8.90411530938507 0
24.0522030556364 12.13676498566376 0
20.74209599212911 16.70352946454406 0
14.36814316768219 17.93042701822108 0
11.26114092417934 20.77032800538117 0
20.470454397712 5.242833072409841 0
23.7843035922859 12.26504509184675 0
23.64930872808445 4.171637317040688 0
18.61724523202276 18.54401959371074 0
10.48260591760625 4.861367035150211 0
22.72908596515515 11.34583608296974 0
12.44270558353653 23.41628530644367 0
12.90811408252031 18.83417838506005 0
18.63843527848686 15.88675695458402 0
22.97003918056508 16.1071254521057 0
22.74820773023506 10.54901255126509 0
20.22405539984072 18.9432324675341 0
13.8757791641535 14.14263007187177 0
11.80307432282053 11.87017597538146 0
22.37429466502243 18.95063992758806 0
20.46669404848921 16.9955444967294 0
10.3376559980196 17.9248359978626 0
14.30368477138975 12.85385651547533 0
10.29653031466391 24.59406725056537 0
23.53568318296452 3.357426853693933 0
22.07427940372084 20.68605979608733 0
11.36053992119821 24.24749536196967 0
10.37406875187023 15.74623887829058 0
11.73763399387647 18.73176631007982 0
14.12813981854803 11.85292532691942 0
13.09229039857922 23.67541977345302 0
24.62900377040496 10.34186989987273 0
24.29912527261474 18.18937843134015 0
13.0924275266659 14.07001436761361 0
10.94109042529519 2.787250267269803 0
11.69311543758284 10.76992264565667 0
21.76934472727498 15.01090855045794 0
12.63511941667629 9.56270685395873 0
23.88859922769086 6.707916876241534 0
16.67196806831304 13.42979870806984 0
10.71759389088386 20.96682756095564 0
11.18536392038948 10.19541648028618 0
23.60750886731594 19.83972796071194 0
20.53328254000703 12.78116565102457 0
24.11418117889258 7.761219247800295 0
13.10478156155722 19.13778004932642 0
15.35667130179074 20.77330287253629 0
18.6274113586932 19.58023228972704 0
24.05970302514204 2.787422144604382 0
21.81053576031971 18.77447379602366 0
15.45068624914352 22.45835257189586 0
16.94042471482457 21.38945602295795 0
21.55191272595204 11.92627854726832 0
23.66406825092234 10.71498667103157 0
14.00383581388031 8.840029099492344 0
11.62087111358515 13.18987433615643 0
12.04720322765994 23.37506402783836 0
20.35941085034001 15.11521045750675 0
12.70395102985641 13.06518167792801 0
11.25315225100535 14.34300306874151 0
20.81467055379662 9.099509416386722 0
18.44020598157936 21.18908931514642 0
12.07098963223532 9.818712259920314 0
20.3126319224822 18.62962749344043 0
24.29234826331514 19.61337296208317 0
16.59413372699383 19.02856252061675 0
20.91831516772678 19.68676371174431 0
20.78470013690395 19.40164569057713 0
12.83744637161083 6.382937792507441 0
15.19937574767412 17.21630338091317 0
24.05331227887701 12.44369838928904 0
17.77482493224615 20.45043823669255 0
20.9545907354199 13.4857239277193 0
14.87075438792618 21.99862685018162 0
14.62937633447891 12.90831642062323 0
13.90184843851272 5.591801375807716 0
12.6351923063552 7.352146719339927 0
11.71047657366987 10.08568120234552 0
15.65474655280536 20.93705812385203 0
20.88328951811189 11.4851466108744 0
11.43804811071937 16.73649199340273 0
13.7083410635946 9.137313800910311 0
24.01046264044982 9.952083869884508 0
21.17050226631978 8.41955272572034 0
11.78247429988881 22.67140026485729 0
14.48549326039599 18.86584188007304 0
13.87293431302225 7.474396795587003 0
21.31568302788039 5.774911637609564 0
14.4891933284405 6.622812598446115 0
12.16432443071743 12.64231019672084 0
16.65975393662677 22.08135591605642 0
15.51088232981209 18.58737204447852 0
20.88172303819568 3.408173099588506 0
21.17977828156057 3.479969343096089 0
21.72293423552231 6.723668862590753 0
20.88062381024649 5.842978090404348 0
10.73216746201698 22.00723732107954 0
19.8448881448122 21.00373116803732 0
13.26032496712331 18.23990306286399 0
14.57094611496627 20.22498786951134 0
12.8227740213349 23.31567250879195 0
10.85671837188205 17.16445444033129 0
14.83615574858977 16.59774596011925 0
14.41657269000525 11.67268900762007 0
10.92648784563572 13.6749343035764 0
14.06528203224835 17.26726786344667 0
15.60815579729957 17.40175247005226 0
11.90685699072605 12.42277138961524 0
19.31752404782926 13.80606958555281 0
24.23882219093321 14.20424419222309 0
12.44926606952849 17.99368942029878 0
11.39699966840956 7.110399783893851 0
14.14347104450876 19.19840870473724 0
24.37506637666725 14.4667952870534 0
21.20247529517976 16.07474504573576 0
11.35885550737128 9.628739901655972 0
23.61950962513376 11.14055164131586 0
20.79729230310078 2.73067677540985 0
20.35850608239502 16.61843179939154 0
13.29459204303755 8.540161266583377 0
23.73381665678587 8.424209496987961 0
11.01778864533859 8.845137576570918 0
21.46419618928024 7.354796855707813 0
13.65757245868666 19.8851213968973 0
18.61449938675495 18.88827880581887 0
13.0244704700443 9.111776721061217 0
21.6844235149964 8.025217694710953 0
14.18215194308098 7.568473339147702 0
12.29574479547541 19.53022005577702 0
24.12770515488202 18.49569771612412 0
16.83807799836076 16.85030454447685 0
13.60644663564831 16.46450114517981 0
10.76720367994676 16.38962359703191 0
20.4630416853261 20.27136223876741 0
19.84496338601521 13.3795976146231 0
20.72164577165995 14.99616113596865 0
22.44446991718828 11.51996002149905 0
22.33342660995057 13.35285050850946 0
10.97968035246022 11.21439010599762 0
22.84484579106326 6.947539627760107 0
11.35440652216394 23.94958321869432 0
13.22659694873414 12.37483410040813 0
12.13066036433684 3.214260163471551 0
13.38375943020067 7.137748067239028 0
15.61039987753627 16.40963992927919 0
10.77719643274963 9.689801492545191 0
12.32114375594338 10.00617912656966 0
21.35754861767691 16.62306865578218 0
14.20771668341307 4.832787952928066 0
23.9120131430524 14.17175783712726 0
11.26830615923413 20.39555558945029 0
24.53608352975095 3.732742130121788 0
14.17859931303901 7.901395318120623 0
19.02186408770153 20.21573433125177 0
14.79091833475405 13.16108202409409 0
14.08481051474698 13.1196151056974 0
17.88283261615295 13.34754481112353 0
11.1543131739158 3.41914272320563 0
21.10700103382193 15.74175557212455 0
21.12753066525672 5.193136967790182 0
23.27580154621835 11.95466616951868 0
11.13029773742481 23.33822487333159 0
14.43364236269727 5.929755642986374 0
14.14352041991594 6.278121611592962 0
24.14375580976427 9.32300150025784 0
21.75278401246254 13.79860390211829 0
21.39065159639354 9.59040690185546 0
21.91839912239286 8.585127957414779 0
18.63037313396987 19.91901196498744 0
14.22050386514036 5.559206777226372 0
23.58620627049495 9.589907701104257 0
23.08154145448494 9.465963684899474 0
16.23083215771353 22.665596547924 0
13.63350093113004 13.03413331850676 0
24.29375969188917 12.25802968961573 0
13.09164494912822 7.835783486644828 0
20.7864374941484 5.20091833331757 0
21.0606648442392 16.40817053745685 0
11.43203470612148 11.85894408566462 0
10.69838045377911 15.74955867212283 0
16.28151903502622 19.70352166710381 0
10.72499496294022 21.28437558134268 0
11.91144999321628 13.89271255781004 0
10.64174155803061 17.92962711409937 0
20.4203873721617 13.80790633129258 0
17.96193425282396 19.06194691453908 0
12.23311810276473 10.58369424364857 0
17.25435582680423 21.97092419594596 0
13.78651626753526 19.08421350177922 0
13.89162461947175 10.59978235435409 0
11.34372770532296 23.641184665938 0
14.91089974835647 19.53577852320122 0
20.80765626422037 6.789321827138284 0
11.22456040457986 15.75843146847394 0
23.98541816591309 3.66649580016244 0
11.5137415271422 19.02817686120467 0
15.57205724581663 19.73588587315369 0
21.69550644410711 8.886893763555006 0
12.78670364421209 16.72966648801892 0
14.15463606902771 11.13862269325086 0
21.77213043902426 12.89954068378219 0
11.02477198463985 7.760369985547375 0
15.27243078868326 13.81978136315705 0
23.85317495528456 15.77331706002903 0
20.29228479634593 20.51526461831714 0
23.38070689992765 7.411314994409014 0
20.0594276691244 19.67465544540062 0
16.65346782856559 21.66314849051341 0
16.9890404314095 17.13221450109538 0
23.36602728774179 9.426720088766325 0
23.79891788831918 19.26067682333198 0
12.34349496402597 7.901732229968738 0
13.26938335932753 19.89535349157149 0
19.62553755701225 18.19206778655417 0
22.24633789077466 8.416390966812962 0
13.43512456225377 10.76617560125702 0
17.68817853665757 21.58391432464258 0
15.89285714571172 13.50000000193109 0
14.77041663786837 18.03138977160275 0
22.07960282379729 19.76153575791599 0
17.02208545153933 13.58837935629738 0
15.51360972263271 14.12942508677684 0
13.13035285214109 12.89117048680195 0
11.66228812342613 15.16894796473746 0
19.69432133635173 17.69511608612038 0
19.23955969887397 19.23212425039256 0
24.66687561344433 15.13513333968711 0
23.20627734917689 14.79682393740638 0
13.58710037237019 10.52561670321175 0
22.65994863406639 10.79592664059666 0
23.13295132106306 15.397517021913 0
18.48803586906131 20.90937824850888 0
18.11150961294144 17.48064981957038 0
13.15440699199252 11.56761394720304 0
21.54448509135261 14.7056594546734 0
16.03323727524318 16.45645328033348 0
16.97106210970782 17.95115907815713 0
22.4267062572868 15.3609231764595 0
14.17279475067784 22.62287298041841 0
19.30582495195249 20.53111126400323 0
21.14479387033068 17.2304327392599 0
22.45374096757758 10.59583012994397 0
12.41415343061236 7.107480793942567 0
11.85603080073034 17.55427548194237 0
11.66740098083026 8.238947293708508 0
12.62942596407646 12.02845723457041 0
23.65420205365411 13.27305754070958 0
16.1250205333553 21.60849394529923 0
19.50706306782333 18.54164653875237 0
14.38346087381838 21.0774805542983 0
21.26581880096428 10.73806787808331 0
10.80958536876118 12.10071327324393 0
10.81703828383276 18.6773035285806 0
12.56987675430428 8.590828332230124 0
24.60869958946169 8.146231953415278 0
13.5123453846838 6.046601615771902 0
11.20036685495057 17.93585083077473 0
13.78717206080162 11.93394532361837 0
21.53561052257319 19.15491339797484 0
10.97772388135628 12.69977818173314 0
23.02025977206689 12.71194438080832 0
11.10559626360924 4.839286316222315 0
15.98925066617863 21.96283594682453 0
22.04860604252668 3.036782827600755 0
13.53278994067299 22.9816033919658 0
13.82022171548032 3.47996934545003 0
20.83734357184179 12.57775853741711 0
19.5893168590786 13.18068115636531 0
18.69220024875284 13.58837935758356 0
22.42034732078217 7.510433314847015 0
23.23333755452043 13.99471491502566 0
17.64686647503195 18.32784996754886 0
11.76349139460097 23.2400506186175 0
18.8612679647043 18.24725610031703 0
14.29290966300517 9.446613480479693 0
20.32940784078854 10.25131861848412 0
21.50858907635037 20.33543740844428 0
22.42867046227595 9.635771838881583 0
16.61174075419165 20.25474804007388 0
20.46926437772863 13.08321138085483 0
23.06040632991338 15.73318371303218 0
20.82373780113217 7.696151467601073 0
14.35025130290516 10.54495878354528 0
20.27486079892319 8.754527760652477 0
12.30271845388012 13.71915830912404 0
21.86779170736706 15.71841553652066 0
16.73158273287403 13.77789910870201 0
12.76272579579383 10.30754474439486 0
20.77080172335054 4.64114979855407 0
18.85766314494502 16.7202684596666 0
13.21158394690988 3.191623677691608 0
11.95752683939718 16.13041869033877 0
10.97559929547951 10.35813856544134 0
21.05144363310276 6.490195099339378 0
17.53286961464158 21.86819835813902 0
13.85905951693841 21.27342467984712 0
22.48880941762186 14.23714427780365 0
21.80287553276801 10.31926494212534 0
13.62182272995926 18.22004361793812 0
22.64010491697151 14.48974110451882 0
16.37336799012455 20.94501196521586 0
10.7927462910969 22.6428528644404 0
22.19650747138008 14.95245460421483 0
11.02573648032679 3.689766766892745 0
24.25868609556034 17.89224782093855 0
13.7708507791266 6.99582428356297 0
13.58142694832717 2.995420867124888 0
24.07365590361317 6.036180568195559 0
18.40362936964822 16.18523341796215 0
11.47562098136241 23.29298751025453 0
22.41564605054001 8.7010236551969 0
15.0997900481932 18.80797073040546 0
11.70580591575838 7.669761499796311 0
21.90409793131986 11.06275294094602 0
17.9460924976601 18.57474380426366 0
14.21512939172663 12.5084788608111 0
24.15309409675681 10.13376109613072 0
22.17527354602473 7.657718562236639 0
12.04479318463769 11.62670182137157 0
10.87328362607234 5.645623139939676 0
22.07914928895714 6.85243693149338 0
18.77536704770803 21.32059169494369 0
23.84534115863702 17.82035499020676 0
22.87314554270359 3.218261932106035 0
10.7208626276905 11.12386482059233 0
18.41916817833625 13.03664624275589 0
17.30577031125309 17.38904644562716 0
20.79711777245103 17.16127566324144 0
15.08764130944197 14.158786671251 0
14.08897809516701 4.058304744907717 0
12.95139395532185 3.036782828837089 0
14.0188017430751 10.04013753976779 0
13.0223657682593 6.728100521697355 0
10.73196924781745 19.33254646800474 0
23.84056047767924 3.424475250307637 0
15.59908524112191 18.94170504244195 0
21.50720843041945 10.40016791053844 0
19.15311878811161 21.20605401285359 0
15.90024566890568 19.1481851231915 0
22.91724245795492 14.32640844099708 0
14.29736070812458 8.791191289117245 0
22.72927490363939 12.01827807498732 0
13.62363321857918 11.28387798276002 0
19.84883154273196 19.05955799945868 0
10.50185146987554 16.85140319373942 0
23.39253306617841 6.435906616450428 0
13.14145326622387 3.496958355660583 0
13.46630055950274 8.118179036686712 0
12.5728511274729 11.15609973095997 0
16.40091776736809 21.54857620912791 0
12.23571800779536 18.75955233359092 0
20.76512361458914 3.043264881685917 0
11.1476417331184 8.46712088584082 0
17.27427381928932 19.76878183144964 0
13.91013133817063 8.221406174349502 0
23.0968317614657 11.28641123714843 0
13.27759728522201 9.766866452172238 0
14.11938683280813 3.403202635855128 0
10.76315668556019 11.79581272223386 0
14.73545067715298 11.62711853402838 0
14.26429018943905 19.66052807539814 0
10.64690248051802 12.30935202217973 0
11.99990320793781 19.71189770005962 0
17.85245956478963 16.58266165138314 0
10.92758574856989 4.085987881506965 0
20.34784960698967 8.448773673956238 0
20.46234750618787 3.063152662069456 0
24.19361512808811 16.57009029434703 0
24.18442314156821 5.274853950701103 0
22.91618175811855 9.190523134360031 0
13.69281348279152 22.56994313973228 0
18.90338099745773 17.47193805927206 0
24.11567525133544 14.95241211179079 0
11.07720673212747 19.95723769862081 0
21.75761786063655 9.594392189439615 0
11.18530872802254 10.78379220640664 0
12.01501579979857 9.561740423746777 0
14.5438894126182 10.89743354451173 0
21.51257437084876 12.4326559734192 0
20.95284574714975 20.7070762879062 0
20.93627297699456 4.055463525856507 0
14.03440415613464 5.887614870539083 0
22.36531277026688 10.09879591976011 0
18.58055518269306 20.60449642880556 0
10.72636709396747 24.01308802349025 0
14.56006246055014 3.75552969022347 0
13.02464264586828 20.08000637803458 0
10.46973403046106 3.058886959186799 0
15.87935261475416 13.02855217373274 0
14.41902291332207 8.04744854389371 0
24.56906866310605 11.43602406392086 0
17.28269021038439 13.02203855497643 0
10.98109410124205 6.062668814586581 0
24.41347974441361 13.9111730158196 0
11.66796094065216 18.39281858923879 0
10.61908928200103 13.10454322563533 0
21.85854672985488 3.496958353879197 0
11.99836981294666 10.07021883526953 0
23.46521351132495 7.979238771187726 0
24.3946690447879 15.81637857269512 0
22.9888758678687 11.87706153068621 0
11.7112144212277 13.55705553049095 0
23.62058205219616 10.25228663910269 0
13.17969259882887 17.59634256888846 0
23.00754345816833 19.70947009500497 0
19.26284482588011 13.12429435086306 0
13.39751862801437 3.679884037759196 0
11.14697310952243 5.529324013763327 0
10.82943141919255 7.120781682986681 0
23.71345607652497 12.91005380817797 0
14.61022508723733 13.51116161876792 0
22.11535614176881 11.93571745097523 0
24.24192765392891 7.180020872958309 0
18.9584990161913 19.56963914153084 0
21.06306512325611 18.65411076543999 0
10.84801449317544 15.03252910626974 0
22.34918862534623 12.40600661962127 0
20.86048195308846 10.10653391648557 0
24.05889195457646 11.5378840976772 0
23.31663814943583 15.97666515672885 0
21.27646044199784 11.13174522573764 0
12.06982578484914 11.08141459808009 0
17.91826327282022 19.90636153596959 0
24.28580902978041 6.37836899617227 0
20.72823672068073 6.469889868359276 0
24.25479768292097 13.54888755507856 0
12.93621337873802 10.77169864417795 0
19.29315883775083 19.55740622685765 0
24.23340264867741 10.91376441811258 0
18.51557803520964 18.14381888633514 0
19.73318491340135 16.89876576536316 0
21.64000380830166 6.093824615933431 0
16.32640936900796 17.35184207308439 0
16.78162601674457 19.53898862600282 0
24.41871229185862 15.32823762950146 0
15.42324716021297 16.83805516919261 0
12.18569643948922 8.581108414644739 0
22.8854215291698 8.002793297151856 0
12.88583708280689 9.800532083098421 0
24.5613483721465 6.372695059431273 0
24.22088483230816 4.658780773260426 0
11.05643557650605 6.424830217766917 0
14.36944804292829 9.851749064425107 0
11.12398957545699 21.31162510147267 0
12.46555491030927 11.56024271744937 0
12.9536837776856 19.76149862354349 0
15.24912014788499 20.34334441561557 0
11.90154941931897 9.066555495921826 0
14.3124678132948 16.14287982228606 0
15.62460905077377 21.32858005031876 0
24.33828838786453 10.3967353035165 0
12.92862582552022 7.297769974559143 0
23.03287288259676 13.34832518074285 0
24.42640604931672 18.99105159484027 0
15.23045949485802 22.16372898890013 0
20.52308898923537 10.44336894360836 0
23.10946959889508 10.16701673221225 0
22.99269155219284 10.70421024456142 0
22.68618511457394 13.72892705999574 0
11.4207670797088 16.27673400811028 0
22.22358760220909 8.00857866386319 0
23.50156545152938 12.4080987165216 0
12.15945521675471 16.94978093686172 0
20.79049734805154 9.821439508164719 0
21.49716003322329 19.75208949436504 0
19.77782794212664 20.33320478705587 0
23.02446328815385 8.65889198786702 0
14.20111473785156 21.91221874743112 0
14.81167657781589 22.72351183852585 0
22.17345674274385 12.24862312660457 0
22.53244343778005 9.016220715705408 0
22.63127795130786 12.83614407099785 0
10.68476315019815 9.935749453302114 0
11.35499187568912 22.25173600641716 0
21.91279699678773 9.83814057968074 0
21.41675438583943 11.37397607834071 0
20.63607856927867 8.409534089055354 0
11.59966970989046 22.96092094767937 0
20.84827965207336 13.20918971252054 0
20.82565106949739 14.29537650011578 0
12.56873161503814 17.36059914127305 0
22.63947843534214 11.06643005774601 0
18.65824278246048 13.26264274809148 0
23.77858613849034 16.21430247086744 0
12.57699553877912 16.11736528346015 0
20.55272175181118 17.80219209446324 0
10.80335420809667 4.859733771516129 0
21.48966822021046 3.974053634113913 0
17.25711934376866 20.23925212598767 0
21.78841604996389 3.191623676172307 0
21.41857304793421 2.995420865963465 0
22.8812532674483 7.34037285411273 0
19.58599077442033 16.32647134143784 0
21.63057034592093 12.14517215339435 0
18.3201767006312 13.89343365893289 0
21.30696864998245 9.166749205825942 0
11.21384999845295 13.16704960094677 0
22.50684919341846 19.27355244001685 0
21.14934533217024 11.34546630016614 0
10.6992724536128 14.29912337356779 0
23.85543060254186 5.233334013185369 0
11.3936787088224 22.59904327194641 0
21.27753324355072 6.123200773810245 0
10.51226935829578 23.01452777189313 0
20.6692611197485 21.21232885163211 0
17.22814326579391 18.87749081885684 0
18.24001201567431 21.6994975573054 0
14.75621886007703 12.27532510410694 0
10.84728654959112 20.6696201647079 0
17.11825116427935 20.67655490899528 0
10.88276502795936 3.290386298394443 0
24.23076922126326 3.018402422534578 0
10.49403205689116 22.32002153818306 0
20.10881961967797 20.27321728289841 0
21.09978032316099 11.98004131147055 0
10.77109755872783 8.314795649653515 0
23.09785776218063 3.037055973231228 0
11.48543599103082 8.497198406176386 0
23.33869204287321 3.607285466056739 0
22.93976604365867 14.65561781926525 0
13.53321735042621 6.367463830859296 0
13.12744603133875 13.68258529039668 0
18.77331462822339 21.56940699284285 0
22.6649777755875 15.12456070904616 0
21.95657264478972 9.384843064162636 0
13.32617664641102 13.15886114426907 0
13.73797012293388 8.654422932615361 0
24.04588055329217 4.017882092855165 0
18.25149847506201 17.03049576597994 0
22.1172264649701 9.61851456563013 0
23.1893281884162 19.10760270543265 0
21.88412499321461 12.24990144420338 0
24.26538408173476 17.27459445730708 0
14.32957115275459 6.969526122513641 0
24.37407605501896 18.69607175928543 0
10.6683164415764 10.78652406639452 0
11.92838770505466 6.72298730788077 0
17.3962889126628 21.23430779901183 0
24.37097173062514 9.61830509486222 0
22.59190844247732 13.12824870591265 0
23.79958682562981 11.9468668983521 0
15.17731648742115 13.1239167898843 0
23.66219341910175 18.72483090937206 0
22.59430386959323 14.79719897548615 0
20.63344892580765 10.91707846323866 0
20.11964898248853 13.13105513042004 0
19.03337572581881 16.11674638828341 0
10.56829336287416 10.33558397634378 0
14.28859911610395 18.31515662951269 0
12.75173086003625 17.68410011284125 0
22.20236021892566 13.70872248387349 0
10.62858221219813 13.94619754104285 0
21.20723833261532 7.127136354049559 0
13.52012189465756 10.24568683504604 0
16.05651132361857 17.99492132931042 0
12.37200783533337 3.061002392204306 0
13.88512437844412 13.7521911845102 0
15.63838646586774 13.75958299662952 0
11.23546877362556 5.821554061448487 0
21.46153845930164 2.720137863888215 0
16.04420302816751 18.63266705022579 0
19.57819482756996 17.25780045014921 0
20.82736830509056 7.113110770929801 0
16.46615657650123 16.08267204175622 0
11.8104371521349 15.64872778252504 0
14.78619527820868 21.13435903937118 0
20.98219782105688 11.10037528484426 0
21.88967363922077 11.53589715898834 0
24.64783595444556 14.62339548544186 0
24.5779114501212 18.38687451305568 0
18.39312214468292 19.07250533624255 0
11.58343309121182 23.82947755992831 0
15.40034178939207 21.56932540957723 0
10.73529243048429 3.718773670902655 0
23.60779333172238 8.94847946831104 0
13.83264357239602 12.36270693246463 0
10.78312525826017 9.421716970233684 0
18.85355422900525 12.96249039089721 0
22.5956874346146 20.17342595307322 0
15.05025376955118 20.91612022265173 0
10.91505252056277 12.98574805414132 0
20.26368442141747 19.94205662242394 0
23.18971249306762 8.025982811193138 0
13.68715298207113 5.815974069761217 0
10.46601297786507 11.35174547847942 0
12.76785714319169 15.77836685346184 0
24.03349230700558 19.92979268264332 0
15.74735054793202 17.84178256554942 0
20.57698273919627 12.06094239954399 0
21.605837928612 8.455371687448404 0
19.4469545476802 19.80826140402509 0
11.59132213737703 3.93016492286432 0
15.58134534528255 15.88080559923467 0
14.444888471097 13.17363328237551 0
10.88410083534049 12.44518200640133 0
10.58472161356416 23.37323077413335 0
19.90714007564642 17.33073044354982 0
10.66663824666979 5.977385921110424 0
24.34208940879962 12.95074513108026 0
23.39076715132152 20.31589499361342 0
15.94179057030065 20.31060954511365 0
23.2349167831474 12.50122362249679 0
20.24040813722262 17.26546517070867 0
17.69043979337613 21.30127562349351 0
23.31801822662018 12.24913737767993 0
11.73092003540285 19.88329940568402 0
23.32341706716363 6.965769571373702 0
12.58182242525585 6.632357762574315 0
18.74999998662868 12.70836442437949 0
18.25982908833027 21.97749778483962 0
10.76923077238996 3.017420763853949 0
18.35436270965243 19.40643253356917 0
22.89820594888709 9.696843852897706 0
23.68640325887581 14.49551213785555 0
13.9653625949552 20.52927117896892 0
23.54023310862254 12.09938272581223 0
23.32681280674929 15.12418984386507 0
16.45144088254714 13.12429434978323 0
24.01453124224893 6.42234601788319 0
21.8461722010655 7.494839851085398 0
22.43655334189847 12.14962013905863 0
24.31448786958793 11.98505460778736 0
10.57902230222913 8.855246287897906 0
11.90905115690918 14.41533082612242 0
11.90856784938727 3.038949176115306 0
21.77289495384747 19.7894328700475 0
14.09652160568393 10.43377294622931 0
23.38568903781142 3.034575534039622 0
10.38639628207461 12.93457891375959 0
22.63692142340106 15.82149238197145 0
14.9089631695224 21.50930071755488 0
11.61859034081228 3.030393260290161 0
20.24568534307171 16.27986694257688 0
21.64333502319013 6.409846882330982 0
14.545202600997 22.33694442370182 0
21.49005010940337 13.08341637607732 0
20.42441053272996 6.446524894930111 0
10.69729019575624 7.477004124721374 0
14.23487638266815 3.043264882279543 0
11.05767714663921 9.900964628984449 0
12.7410101598026 8.075009017526787 0
24.29200142421682 8.677433086821654 0
20.48860686170718 19.23088351469212 0
21.957279876648 13.51848996155075 0
13.20041674543978 23.37311291609972 0
20.46201352064207 12.49935762473531 0
21.22452570641287 13.29054922849377 0
13.6089296582512 7.552160976090907 0
24.64214414786001 9.621081562653577 0
11.52390701874981 11.30457199022015 0
22.07351256102019 20.38291182539798 0
16.96428571286854 12.70836442144616 0
20.30169702404158 9.748291211484663 0
17.8354286454077 21.03672380829132 0
22.01438189475874 10.67187468467893 0
18.99765811657192 13.82119268887457 0
10.76011201821573 22.31702902410118 0
19.06170483922179 18.73912864194631 0
20.57770107402319 9.614415779870999 0
12.95648202653698 18.4641633961646 0
11.50440401558374 10.27605744520358 0
12.52458995873343 17.01293703335154 0
21.93420757249278 13.21200458428256 0
22.17322682083699 3.494180832720362 0
10.30597467553245 20.0866575727012 0
23.24884231193331 20.06015610826304 0
13.18297410461338 16.02615767219806 0
24.30665974088016 11.67025387556083 0
17.87899377970071 20.19055089525159 0
17.05874442239199 13.26169686509717 0
15.53574600974032 22.01250402543302 0
11.58647714495935 13.81726491139998 0
14.69477999374163 9.840467105463993 0
22.34457796175925 3.099003895411666 0
13.37069473836431 11.34336820304529 0
12.82677317461215 3.494180834573718 0
12.65542203717905 3.099003896010494 0
15.01976681970331 16.92362045035202 0
13.15165549412617 11.1901743832215 0
16.12450445576825 22.37041834157421 0
13.53846153395295 2.720137865717755 0
15.8841639791638 12.7334046418381 0
21.2429857318497 7.952234977469792 0
10.66092647114128 6.597314750209666 0
10.59460684352737 20.07627029657073 0
23.36011517450284 11.32969221123614 0
22.04082686173164 19.05380202261233 0
17.18964407298728 16.21355644254213 0
14.87730809834397 17.28021940602746 0
13.52049353222929 9.609044518454732 0
10.46989662424457 24.35458703078308 0
13.76525479164349 9.611271886323475 0
24.26561523949384 3.664536984483934 0
10.8074152493464 16.72637416632668 0
24.47182690004305 12.54920912816977 0
14.33273161799 13.97754509742179 0
20.43596307537191 15.92845431873589 0
13.3324145624322 10.08337163130406 0
18.06444324881208 16.25013589706325 0
24.30545214167306 8.122110993417909 0
12.99928211503349 19.46837600964725 0
12.51456685851247 12.56186308745123 0
20.47959450890732 11.25096229851132 0
11.46535253011628 15.55226164580835 0
23.60669601229646 15.15441752523594 0
19.98746006212318 18.09356692781245 0
11.4844411460545 12.47829752105929 0
11.71341295708616 6.98140562942567 0
20.53023904851592 20.96517474850554 0
20.04009479826837 13.66992839111513 0
16.4285714293708 13.87244898555862 0
11.14969566593971 9.07333883154586 0
11.21781631619241 11.32485729739271 0
21.18009589194724 17.85325603166476 0
14.12862542938827 23.11852760101247 0
23.50115198712551 14.81880763635009 0
24.4948819677444 4.603030360078596 0
13.51033177737771 3.974053634297216 0
24.53148258776991 3.071208741144409 0
11.40919388741729 9.152769153798367 0
19.58063241783962 21.37134755905276 0
20.6853931727381 19.98579543817638 0
11.65659234938112 3.60946300231234 0
20.62136336705101 6.187711376260123 0
20.11085717248157 16.94049285900631 0
13.89791300714334 4.831242616501113 0
20.84443275530031 20.32585304916762 0
21.37886772750285 20.68532525961919 0
24.11743739482655 3.295902364329261 0
19.84760569607956 12.99389979952685 0
23.86653419297362 11.66450699014046 0
10.45664155507539 3.755984749284408 0
11.42898276955127 20.06143237170479 0
21.39626651355904 15.03497443381775 0
20.43993753890908 3.755529686457049 0
21.22274572738871 10.28266119328607 0
12.37517047421071 9.073830695760407 0
15.20116535894475 16.50328597817246 0
21.60248136849387 3.679884035497067 0
22.62874376558525 3.061951684375378 0
17.63017776415565 19.74053014892415 0
23.46632485959351 9.172158067981064 0
11.62751454608982 8.70844336199119 0
17.44164963496836 13.89008620859283 0
12.04071104551964 13.02329140562952 0
19.0046401771022 21.48747694306942 0
11.85089030501777 23.89015014317422 0
18.2630876512479 18.42080119886386 0
21.16666006855453 14.41694476553775 0
21.7937670097261 20.36093537036633 0
19.8214285678709 12.70908998313476 0
20.96204197548779 18.09391665997477 0
21.16618378177758 12.97949242900042 0
22.45307262172139 13.89954989184985 0
15.92489712337125 21.40846886649777 0
12.11419750069189 23.65278611182097 0
14.05460440642426 16.45064769961028 0
12.07114321254885 12.03362107773404 0
24.04042359608696 6.981762620624341 0
11.29711502374367 17.07983984006961 0
15.35643592792115 17.95085034289504 0
20.7884171317015 9.430562092980123 0
14.28770313855481 3.679819536860473 0
23.14213383077125 7.231423129759278 0
14.62039974904352 6.966635253742404 0
20.71812369531237 3.705914479374788 0
14.19601958831984 23.37471513337624 0
12.41462845142257 23.7211581098364 0
17.71580596219298 17.58721806405976 0
10.86831007904163 6.776898138039769 0
17.64072423634525 13.13902318219908 0
20.61152801692186 16.34219246671266 0
16.23743967892419 18.93090186161377 0
23.67368075595144 8.140897920475679 0
21.46865955944511 20.02311467178863 0
16.55016107291054 18.4580558770446 0
17.13071439556854 19.43794922371983 0
10.49673862951041 14.65393049015846 0
15.27448942266063 16.07113274257735 0
18.14358486931599 13.19740389025794 0
16.67743986804181 17.1392445533245 0
21.5242770212452 14.03547278078715 0
23.67131859707204 13.76608804453359 0
10.44616161823163 7.686492074417127 0
14.56752741112576 22.03263421492024 0
21.5243616138724 15.42401015960237 0
21.82701961787039 11.87499782253021 0
21.19077054690047 14.08852523811481 0
14.4631472518764 12.13667124567213 0
14.67801212179212 8.043042436146782 0
21.60011973459871 13.43548311748815 0
21.37946431186187 6.591414728512778 0
10.87606891885253 10.11873388296317 0
16.25175745018797 21.29952834674188 0
11.3645349227522 17.48387025542515 0
11.10538990196751 16.51145937364263 0
12.01468272093113 7.129049411083942 0
14.20270769342301 2.730676775353333 0
20.70505026021088 10.64533298305941 0
20.96345475395881 19.13008183428717 0
11.56059761173102 6.299495409669016 0
14.53781897373531 3.062407093300761 0
21.86035650943946 14.24320558091232 0
10.40734816378524 9.950853556201798 0
20.2528011408793 11.96055792744762 0
20.71494330272149 11.20354242659929 0
11.13575907045496 19.49696346237671 0
22.46510335498479 13.60753451554193 0
24.57206029864438 8.767620228000725 0
21.45183845639824 6.962349802987776 0
20.89692253505908 8.429979534193286 0
23.83989452142516 9.544826412719804 0
20.56995532208166 17.42980268664106 0
23.69310592078552 7.125363421814917 0
22.34537393821825 13.0045615148264 0
16.8607314769656 12.96249038891504 0
24.73692642571822 19.04801371311605 0
22.70951279344265 20.50365082406131 0
11.42204275530257 18.1489581692017 0
13.34829580251184 16.92333147821798 0
23.11747296072719 9.875370600291953 0
18.21627911195495 20.28457386391592 0
10.40200018979188 7.401487264533838 0
19.29234257108552 17.99823774276027 0
22.05917188186672 12.83185012533543 0
23.80450724453679 14.91060615841208 0
20.22912127465622 18.32512141236178 0
11.64985948611904 9.003691631202583 0
13.6464942880181 7.260040639477029 0
14.20665270697784 16.81725920350944 0
21.08791389676301 8.97797810266138 0
10.77528710600661 19.03864684468482 0
13.07176334286074 12.01389822049562 0
23.61749317663865 15.94797141565723 0
12.20814904160155 22.81244596173458 0
18.15133477215053 21.02439669397824 0
20.53848848334469 8.807780317890938 0
10.35025829048551 13.92409756202464 0
21.26388745050218 18.96711267331922 0
21.04262989788611 9.650822755879902 0
13.46299224179074 19.22409547537829 0
24.54512129595927 16.85922493384406 0
22.97415079317463 10.39617361673452 0
22.9119948253554 11.58439488637054 0
21.94105531351735 9.124086533940085 0
11.88555772034415 8.80408151003121 0
23.86255064427989 11.37643650328438 0
22.75159787143344 7.610068422788406 0
11.19553089607266 2.973173788399577 0
23.8045634699957 2.974179649278641 0
20.71265295278425 18.50156306222837 0
12.4946160437386 23.95895860548987 0
11.89981286965578 6.335268867638192 0
20.74234060594084 4.359397706802794 0
14.87255222358052 19.16638582448034 0
21.47078828045581 16.26865931729944 0
21.61056781336767 20.87544808502837 0
12.14662339444664 10.30832833760256 0
23.17097560872199 6.638589599486061 0
19.03044685506203 13.41482586251894 0
15.30055248549495 19.9886370282748 0
21.14413710361966 12.36119155762334 0
14.89576646030977 12.81594124014929 0
18.26502563067126 20.71806106261429 0
14.28866635102535 20.41534444213778 0
24.50556538606537 16.25342196342199 0
13.2413887763923 6.109626223663597 0
19.71552374605151 13.75148981271 0
14.21144875456569 8.208965411451741 0
22.45106576618283 11.24400601291217 0
10.90963073050012 13.31669781278472 0
22.63619727834058 10.27095774185672 0
12.25018429486128 19.15567777526386 0
18.03571428190875 12.69818993561667 0
20.98873704926999 3.697672877130473 0
12.42811786040874 12.87732532532661 0
17.94297375213744 20.72894173359919 0
17.12819577312053 17.69218132847947 0
12.70405507307223 10.04711704191604 0
17.49486242937418 16.42087490497548 0
24.64026319425809 15.98253595784343 0
11.07743220183302 7.369846773961106 0
18.49973815499483 17.72998532334265 0
20.76601199761511 15.71320559537443 0
20.35132155816859 10.6139827838045 0
21.88616241869751 14.61261011223978 0
16.1420389313608 13.20028717804816 0
24.12276568758577 15.65319182060555 0
10.48663596519221 15.39681466419745 0
11.75047401313202 11.04536559038145 0
10.44895206629663 18.28382265723741 0
13.41947691355198 11.06434596643817 0
11.33482231917219 6.46415071947144 0
10.91972902312492 10.63263565670019 0
10.48129781365939 18.97503652581367 0
20.47167800397975 8.055559178679626 0
19.59764430459733 14.13934646952883 0
13.88698341065983 11.2713264043264 0
23.3883252502176 3.934541602751977 0
21.99628656453029 10.09990718112158 0
23.75490229878131 12.59003281541514 0
11.153197492538 11.04683960428559 0
10.40296994847336 6.675601986957592 0
21.94089858857294 7.837953435927223 0
11.92620241711529 7.480972441978539 0
17.92057795891658 13.7108277940428 0
12.38967776363621 8.809103139692866 0
11.08404759366374 22.77572225422743 0
13.18465597922344 10.8600637370977 0
11.20330845179504 10.47349402484946 0
17.98055057307535 21.71552985885759 0
12.86889055497068 16.37244300107398 0
14.05162368111206 6.936708281833892 0
14.5449510283523 21.38364336848533 0
15.30581970402876 13.49494158684666 0
21.33518660832087 11.85895899845328 0
16.82195184104607 22.4491585698022 0
20.30729962141109 18.00154095305941 0
16.86161874400151 18.32179852526214 0
21.20543668727562 19.76692815321399 0
19.17622907770307 14.13770998067652 0
14.01695753173904 3.692328851091753 0
17.47182895054094 20.48949587358885 0
22.87530449128939 8.929903885500472 0
11.31215387525374 6.14469905830963 0
23.75628133077949 8.695648072846105 0
14.36788118556874 15.79317613932231 0
13.79727914386592 6.138423585021773 0
21.26735268026814 20.96900907277836 0
10.41171397238467 5.968694668693433 0
20.32050007539354 9.014604399049334 0
11.40701227187586 19.34861783461902 0
18.72813034557577 16.36029704080757 0
16.52176725775945 14.20574886185605 0
23.10350646111339 6.312994143929626 0
22.87294393638449 10.04553967891416 0
12.13576267602711 17.28923941266408 0
11.17092136587217 12.48363698139555 0
14.46052192182308 16.51085816884977 0
10.8676111748916 23.34897169522964 0
11.39045171652602 11.54652601806794 0
21.80577689273522 10.8256532706757 0
22.23950461261824 9.867410365397276 0
12.62802372492287 18.71121934539188 0
23.33744746134423 7.725554435833028 0
23.8758926462962 10.14541464507301 0
22.35666436965674 12.68151357008904 0
21.49055213414087 12.77722510952707 0
12.67221557347718 10.89954500680129 0
10.959267924167 14.30428401160513 0
10.90392831240367 17.93775654892252 0
11.93031090655668 20.12039825098585 0
13.49707109117936 23.29703499159326 0
17.40520987427089 15.84773242000323 0
16.20029669339662 18.30407828359224 0
15.03899783751127 20.62200445743556 0
20.61091190794424 10.21095052729339 0
12.04465765434393 9.273059396751416 0
22.58469399377445 7.277540483988879 0
13.08873746495151 7.058419565724997 0
24.14493593773281 6.653741451300625 0
20.63831257417734 11.49874005836323 0
24.71001841636349 13.97406188092766 0
10.78457295301973 6.357975785475046 0
13.07585605857829 12.61144446981955 0
23.37010726111696 10.08860423144196 0
10.21971688630433 23.00399883417905 0
11.31606752363761 12.19385175948872 0
16.37141886770234 21.82381249682831 0
14.27823179724969 22.91689163195641 0
12.86935650623376 10.53049165921187 0
24.28668699136905 14.7436116011438 0
20.22184658831515 11.2598997960133 0
11.81753086357834 8.510912109893097 0
12.58505026080389 9.806957189233762 0
20.80342563434288 7.413176508456448 0
24.23289515828974 9.870526531312436 0
10.22665136731821 22.28630773800689 0
20.81926528324036 14.64474982770734 0
13.77670756909545 6.707028141256964 0
11.36105980536098 8.253730153817234 0
22.66122005477679 11.70525770786134 0
19.13305419555964 19.87901623640179 0
22.0877361374228 12.50220714392785 0
13.66098502421895 9.424286806785528 0
24.26986285314785 16.98782831813101 0
13.91922614534377 18.39688123872046 0
12.94893656075242 7.561371338854757 0
23.94481096102254 10.73420407711326 0
POLYGONS 3556 14224
3 1151 1417 378
3 1011 1074 641
3 1043 1506 427
3 1204 1367 695
3 1367 1204 573
3 1375 1693 387
3 330 25 538
3 1337 1684 894
3 218 219 1799
3 190 580 1397
3 226 416 528
3 1666 1337 802
3 293 424 930
3 1702 1013 548
3 1017 806 828
3 1335 124 486
3 1603 1546 895
3 1151 1137 778
3 1195 1587 684
3 1693 1208 387
3 1740 1107 425
3 548 1065 1047
3 1137 1151 378
3 1484 1039 630
3 1400 1232 400
3 55 56 1735
3 390 711 1731
3 53 54 1846
3 1807 1292 982
3 1331 1642 660
3 1496 1122 499
3 1157 1335 486
3 111 112 1046
3 362 143 1930
3 1158 1782 1620
3 459 1149 1812
3 1208 1693 1294
3 756 1539 1471
3 1011 1360 551
3 1684 1337 487
3 1107 1571 425
3 1301 599 510
3 1312 1305 634
3 1779 1341 1821
3 480 1068 723
3 49 50 1302
3 1754 1494 774
3 1065 1664 542
3 1224 1603 895
3 1779 1821 1834
3 1396 995 724
3 376 1017 828
3 1696 290 1445
3 279 1364 1675
3 1115 1806 445
3 1264 1248 725
3 1447 1448 726
3 336 1701 750
3 1452 334 750
3 1360 1011 607
3 1531 1322 836
3 1228 1740 425
3 1182 1663 1171
3 1556 404 695
3 1260 1501 1481
3 1702 548 1047
3 330 538 786
3 109 110 1120
3 1657 1002 820
3 1383 1351 861
3 1269 1043 427
3 1664 1065 548
3 1466 733 797
3 1061 1746 987
3 1506 1176 427
3 599 1183 510
3 1771 1163 1564
3 324 325 1521
3 1077 1484 630
3 1530 1588 719
3 1450 1388 920
3 404 1383 695
3 1595 1159 406
3 1369 1489 1744
3 1829 1199 420
3 1046 112 1722
3 1624 319 472
3 1002 711 390
3 1073 1677 664
3 1704 264 672
3 1029 1779 1834
3 614 1122 782
3 1122 1496 697
3 1570 1235 369
3 1637 1220 791
3 1049 1269 872
3 1232 1400 534
3 1400 1289 534
3 1129 348 1778
3 43 44 1852
3 1068 827 723
3 45 46 1848
3 1220 1637 436
3 1662 637 881
3 1159 1595 1839
3 1599 614 782
3 1660 362 1930
3 47 48 347
3 1337 1666 487
3 1839 1069 465
3 1392 1330 554
3 1340 1829 420
3 1441 1161 780
3 1744 1489 1451
3 1587 1195 696
3 1595 1366 1839
3 1735 56 650
3 53 1846 985
3 1342 417 722
3 1200 1754 774
3 1167 348 1129
3 1733 1023 1730
3 1723 1338 758
3 432 1022 622
3 1235 1570 353
3 1500 1087 699
3 724 995 592
3 1087 1500 372
3 1164 1539 756
3 1678 1295 588
3 123 124 1335
3 733 1642 797
3 1193 1521 762
3 357 1115 445
3 1292 1807 1686
3 666 1262 706
3 1226 1452 798
3 1701 1178 799
3 1364 1223 355
3 1051 1696 626
3 228 229 1544
3 1195 1260 1481
3 1214 1752 816
3 350 1074 1804
3 1654 25 743
3 1391 1138 957
3 1598 1169 527
3 1086 925 489
3 1328 295 585
3 1617 402 970
3 1366 1595 512
3 350 1804 1688
3 417 1553 722
3 1506 1043 638
3 695 1367 862
3 1452 1226 645
3 1178 1701 646
3 25 1654 538
3 1733 831 1876
3 192 611 559
3 1028 1652 862
3 158 1681 1594
3 1133 1598 527
3 746 1422 838
3 1587 23 577
3 1055 1678 588
3 1388 1450 584
3 1143 1569 912
3 1158 1620 1593
3 1013 1454 871
3 465 1069 915
3 1490 666 706
3 1493 1505 1851
3 1310 1079 771
3 1779 1380 497
3 23 1587 972
3 1218 1429 363
3 1652 1556 862
3 256 257 380
3 341 1653 792
3 190 191 580
3 192 193 611
3 1002 1657 711
3 1163 1771 390
3 206 207 1652
3 1473 1310 771
3 1022 1544 622
3 1223 1364 654
3 1696 1051 835
3 1677 1073 779
3 1494 1754 1665
3 1486 1190 517
3 1092 1687 1503
3 313 1813 582
3 912 1569 497
3 1059 1752 624
3 1023 1391 957
3 1806 1115 1468
3 637 1161 881
3 1216 746 838
3 831 1733 1912
3 1799 1325 900
3 1585 1807 982
3 225 226 528
3 1758 274 1810
3 58 698 1795
3 1533 1215 643
3 1211 1394 876
3 1484 1312 658
3 1615 1183 464
3 1848 46 979
3 861 1351 1067
3 1623 1000 621
3 1269 1049 1293
3 525 1208 1294
3 1065 1715 651
3 1008 488 703
3 64 65 1542
3 1806 1589 445
3 12 293 930
3 1289 1400 356
3 47 347 979
3 290 289 1445
3 280 279 1675
3 1273 1533 643
3 1074 1011 785
3 647 1173 1186
3 1620 1095 1601
3 618 1175 793
3 1681 158 556
3 314 313 582
3 152 153 1853
3 41 42 396
3 601 1428 850
3 488 1426 703
3 1038 1417 476
3 1715 1065 542
3 460 1086 489
3 1453 1124 727
3 768 619 1726
3 1620 1748 1593
3 1176 1718 872
3 601 850 1802
3 1064 1718 924
3 380 257 1724
3 587 1139 738
3 1080 1767 745
3 154 155 447
3 800 1571 1673
3 1203 502 651
3 1623 621 1557
3 318 319 1624
3 1571 1107 825
3 1239 1640 640
3 264 1704 891
3 1663 423 1171
3 1648 1342 890
3 1099 1790 749
3 1298 351 677
3 1636 1191 507
3 1470 1259 882
3 1680 357 445
3 1581 27 787
3 1663 1182 822
3 322 1736 543
3 1196 1328 585
3 187 188 392
3 1149 459 932
3 995 1396 1932
3 1442 1249 429
3 1095 1508 1601
3 1054 587 738
3 1243 1743 681
3 142 143 362
3 881 1377 1238
3 334 1452 645
3 1701 336 646
3 1147 647 1186
3 1083 520 630
3 203 204 1348
3 1082 1615 464
3 425 1571 800
3 512 1595 1780
3 1380 1779 1626
3 1276 860 575
3 1553 1461 490
3 580 1381 1397
3 1752 1214 624
3 351 1232 677
3 1355 1104 1815
3 1342 1648 883
3 495 907 852
3 341 792 1286
3 1402 1306 507
3 361 482 547
3 1402 1276 575
3 183 184 844
3 719 1588 1523
3 1790 597 749
3 51 52 454
3 124 125 486
3 1715 1276 955
3 1752 1201 816
3 1229 619 768
3 1362 384 453
3 1269 459 1812
3 1276 1402 955
3 1287 1720 522
3 1642 1331 797
3 1325 1823 900
3 239 593 1462
3 825 1330 1783
3 1501 1260 370
3 1740 1228 519
3 1259 1461 882
3 1321 1486 517
3 1693 1375 909
3 1372 1757 735
3 1126 1779 497
3 241 242 1678
3 1417 1249 476
3 1764 1291 498
3 304 361 547
3 1367 573 826
3 1746 643 987
3 1039 500 630
3 109 1120 849
3 1201 1752 523
3 1531 836 1689
3 1394 1211 1864
3 1544 229 621
3 1587 577 684
3 520 1077 630
3 1373 376 560
3 1145 679 767
3 1521 1193 770
3 1794 1434 537
3 1621 1631 670
3 1634 1633 819
3 1330 1392 637
3 1111 1126 1940
3 252 253 415
3 1031 1588 910
3 1089 1624 472
3 1063 495 852
3 41 396 1622
3 1121 1120 902
3 856 382 458
3 500 1083 630
3 1521 325 466
3 1642 396 660
3 1190 1486 685
3 1640 1041 640
3 43 1852 411
3 152 1853 1323
3 1417 1038 1753
3 1588 1530 910
3 860 1379 575
3 402 1617 1056
3 780 1161 1845
3 679 1048 767
3 1124 1797 727
3 254 255 488
3 295 294 585
3 378 1417 1753
3 1249 1442 558
3 495 1063 631
3 1157 486 644
3 698 1509 1795
3 1306 1402 575
3 290 1696 1354
3 1364 279 1304
3 274 1758 1882
3 591 1168 622
3 1204 1740 519
3 1336 1489 598
3 1417 1151 773
3 870 642 1798
3 1154 459 946
3 36 37 587
3 1113 1131 776
3 382 1341 458
3 105 106 462
3 402 1003 970
3 517 1284 608
3 1502 1660 892
3 1357 1392 953
3 587 37 837
3 1799 219 358
3 1611 1495 755
3 1053 433 794
3 1461 1553 714
3 1743 1243 913
3 1461 1259 490
3 27 1581 867
3 1041 1547 693
3 366 162 922
3 184 463 844
3 1668 618 793
3 1351 1383 804
3 1292 493 982
3 1434 1794 1323
3 887 1019 1279
3 1781 1182 1171
3 467 1563 674
3 502 1659 651
3 71 72 1580
3 217 1823 1838
3 433 1134 794
3 1240 1335 821
3 13 529 858
3 239 240 593
3 1603 4 921
3 1215 1533 749
3 527 1169 395
3 1807 1469 1686
3 1126 1371 1940
3 1505 1250 1851
3 1064 1393 354
3 1426 1592 703
3 1176 1506 961
3 116 117 407
3 1043 1269 1812
3 1203 1790 502
3 1486 1321 795
3 1757 1372 1796
3 548 1013 871
3 1023 1733 504
3 274 273 1810
3 123 1335 897
3 1769 1122 697
3 459 1296 946
3 1276 1715 976
3 1740 1204 448
3 1547 1155 693
3 447 155 728
3 476 1420 523
3 1269 427 872
3 1058 1602 988
3 1794 1018 600
3 1259 1470 1614
3 523 1752 1717
3 1297 1254 668
3 717 1224 942
3 1335 1157 821
3 384 1455 453
3 1046 1121 902
3 1392 1357 1845
3 1013 1702 744
3 29 1648 981
3 1735 1373 908
3 1038 476 523
3 1648 268 981
3 599 1301 914
3 335 336 750
3 334 335 750
3 1571 825 1783
3 324 1521 770
3 1323 1794 1241
3 1600 1757 1025
3 1065 651 1047
3 1373 1846 908
3 1797 1124 909
3 1164 599 914
3 1568 1806 1468
3 1039 1484 1012
3 1161 1441 1791
3 1388 442 920
3 1489 1369 1427
3 1518 1733 1730
3 1016 1180 506
3 1299 389 363
3 1053 1681 556
3 634 1305 636
3 1500 663 372
3 591 1362 453
3 62 823 853
3 1391 1311 713
3 1381 1265 410
3 1216 1644 746
3 467 674 1889
3 222 223 1527
3 1454 1013 629
3 512 1641 1727
3 1746 1273 643
3 252 415 1130
3 770 1193 1102
3 1618 571 545
3 67 68 1505
3 1516 274 1882
3 1377 881 1791
3 1602 1058 508
3 1255 659 1857
3 1305 1077 590
3 1297 1228 800
3 1018 1794 537
3 666 221 485
3 1720 1287 1879
3 1338 1723 1832
3 1473 406 747
3 1807 177 1006
3 91 1806 992
3 1495 1174 769
3 1441 1325 434
3 58 59 698
3 617 385 1831
3 1255 1612 525
3 1704 367 1713
3 216 217 1838
3 659 1432 1857
3 1136 635 976
3 1116 1743 913
3 1620 1782 1772
3 1757 1600 735
3 1176 631 924
3 670 1631 1697
3 1634 819 1513
3 1290 1565 1026
3 1748 1123 943
3 1603 1224 1001
3 542 1136 976
3 1143 609 596
3 454 52 985
3 1710 717 942
3 83 84 503
3 573 1204 519
3 1718 1176 924
3 1097 451 529
3 781 1092 1503
3 1081 642 870
3 1289 456 534
3 1259 553 1865
3 1429 1218 397
3 384 1177 742
3 1764 498 1889
3 1446 1311 457
3 1767 1080 1510
3 231 772 1557
3 456 1649 534
3 1463 673 596
3 637 1662 1783
3 1533 1273 776
3 1196 585 832
3 1790 1191 597
3 1249 1417 773
3 1454 629 1828
3 220 221 666
3 214 953 1184
3 680 1081 870
3 1322 1531 1261
3 1390 354 762
3 1393 1064 1027
3 743 1093 901
3 1491 1046 1722
3 1760 1123 840
3 1550 770 1102
3 1291 1764 660
3 116 407 1747
3 819 11 869
3 1264 725 1638
3 726 1448 1517
3 1107 861 1067
3 1312 1484 830
3 1752 1059 1717
3 629 1062 1828
3 1260 1195 681
3 1107 1740 861
3 406 1159 747
3 709 1617 827
3 1592 1031 703
3 1046 1491 661
3 1484 1077 830
3 1173 409 1186
3 1718 1064 1545
3 1829 1340 353
3 493 1476 982
3 1318 680 870
3 1063 1787 715
3 1425 359 737
3 354 1390 352
3 743 901 1841
3 1064 354 352
3 1123 1748 1601
3 1008 1628 436
3 775 1167 1129
3 1779 1029 1626
3 1410 573 519
3 831 1194 1876
3 571 993 545
3 1790 1099 502
3 1709 1443 754
3 1505 1493 926
3 1079 1310 655
3 268 1648 890
3 609 1463 596
3 1068 709 827
3 799 1114 1863
3 1207 359 513
3 1057 680 426
3 1746 1061 496
3 303 19 489
3 1680 278 1549
3 423 1663 1784
3 459 1269 1293
3 1325 1441 780
3 1180 1016 877
3 1723 758 1692
3 1155 1453 693
3 1504 329 786
3 734 315 972
3 1197 1111 931
3 498 1153 1889
3 1210 1852 893
3 15 670 873
3 271 270 1541
3 1356 390 1731
3 673 1229 596
3 1277 1555 903
3 1612 1255 420
3 631 1646 924
3 1000 591 622
3 488 255 531
3 1174 1495 1561
3 1853 1239 640
3 1104 492 1815
3 1511 409 1655
3 1169 1598 876
3 1535 1363 1817
3 663 307 372
3 1097 1449 1916
3 1077 1305 830
3 1080 1577 866
3 1648 29 883
3 303 489 1344
3 619 1229 673
3 1488 591 453
3 1684 428 894
3 1612 1199 627
3 1588 1031 737
3 858 1591 1389
3 597 1191 730
3 1265 1381 1576
3 1848 1210 893
3 949 782 1883
3 409 561 1655
3 1122 614 499
3 1428 1327 369
3 1273 1746 720
3 1539 1164 687
3 1305 1312 830
3 390 1771 929
3 1251 1460 1749
3 555 1085 479
3 495 631 961
3 1754 1200 395
3 1461 714 1924
3 14 595 450
3 1641 512 1860
3 1466 1108 962
3 1093 565 901
3 680 1318 426
3 376 1181 560
3 1133 1305 590
3 652 205 845
3 367 1014 1713
3 950 89 992
3 1359 744 1140
3 121 656 1630
3 199 200 439
3 350 1498 1573
3 1248 1264 654
3 1448 1447 835
3 423 1206 1171
3 687 1164 914
3 278 1680 869
3 1302 1059 691
3 755 1495 544
3 1771 996 1716
3 1342 418 890
3 1764 1331 660
3 1366 512 1727
3 1701 799 1863
3 428 1684 1679
3 389 1218 363
3 1509 1457 650
3 1423 756 1471
3 1271 1612 627
3 179 951 1006
3 1330 637 1783
3 1090 378 1753
3 1118 350 1573
3 177 178 1006
3 1467 648 564
3 730 1191 1632
3 23 314 577
3 1108 1466 797
3 285 13 858
3 1191 1790 789
3 1745 1437 753
3 437 1242 452
3 1598 1133 590
3 901 565 1691
3 291 1476 1856
3 90 91 992
3 1254 1297 1257
3 266 267 418
3 30 31 417
3 996 1771 443
3 1685 1234 546
3 557 103 1343
3 165 759 1692
3 615 1520 1510
3 553 1459 1865
3 1681 1053 917
3 1041 1640 569
3 1577 1080 745
3 1327 1428 1881
3 1631 1621 1221
3 1633 1634 1288
3 1476 291 873
3 285 858 1389
3 4 1603 692
3 1019 382 1279
3 1168 591 574
3 1612 1271 1899
3 706 1262 1280
3 1484 658 1012
3 1336 598 1905
3 1575 1773 997
3 1262 602 1280
3 451 1278 529
3 1535 1283 1566
3 1495 1611 1561
3 417 1342 883
3 1104 1355 1020
3 1194 619 673
3 11 278 869
3 1535 1817 1440
3 1331 1108 797
3 702 1058 988
3 1418 1172 878
3 1190 768 1726
3 1480 887 1279
3 1283 617 1566
3 89 90 992
3 1636 507 594
3 1123 1760 1739
3 1302 50 364
3 473 1142 834
3 49 1302 691
3 1602 508 1910
3 187 392 874
3 483 1352 578
3 753 1437 834
3 662 1349 1609
3 1449 1097 1721
3 1095 1620 1772
3 441 1712 1407
3 118 119 351
3 1460 1591 1749
3 178 179 1006
3 1457 1735 650
3 1059 1302 1651
3 15 290 1621
3 279 11 1633
3 1509 650 1795
3 1455 384 742
3 1349 1773 1609
3 1491 555 479
3 463 1398 424
3 1248 1633 1288
3 1621 1447 1221
3 1640 1239 896
3 1283 385 617
3 275 274 1516
3 409 1245 561
3 1672 380 1724
3 86 765 1689
3 128 129 682
3 1846 1137 985
3 608 1284 1166
3 1466 444 733
3 409 1173 1866
3 1652 207 933
3 424 1398 930
3 925 346 1658
3 1509 1062 568
3 1228 1297 668
3 1024 428 1679
3 1485 463 424
3 480 1352 816
3 593 1666 1462
3 1457 1509 568
3 371 1078 481
3 997 1773 1627
3 1036 441 1407
3 291 15 873
3 1310 1473 747
3 1167 833 1128
3 384 1536 393
3 1736 322 1550
3 415 1008 436
3 1330 825 1929
3 1124 659 909
3 1570 369 1129
3 203 1348 801
3 1062 1509 698
3 764 1290 846
3 1231 1615 966
3 1142 753 834
3 541 1694 1915
3 1743 1116 901
3 26 473 834
3 520 1083 958
3 392 188 410
3 1478 764 846
3 1489 1336 1451
3 1644 309 977
3 1546 1603 921
3 258 259 628
3 1520 875 1510
3 1177 384 393
3 1485 1650 844
3 1556 1652 933
3 1467 564 905
3 1645 608 405
3 1494 783 1810
3 1335 1240 897
3 1853 1434 1323
3 618 1668 1891
3 462 106 349
3 1512 831 1912
3 783 1758 1810
3 1687 1092 1225
3 246 247 413
3 1390 762 1738
3 344 27 437
3 604 343 991
3 264 265 672
3 288 14 450
3 1141 347 624
3 38 39 444
3 346 1003 1658
3 1505 68 1761
3 121 122 656
3 157 158 1594
3 1094 968 1939
3 1141 1848 979
3 1327 775 1129
3 1434 1853 640
3 1533 469 749
3 592 995 884
3 1097 1564 1721
3 409 1511 1186
3 159 160 433
3 953 215 1838
3 1453 1155 589
3 360 1009 1165
3 1652 1028 1132
3 347 1141 979
3 469 1099 749
3 250 251 563
3 1216 838 1796
3 354 1393 1102
3 1771 1564 443
3 1009 1495 769
3 1479 437 452
3 1314 1396 724
3 1678 242 751
3 737 359 1871
3 1677 655 1785
3 1311 1446 713
3 699 1168 574
3 537 1041 693
3 1660 1502 1763
3 838 1757 1796
3 508 1222 1910
3 427 1176 872
3 1921 1399 1727
3 683 609 1734
3 1501 370 1257
3 215 216 1838
3 969 1725 1713
3 1443 1709 701
3 1504 1450 920
3 1064 924 1027
3 1002 611 820
3 1748 1620 1601
3 471 1127 740
3 789 1203 955
3 1402 789 955
3 1256 402 1056
3 641 1074 1643
3 1380 912 497
3 1049 872 851
3 772 1623 1557
3 1346 1175 484
3 1188 881 1238
3 1108 1331 1690
3 1650 1485 1152
3 753 1030 943
3 1395 373 540
3 568 1062 945
3 1062 629 945
3 1640 1084 569
3 233 234 694
3 1377 734 972
3 107 108 471
3 1694 592 884
3 464 1569 1528
3 392 1265 721
3 608 1088 405
3 1185 800 1673
3 1167 775 1699
3 62 63 823
3 1124 1453 589
3 1295 1678 751
3 1448 835 813
3 654 1264 581
3 1394 620 876
3 1341 1779 579
3 1000 1544 621
3 1211 876 927
3 1121 1046 661
3 602 1087 372
3 347 1059 624
3 161 162 366
3 1156 1777 952
3 881 1188 1574
3 1442 429 1543
3 396 1642 1622
3 231 232 772
3 1329 442 956
3 206 1652 845
3 19 302 460
3 1326 392 721
3 846 1290 1026
3 1146 402 638
3 451 1097 1916
3 457 1311 1698
3 1840 1190 685
3 1518 1296 1293
3 1180 469 1483
3 1305 1133 636
3 1287 462 731
3 1084 1640 866
3 446 506 1483
3 1311 1391 1734
3 1131 1113 419
3 416 1022 528
3 1621 290 1354
3 279 1633 1304
3 1193 354 1102
3 1600 687 914
3 64 1542 633
3 477 996 443
3 527 395 1034
3 462 1106 731
3 1463 609 683
3 407 1347 1747
3 611 1370 559
3 1486 795 649
3 1569 1143 1528
3 402 1256 1944
3 1190 1840 768
3 1083 592 958
3 744 1242 1140
3 1432 659 1332
3 1399 399 1727
3 1172 1418 540
3 1542 65 586
3 1010 1744 1451
3 1790 1203 789
3 199 439 1606
3 83 503 967
3 70 766 470
3 1823 1325 780
3 331 26 653
3 1400 400 1630
3 638 402 1944
3 655 1700 1785
3 452 1242 606
3 1599 782 949
3 1239 1853 752
3 1488 708 663
3 1735 1457 705
3 415 1637 1130
3 1077 520 927
3 1644 1216 1007
3 1271 566 572
3 214 215 953
3 1263 1101 764
3 668 1254 1711
3 656 1400 1630
3 1060 543 1695
3 218 1799 900
3 102 103 557
3 165 166 759
3 1459 1435 817
3 872 1718 851
3 1672 628 449
3 387 1413 1914
3 876 1598 927
3 270 8 740
3 71 1580 766
3 341 342 1653
3 1078 949 1883
3 1694 884 1915
3 566 1525 572
3 368 156 1594
3 1299 363 1578
3 903 1555 1887
3 1228 425 800
3 496 127 1465
3 10 275 704
3 1500 699 574
3 1060 715 1896
3 1396 1314 561
3 823 1319 853
3 376 1373 705
3 1014 969 1713
3 1123 1508 840
3 1049 1518 1293
3 343 344 991
3 315 23 972
3 549 1073 664
3 764 1101 1917
3 1375 387 1914
3 398 1217 1538
3 454 1137 378
3 1597 1430 1103
3 431 722 1148
3 1662 881 1574
3 1615 1231 941
3 1570 1129 1778
3 1518 1049 851
3 833 1769 1128
3 1059 347 691
3 338 618 1891
3 968 1094 1827
3 1467 1446 1880
3 1200 1565 863
3 1368 1653 938
3 1628 1220 436
3 723 1308 986
3 694 234 983
3 377 1030 753
3 181 182 807
3 1353 398 1538
3 1615 1082 966
3 420 1255 1857
3 1210 1848 790
3 892 1660 1930
3 1348 204 652
3 1565 1290 863
3 1537 719 1523
3 1373 1735 705
3 1508 1095 1765
3 301 1108 570
3 1120 1127 849
3 1779 1126 579
3 1641 1921 1727
3 1138 1391 919
3 1605 634 636
3 578 1352 986
3 1000 1623 761
3 607 1011 641
3 480 1201 865
3 631 1063 715
3 736 1192 1706
3 1430 1505 1761
3 1325 583 434
3 475 1537 1523
3 81 82 524
3 304 303 361
3 481 1078 1883
3 1777 1089 408
3 86 87 765
3 1470 1054 1614
3 968 1801 1939
3 1111 1197 458
3 1787 1063 408
3 1207 475 1523
3 1564 1097 1816
3 1083 724 592
3 1666 802 1462
3 1384 409 1866
3 745 1767 1052
3 1316 633 763
3 1446 1467 905
3 1415 607 641
3 1017 376 705
3 444 39 733
3 1276 635 860
3 633 1542 763
3 185 186 814
3 1146 870 1798
3 1242 437 867
3 447 1239 752
3 692 1687 1708
3 1709 1372 1808
3 1183 1615 510
3 651 1659 1047
3 469 1131 1483
3 208 209 404
3 635 1607 860
3 806 1581 828
3 1106 471 740
3 659 1124 1332
3 350 1118 375
3 1108 301 962
3 835 1051 813
3 1223 654 581
3 795 1247 649
3 611 1002 929
3 1122 1769 833
3 1089 1777 474
3 702 1725 969
3 762 1521 405
3 1804 1376 1688
3 1595 406 1741
3 1175 1346 1844
3 105 462 522
3 1370 611 929
3 1090 454 378
3 1555 1277 1350
3 1192 565 1706
3 807 182 1109
3 816 1352 1776
3 931 1111 1940
3 1527 223 796
3 454 1090 364
3 1054 1470 533
3 452 1016 506
3 258 628 1724
3 1579 652 845
3 1745 753 943
3 1058 702 969
3 1210 483 578
3 539 730 1855
3 953 1392 1184
3 682 129 1639
3 1303 477 443
3 321 322 543
3 1331 1764 674
3 715 1787 1896
3 1777 1156 474
3 1846 1373 778
3 1565 1200 774
3 1514 1653 975
3 1246 366 922
3 347 48 691
3 1120 110 902
3 1334 549 664
3 333 334 645
3 336 337 646
3 1653 1368 792
3 1337 1685 1886
3 483 1210 790
3 1556 695 862
3 1181 1522 1661
3 1684 487 1091
3 357 1322 1261
3 530 135 1831
3 1224 717 1001
3 98 812 1638
3 811 170 1517
3 1290 764 1917
3 1362 1623 438
3 1085 555 718
3 1357 1823 780
3 28 269 0
3 528 1022 432
3 628 1222 449
3 1685 1337 894
3 36 587 533
3 1502 1842 1756
3 1564 1163 1721
3 722 1119 1148
3 1 89 950
3 1156 558 1869
3 1118 389 1358
3 113 114 555
3 5 168 784
3 100 2 939
3 179 6 951
3 1214 483 790
3 446 1479 506
3 429 24 1543
3 1479 446 604
3 389 1299 1358
3 1172 373 1268
3 270 740 1033
3 241 1678 879
3 1155 1547 1125
3 1218 573 397
3 561 1245 1836
3 1437 1745 1706
3 943 1123 1739
3 1277 1516 1350
3 366 1246 595
3 222 1527 485
3 708 308 663
3 1678 1055 879
3 1295 382 856
3 1495 1009 544
3 1467 755 544
3 1208 525 707
3 1139 587 837
3 577 314 582
3 391 1149 426
3 1546 362 610
3 1391 1023 683
3 1411 528 432
3 500 1314 724
3 498 1210 578
3 446 1514 604
3 1615 1206 510
3 925 1403 489
3 353 1340 1900
3 388 1231 1387
3 1234 1685 894
3 1852 1291 411
3 1547 1041 569
3 1137 454 985
3 1328 1196 449
3 535 1059 1651
3 730 1300 1855
3 1325 1799 1943
3 439 1496 1606
3 1536 384 438
3 1311 609 1698
3 1313 641 1643
3 329 330 786
3 167 5 784
3 2 101 939
3 417 31 714
3 159 433 556
3 1008 415 899
3 1522 1181 518
3 1390 831 352
3 590 1077 927
3 1623 1362 761
3 156 157 1594
3 1720 557 1343
3 759 1723 1692
3 1231 1781 941
3 555 114 718
3 1653 1514 938
3 1083 500 724
3 1782 1158 598
3 126 127 496
3 88 1 950
3 909 1375 1421
3 1033 1127 1339
3 795 1321 1656
3 396 42 411
3 4 141 921
3 296 508 729
3 351 119 400
3 1134 366 595
3 583 317 434
3 563 251 1130
3 188 189 410
3 765 1531 1689
3 6 180 951
3 1580 72 864
3 1806 91 885
3 1801 1313 375
3 1068 480 865
3 854 1042 1792
3 1308 394 986
3 1159 1839 465
3 369 1327 1129
3 833 1167 1699
3 918 1597 1103
3 563 1637 791
3 573 1410 397
3 177 1807 911
3 1278 451 824
3 1086 467 1830
3 1232 351 400
3 1687 692 1503
3 1159 430 747
3 1372 1709 868
3 952 1361 1507
3 931 1423 829
3 637 1392 1845
3 1666 567 487
3 1520 447 728
3 7 227 416
3 51 454 364
3 1504 920 1890
3 716 1019 887
3 1271 627 566
3 558 1156 1619
3 271 1541 1213
3 1464 716 887
3 1258 748 888
3 1460 1053 1045
3 1318 391 426
3 694 1608 393
3 226 7 416
3 15 1621 670
3 1633 11 819
3 1137 1846 778
3 1038 535 1753
3 1262 666 485
3 1084 1547 569
3 316 315 734
3 208 404 933
3 1797 909 1421
3 1392 554 1184
3 1633 1248 1304
3 1447 1621 1354
3 1321 517 608
3 1287 355 1879
3 626 1338 1832
3 1823 217 900
3 543 1736 1695
3 1592 1426 632
3 563 1048 1874
3 1840 388 1387
3 1536 694 393
3 1591 1460 1389
3 847 1143 1272
3 1048 563 791
3 9 1565 732
3 507 1191 789
3 1813 313 1105
3 567 1162 487
3 1078 371 1731
3 639 1395 540
3 413 247 760
3 571 1618 1035
3 1097 529 383
3 1053 1460 917
3 1522 1249 773
3 768 1705 1272
3 1277 524 704
3 503 1322 689
3 338 339 618
3 351 1298 412
3 359 1207 1871
3 956 442 1519
3 709 1361 907
3 1318 870 1070
3 1438 952 1507
3 384 1362 438
3 1460 1251 917
3 1126 1111 579
3 1373 560 778
3 1547 1084 878
3 475 1207 839
3 1143 596 1272
3 1637 415 436
3 488 1008 899
3 1444 503 689
3 1523 1588 1871
3 174 175 669
3 93 94 671
3 805 1289 1584
3 1328 1222 810
3 1229 768 1272
3 1183 1371 464
3 522 1720 1343
3 1435 1459 1042
3 1420 558 1619
3 673 1463 504
3 1569 464 1005
3 1289 356 1584
3 1848 1141 790
3 1502 892 1842
3 558 1442 1869
3 558 1420 476
3 1608 688 393
3 156 368 728
3 1142 377 753
3 766 1534 470
3 690 1499 1820
3 1580 1079 603
3 543 1060 1896
3 1628 1008 1412
3 1313 1801 968
3 98 99 812
3 169 170 811
3 1797 1421 1719
3 1781 1231 388
3 1619 1438 1894
3 866 1577 1861
3 309 1644 1007
3 1113 776 980
3 1840 1329 388
3 430 1159 465
3 1168 432 622
3 920 1247 1890
3 1806 1568 992
3 508 296 810
3 256 380 531
3 74 406 422
3 1059 535 1717
3 1048 679 1874
3 1009 767 1165
3 1199 1612 420
3 655 1677 1669
3 597 1215 749
3 331 653 1015
3 364 1090 1651
3 275 1516 1365
3 55 1735 908
3 1469 1807 1006
3 1823 1357 1838
3 371 1356 1731
3 28 29 981
3 329 1504 971
3 1055 588 829
3 398 1319 1552
3 111 1046 902
3 282 721 532
3 1207 513 839
3 1653 342 975
3 1173 647 1849
3 1605 848 1786
3 228 1544 842
3 611 193 820
3 1852 44 893
3 467 1153 394
3 1082 464 1528
3 1182 1781 956
3 134 135 530
3 1079 1580 771
3 591 1488 574
3 1846 54 908
3 1733 1518 1912
3 1101 1263 1786
3 1450 1504 786
3 495 1506 1944
3 439 1408 1274
3 1624 1089 474
3 704 275 1365
3 1038 523 1717
3 831 1512 352
3 564 1258 888
3 118 351 412
3 477 1265 1576
3 1400 656 356
3 1455 742 977
3 682 1346 484
3 738 18 934
3 1256 495 1944
3 1069 399 783
3 1202 430 880
3 580 1370 1716
3 197 614 1766
3 1709 754 1671
3 609 912 1698
3 1222 1328 449
3 513 305 547
3 45 1848 893
3 35 36 533
3 459 1154 932
3 1135 1813 1105
3 377 1142 781
3 1217 398 1552
3 779 1534 603
3 403 310 1007
3 1357 780 1845
3 787 345 518
3 1196 1592 632
3 18 299 934
3 268 269 981
3 1426 488 531
3 1736 1550 1102
3 1548 931 1940
3 1657 509 949
3 1265 392 410
3 1363 1535 937
3 1548 599 756
3 309 21 977
3 39 40 733
3 620 1169 876
3 1442 1624 1869
3 327 550 1911
3 1421 1616 1719
3 1544 1022 842
3 1565 9 1026
3 1553 417 714
3 709 907 1056
3 1127 1120 1339
3 588 1295 856
3 599 1164 756
3 736 1760 1843
3 1624 1442 1543
3 560 1151 778
3 407 117 412
3 1541 1033 1339
3 473 26 1854
3 1589 1806 885
3 1169 620 552
3 1073 1597 918
3 1254 370 840
3 1376 494 1625
3 1807 1585 911
3 848 1101 1786
3 67 1505 926
3 1664 548 871
3 675 1466 962
3 437 27 867
3 1541 270 1033
3 38 444 837
3 537 1434 1768
3 114 115 718
3 1250 1505 1750
3 220 666 358
3 742 1644 977
3 1424 373 521
3 1505 1430 1750
3 1430 1597 1750
3 1115 357 1261
3 430 1202 1938
3 1794 600 1888
3 1499 1112 1820
3 538 1450 786
3 1220 1628 857
3 1273 720 980
3 1191 1636 1632
3 317 316 434
3 614 197 499
3 936 1360 1923
3 456 1314 1647
3 1106 462 349
3 1014 421 969
3 348 1167 1128
3 1567 413 1868
3 1597 1073 386
3 494 1348 1625
3 27 345 787
3 1405 664 1785
3 283 282 532
3 1312 634 1110
3 746 1644 742
3 1524 1037 1763
3 246 413 1567
3 688 1177 393
3 371 1424 521
3 1773 1575 461
3 1242 744 606
3 1265 477 532
3 1371 1126 1005
3 519 1228 944
3 1593 1710 1905
3 1249 1522 429
3 433 1053 556
3 1136 365 1898
3 1853 153 752
3 1405 541 1915
3 430 1270 880
3 539 1215 730
3 524 1444 704
3 1459 298 1042
3 1355 571 1035
3 1199 1829 973
3 1424 371 481
3 1037 435 610
3 1518 851 1912
3 367 1704 1529
3 1296 1518 1730
3 1464 1567 1868
3 373 843 1268
3 392 1326 874
3 1329 1840 685
3 467 394 1830
3 379 1188 696
3 284 283 935
3 1281 670 1697
3 819 1100 1513
3 1016 452 606
3 185 814 1674
3 1206 1615 941
3 69 70 470
3 404 1556 933
3 1516 1277 1365
3 370 1760 840
3 801 1348 494
3 326 327 1911
3 1042 297 1792
3 435 1472 610
3 1531 1468 1261
3 1821 1341 1189
3 104 105 522
3 158 159 556
3 471 108 849
3 562 1055 829
3 560 1181 1661
3 628 1672 1724
3 1371 1183 1385
3 1201 480 816
3 1062 698 1828
3 610 362 1919
3 1031 1592 1742
3 1301 510 423
3 593 240 879
3 1127 471 849
3 1308 346 1830
3 348 936 1923
3 1418 878 1861
3 261 262 702
3 782 1122 833
3 409 1384 1928
3 1637 563 1130
3 421 1014 854
3 96 97 725
3 171 172 726
3 593 1055 567
3 1245 409 1928
3 310 309 1007
3 1530 1628 910
3 485 1527 990
3 1314 456 1655
3 346 1086 1830
3 493 1485 965
3 344 437 991
3 715 1060 1635
3 509 1599 949
3 196 197 1766
3 503 1444 967
3 1813 1135 1072
3 449 1196 1927
3 1298 407 412
3 1460 1045 1389
3 529 1278 858
3 916 260 988
3 1537 475 1913
3 1710 942 1905
3 1659 502 877
3 529 13 383
3 1086 346 925
3 852 1361 952
3 627 1199 1187
3 391 1318 1070
3 402 1146 1798
3 373 1424 843
3 1544 1000 622
3 748 1036 788
3 1054 553 1614
3 195 196 509
3 1216 403 1007
3 382 1295 1279
3 503 84 836
3 1498 350 1688
3 244 514 468
3 802 1337 1886
3 1450 538 584
3 295 1328 810
3 1003 402 1798
3 677 1039 1012
3 1084 866 1861
3 404 209 804
3 1628 1530 857
3 345 24 518
3 1532 782 833
3 583 1325 1943
3 193 194 820
3 1524 1502 948
3 1746 496 1465
3 462 1287 522
3 1322 357 536
3 415 253 899
3 30 417 883
3 1439 627 1187
3 107 471 349
3 1207 1523 1871
3 745 1278 824
3 1415 641 612
3 1192 736 1843
3 720 1032 980
3 428 1234 894
3 1307 360 1165
3 154 447 752
3 1502 1524 1763
3 1057 475 1822
3 365 1136 739
3 1119 490 817
3 641 1313 612
3 1390 686 831
3 266 418 984
3 418 267 890
3 1270 430 465
3 1316 365 739
3 1572 513 547
3 779 603 1669
3 1508 1123 1601
3 219 220 358
3 1142 473 1667
3 1085 718 1110
3 397 1410 809
3 1524 1208 1378
3 698 1353 1828
3 442 1329 649
3 1443 822 1770
3 1153 467 1889
3 439 1274 1934
3 1058 421 729
3 375 1118 1358
3 359 1425 940
3 201 202 526
3 61 398 1586
3 1208 1524 948
3 1082 847 966
3 439 200 989
3 318 1624 1543
3 406 74 1741
3 607 1414 1923
3 653 26 834
3 1205 1712 1751
3 812 1264 1638
3 1448 811 1517
3 1408 439 989
3 1197 931 829
3 510 1206 423
3 385 530 1831
3 1558 748 788
3 1291 1852 1789
3 21 308 708
3 354 1193 762
3 580 1716 1918
3 1074 350 1643
3 418 1342 431
3 1283 1535 1440
3 1291 396 411
3 620 1394 1931
3 1120 1121 1339
3 407 1298 658
3 1181 787 518
3 389 1118 1562
3 524 1277 903
3 1037 1524 1456
3 1202 620 1931
3 1413 387 1756
3 620 880 552
3 837 444 998
3 284 935 1892
3 1777 852 952
3 1302 364 1651
3 70 71 766
3 1243 582 913
3 242 243 751
3 81 524 903
3 1592 1196 832
3 163 164 758
3 213 554 1526
3 1098 418 431
3 1773 1349 1627
3 1438 865 1894
3 1852 1210 1789
3 1237 377 781
3 661 1491 1870
3 380 1426 531
3 1322 503 836
3 838 1024 1025
3 325 326 466
3 380 1672 1927
3 1338 625 450
3 269 28 981
3 197 198 499
3 1686 1650 1152
3 1347 407 1826
3 718 1347 1110
3 373 1172 540
3 582 1813 913
3 785 1386 494
3 365 1316 763
3 1101 848 1917
3 1396 561 1836
3 1218 389 1559
3 1398 814 930
3 1174 413 1252
3 298 1459 1431
3 403 1372 868
3 211 212 710
3 397 809 1497
3 254 488 899
3 244 245 514
3 1540 505 1902
3 769 1174 1252
3 1087 1527 1492
3 421 1058 969
3 1406 543 1896
3 1581 806 1140
3 669 175 455
3 263 264 891
3 93 671 808
3 608 1645 1837
3 398 61 853
3 1386 801 494
3 26 332 1854
3 822 1560 1770
3 1338 626 625
3 664 1677 1785
3 1055 593 879
3 1234 428 1732
3 278 277 1549
3 42 43 411
3 1045 286 1389
3 50 51 364
3 537 693 1788
3 586 66 926
3 701 1709 1808
3 1395 505 1540
3 1055 562 567
3 442 1388 1519
3 1485 493 1152
3 848 1409 1917
3 63 64 633
3 524 82 967
3 306 602 372
3 48 49 691
3 814 1326 930
3 847 1705 966
3 1222 508 810
3 1383 404 804
3 373 1395 521
3 113 555 1722
3 205 206 845
3 703 1031 1412
3 247 248 760
3 1346 682 1639
3 139 140 414
3 768 1840 1387
3 310 403 868
3 1402 507 789
3 1839 1366 700
3 721 1265 532
3 658 1298 1012
3 346 1308 1901
3 1039 677 478
3 1386 526 801
3 1139 675 1401
3 305 513 1253
3 1391 713 919
3 204 205 652
3 235 546 983
3 526 202 801
3 1073 549 386
3 1247 442 649
3 1553 490 1897
3 1338 450 1811
3 1496 439 1934
3 1145 767 769
3 1239 615 896
3 130 131 401
3 517 1190 1726
3 65 66 586
3 1144 741 954
3 605 1404 777
3 1262 485 990
3 1245 741 492
3 587 1054 533
3 712 1379 1847
3 1423 562 829
3 741 1144 492
3 1237 717 1436
3 387 1208 948
3 1757 838 1025
3 601 1155 1125
3 1693 659 1294
3 1040 936 697
3 1239 447 1933
3 1360 607 1923
3 482 1572 547
3 659 1255 1294
3 878 1084 1861
3 147 501 1233
3 382 1019 1189
3 1003 346 970
3 484 1515 1872
3 460 302 1909
3 209 210 804
3 377 1237 1436
3 1533 776 469
3 311 868 1671
3 4 692 1708
3 396 1291 660
3 1314 500 1647
3 495 1256 907
3 406 1473 422
3 764 1478 1937
3 699 1411 432
3 996 477 1576
3 1539 1679 1091
3 1301 423 974
3 854 1435 1042
3 500 1039 1942
3 868 1709 1671
3 72 73 864
3 73 74 422
3 1341 382 1189
3 281 280 818
3 936 1769 697
3 571 1144 712
3 323 324 770
3 647 1147 821
3 1284 517 1726
3 664 1405 1915
3 767 1009 769
3 1312 1110 1826
3 993 571 712
3 1136 542 1925
3 501 1616 1421
3 1410 519 944
3 240 241 879
3 1319 398 853
3 1057 605 777
3 1650 807 1109
3 1061 486 1317
3 993 576 545
3 1352 480 723
3 1069 1839 700
3 1375 501 1421
3 717 1710 1436
3 576 1333 545
3 1672 449 1927
3 1356 371 1540
3 1799 358 1943
3 1436 1710 1604
3 576 1607 1670
3 635 1136 1898
3 1531 765 1468
3 174 669 616
3 671 94 898
3 1478 511 1937
3 576 1670 1859
3 735 1600 974
3 1258 648 360
3 13 284 383
3 1408 526 678
3 1596 557 1315
3 759 1309 1050
3 1760 736 1739
3 747 430 1938
3 1157 647 821
3 1490 583 1943
3 1437 653 834
3 573 1218 826
3 484 1175 1515
3 1420 1619 1894
3 639 1418 1275
3 1263 479 1786
3 414 1687 1225
3 479 1044 1786
3 1800 1829 1893
3 319 320 472
3 1088 762 405
3 695 1383 448
3 1163 505 1721
3 146 1233 1842
3 498 1291 1789
3 355 1287 818
3 17 296 729
3 555 1491 1722
3 1139 837 998
3 526 1386 678
3 542 1664 1925
3 365 763 1670
3 763 1096 1670
3 362 1546 1762
3 1416 668 1711
3 399 1069 700
3 743 25 1015
3 433 160 963
3 954 741 1906
3 442 1247 920
3 1146 638 1070
3 738 1139 1401
3 1017 568 945
3 1210 498 1789
3 265 266 984
3 1002 390 929
3 292 291 1856
3 1411 699 1492
3 686 1194 831
3 302 301 570
3 1369 906 1578
3 728 368 1150
3 1499 682 484
3 466 326 1911
3 505 1449 1721
3 1014 367 1230
3 823 63 633
3 447 1520 1933
3 19 460 489
3 1527 1087 990
3 638 1043 1070
3 223 224 796
3 421 17 729
3 385 1283 1737
3 581 1596 1315
3 1309 813 1050
3 1479 452 506
3 1197 588 856
3 673 504 1876
3 359 940 1253
3 763 1542 1282
3 237 238 802
3 850 1482 1802
3 1226 798 1440
3 1369 1578 1427
3 398 1353 1586
3 175 176 455
3 799 1178 1627
3 776 1273 980
3 554 213 1184
3 249 679 815
3 92 93 808
3 418 1098 984
3 155 156 728
3 727 1018 1788
3 580 191 559
3 1426 380 632
3 1588 737 1871
3 1088 608 1166
3 25 331 1015
3 1168 699 432
3 645 1613 1878
3 628 259 916
3 1493 586 926
3 924 1646 1027
3 255 256 531
3 471 1106 349
3 1227 639 1275
3 1214 790 1908
3 202 203 801
3 508 1058 729
3 1666 593 567
3 379 696 1481
3 475 1057 777
3 1520 728 1150
3 600 149 1888
3 515 1104 1020
3 119 120 400
3 756 1423 931
3 827 1308 723
3 1414 607 1800
3 1817 1226 1440
3 648 1258 564
3 656 122 897
3 1506 495 961
3 1278 745 1052
3 1249 558 476
3 463 184 1674
3 514 1480 468
3 493 1292 1152
3 699 1087 1492
3 708 1488 453
3 1244 646 1891
3 277 276 536
3 307 306 372
3 501 1375 1914
3 469 1180 1922
3 1455 708 453
3 1203 651 955
3 1613 1066 1878
3 1021 735 974
3 553 1259 1614
3 999 1618 1867
3 1539 687 1679
3 117 118 412
3 1086 460 1320
3 710 212 1526
3 1563 467 1320
3 881 1161 1791
3 428 1024 1877
3 1453 727 1788
3 184 185 1674
3 635 1276 976
3 940 16 1253
3 606 1702 1833
3 501 147 1610
3 273 9 732
3 29 30 883
3 1616 501 1610
3 1133 527 1945
3 317 583 947
3 566 627 1827
3 1178 997 1627
3 413 1174 1868
3 267 268 890
3 584 538 1590
3 357 1680 1549
3 798 1283 1440
3 1206 941 1171
3 895 1546 610
3 1349 799 1627
3 1100 819 869
3 583 1490 947
3 289 288 625
3 96 725 381
3 726 172 886
3 520 1211 927
3 1296 459 1293
3 1031 910 1412
3 1472 895 610
3 128 682 690
3 1608 694 983
3 1188 379 1574
3 363 1374 1578
3 1618 545 1867
3 1602 916 988
3 236 1886 1814
3 33 34 882
3 609 1143 912
3 149 600 889
3 1668 1244 1891
3 1745 736 1706
3 651 1715 955
3 546 235 1814
3 1211 520 958
3 1243 577 582
3 1346 401 1844
3 1156 952 1619
3 340 341 1286
3 647 1300 1849
3 308 307 663
3 1629 1359 1140
3 1153 498 578
3 486 125 1317
3 212 213 1526
3 907 1361 852
3 358 1490 1943
3 679 249 1874
3 1506 638 1944
3 526 1408 989
3 602 1262 990
3 1287 731 818
3 385 1114 1728
3 681 1743 994
3 670 1281 873
3 656 1240 356
3 1355 549 1020
3 525 1612 1899
3 1548 756 931
3 399 1399 1850
3 901 1116 1841
3 477 1303 935
3 296 295 810
3 1444 524 967
3 1149 605 426
3 250 563 1874
3 539 1061 987
3 1217 871 1538
3 1009 648 544
3 437 1479 991
3 1081 361 1170
3 467 1086 1320
3 549 1334 1020
3 851 1512 1912
3 509 196 1766
3 1053 794 1045
3 201 526 989
3 620 1202 880
3 160 161 963
3 1036 748 441
3 629 1013 1359
3 1255 525 1294
3 1175 618 1515
3 286 285 1389
3 1679 1684 1091
3 490 1119 1897
3 615 1080 896
3 708 1455 977
3 589 1155 1802
3 776 1131 469
3 361 1081 482
3 435 1433 667
3 1352 723 986
3 941 1781 1171
3 562 1162 567
3 1087 602 990
3 1085 634 1044
3 277 536 1549
3 1439 968 1827
3 1157 539 1855
3 785 494 1804
3 1485 424 965
3 645 1226 1613
3 1096 763 1282
3 539 1157 644
3 1292 1686 1152
3 713 1446 905
3 37 38 837
3 1181 376 828
3 1172 601 1125
3 1240 656 897
3 362 1660 1919
3 1682 1560 1554
3 653 1093 1015
3 1178 646 1244
3 1227 824 1916
3 33 882 1924
3 1374 363 1904
3 313 312 1105
3 1705 768 1387
3 1520 615 1933
3 781 1142 1667
3 1061 539 644
3 1425 585 940
3 702 262 1809
3 486 1061 644
3 483 1214 1776
3 301 300 962
3 666 1490 358
3 711 1657 949
3 1406 472 1884
3 659 1693 909
3 513 1572 839
3 1017 945 806
3 1715 542 976
3 1414 1800 1893
3 1468 1115 1261
3 725 97 1638
3 171 726 1517
3 361 303 1344
3 553 1054 934
3 108 109 849
3 413 760 1252
3 867 1581 1140
3 84 85 836
3 585 294 940
3 591 1000 761
3 1842 1413 1756
3 491 1285 960
3 1215 597 730
3 615 1239 1933
3 363 1429 1904
3 605 1149 932
3 1099 469 1922
3 1616 600 1719
3 1685 546 1814
3 138 139 937
3 163 758 922
3 322 323 1550
3 1236 713 905
3 605 1057 426
3 739 1136 1925
3 513 359 1253
3 627 1439 1827
3 672 265 984
3 640 1041 1768
3 871 1454 1538
3 248 249 815
3 751 243 468
3 1363 414 1225
3 131 132 461
3 762 1088 1738
3 689 276 1219
3 221 222 485
3 731 281 818
3 1089 472 1714
3 1745 943 1739
3 1372 403 1796
3 463 1485 844
3 1646 631 715
3 502 1099 1922
3 1248 654 1304
3 835 1447 1354
3 490 1259 1865
3 1245 492 1836
3 689 1322 536
3 1381 410 1397
3 654 1364 1304
3 1696 835 1354
3 492 1104 1836
3 600 1018 1719
3 1306 575 954
3 234 235 983
3 1021 701 1808
3 1362 591 761
3 718 115 1747
3 1081 680 482
3 122 123 897
3 575 1379 954
3 564 1236 905
3 875 1251 1749
3 1215 539 987
3 1266 374 971
3 281 731 1683
3 551 1408 678
3 1018 537 1788
3 374 328 971
3 260 261 988
3 727 1797 1719
3 142 362 1762
3 536 357 1549
3 634 1605 1044
3 775 1424 481
3 1623 772 438
3 138 937 1566
3 1801 375 1358
3 1441 734 1791
3 1307 1205 1751
3 577 1243 684
3 565 1192 1691
3 440 739 1925
3 311 310 868
3 1185 379 1477
3 607 1415 1800
3 648 1009 360
3 21 708 977
3 1162 562 1471
3 8 281 1683
3 472 1406 1714
3 1395 639 1805
3 423 1021 974
3 631 1176 961
3 472 320 1884
3 824 451 1916
3 461 132 1609
3 1767 875 1749
3 1114 385 1737
3 779 1073 918
3 1177 746 742
3 549 1355 1035
3 145 146 1842
3 355 1223 1879
3 1051 626 1832
3 1568 950 992
3 895 1472 1819
3 1134 433 963
3 758 164 1692
3 1558 788 859
3 1472 665 1819
3 1011 551 1946
3 1370 580 559
3 276 10 1219
3 1763 1037 1919
3 475 777 1913
3 1664 871 1895
3 1352 483 1776
3 475 839 1822
3 1825 1092 1667
3 807 1650 1686
3 951 1469 1006
3 1347 718 1747
3 1577 745 824
3 1155 601 1802
3 588 1197 829
3 17 421 1792
3 20 317 947
3 1370 929 1716
3 685 1486 649
3 674 1764 1889
3 1144 571 1815
3 395 1200 1034
3 227 228 842
3 680 1572 482
3 546 1608 983
3 236 237 1886
3 391 1043 1812
3 733 40 1622
3 788 1404 859
3 1334 664 1915
3 1383 861 448
3 249 250 1874
3 224 225 1774
3 600 1616 889
3 60 61 1586
3 551 1360 1903
3 455 176 911
3 1151 560 1661
3 1659 877 1833
3 92 808 885
3 1361 709 1507
3 677 1232 478
3 1266 795 1656
3 554 1330 1929
3 1041 537 1768
3 1712 441 1751
3 642 1081 1170
3 1408 551 1274
3 1024 687 1025
3 95 96 381
3 172 173 886
3 609 1311 1734
3 734 1377 1791
3 1138 841 928
3 1725 702 1809
3 562 1423 1471
3 1428 601 1268
3 1386 785 1946
3 1490 706 947
3 507 1306 594
3 1351 804 1920
3 161 366 963
3 1388 1682 1554
3 505 1395 1805
3 153 154 752
3 688 1732 1583
3 850 1428 369
3 707 525 1899
3 401 1575 1844
3 826 1419 1858
3 653 1437 1936
3 599 1548 1385
3 1160 792 657
3 775 1327 1881
3 832 1425 1742
3 444 1466 998
3 720 3 1820
3 571 1355 1815
3 1138 928 946
3 682 1499 690
3 1585 455 911
3 960 1285 978
3 808 1589 885
3 1404 605 1818
3 149 150 1888
3 370 1254 1257
3 1358 1299 1939
3 904 1066 1817
3 312 491 1105
3 144 145 892
3 735 1021 1808
3 74 75 1741
3 565 1093 1936
3 993 712 1847
3 1021 423 1784
3 748 1558 888
3 80 81 903
3 173 174 616
3 94 95 898
3 1204 695 448
3 1097 383 1816
3 339 340 1179
3 1527 796 1492
3 435 667 1873
3 1441 434 734
3 443 1564 1816
3 276 689 536
3 78 79 613
3 546 1234 1707
3 44 45 893
3 146 147 1233
3 379 1501 1477
3 755 1467 1880
3 1208 707 1378
3 929 1771 1716
3 882 1461 1924
3 713 1236 919
3 400 120 1630
3 395 1169 552
3 1404 788 1004
3 1424 775 1881
3 1816 383 1892
3 394 1308 1830
3 1068 865 1507
3 634 1085 1110
3 225 528 1774
3 456 1289 805
3 1016 606 1833
3 3 128 690
3 1629 629 1359
3 1511 456 805
3 416 227 842
3 191 192 559
3 408 1089 1714
3 1434 640 1768
3 403 1216 1796
3 1367 826 1858
3 408 1063 852
3 1534 766 603
3 253 254 899
3 802 238 1462
3 414 140 1708
3 1649 456 1647
3 687 1600 1025
3 76 77 512
3 287 286 1045
3 217 218 900
3 1274 1040 1934
3 1488 663 574
3 766 1580 603
3 865 1438 1507
3 675 1139 998
3 1592 832 1742
3 110 111 902
3 791 1220 1926
3 1022 416 842
3 1476 493 1856
3 1611 755 1834
3 1111 458 579
3 1857 1432 1900
3 1687 414 1708
3 1019 716 1793
3 614 1599 1766
3 858 1278 1052
3 550 1321 1837
3 54 55 908
3 1303 443 1816
3 1536 772 1775
3 535 1038 1717
3 1403 642 1170
3 863 1409 1034
3 1608 546 1707
3 1591 858 1052
3 857 1712 1205
3 663 1500 574
3 1466 675 998
3 647 1157 1855
3 629 1629 945
3 1183 599 1385
3 1093 653 1936
3 688 1234 1732
3 870 1146 1070
3 1522 518 429
3 176 177 911
3 91 92 885
3 1777 408 852
3 213 214 1184
3 186 187 874
3 1145 769 1252
3 1243 681 684
3 1233 1413 1842
3 750 1701 1863
3 130 401 1639
3 864 73 422
3 1415 612 1187
3 1300 647 1855
3 601 1172 1268
3 1668 793 997
3 748 1258 441
3 800 1185 1477
3 1310 747 1938
3 1482 589 1802
3 543 1406 1884
3 162 163 922
3 1271 707 1899
3 1459 553 1431
3 148 149 889
3 487 1162 1091
3 648 1467 544
3 1079 655 1669
3 1381 580 1918
3 1200 863 1034
3 675 300 1401
3 744 1702 606
3 1642 733 1622
3 1598 590 927
3 886 173 616
3 95 381 898
3 1459 817 1865
3 1270 465 915
3 458 1341 579
3 679 1145 815
3 698 59 757
3 643 1215 987
3 619 1194 1835
3 473 1825 1667
3 1297 800 1477
3 740 1127 1033
3 457 1029 1880
3 293 292 965
3 1039 478 1942
3 294 16 940
3 1645 550 1837
3 1410 944 809
3 1235 353 1900
3 1787 408 1714
3 207 208 933
3 1078 711 949
3 952 1438 1619
3 414 1363 937
3 1054 738 934
3 1220 857 1205
3 1321 550 1656
3 229 230 621
3 407 658 1826
3 1801 1358 1939
3 1141 624 1908
3 1514 446 419
3 594 1384 1866
3 1148 1119 1267
3 694 1536 1775
3 550 327 374
3 693 1453 1788
3 804 210 1920
3 106 107 349
3 1607 635 1898
3 1080 615 1510
3 681 1195 684
3 755 1029 1834
3 367 1148 1267
3 553 934 1431
3 22 754 1198
3 1342 722 431
3 1121 661 511
3 806 1629 1140
3 333 645 1878
3 1732 1422 1583
3 61 62 853
3 401 1346 1639
3 139 414 937
3 1433 707 572
3 1636 594 1866
3 1357 953 1838
3 642 1403 1658
3 646 337 1891
3 595 1246 450
3 1209 440 1552
3 707 1271 572
3 1360 936 1903
3 1534 779 918
3 1131 446 1483
3 10 704 1219
3 704 1444 1219
3 321 543 1884
3 716 1174 1561
3 814 186 874
3 1306 954 1906
3 1446 457 1880
3 619 1284 1726
3 1284 619 1835
3 1094 906 855
3 1235 850 369
3 1646 715 1635
3 938 1514 419
3 401 131 461
3 434 316 734
3 300 18 1401
3 688 1608 1707
3 3 720 1465
3 716 1464 1868
3 683 1023 504
3 836 85 1689
3 1575 401 461
3 1298 677 1012
3 235 236 1814
3 1558 841 888
3 282 12 1458
3 300 675 962
3 944 1416 809
3 792 1368 657
3 678 1386 1946
3 906 1369 855
3 1251 875 1150
3 1353 698 757
3 1463 683 504
3 1194 686 1835
3 1340 420 1857
3 1182 956 1519
3 754 1285 1198
3 14 287 1117
3 1161 637 1845
3 104 522 1343
3 1457 568 1907
3 1098 431 1148
3 410 189 1397
3 1572 680 1822
3 642 1003 1798
3 1886 1685 1814
3 470 1430 1761
3 538 1654 1590
3 1003 642 1658
3 1106 740 1683
3 1260 681 994
3 69 470 1761
3 1743 901 1691
3 822 1182 1554
3 841 1236 888
3 1036 719 1004
3 687 1024 1679
3 31 32 714
3 680 1057 1822
3 1234 688 1707
3 1017 705 1907
3 945 1629 806
3 1153 578 986
3 379 1185 1574
3 1817 1066 1613
3 550 1645 1911
3 1277 704 1365
3 327 328 374
3 1174 716 1868
3 1220 1205 1926
3 1008 703 1412
3 907 1256 1056
3 1319 1209 1552
3 144 892 1930
3 446 1131 419
3 125 126 1317
3 1143 847 1528
3 568 1017 1907
3 1577 824 1275
3 1611 716 1561
3 719 1537 1004
3 261 702 988
3 147 148 1610
3 1222 628 1910
3 464 1371 1005
3 1236 564 888
3 811 1448 813
3 1264 812 581
3 1316 823 633
3 754 1443 1770
3 884 995 515
3 602 306 1280
3 1532 775 481
3 850 1235 1487
3 934 299 1431
3 719 1036 1407
3 686 1284 1835
3 1048 791 1926
3 1546 921 1762
3 938 1113 1551
3 1032 720 1820
3 1236 841 919
3 787 1181 828
3 696 1188 1238
3 342 343 975
3 1334 884 515
3 827 1617 1901
3 1384 741 1928
3 1482 850 1487
3 741 1245 1928
3 328 329 971
3 1668 997 1244
3 1712 857 1407
3 754 22 1671
3 1114 798 1863
3 82 83 967
3 450 1246 1811
3 1300 730 1632
3 624 1214 1908
3 973 1829 1800
3 1158 1593 1905
3 821 1147 1584
3 1617 709 1056
3 1285 754 1770
3 76 512 1780
3 1364 355 1675
3 626 1696 1445
3 1240 821 1584
3 496 1061 1317
3 1563 570 1690
3 937 1535 1566
3 1080 866 896
3 390 1356 1902
3 1260 994 1843
3 66 67 926
3 701 1021 1784
3 772 1536 438
3 489 1403 1344
3 1237 781 1503
3 604 1514 975
3 1030 1436 1604
3 716 1611 1793
3 78 613 1860
3 532 477 935
3 22 311 1671
3 1284 686 1166
3 1030 377 1436
3 518 24 429
3 1428 843 1881
3 87 88 1345
3 585 1425 832
3 1581 787 828
3 639 1227 1805
3 1382 1251 1150
3 1179 340 1286
3 1093 743 1015
3 914 1301 974
3 1525 566 855
3 512 77 1860
3 168 169 1075
3 99 100 1755
3 259 260 916
3 141 142 1762
3 1379 860 1847
3 1326 721 1458
3 1194 673 1876
3 24 318 1543
3 566 1094 855
3 618 339 1179
3 613 79 1887
3 1631 886 616
3 381 1634 898
3 705 1457 1907
3 1028 862 1858
3 166 167 1324
3 101 102 1759
3 1773 461 1609
3 80 903 1887
3 799 1349 1728
3 1144 954 712
3 721 282 1458
3 954 1379 712
3 127 3 1465
3 56 57 650
3 686 1390 1738
3 760 248 815
3 1660 1763 1919
3 1645 405 466
3 1320 460 1909
3 1587 696 1238
3 862 1367 1858
3 877 1016 1833
3 1258 360 1751
3 923 1135 1729
3 1425 737 1742
3 527 1034 1945
3 530 385 1728
3 707 1433 1378
3 405 1521 466
3 1163 390 1902
3 841 1558 928
3 824 1227 1275
3 1758 783 1850
3 305 304 547
3 841 1138 919
3 1433 572 667
3 717 1237 1001
3 46 47 979
3 1563 1320 1909
3 592 1694 958
3 1090 1753 1651
3 306 20 1280
3 731 1106 1683
3 814 1398 1674
3 772 232 1775
3 621 230 1557
3 706 20 947
3 353 1570 1893
3 59 60 757
3 287 794 1117
3 1558 859 928
3 16 305 1253
3 1589 623 445
3 572 1525 667
3 299 298 1431
3 52 53 985
3 625 288 450
3 200 201 989
3 978 1285 1770
3 1404 1004 1913
3 20 706 1280
3 871 1217 1895
3 136 137 617
3 243 244 468
3 1479 604 991
3 1368 938 1551
3 1501 379 1481
3 1681 917 1382
3 709 1068 1507
3 1487 1432 1332
3 1232 534 478
3 133 134 662
3 803 1585 982
3 182 183 1109
3 1034 1409 1945
3 151 152 1323
3 298 297 1042
3 1443 701 1875
3 732 1565 774
3 9 272 1026
3 1113 938 419
3 720 1746 1465
3 928 1154 946
3 514 245 1567
3 878 1172 1125
3 1597 999 1750
3 999 1250 1750
3 424 293 965
3 273 732 1810
3 861 1740 448
3 557 1596 1759
3 1309 759 1324
3 245 246 1567
3 180 181 1676
3 1494 732 774
3 112 113 1722
3 232 233 1775
3 736 1745 1739
3 312 22 1198
3 1482 1487 1332
3 1754 395 1862
3 1013 744 1359
3 882 34 1935
3 1119 722 1897
3 714 32 1924
3 1145 760 815
3 394 1153 986
3 1654 743 1841
3 613 1641 1860
3 1753 535 1651
3 1560 978 1770
3 1135 960 1729
3 1112 1032 1820
3 783 1494 1665
3 534 1649 478
3 859 1154 928
3 1321 608 1837
3 1542 586 1282
3 994 1743 1691
3 1177 688 1583
3 1037 610 1919
3 1064 352 1545
3 1126 497 1005
3 711 1078 1731
3 1589 808 1582
3 818 280 1675
3 1480 514 887
3 848 1605 636
3 740 8 1683
3 514 1464 887
3 97 98 1638
3 170 171 1517
3 1580 864 771
3 1372 735 1808
3 1555 613 1887
3 1418 639 540
3 1526 554 1929
3 1071 1526 1929
3 233 694 1775
3 915 1069 1665
3 873 1281 803
3 102 557 1759
3 759 166 1324
3 343 604 975
3 1805 1227 1916
3 68 69 1761
3 737 1031 1742
3 746 1177 1583
3 1197 856 458
3 1281 669 1474
3 857 1530 1407
3 1560 822 1554
3 1100 869 623
3 1154 859 1818
3 332 333 1878
3 1511 805 1186
3 722 1553 1897
3 805 1147 1186
3 1754 915 1665
3 1422 746 1583
3 864 1473 771
3 1444 689 1219
3 297 17 1792
3 1340 1857 1900
3 337 338 1891
3 1135 491 960
3 103 104 1343
3 164 165 1692
3 971 1504 1890
3 1568 765 1345
3 917 1251 1382
3 238 239 1462
3 35 533 1935
3 1133 848 636
3 283 532 935
3 302 570 1909
3 725 1248 1288
3 1447 726 1221
3 817 490 1865
3 765 87 1345
3 823 1316 1209
3 1398 463 1674
3 1464 514 1567
3 541 1394 1864
3 765 1568 1468
3 1579 959 516
3 877 502 1922
3 85 86 1689
3 1266 971 1890
3 1617 970 1901
3 767 1048 1165
3 1114 799 1728
3 603 1079 1669
3 251 252 1130
3 151 1323 1241
3 760 1145 1252
3 504 1733 1876
3 1283 798 1737
3 959 1498 516
3 783 399 1850
3 798 1452 1863
3 1189 1019 1793
3 1263 764 1937
3 726 886 1221
3 381 725 1288
3 869 1680 623
3 386 1618 999
3 669 1281 1697
3 1100 671 1513
3 497 1569 1005
3 623 1589 1582
3 386 549 1035
3 1597 386 999
3 1160 657 1872
3 272 271 1824
3 40 41 1622
3 650 57 1795
3 751 468 1703
3 1071 710 1526
3 1473 864 422
3 350 375 1643
3 1228 668 944
3 120 121 1630
3 623 1680 445
3 1319 823 1209
3 1611 1834 1793
3 794 1134 1117
3 189 190 1397
3 1138 946 957
3 612 1439 1187
3 741 1384 1906
3 1512 851 1545
3 732 1494 1810
3 435 1037 1456
3 1470 882 1935
3 1476 873 803
3 586 1493 1282
3 700 1366 1727
3 1351 710 1067
3 1309 811 813
3 812 1596 581
3 352 1512 1545
3 320 321 1884
3 1834 1821 1793
3 1525 855 1744
3 75 76 1780
3 1069 783 1665
3 1094 566 1827
3 115 116 1747
3 1781 388 956
3 668 1416 944
3 491 312 1198
3 198 199 1606
3 479 1085 1044
3 671 1100 1582
3 1214 816 1776
3 194 195 1212
3 1326 814 874
3 1303 1816 1892
3 492 1144 1815
3 807 1469 1676
3 710 1071 1067
3 230 231 1557
3 1469 807 1686
3 1124 589 1332
3 674 1563 1690
3 598 1158 1905
3 1331 674 1690
3 855 1369 1744
3 570 1108 1690
3 126 496 1317
3 1821 1189 1793
3 289 625 1445
3 257 258 1724
3 1618 386 1035
3 973 1415 1187
3 1476 803 982
3 143 144 1930
3 1356 1540 1902
3 140 4 1708
3 1382 368 1594
3 210 211 1920
3 1555 1350 1921
3 1432 1487 1900
3 796 224 1774
3 652 1579 1625
3 589 1482 1332
3 150 151 1241
3 946 1296 957
3 77 78 1860
3 932 1154 1818
3 1725 891 1713
3 134 530 662
3 506 1180 1483
3 994 1192 1843
3 1570 1778 1893
3 1295 751 1703
3 617 137 1566
3 32 33 1924
3 533 1470 1935
3 557 1720 1315
3 1723 759 1050
3 922 758 1811
3 137 138 1566
3 1499 484 1872
3 1285 491 1198
3 596 1229 1272
3 129 130 1639
3 79 80 1887
3 132 133 1609
3 775 1532 1699
3 133 662 1609
3 692 1603 1001
3 1071 825 1067
3 136 617 1831
3 262 263 1809
3 1681 1382 1594
3 57 58 1795
3 788 1036 1004
3 34 35 1935
3 798 1114 1737
3 866 1640 896
3 1029 755 1880
3 455 1585 1474
3 183 844 1109
3 399 700 1727
3 669 455 1474
3 1135 923 1072
3 169 811 1075
3 812 99 1755
3 825 1071 1929
3 1579 845 1132
3 1043 391 1070
3 825 1107 1067
3 366 1134 963
3 773 1151 1661
3 323 770 1550
3 561 1314 1655
3 135 136 1831
3 1074 785 1804
3 388 1329 956
3 181 807 1676
3 1391 683 1734
3 964 1419 1573
3 758 1338 1811
3 1716 996 1918
3 456 1511 1655
3 1478 846 1824
3 528 1411 1774
3 692 1237 1503
3 263 891 1809
3 1160 1179 1286
3 1677 779 1669
3 1662 1574 1673
3 616 669 1697
3 671 898 1513
3 1092 781 1667
3 1165 1048 1926
3 826 1218 1559
3 1498 959 964
3 470 1534 1103
3 889 1616 1610
3 794 287 1045
3 1329 685 649
3 1711 1508 1765
3 959 1028 964
3 811 1309 1075
3 1596 812 1755
3 1076 960 978
3 625 626 1445
3 1192 994 1691
3 657 1368 1112
3 1363 904 1817
3 1028 959 1132
3 661 1870 1937
3 1430 470 1103
3 1547 878 1125
3 1433 435 1456
3 1600 914 974
3 457 1380 1626
3 1411 796 1774
3 1870 1263 1937
3 491 1135 1105
3 1267 1435 1230
3 817 1435 1267
3 785 1011 1946
3 921 141 1762
3 968 1439 612
3 18 738 1401
3 1313 968 612
3 1076 584 1590
3 1515 1160 1872
3 792 1160 1286
3 1237 692 1001
3 936 1040 1903
3 875 1767 1510
3 796 1411 1492
3 782 1532 1883
3 910 1628 1412
3 1599 509 1766
3 1242 867 1140
3 667 1525 1744
3 784 168 1075
3 100 939 1755
3 1010 667 1744
3 696 1195 1481
3 790 1141 1908
3 1223 581 1315
3 813 1051 1050
3 1147 805 1584
3 237 802 1886
3 978 1560 1682
3 1098 672 984
3 942 1224 1819
3 1336 942 1819
3 1119 817 1267
3 1409 863 1917
3 1134 595 1117
3 904 1363 1225
3 820 194 1212
3 880 1270 552
3 478 1649 1942
3 1530 719 1407
3 1092 904 1225
3 672 1098 1529
3 1491 479 1870
3 1052 1767 1749
3 845 1652 1132
3 516 1376 1625
3 657 1499 1872
3 167 784 1324
3 939 101 1759
3 1654 923 1729
3 891 1725 1809
3 843 1428 1268
3 822 1443 1875
3 1478 1213 1885
3 1499 657 1112
3 793 1575 997
3 1663 822 1875
3 859 1404 1818
3 88 950 1345
3 570 1563 1909
3 1732 428 1877
3 1231 966 1387
3 511 1478 1885
3 966 1705 1387
3 1522 773 1661
3 1416 1711 1765
3 1532 481 1883
3 1704 672 1529
3 1112 1368 1551
3 1624 474 1869
3 863 1290 1917
3 1348 652 1625
3 1349 530 1728
3 355 818 1675
3 1657 820 1212
3 1607 576 1847
3 1435 854 1230
3 1110 1347 1826
3 1705 847 1272
3 272 846 1026
3 860 1607 1847
3 739 440 1209
3 808 671 1582
3 493 965 1856
3 912 1380 1698
3 195 509 1212
3 494 1376 1804
3 1299 906 1939
3 1224 895 1819
3 865 1201 1894
3 1748 943 1604
3 1472 435 1873
3 1422 1732 1877
3 1308 827 1901
3 1173 1849 1866
3 1393 1635 1695
3 1032 1112 1551
3 667 1010 1873
3 665 1336 1819
3 1702 1047 1833
3 1591 1052 1749
3 479 1263 1870
3 1350 1399 1921
3 1449 505 1805
3 383 284 1892
3 1579 516 1625
3 370 1260 1843
3 943 1030 1604
3 1149 391 1812
3 1437 1706 1936
3 1333 676 1851
3 530 1349 662
3 1585 803 1474
3 509 1657 1212
3 1706 565 1936
3 1849 1636 1866
3 1575 793 1844
3 1578 1374 1427
3 892 145 1842
3 1700 1475 1931
3 854 1014 1230
3 371 521 1540
3 959 1579 1132
3 838 1422 1877
3 1024 838 1877
3 906 1299 1578
3 935 1303 1892
3 1783 1662 1673
3 1419 826 1559
3 1596 939 1759
3 784 1309 1324
3 375 1313 1643
3 1449 1805 1916
3 613 1555 1921
3 1162 1471 1091
3 1532 833 1699
3 1636 1849 1632
3 1573 1419 1562
3 1645 466 1911
3 1385 1548 1940
3 930 1326 1458
3 505 1163 1902
3 3 690 1820
3 1849 1300 1632
3 1409 848 1945
3 1904 1782 1941
3 1829 353 1893
3 12 930 1458
3 584 1076 1682
3 395 552 1862
3 904 1092 1825
3 499 198 1606
3 951 180 1676
3 793 1175 1844
3 1116 923 1841
3 1496 499 1606
3 1493 676 1282
3 1429 397 1497
3 1297 1477 1257
3 1044 1605 1786
3 628 916 1910
3 1388 584 1682
3 1469 951 1676
3 847 1082 1528
3 1371 1385 1940
3 1377 972 1238
3 1029 457 1626
3 1654 1729 1590
3 957 1296 1730
3 875 1520 1150
3 1201 523 1894
3 848 1133 1945
3 1380 457 1698
3 1471 1539 1091
3 851 1718 1545
3 980 1032 1551
3 1344 1403 1170
3 809 1095 1497
3 972 1587 1238
3 515 995 1932
3 1104 515 1932
3 844 1650 1109
3 960 1076 1729
3 360 1307 1751
3 356 1240 1584
3 965 292 1856
3 441 1258 1751
3 923 1654 1841
3 1211 958 1864
3 367 1267 1230
3 1631 616 1697
3 898 1634 1513
3 950 1568 1345
3 211 710 1920
3 1023 957 1730
3 1477 1501 1257
3 1635 1060 1695
3 840 1508 1711
3 1333 1851 1867
3 1018 727 1719
3 421 854 1792
3 1250 999 1867
3 1353 757 1586
3 1782 598 1941
3 970 346 1901
3 1309 784 1075
3 939 1596 1755
3 891 1704 1713
3 710 1351 1920
3 474 1156 1869
3 1475 1202 1931
3 1180 877 1922
3 1316 739 1209
3 1414 1778 1923
3 1498 964 1573
3 936 348 1128
3 1895 440 1925
3 1769 936 1128
3 1213 1478 1824
3 1634 381 1288
3 886 1631 1221
3 576 993 1847
3 1778 348 1923
3 923 1116 1072
3 1574 1185 1673
3 1336 665 1451
3 1113 980 1551
3 843 1424 1881
3 1066 904 1825
3 1452 750 1863
3 658 1312 1826
3 948 1502 1756
3 839 1572 1822
3 1664 1895 1925
3 1100 623 1582
3 387 948 1756
3 676 1493 1851
3 846 272 1824
3 605 932 1818
3 1729 1076 1590
3 1403 925 1658
3 1270 915 1862
3 1399 1350 1882
3 958 1694 1864
3 1534 918 1103
3 1519 1388 1554
3 906 1094 1939
3 1179 1160 1515
3 1760 370 1843
3 1333 576 1859
3 523 1420 1894
3 1196 632 1927
3 1339 1121 1885
3 1384 594 1906
3 1700 655 1475
3 594 1306 1906
3 516 1498 1688
3 655 1310 1475
3 1066 1854 1878
3 473 1854 1825
3 1199 973 1187
3 665 1010 1451
3 1247 795 1890
3 1741 75 1780
3 884 1334 1915
3 1641 613 1921
3 915 1754 1862
3 551 678 1946
3 1415 973 1800
3 1772 1782 1904
3 1429 1772 1904
3 545 1333 1867
3 1419 964 1858
3 1350 1516 1882
3 1393 1027 1635
3 1233 501 1914
3 595 14 1117
3 1413 1233 1914
3 1246 922 1811
3 541 1405 1803
3 1803 1405 1785
3 777 1404 1913
3 1670 1096 1859
3 803 1281 1474
3 1376 516 1688
3 618 1179 1515
3 1374 1904 1941
3 942 1336 1905
3 1700 1803 1785
3 1595 1741 1780
3 521 1395 1540
3 374 1266 1656
3 1205 1307 1926
3 1148 367 1529
3 1670 1607 1898
3 795 1266 1890
3 1394 541 1803
3 550 374 1656
3 1353 1538 1828
3 1787 1714 1896
3 913 1813 1072
3 757 60 1586
3 1254 840 1711
3 676 1096 1282
3 1541 1339 1885
3 1095 809 1765
3 361 1344 1170
3 676 1333 1859
3 665 1472 1873
3 1096 676 1859
3 964 1028 1858
3 1851 1250 1867
3 1010 665 1873
3 148 889 1610
3 1378 1433 1456
3 632 380 1927
3 809 1416 1765
3 1334 515 1020
3 1538 1454 1828
3 1714 1406 1896
3 1854 1066 1825
3 1116 913 1072
3 1850 1399 1882
3 1098 1148 1529
3 1571 1783 1673
3 1076 978 1682
3 1121 511 1885
3 468 1480 1703
3 1047 1659 1833
3 598 1489 1941
3 697 1496 1934
3 1027 1646 1635
3 1778 1414 1893
3 1279 1295 1703
3 1524 1378 1456
3 1213 1541 1885
3 1710 1593 1604
3 1118 1573 1562
3 1854 332 1878
3 511 661 1937
3 1758 1850 1882
3 1274 551 1903
3 1803 1700 1931
3 686 1738 1166
3 1396 1836 1932
3 1836 1104 1932
3 1487 1235 1900
3 916 1602 1910
3 552 1270 1862
3 1593 1748 1604
3 1226 1817 1613
3 1182 1519 1554
3 1040 697 1934
3 1694 541 1864
3 1772 1429 1497
3 997 1178 1244
3 1489 1427 1941
3 1004 1537 1913
3 365 1670 1898
3 1427 1374 1941
3 1095 1772 1497
3 368 1382 1150
3 1419 1559 1562
3 1559 389 1562
3 1223 1315 1879
3 1050 1051 1832
3 1576 1381 1918
3 1315 1720 1879
3 1723 1050 1832
3 1695 1736 1102
3 1738 1088 1166
3 1552 440 1895
3 1040 1274 1903
3 1875 701 1784
3 996 1576 1918
3 1480 1279 1703
3 1418 1861 1275
3 1307 1165 1926
3 1888 150 1241
3 1663 1875 1784
3 271 1213 1824
3 1217 1552 1895
3 1794 1888 1241
3 1393 1695 1102
3 1649 1647 1942
3 1647 500 1942
3 1202 1475 1938
3 1394 1803 1931
3 1475 1310 1938
3 1861 1577 1275
CELL_DATA 3556
SCALARS Von_Mises float 1
LOOKUP_TABLE default
5147375.667610729 67757974.380526 55243741.98326425 60184772.55971379 60084620.589702584 64616755.84073553 216401568.47151598 60397544.90430733 93747171.9638388 77070662.50038235 8274043.300246062 85765075.24132115 55917256.767837584 71849074.65242076 46241881.25103534 62084498.411734946 100576090.40469372 23803097.11107555 11116419.227369135 61605172.615075886 43516528.18445792 74455070.17634073 9134984.815734923 64517848.42089029 65668189.30791054 49727943.45011891 68723074.40934768 41848545.363035865 8944525.863101723 61956956.79925176 73226585.12061891 62640311.438140035 76785791.05468738 73236846.86813615 83766030.26954459 60225846.56766959 61217358.511253476 45334302.97729113 67425115.09502155 72669707.85253443 29895013.52572289 29591494.618773088 66850692.15727928 60112937.18812774 47359280.9952392 1285287.422582508 65313394.191598564 71777509.50863364 127757433.98165062 59793106.3348917 63768918.60383446 41770887.67912762 11168940.54269649 11454239.6436183 9557952.43477706 19351860.57611826 19374010.31824362 23136607.65546566 21426677.739940107 67583090.1047966 25612660.29194357 39919995.122817434 60629502.81470869 69898265.92544818 11226663.738995062 77343019.42221741 169022244.82811058 54405163.468894444 75711792.0113966 61880739.90421421 57646329.48380399 71908127.69157082 65628061.711068645 59752908.42305431 53272327.98420879 41906728.26370224 68525595.5334623 37778098.20323293 63310493.6580156 34245894.11108608 166614106.88767838 63667289.99593806 78017223.88939717 71541341.53230456 60376871.70550926 76353593.2400559 45478813.963448755 72265720.82082246 68314108.2190956 31038799.03949611 50937909.82790349 71538189.45347528 71640486.18067782 61353871.67131849 44666143.76793264 53226777.549300484 65789410.514142714 64812947.47689917 63435681.55113808 55584218.899536125 49772324.52761125 43126295.162159346 39604034.81036615 10044493.123042597 74201440.29752825 73670681.45401217 69412509.8269553 22572068.054626096 76956128.71196267 71260661.78791949 51514794.12580932 60834431.7000993 9970252.777747633 77237074.6025613 32608607.714464772 79230206.1247575 48001220.49564545 27707377.957590487 1978226.6373070998 55420983.60054617 64812052.70052516 49227532.69475167 25441537.86947769 17004899.759466097 60805051.29125768 31020567.23100924 63517548.41225437 73578365.96225905 50021214.55108536 81140361.42341515 63963540.74477156 55349839.4030304 39434986.57877701 16762843.78534684 9603057.460554974 23293504.378537048 52596597.34816264 34103244.6785742 22510840.592265446 22077358.42422145 25529653.044359256 2438822.9077782044 34024317.26322127 67281620.80400784 165468925.87169886 50164373.114554845 58908658.39518213 54476920.025546595 23476605.8972031 54208821.23744564 80752960.3712213 69728240.13369532 8724228.117295925 58326684.78498654 65260189.255948566 30632283.62702448 23220624.359588917 342405936.1183021 46735343.752208814 81144105.18800281 68053906.66316743 71885553.1710782 59932024.86772414 24324901.229418978 54967189.22292632 78487782.50912781 170295074.71869648 49730828.55861306 94525260.11528526 64526538.966892526 71991632.48225766 24992082.791952666 71268537.41908132 70915433.73772106 47524100.55569726 38216393.94749036 64982681.080542944 72014817.41593777 31565046.114983976 29802432.62020239 84075065.63379763 85743323.98282343 73924346.22427203 71811867.84895486 80823196.04501782 74048715.9322483 7861818.170839666 7933412.896264047 7876696.821463448 68353188.86829317 63412522.290969215 63570135.75127168 146610388.95031795 49474423.101432934 45900091.39801585 25814553.44173827 49399142.52023837 10145129.968733191 5894917.898798574 40037217.19937989 47887915.335493445 67908614.4053364 12008744.470980244 25222160.32320881 87674872.24281815 53556958.908177026 69278505.41699986 60700419.90435341 66368504.35477885 48568536.24781466 34385229.76701685 54599910.97575429 22883216.204216335 53380253.363571316 61156395.17292032 74976839.37727003 30555685.250919096 71155797.34941854 11969815.273637556 115599508.15020877 64593694.901421845 30441261.480592508 18372615.567411263 18858146.753182497 68115531.69297208 67695011.73397946 64732949.09794397 73663285.03697841 23243828.53043616 63367571.35662503 132709648.03754692 76469433.42356557 54688388.89054309 60264345.83909482 30482084.446171276 17486342.701061003 73323297.29792565 69115744.0702613 63464877.45577994 57883619.90566598 89426480.78017437 48296849.17655951 60203426.14426467 44269993.015705824 16606690.305878226 45310315.15211808 70784020.08149458 80435399.04644655 14148982.573404446 77349187.70776635 15538783.21555171 48834549.59398074 40975635.41983341 70267939.30039738 36871330.53523736 40408356.81278251 3057958.56089312 77432436.21626799 67534618.52406162 69106533.29968609 28476997.786218036 17098311.952082686 57960282.72758197 59278761.068213366 35606574.91574541 51094817.93670749 43748340.951719575 58299697.602583654 64231593.558668464 60602707.8835784 67085644.9802764 34187683.073876835 28014535.2898602 87215341.79144685 53763702.45836219 20701104.966499675 23089931.600073226 63645527.82489991 62559586.73075477 80725957.2921289 42072733.18822563 31161101.027045924 81371215.30036196 54988389.426569276 70663276.96075797 17166393.629650492 80617515.60563913 34569257.34277591 66235585.0554561 66318969.678373866 1962853.3182915968 53094048.39168976 28926416.141481455 70725758.67628135 94856358.4791465 71324748.71219096 17976712.22183258 39545449.0662917 72550059.27293094 24972652.728483997 63467576.95392307 73007504.81026866 38671682.15105699 49177340.125772595 54062879.29991898 58593586.541546375 72753591.1972344 24794327.52475929 68618567.55433676 69156542.68714078 96297703.6615084 35547405.10421039 27106689.435673222 44306389.9688203 22149039.691974536 63200673.39573524 62934060.61731026 19848799.419485796 51695587.81732219 102507308.6001237 31114984.17696131 58728134.08444842 80756896.54496637 60897111.91833729 64735851.81955195 63530057.12303086 55231973.296467274 36032833.20786119 24019961.55691989 62397741.92902694 11755208.35051065 1184932.7230564463 62872185.90189995 27255645.887692418 59298441.923748314 36560840.59891525 69860957.76043922 20727468.40382105 20661575.461157493 32967994.8402642 47415536.82292916 50014153.773528896 34608042.81886895 45924587.236739896 49153278.25564664 51458947.58646034 69519389.84626664 71249191.22577094 63382601.5198768 40178248.548588626 58308690.261476524 73684264.07057 66276645.85290847 53518915.68992203 72717297.20820414 16060974.834302383 31273616.838180676 70027305.87143731 53488798.79491951 27535869.83935638 52232822.218117096 64609728.43910753 42605779.01307543 57376264.54170066 6663455.531496866 50818091.36337692 50012236.64715051 60667926.936643295 54723457.32350742 70442736.37314329 17034553.18569723 17124994.163108125 84367804.13832054 37055034.05636746 53991513.59410689 85665257.11606541 8706444.547308959 65465599.00344256 54101366.69802883 14562554.388879748 73947648.705308 59634917.43515614 14739796.894478677 52545089.63688922 50854733.15261121 68054733.39852804 50256942.52999094 30747878.553778466 51496390.698876046 60690387.491523035 76335768.27345134 16193128.78452881 17293067.616355732 21956022.06071939 109757714.95062499 64581970.06288767 31439159.786310572 27556396.09778075 15929174.229519576 63068171.137070514 15243226.240626233 70307334.70473322 74322298.30825478 62163828.05772959 71970620.02468976 80859576.82691611 77469386.68127617 83889596.81385729 61079101.11542494 63742420.89788647 62702888.58625343 109994880.02783732 160107584.1752492 70037232.9249152 59747264.18924443 10256182.261038743 51932115.58161246 70350007.7657811 39548343.086301014 27734877.342509624 51343514.047395974 72816637.38051648 57516726.146367736 78378465.20411786 68459738.07286833 26045725.262735218 68356564.29419903 48095736.18261404 85169387.50232409 63845842.558586046 71263808.92572607 52002825.21303685 72221278.87988214 51517692.78264267 62350926.90041893 76241417.35563008 35547183.13864142 52667723.08875112 7655793.470192604 69403643.39584874 28069988.214363843 28594982.53593285 38155900.160835855 123917137.37309521 62626189.46255477 34129226.46934166 75269184.95309137 53491609.280487 76079458.02236778 919155.1220876632 42817330.785515025 32154772.406985544 743193.2495301107 36848165.982278936 24103163.262858894 24103163.262858894 22936931.927281592 37183277.62215898 71752568.84582709 18684762.15601787 77154541.5123182 34909117.251464 63308502.402634904 35369794.895271465 10169506.584753567 64667669.53771789 18014935.939877655 130631265.11889942 74211645.90897764 46268187.5960804 91059613.93209232 65747761.78434046 72277680.34293786 64708475.82090627 73522550.95367263 46277322.95373936 65963630.021230824 48413778.41565687 79014616.03260055 1552528.5362015306 70607383.62998846 51263761.45610977 59600522.51017712 83277800.69777405 63176594.177263655 44415377.441306844 37355414.54833697 68774807.26970941 73347336.40571125 93822098.67497222 27412564.879285682 6599531.854096546 59705233.229564205 63011585.06538076 30735370.15421534 67667152.10798801 5410372.348446144 32373714.648675356 31606192.39627792 75751983.23250802 9581684.024655042 9392749.3579266 63110719.34992431 31222181.774095036 56523538.437858805 116850787.90873674 60614547.38739132 28490272.318779886 115418675.19713515 60471338.92888391 70683810.82719932 18539844.58627759 77086962.56970373 26880185.275796186 46638140.45373547 43124286.25519683 43127972.84778152 57489535.2950931 89098209.89955132 135046084.87817526 70975857.10057433 50419599.392361194 24011555.863827158 127895181.69073233 14588296.191523356 53088798.187561825 49387053.131046295 54640444.63283803 151516373.9547701 70176621.44816609 64559119.97580007 26080994.928192362 62816057.381985016 14016760.939914957 62903007.8589465 51919754.293500364 70251925.84666318 5052510.231782447 64535373.94292719 49226733.14862703 18088425.612127252 74127066.59472774 32275373.78227375 72758311.08183669 6224389.194316488 60630403.692492776 8951181.781141901 70286383.6276681 77109517.59140055 33649794.42859443 40735511.75613877 41985979.909376845 23988013.001796562 75705201.68542124 60557723.46025991 35555653.56980452 62004701.469875336 72955258.90600477 32638885.353968486 29167548.97208467 29153126.21617055 52069258.68611144 65554511.346630625 25667873.612019707 55390250.025496654 17544240.158633146 46131830.65459142 72525617.09739189 51164667.749009624 29086369.001315173 77546589.10798196 64195378.045946024 64672616.369801 46157872.39881936 61101721.08304585 15354687.47072074 74156006.81015068 46261119.111629814 43701091.251956835 41516391.93194809 56505207.37380276 42629193.33898409 77584031.38774619 39648362.37911978 63826113.01507442 55829805.30012098 56582324.62478636 45256118.056402974 68232254.19330528 77433725.19132464 29561314.873482592 71521987.52289951 70275428.50631122 4652508.098730186 44470551.2248744 49387585.640137725 48849954.38217488 64734795.22665049 73429849.66056223 57130118.724830665 107893091.53813145 9775720.674978172 35521414.43847373 53589645.762841344 45559869.79426834 87806557.0955593 24930094.538320825 63614833.82591184 105743343.35183689 64462338.783331305 54057966.37162678 60565388.719722524 50328100.04097071 32508840.46991379 124129513.6088242 68877356.82955211 48059140.081878036 71232129.1478493 59267701.24685888 46732581.40207498 30784680.211713467 28741870.02065862 57934984.04158008 70318104.56461985 66114737.690263934 64668407.23006684 60878545.50091814 129894618.21000497 98065884.5201955 57348431.04325398 63363483.23725169 66266410.56878745 3298791.2868176135 66725551.5756163 53174905.37826907 74453851.39818735 58941489.943436086 60267593.93745683 26518049.20518021 85852622.64589818 69251992.63809504 85809198.98227893 42716556.37953876 71133056.11766139 64540102.945406996 74396378.77985124 60897588.52178887 65736988.457217366 34886437.18588662 64748790.37819407 70963547.29236047 88662729.01407129 72819289.9880095 50489952.62444426 60297626.72358964 18235543.187661566 64643663.490348704 81840529.87050621 82411878.34930725 30495391.71623625 72236034.4190389 33635965.36256062 61246446.422127664 76711566.14339547 32769855.706127267 3679375.627298417 72438901.01228252 65599591.989811435 76459146.03428632 66418935.90409779 10928606.600783555 10995816.411237426 47790982.88581614 39963151.49538321 25123945.97934478 7930420.386708288 51144247.90113418 78783513.64905271 9726234.834588155 68625787.60268667 78671372.87391973 34429420.909977764 45856045.15196894 66237597.13391365 49670927.48299231 58381394.09139093 61370789.59813458 3751036.7983667194 18903014.27982146 3590930.0788544854 67452666.85591273 17052935.119072527 48762784.2690956 68593550.97328405 51172006.74733231 67316278.82652374 85766768.55364978 72690335.58170693 103349341.97318615 110277914.95387891 61069828.09381366 32642519.149873637 9849074.253555063 16907729.85113912 24514108.59748322 11705792.322386924 8487421.616742635 79166271.08518586 67781573.81687166 17291450.30236329 17574902.414399203 73333408.68121025 30741041.71670338 83447596.87461221 66075928.258162424 63077258.68187518 61614402.45001989 42638313.75943935 42714643.56830431 24633756.72247038 74840633.88023816 152635470.16219425 69298924.08628966 68152093.69800818 60059477.45150129 25282917.77817761 66625463.20036248 92418440.59459695 44679979.46001552 53606720.31693992 56242954.221533984 119057436.00398481 55665964.09072299 6045896.311150721 66226255.21329543 46794067.34989453 49390707.4011027 89754885.10368831 71356211.80189632 39226550.79946041 59313730.58231453 55697477.59058362 75455163.45527658 137667270.6327627 5709110.621228226 68901764.09938033 72016410.02141552 2588494.5132674617 162346238.93656242 12923477.866140882 2558794.8643717375 48737259.00355711 48859597.82886994 116590165.57596226 71231244.70039396 58426254.62160144 73407561.55552438 37397228.423959315 68666920.6010432 89286142.87401195 5799803.790596735 45113486.47238426 12355064.796469511 48953911.117577866 49508661.49731095 51109773.74885923 34116560.366632015 59373315.06484883 75527257.95661604 43318513.47768845 24674324.321964506 24662590.32045405 67732460.54153508 97395385.88161623 126470901.6469779 64997211.64866369 26159648.80912331 17459720.916788425 60148808.6255593 30675241.935136523 50648378.59133176 42769217.760213815 65720178.509567395 74709724.99726972 65039397.11077618 56975096.10279297 51828000.52681101 29993193.02924958 49864560.04416344 34610497.37411483 44611419.13271668 98701652.230615 48241253.13396357 65255348.75509694 46442813.59489875 44222484.103271715 48786395.265153706 71391830.25377364 66967635.05213527 29173218.040794935 35307148.58730441 33961487.5126239 35127127.82038701 62430383.190390415 61880184.73310338 76165839.54678386 52572189.25377182 71652348.4779038 54744019.96607055 145910755.43953708 63945708.88501455 5567506.905864693 310110701.01083225 62209741.85569915 69096761.21445678 82257987.03250128 81102085.4595322 11355845.259381974 93556505.75947389 8423387.883547835 75374864.50323255 19700989.6010165 24667596.097108174 73190223.5767281 50270132.739085026 46823224.552694984 70719559.41089153 63101496.16000089 72741495.4075473 13508137.203254402 32440189.783996344 44423488.849370874 86438265.0562931 150784004.38128206 77769200.87889586 42225165.070442505 105187138.47312735 67922858.5614842 37234631.11888416 103486031.60177693 30192382.025372334 22503238.030857287 53383427.56911463 72833149.17533776 65257521.8082508 67420772.15593022 64785576.22000623 38074169.263279386 63055847.2430496 71187395.20163034 77198477.78379203 63519757.39039854 66388037.23417107 64595254.80336147 36749969.87809375 76306010.48753658 61816168.59868341 50761848.22790287 73128258.47597474 26055726.41728268 76878427.5229847 58048935.90002074 21679880.414931763 39467733.80975236 76410495.62532063 51545655.00970636 109152393.75789388 63780739.03271364 87932160.88840412 34436996.830704086 68079152.65412177 47126427.864439756 31597164.94050601 65355117.3732151 66819733.82827795 20410976.261921648 24299080.22553972 53040972.336513184 84353280.62983403 47654782.41865656 21973975.026731607 110146091.07132381 34120330.782111585 37197048.91365898 123861116.8189165 43947030.61925587 79353778.5601871 83252384.56925198 64291051.33804735 74855113.33802082 72966512.40388986 52288859.71742402 65205141.10486109 50422812.71800256 48704298.743488 25239889.71420324 24082855.338435385 37849456.666003846 85821756.04606928 31193572.47995985 108509768.10095225 60414819.65538901 50759096.67689941 53667987.461982526 64847963.46760425 59796826.646107964 57689415.64830354 21239219.619666282 63568108.10279663 47806916.44795553 82041038.1847267 43619879.16077741 17410839.839645345 64905534.718769066 67828484.31297868 62867358.751017906 87256088.83454643 4357596.055618148 4278938.346546565 62466217.856452785 52619158.93371319 17828268.741836723 61596561.47115396 78491783.32460131 51156732.20500115 23023803.11650305 14647627.295240546 51830769.06391883 17949729.544318974 61982140.82179952 54677620.05136335 12729449.466474412 96717045.16445991 75837297.98855112 89803516.13647757 70105085.82323584 72094038.93716848 57577514.05541696 59890805.5796895 46597002.09194094 70372383.13180146 49690892.985439986 83141689.80045125 64401568.28476266 36106475.23096586 63747646.67488163 84561327.97881947 48143444.60588941 75812262.02308151 9187779.495247021 33936455.939188175 34044044.12459882 37602602.38299389 28774068.248047125 69374339.73308735 85719979.28851753 57652450.64463455 46451618.128481895 49826695.722450286 71253200.89506607 81190922.18038617 85836321.01586738 44891632.115976095 54886660.81064294 62958431.457462296 62673118.49724759 78802406.0195869 61028091.99609944 84084588.8249719 59452173.19008454 70650605.50062543 74929259.9180652 75151715.2623869 74949765.55107261 33518355.908425644 73905925.2672176 27343787.251735322 96022764.38523363 66284841.760458805 57334320.25732668 66199484.60436302 92776310.73712294 71405448.6038372 73889090.29000951 74959967.0444939 46063858.460414544 46121349.92320925 62019550.41647712 31447084.059408974 63463560.21506742 98200962.7937143 70852123.47066869 42306134.85750649 65151783.61965991 38954604.995398894 72435318.22136256 11549194.828618769 11850245.257921536 12000910.702733656 50463459.66845313 32991929.9339192 67384801.10511744 59908678.14758995 147985793.94119102 74646263.4609562 36606348.347434536 68563385.70307423 63772059.48369696 62737569.53511801 75246379.56816903 67374009.28365299 62259540.011965975 26706565.394335747 53316817.99961142 148520781.56753358 69080391.75297092 41049326.72788531 64105683.42172302 66860158.105401784 40879951.834899575 25692095.08786087 63588112.09777011 50495527.99864036 79865759.76239896 78651446.34255399 66833753.41093586 70810774.21290796 64754378.557901874 62133002.371280685 18965730.286769204 71712720.97912973 6020485.535021014 21991796.950404808 45752145.415028416 63397025.78989307 51614711.44222202 67785878.73858848 20283433.195930757 13975260.565824024 63062908.868427716 53873511.769640855 53211981.80500867 54233641.82387325 33301757.176450398 50727556.75126155 60122234.498240024 126194219.37977 11248645.740126008 61903367.45383755 48617978.81518203 60691144.811084725 42940727.81831937 73697939.71097498 76821972.28527868 62096310.828426264 42988150.07501975 36590231.61234907 63145687.103648774 85834560.012428 61617297.73005329 55535378.8059644 81206542.99328534 46065105.16856543 66606413.993105724 49379719.5496551 39366097.64877484 65058270.15483915 44129503.64298447 45723559.86984747 68447856.41694316 72050928.71512821 46154620.21310648 52115102.305075034 24847814.834144995 101137628.3751536 68013412.56010193 51980771.161132954 10868603.970358893 34716947.38749053 64563943.633559965 62957176.496231765 45818878.250265606 50705527.69036441 65854848.25965734 63075101.83171997 91253881.5140377 65824042.56462264 68130839.97395642 68248767.83775407 46350612.4411753 65217573.951299064 40013248.775704905 43924629.97900058 70707455.38301979 69654877.00547977 15281051.335622719 63443796.24872082 104677126.23841237 75086228.93902615 155928901.2373981 25911061.24937732 36992642.92872185 78530270.7992571 83015494.29852334 78864742.62638089 69790081.94699384 48971735.5611477 51902703.03449835 60926523.94132433 65230773.710845456 81460640.76880802 11938710.370668277 12172236.471303072 86606235.07636529 75219706.34189093 68994056.07801364 51361087.22280164 44289196.76120504 39156878.27646722 69100341.55508772 77416933.83807561 36107431.3603825 26990572.87324455 78582838.96627529 5726745.408951397 82883782.81398433 68477691.2184368 17448290.41112007 42739131.62280901 57701648.04410133 18242890.144970004 13199269.796622759 27461471.150209438 96764158.38787563 13585948.68294823 77090380.05122489 100660505.27264452 19138296.793012984 45732906.7498049 65032451.23762031 73691681.8126028 46722569.638029024 84969361.09039883 35606045.777863145 70848743.10666002 43235661.52376427 57780584.81165095 31170062.3013125 59630647.01195758 60485340.65997508 32896629.172906917 16353569.602880662 69824738.47984564 66785630.25689015 3340554.8942439407 19482908.09958416 41887954.54900203 73866139.56188478 43208180.18795741 64246220.365938604 14910856.773984164 58838366.36774925 31124390.047434747 104420693.86491388 148406950.2955071 22099463.452985104 22099453.46850678 67249229.81171237 38276051.350847706 75439071.9081594 64645543.45496993 7929.867518889519 4012306.209960759 31309264.320716873 75858689.23502947 27759563.23775914 66649729.78215421 68136140.46629095 5174070.697137983 1613373.9096587247 56393946.1115154 64383150.234986246 80236813.95044494 837768.1912561768 837339.9438184614 1646212.3460992624 39810103.32072344 95024624.83132915 136057788.24077654 76110826.14461046 66692960.239926286 60106318.59469696 86434245.3520659 90993320.51370098 62022751.58953143 62092742.415564895 65110260.66610811 88034555.9583884 80796337.67452261 84407598.28489676 44962053.296302535 7794394.851627281 78087343.50815293 92477284.51784763 68243234.22609448 57746901.90932001 54364609.56143406 59495596.165587835 28406522.255357426 31080019.97390345 65835436.97628205 66514364.780467145 46094119.13430174 4810102.208004642 63603341.21940756 53451522.97088158 76407166.28713478 40876306.454605885 62510198.66799213 60089877.18207483 60936239.95295026 57129296.03854724 53430450.60790044 63934028.211417116 18790192.4116519 35751082.01223333 14179134.252891097 65459936.20011629 39473162.837680265 74415242.31382644 22193581.627183426 51285084.11118186 66003729.89204082 139520555.00829285 731472.9729785792 718193.8260115641 12732014.556733275 60949757.92818997 41453582.66102993 10049593.97546346 45043878.13853383 61371640.701003656 29229775.147299815 76353384.88360855 16026033.187997716 16517408.758236991 55820931.63409233 74693474.03412782 53326424.56849594 63144890.65097397 85214597.49002968 62925757.09092628 670711.1488252701 65548429.9652748 80455025.97114305 70201557.36451039 54353694.91729287 72868284.135363 29541564.58205011 67014193.07646262 55789128.73387616 53534757.80666448 48320258.25950967 61792381.7597675 16581865.538261672 718074.5971995001 76325138.65002681 23140380.91304595 65651635.4087857 47686197.32525731 27358831.82669976 54680536.231216654 74686571.96494032 62147873.77698 65742604.43881044 70415530.22123384 47758678.13527231 55810945.86557984 23682161.27312149 60918793.81501196 58222479.615556605 67343774.85022835 174347664.97207224 72535073.817654 58898499.452601716 53211836.43798365 57542466.820422836 24605101.823570136 76043923.92091203 77180174.98548298 5119804.88381215 10895975.334344653 125707396.6762248 68757500.0273551 60789863.93976755 51257648.28017719 88582218.70728137 71423000.22622909 44031117.94025737 92872089.04767701 68147301.76779331 42703125.62387282 8481843.169529665 45205828.05798986 45180958.992486574 22051288.13725785 12410806.121117586 18328335.099930823 62614969.3281777 120696237.41009836 73827866.00478768 64591752.9926338 54898705.82421026 10079493.574986434 10076890.440389667 57264125.32546438 30665166.524113193 30792688.722753797 70764132.48068783 36367008.18172998 37355752.93027321 54526277.61899865 62998146.56473608 21194804.010285053 84949881.33640695 48528123.28135292 47620457.362226866 57999946.47142563 71645656.3740293 80221313.84979573 71770477.22309133 67604735.18676125 58580679.08348307 67473878.86578862 67655000.8833399 61147307.44401884 85350200.49301702 11986716.85984073 55696510.28936229 73211448.15784186 37044396.91191125 9059775.878224514 68191732.72609457 49216684.25100764 98674859.20573178 52871816.268550545 70593838.75753923 50020255.62687805 30768720.861503005 83662159.38329792 55367564.671020575 31115218.120131314 62142973.72237963 64811958.61101526 48276302.42291441 43041497.34448444 37346193.09666096 48482847.36283387 37380401.23740777 73974780.16529697 74142462.7453927 64355636.55938945 28154710.518193386 52745756.629582845 41162812.405780904 23585532.69101807 15752622.864381516 51749563.81629407 48164868.64954251 44574745.57056519 64054218.30028909 35683908.20153043 71400679.20506547 65774233.44818652 43047341.71320713 30873462.24925507 76545439.7179376 133868726.41218403 73920351.19160816 40181410.68581333 72430187.91573648 39417984.885072306 27435666.617932443 64019125.02286754 16357765.457404891 16384694.20129721 66411988.18767547 64973488.64842475 50442481.720003486 61144179.769787215 45368748.96429319 73327172.31282349 74514258.89148216 69090494.05227287 27348746.93548876 101296758.16597253 6485429.36813245 9414112.961509695 24440967.39831746 78960687.17388523 16686867.132570809 57256036.55602747 49019134.547871865 61086563.20787076 68287833.16493066 71846616.40526393 40678257.88199389 1618787.0622701873 93595792.66689807 40215333.305603735 6594869.415629591 57062520.84863293 65230993.648316376 490344.1647038348 105878110.07478452 77671655.6098513 64538213.9030611 71775819.6645588 99789486.34683058 62471572.2209047 44642293.74237764 65291171.35102606 68631529.00499865 7483155.919584421 79271875.61139221 46834370.02208613 59496403.00711456 50087673.96220446 75725234.37300031 99063482.51556785 73829705.32912396 50414724.46326456 37569912.15067552 49241751.9156332 72585011.01097906 163638394.56206262 54587814.21941227 73447125.73280428 58229801.3830296 87526391.41811873 23378896.504064493 45410262.268517144 47545936.38301984 69105291.03004403 88698832.46820185 64998669.12369531 22627020.453572888 39844121.53586353 48102610.55394185 53677197.457761765 77724310.72523338 65846143.005513914 80972171.62615375 76057539.84849417 44649468.07219714 47153968.390637465 39963459.60454707 79178674.93878642 45520254.74338598 17729133.278503794 58031165.6486828 47309914.85867757 153951252.6237801 64691100.29860723 72254540.62309344 41157822.8438215 21882686.733757474 13917946.821648292 30774466.248100482 76104830.11621492 869655.353943859 34708298.98217437 35836897.142514996 47531822.885615945 75063143.15533657 69166901.6285118 127129118.33960104 48424294.06611491 65406165.12795375 34480815.49909229 59775004.29846368 57881735.6264782 54836411.92103647 66578242.89478922 9990287.361055749 65166075.939984456 9418582.651802553 51142409.35318723 73262590.40988018 73780159.37658317 38325499.008062825 58195675.30231385 82518373.00143243 16752680.478729315 69749378.80919395 90153541.4308663 269012233.35955477 10748827.823779086 61907046.17715672 70126379.19244532 41068920.76222558 73336660.50701064 10948261.140159091 66831912.20014553 71788722.8740268 69165164.81998162 73164616.25849836 166114071.4814737 100174826.1771402 34720647.153056815 67842832.24724498 78289449.14634158 70866034.70814967 34768856.24015101 22367989.175907597 61819936.73433601 72094308.15812291 70691937.35871977 18752777.46432932 67570009.58598024 69459368.99415345 46597437.26462737 163420863.74804994 39346229.68437342 68600351.91618079 68945277.0925845 107878636.46697007 74834333.92247313 67344119.36718927 64137858.3769144 31073818.35439897 40538240.23586452 64940651.955794215 75304035.23394032 68792814.21081072 73165255.99817683 14943410.372409048 66150858.26672934 117855485.39399658 67360759.28073992 15742772.78775942 61351002.927970104 73027516.4538625 30423778.590803478 62065715.05938932 52748013.06342111 91155586.59592572 92524071.4614579 45839999.91168572 43134251.09119541 109683003.54280278 23803610.377085116 59163340.97164606 69387605.20524152 74488512.48526984 64304885.32299749 64631207.52301212 65181965.04734175 55162194.82705007 27859624.708203938 67255573.87688373 61832079.50007839 64284509.558008134 67457652.72657973 45665959.89493324 30031026.23171614 51887658.56816523 71840284.4558501 60162969.62706077 57285938.61105345 73591741.37996152 60088860.33773549 20950617.576098952 91157106.24803276 30767951.21761787 31210031.8152188 95486118.59776291 33500036.27987907 49158553.78016475 75068817.34760414 72249821.28078935 93775901.96073149 51784006.879828274 76322395.62070258 47805846.17956143 50519256.03504312 69731192.9691661 20318179.49592401 57900426.066613734 16519277.711205874 53602933.154226944 49848279.55759988 66874364.090878576 14852003.260198347 19641641.374877296 46305186.05983371 42183768.34909374 55747234.89853931 66089878.58122131 30781046.187530488 34602829.23434201 93620192.98613182 48437426.888525456 55754706.008956976 65527509.716244705 60298533.726780236 60430523.51635737 70752887.72845049 65940181.28545231 48810525.79394558 21336401.01486361 56841979.170284666 56670941.20348918 82297456.79447477 65770466.35373744 102303811.62463878 31218858.340261187 24753959.201284364 64156868.87089949 56627271.71874262 27883044.7676298 89784946.91776277 41844100.348025516 74229074.18783896 77653751.36641768 32041495.208172347 56214737.12014708 41058873.86268961 70138189.73378666 100401185.57131939 66318519.29391833 27143678.141468264 51285431.632312775 110296227.9686109 82910521.74670188 56894671.15105614 58478254.41769888 50912621.80166604 61503692.11589786 67429044.76404074 59342908.02466083 60219878.73089605 27650764.545040824 47674967.08236056 34405093.53093928 79209198.40518336 36044911.36534018 76985292.78378628 27950370.880774673 68130555.1526331 82820832.85069525 92080215.030568 228246921.62281522 10077012.769616691 58158998.776384376 65961397.51027611 63614292.56682748 70919140.8053674 34810109.20280522 4347901.792151734 68135851.56116362 53581747.31047711 84048576.88906394 62836349.0215901 58140624.58050429 31003846.141165327 29471583.198881023 37508755.37929166 4263558.517627535 62510468.83498174 36168591.223818 48461358.460448116 58706871.14951226 63808651.60487224 56221580.308415726 65028214.96247417 55788951.24650027 46189185.789955914 75503013.05177945 65529094.57386358 67753301.7728095 69126301.97078335 9265365.828587169 64044950.34778028 42883903.55987275 15219718.444975622 5866958.980900783 69287695.74582751 68264036.39107566 87702173.21998051 70264569.47572914 71586699.98042329 57922116.22469553 184139645.45903644 70717682.81128566 58339938.02556157 61326709.33453149 58234496.62048573 89903652.22567809 54641283.997616835 61351275.68756967 72148310.63868932 26312690.006541636 66883214.67316684 44886440.35512372 78216399.6396608 61633426.10747867 61550333.77202884 49687337.42768455 75207028.76686567 52744659.79768318 81501941.22353813 64757827.7690515 224187309.65420526 39007936.90286076 16481984.395703135 16501442.104591241 74257615.75989878 65319019.898941986 37937398.2330525 93912945.19850062 45933377.34932735 54575232.2705154 66468076.31232455 38962253.63157456 78954258.85580088 67553659.73496996 6712235.520318894 115711151.64920253 55451706.63463207 62116167.83021461 78908092.15520667 68422233.28559306 13573536.736531759 66031089.496519744 55554357.33881455 64275862.608286396 64389426.91812629 65762265.19709928 61630966.909272976 34514586.83723237 75981009.96467647 54548260.17090417 1473926.6332298226 76304583.62966909 25770113.286920153 100686285.76945162 57029413.047607616 39033757.75844649 16793877.621571142 68143356.69390778 13920489.230999056 61114157.35936396 46330641.765760265 49347536.39779269 148858401.28139 77662466.80284221 30913624.643276103 31565748.972380944 24772912.23670497 41817753.08047565 35365591.045155026 46879258.897598386 167324.47647636817 76601508.02825493 19365514.20093139 71257908.4805432 72369905.68770856 58664955.289744966 40858026.206009686 72606846.11562227 69247971.85772878 66393070.467991024 64471900.52302091 63743587.22005873 42425898.86595069 66418153.394202664 5924327.709088197 41817814.88592039 77720505.86470693 59007183.92111947 34387355.83109942 89684062.11131378 63219493.79240419 59019116.111663125 23963689.217839766 30840175.512266062 39223116.99304199 55152145.23864102 40379289.312491275 55481315.06700736 40338450.74204669 46129614.98501095 64792717.82407624 72540299.79434752 98900727.64614326 83614944.21071301 30716375.888949465 66337507.804379195 92067435.86280437 45449238.62344784 18930760.241390906 58011025.757909834 83229613.59964043 14264145.045684544 65585150.81398872 71524755.97586343 24612337.78661209 60831055.43742312 81027948.37097338 114745154.53788769 30062005.31401396 61540946.82497177 69792580.5303868 38147744.39733316 100214390.05290265 10365574.67931041 61453927.13905764 50244010.62163519 16962154.335788954 71308770.34202896 59867660.46846627 76576585.59219345 82347259.79938081 29237042.892909635 73843412.81159265 41646711.86547318 242337363.0028454 62319563.605949625 70793321.56079775 71537181.97917917 76524601.78392631 91809526.88389578 67520465.28447679 50717589.743711494 65072367.97937599 75654872.9683399 69398424.6407604 92199544.25419629 50314125.35993568 81921147.57377611 63792346.70645031 75618965.22981513 68455677.46666557 105579867.10074003 9458723.813175822 36522711.710332006 73633268.70357147 54018580.989045516 70562159.44068597 58525619.10564236 59017036.33967985 72282652.4300509 67550672.42158106 61566556.5256373 12931274.228690792 66094585.53079588 31972820.882583875 68933779.4027324 69514730.48698007 66753184.779345974 151599456.17337435 63793860.059158854 36283892.12366382 60582211.488518015 60478616.31912298 70345315.37093672 72724480.06742728 65183469.71152542 84374952.69043267 61077865.67550044 60464526.61813893 70402099.47123407 68809248.02244668 55028062.34703188 18668031.448544025 72484809.50806417 78528151.3530151 143097873.46950236 74620706.71187113 57057324.79133179 180791737.07163182 57627120.36012978 63776818.80829981 51487937.790293284 76709629.50247914 81651646.68817253 16223507.837822024 83969468.45739815 45358954.36527887 31643471.27471566 25711800.138836663 64335448.82883453 45978790.68805952 79988113.84226158 82769482.91850883 66992236.95422628 41511908.43240388 68595752.32846585 67995903.71490556 35560762.13497857 63889702.225122 56268876.88904269 65296250.178379185 58232171.760749154 69233206.03326738 68354070.47205533 70040404.43060121 68301952.74394314 50359918.86823855 107677736.54158616 63913017.97388763 63578909.856422506 16377293.214973513 61194877.1894913 69248098.87782824 46952004.940302216 77955356.68709618 66221242.26235903 130210581.95038794 69014039.67369634 30914787.399345614 65047206.24248532 65245082.44207243 124163552.09682055 69534883.78900445 69714297.9865399 19332045.995619252 50235359.48966694 50244900.57851618 83734658.78907424 69189188.50553694 16927800.71364016 46108846.8671217 87745708.94489889 73428807.207004 10036247.359818375 10047238.570499407 66956995.35780679 68337719.21298224 63162674.90731718 49897649.93522978 138606434.71317416 59708358.93682586 28499350.851439644 44858383.99834769 58967035.46172668 72653170.2341784 148021723.74079955 71885598.65723574 62589732.99265572 40745944.632731125 43960454.926120624 62255891.21598939 62555288.70564569 71092416.31366603 54714068.96889749 31581255.86945604 57005052.81288713 76308052.47527716 48314148.99373177 72568818.1013018 69366022.17652144 68784596.97299083 69808068.4507112 73133332.98599161 49335615.27473071 78607711.58841407 95151266.03059901 45781706.50431061 67606239.0189084 120683394.62118445 62074450.363478675 46953326.39236317 47236708.37697946 49846562.280006275 24142210.465611927 74383616.51434597 19320638.84782482 12249344.607667923 48344540.49373649 89660972.70836745 68257211.83885546 77196148.44510129 27420874.783369306 46614559.19895023 63082658.63025528 21461072.030928418 68122515.44855316 73367968.08190769 69829822.90317382 17260613.633153383 59902338.0705411 58581892.6011164 42743036.24336602 97499626.29710922 11512717.57550429 11435922.95579301 93259878.20225878 70553650.04835585 46793372.92339087 77300914.81724317 69742915.39877069 109328069.19032516 60608594.987238765 66288735.26392702 70436892.92858332 61616275.57357551 57787019.741871335 45109593.64317605 70263588.11588182 68912146.33815064 61562013.57883152 57261314.749349624 15827137.177730082 81227421.66090316 65475951.87236598 81481071.942549 30329779.163442064 41031036.62085111 44268264.50641015 226143.69734241877 32497104.739553392 30770575.292048883 13931932.597821996 71534468.38617705 43284459.72681698 40190001.12613846 41935234.71138412 57421970.73960797 36166119.033357404 79500160.1388562 13893553.577134993 85769702.56651933 21444532.852489512 65705001.211950496 75561089.8915307 70602658.20340827 65181848.98048708 67289983.07652287 54773655.80490216 50291681.660857506 64021370.07337157 84519385.15246162 48113064.63293847 64295449.29243476 50542308.01068036 69162049.77246135 35987058.87056962 29604966.743252482 86341134.53796756 18319027.848188378 32076202.183048453 57068729.40667964 17012644.934576966 42296823.73560755 140084850.18790382 67817284.20997308 85556047.46016395 67233732.87279436 76049977.90039358 73689013.29648252 23486074.53510023 27573902.606749423 69453329.02455917 50255935.39432064 70740998.99235032 62948448.22889511 68347118.39716135 73509174.035204 35889858.00174051 34467579.66306933 65259206.613653325 12155075.76795661 70909488.21507059 72810742.40580514 85582460.7078508 70092906.66866659 91107586.27288695 2202346.015928715 68771981.05062203 59355381.551777445 35742443.40122449 63132497.44827336 37036148.28974737 68688107.95630036 4108848.3711866974 219955898.0055816 6973722.606525921 80092512.82079299 46262415.63375258 82381287.6105813 47179350.9779394 23836710.78483206 20309037.165839683 41173172.05429937 43095487.0392056 43033046.4564344 61067797.59804695 55167195.89282088 24082134.70237525 77893885.5446247 39004519.39759336 42224164.2787119 28410963.49757924 70737249.94321063 68605431.2500656 20955869.144703813 91942012.28108549 27438162.84557233 46294532.416037805 70000943.66496879 19893030.56303857 78122276.00654198 75083711.17358835 87379798.76461464 62019620.588263035 22544389.78279407 38131756.38453645 55792605.26245621 12795174.346115617 64917415.65155276 118267022.40979959 64344315.116524 53187703.30422144 60280430.03749441 81419976.50350541 51578973.36143281 38061407.06946662 58057372.27646695 54797707.84510519 75201470.89009641 33074784.871273383 46591912.73807102 69882985.9323704 28880977.363744926 23360278.238615762 64068200.46802279 66313250.273565546 59273580.903102346 48267305.94644647 85250321.54061407 25612858.554191854 83797557.61085 19495459.559397805 44831516.677981086 65065221.53434259 53942189.79341426 61031780.0979853 63766181.072993875 50271267.67982152 90219463.70528907 72868895.23565757 67955153.20906375 65860982.724735446 47898654.832300805 76400222.12487222 88943198.41415033 75461577.69021322 63713253.989625186 18638729.183397878 40763400.82277814 65819977.16840735 59498798.476055466 11400702.08234717 89061577.03188945 60865160.31473071 10206961.191690458 69417883.57558681 34878056.06038657 61669413.271830685 80223450.46999668 85915489.69126064 66988939.427928865 49899746.190569945 59151768.66712348 66561864.22042682 28754800.59125988 69072818.79164797 5594090.503189566 63844185.3789677 62506342.3731189 69798166.4130935 44360035.419107586 42395625.88458372 69288823.84607126 62714710.21632475 19573236.875923984 51192130.14555434 12306452.55659136 33879081.353262715 60164653.62469826 64513143.22492269 71012228.15519747 116570050.82499538 35288450.974425346 23024646.35308351 59075550.49823149 21673505.522022728 68881872.42990106 119662708.04883844 52661876.204250015 74213860.75833236 151363966.11741748 61737028.02953513 53576997.10528535 50564974.33264758 59639220.15617897 41182908.95660164 122651610.36521424 35002662.684784286 72478957.59415904 39064793.21584805 62238503.860940784 85174582.7002761 49930725.31620899 72341667.38557231 62441589.95340719 19351095.172202785 27994539.777300734 27976233.235672276 78615848.20438464 32941712.470855277 33629001.51861724 70317699.84525098 56307815.88188555 16697724.602663456 49374069.41798978 50723456.125915214 68399554.68520944 117088936.94668077 68852546.93696925 73026213.01756953 68868533.03441006 62551950.86143854 80514049.89130484 68610222.06486748 68270258.25747822 217983055.8431515 26814070.848947108 34893905.711408764 47345761.56790819 69489119.72984481 68612635.40874064 58123808.09252657 61731160.74653903 21949027.172483053 68389363.84159668 62269665.29266894 69142988.5186136 87443339.44115458 130394895.78236915 62602496.50423067 41643437.62716126 68198826.29527247 33844727.67055431 28605977.07137802 45246555.33024707 88410660.57080083 28463892.74042188 29891338.355334383 46024220.95901361 81598461.82977812 7218589.235947766 7240583.507490927 24676782.52589463 65417320.39861348 47615012.43918812 73670592.56906658 6052005.641357427 6036857.472755664 65571063.40894246 67306456.91027437 69558536.27527744 83406524.16444577 27909694.019963242 40146777.59315679 73902800.5950827 81324112.29079278 64706553.6152291 69228322.43770672 47921564.82060312 83200430.28982817 64647745.90167501 74872922.2964484 65813576.69396607 71957182.13653013 67270282.34785877 74138180.96239626 49585313.21792707 64883861.44386511 65979384.32258906 33744038.092479534 69339443.8971292 63786725.66817327 18596202.434714675 159820539.39293388 64267971.2075272 35004075.87905622 45911228.000819296 2136283.049303526 56035644.70557903 67967246.40121321 101022762.5159472 7001856.543370812 63083914.436913766 49525586.127526626 47776531.100901 68325141.60601796 121109111.25639732 42317945.436269164 58354237.84446939 20197822.64781181 51259374.57099635 39980603.875488974 54355401.61186526 63430378.34352807 77700716.34572537 75053661.38609135 70298460.68642133 14850310.59650862 67320707.78398465 74851100.43887989 19492278.5162567 19410859.25203895 6342502.480739418 93668975.27542663 52169244.82618864 21046025.0278173 51609592.58773601 85278005.87968333 69984846.25010662 79749035.86840907 125078703.08366174 66185314.02586584 57697513.40817577 66501305.31214759 44058004.90919025 72019210.69940248 146406349.2500514 18587780.415271416 6393419.213798009 73466727.56287947 63461290.67938622 60846703.956043355 65725966.13774251 41922175.311229974 34972322.37128754 76578268.73047146 75735098.70072804 65720739.1484651 66991652.87537485 55730356.27202322 16272221.661191514 89218564.1984942 63495022.985341474 105582515.35524598 62567729.51838273 49513360.35877727 50105051.996940225 65173246.267566815 55103093.97822631 63314087.68668204 47504956.788215205 69120613.23973301 62818648.56044152 69580235.71096759 31043155.823481116 20074177.636097603 83832565.92766029 30318470.27132321 50047653.05803698 66254579.4605979 77408597.89701307 46372332.34623373 67815687.24186057 44971201.86293869 71350691.26582669 71543944.92226441 40584199.481395334 77372432.04935549 77131910.69702479 44555353.015585326 71058673.62515865 48558866.67022271 37408214.417133294 56302873.17928129 60067523.395986475 70114260.44136603 45549906.972337954 68882087.4727333 71005783.98037136 39822540.47604937 126242539.81316045 60487015.471041806 79674245.23390116 38259646.097340666 60584042.56166949 60596965.12310965 41368162.21787116 63463395.3511502 109834957.0742407 39397689.29928854 27215004.981196124 61850199.7083866 37969648.30855928 53524441.03525432 51113129.26563426 67178180.51701915 51742434.427556016 46199267.5756206 32573132.736177407 96601682.80267692 32595569.687304918 57135601.478198014 71252022.46614522 36333923.051437676 64789316.324331686 114495107.28091152 55058038.394482546 78789433.805477 16644851.105713107 84986502.49113981 66760269.3869099 68860730.06409341 30363295.41888725 48930005.14532607 42490662.3570085 84990160.87287173 85228203.41984002 59443842.15039444 61341537.44303961 839973.1294309192 16786490.55781292 67040530.046448134 43925804.91132885 72407032.09376936 30548558.672396224 77027532.15713868 48882650.3736924 51837090.63025741 72660046.69012587 4551419.489752005 51124145.74938619 61605104.04454448 78560528.108732 23720586.69591158 48645425.45529807 66073552.19072027 58662232.55898941 51526217.76847097 62216880.65240566 75449706.70649202 53522841.6745173 47954029.456759825 70935162.9181547 21393677.824854854 64076874.34297135 86900967.58860879 69918572.85098961 57711602.4455441 64467476.161183335 7274272.606339473 87223602.33839706 45813547.40581357 68482134.84747012 25828785.269877285 64030059.77510279 51112456.84296812 72335260.87596306 47933299.014496624 99091377.6163342 190400222.62438318 64104484.76850804 27469862.650930643 88132797.67097917 122391739.0371069 121426028.93947849 71791945.04762965 94804743.01663917 74918365.40390888 50491964.050688155 47652092.222833335 27766885.45661833 67587179.69126888 39626190.34985054 2110043.1472294643 5929180.999215592 54119301.11270436 53685531.20329015 59890471.170678616 172869519.43428764 69375233.23521331 74342621.44030868 61948362.308759965 56960511.6865074 47625656.20261037 81075909.7773685 16693229.761000374 23592786.277358517 67020956.74591772 56845285.696819216 48294927.163843445 79234218.55306885 41838881.3118372 59364715.450300254 59212011.157167844 63233689.92031172 55153794.49042102 40634624.34901215 93158277.93586263 39285301.510954276 63923235.804134 10178358.417183364 34384403.386011474 34523281.836330324 49532418.65386319 90031736.95038137 21225491.60188496 63809277.18192721 17482183.71891523 71237181.81707692 25908073.73041447 49222761.66954183 77703829.31455788 63139267.82224138 64877996.71030501 59550577.880757585 28900595.766053785 47239141.05612004 10807157.482252568 71063159.57727778 60738466.06704888 39275393.93834015 11150112.711553417 61182321.65499467 13273733.417964585 70906117.13256995 68320689.85604115 49801772.400195874 69989096.7189249 82349565.04298346 59150854.26262931 82202481.24719003 79174379.74641189 50109596.56684322 61201122.103957064 49442429.368832 49503390.30368396 12574928.41970839 66195550.55685478 63143621.29264645 59389561.42795767 58257707.71298476 63935209.8706692 50338362.11910467 211927818.46934214 17864393.699987214 88265613.51664165 54603738.86574383 41308740.62481545 64560184.354167394 123451327.99181998 49927754.178799786 52784706.2377609 60891304.01243678 46381967.81249234 81864586.04914686 71179630.85511914 50356249.237908915 175950152.9638275 51107188.10303779 36368224.33906199 57066531.08550326 25786390.728913467 68933124.11723308 66019362.72709673 31721383.212689113 69803518.69053996 67177075.88207227 3774109.3214236507 36744248.16583072 55807912.55456153 63785915.80007981 71248759.39688902 10047208.03450852 69815295.83734295 71712468.90407103 7714028.881242288 58859622.4876576 15575683.098526819 38592577.67766715 16572690.455032937 7264988.278576661 81576045.49194387 51873090.43464415 19411202.362227634 30641518.136105824 64978663.93028603 47915517.24683908 167737531.9171814 63076254.757547304 66978049.54139962 81469671.2972847 59545143.12557766 19736982.536438663 66491797.37407901 66148624.482658565 60647332.176925674 67804715.18796553 70520960.80835785 83486360.33409557 76800689.53522791 77090530.82065701 36178184.89414409 65293792.343205705 43090770.63104055 68348175.75642505 47181631.90961298 49215721.657078415 51081786.94949992 65967491.69862762 60406174.72105663 42028395.084360786 71469078.6505578 53879506.79782421 65378816.27168366 138337415.82057026 49366318.27214959 70780009.47026737 73745199.49963428 49032445.17208403 20455969.736602392 51273726.66054353 66368909.333818495 95454332.16045447 46980868.60163288 161941649.3546102 85524100.31957294 51127525.27232274 36236289.833683446 72462051.09325615 67908901.03473629 80587949.10364777 56660067.074705124 46384634.6425358 45505583.550477944 59631493.30101009 93979903.83678067 76686751.76607269 159484600.26959726 11262617.897764347 20076232.06080666 47203994.24961308 13471241.888781982 74138734.71639866 79943028.36064084 58229123.09038294 88632673.5253128 73226986.4176181 184830552.11498252 59655472.540581785 74831770.9413757 28403193.206110884 73252099.07214092 22859633.86820908 84814928.10660674 49038865.625408955 46479091.85769651 34073557.66373512 16963094.12806945 78431862.50952697 49810580.82344129 44327690.83500679 53103753.37639671 55046746.96951453 10273332.221992405 62341085.42532148 48338205.18809069 86962614.10885692 62869578.98202333 64005872.788753316 45171390.20581088 32538575.926745012 54023893.94961797 66304275.59094221 75441435.70698617 78845411.74482466 63979323.77227169 51016341.9504117 47917785.719720244 58700628.40534264 64004373.89371366 41445611.56040678 36021377.78553892 71421025.73714547 19314891.92228308 50810290.36681154 46623428.2251579 11530912.700650183 11477143.001210282 68124747.93941706 49785225.614467725 64496314.93724224 52593162.88178431 65010475.3229309 60450710.4201471 13614117.374896158 36740397.86178691 46513877.66480313 50983790.16521692 70964611.04713273 67018921.01070995 70077887.97304563 47250102.00861954 41638763.69255358 48919261.94529499 51017794.42005265 64478290.1882638 50746244.679871984 66150559.57717661 60301178.53749078 66019736.67940674 81613661.83529623 21716969.49601066 38120978.63041623 62518181.93276777 57928436.58602746 11328256.854243489 39388386.21448896 65781884.26790786 31903373.817404885 61492878.67056102 97151346.68690334 63622024.41124502 52106256.202833325 57354775.52354723 82303729.17654239 10845555.293093316 11186471.066902159 63331350.8958019 58898346.32165244 82823547.03234367 165600183.72479007 66140692.01600557 66555464.402280875 37764739.82058729 73112346.28978194 23166133.93584922 26350035.22150625 70688162.83969422 170186753.57083547 59745268.86052487 121694304.66848132 60159906.41294626 79865374.031446 99713910.40579772 78612542.91010857 48196576.002353966 131945497.23495756 33260511.303017836 60390854.14368408 3091476.2450371194 38311819.86970187 61349230.48405829 58891410.62890852 78906724.12913646 13153836.94582974 41318228.10852995 26855045.240677897 65582895.14519281 81400567.66496296 4462089.48976416 4426041.0168032395 29836973.150617614 100581241.73544134 69579664.08628318 87110826.58775733 49879987.9701256 62505505.43197735 64029687.13142017 7533417.027283581 69468597.57396959 55206583.70595779 55303690.44155871 42057241.071249805 68941004.68741733 3647468.544394592 3549200.6967909806 59197078.05232962 63628541.2056718 65936371.00902161 67855231.36669575 100410588.00040668 68931235.94263448 58922261.76717441 52952220.40166031 45510669.12104817 62736057.335720114 64626616.17079405 42315916.92232888 80390394.2860571 30128371.699665707 63615417.77085269 88768532.67722775 47610517.12735137 87373774.32880008 29561815.532089036 58844050.84494098 83777502.12773366 60303621.45731535 41000364.1353734 65004970.32733385 50896439.635794915 58116181.42125128 82564032.27427714 97744801.32372609 50326970.71411532 62747210.73365994 148052089.64851835 33833518.00599861 72739690.64520764 62649739.96371369 4418282.912370688 98658451.26419018 50033070.89314949 36406211.628996536 29772487.236431055 6755617.164952331 2273900.5659637772 62226021.94957908 59576263.33229148 101090547.130003 49323075.57274531 126633586.11956392 4265544.463011951 65800941.95982778 11963782.91060049 36643145.34476194 32807544.21506661 77669757.4210712 102753479.01874156 51017206.01576434 70892036.6473231 66150857.348336786 149687669.161456 97351802.25694089 88490472.44896853 55000617.594285466 7859805.317632785 78269392.25931615 51543903.33591245 60281446.335792996 65039420.09540675 82591784.93776533 4276353.336004797 15908374.338135343 60019738.719704665 74607535.28224105 31447809.870769333 26879060.79469946 59970769.21569917 88929594.16040789 66333226.640894756 56592068.04176409 51751143.67751988 77683559.73734072 60464204.59229024 70178949.854823 70240682.14525218 30414567.599867124 63175744.8845087 55671022.43425265 10181956.464472037 10197370.37162311 85029714.18519172 3186612.3467470165 57119142.829436086 81219789.43791418 35885375.340032406 77571276.5998502 36951268.86800809 60715376.74362309 60428250.97323226 67411060.88654895 24740973.590147987 6723410.8953217 19088133.38951049 66294223.0370885 54432325.271400996 97246991.92995986 79508491.98528013 12444974.015227504 93170352.34532048 110533367.2553456 51278208.47479403 74900092.05317654 65132350.51905755 53999124.74921392 52617759.59554371 70594063.87246512 32895865.97454862 24286080.236252118 62071538.225158595 43443318.51859885 47429977.41045314 68583632.07838859 21857427.40681576 9893137.282732887 77829193.28579286 65045665.343770504 75086642.31857009 75975679.13454436 36814273.1846302 36730882.082203545 75347902.09879139 28185011.11719465 72971238.00788498 58691619.71896276 63730555.30085183 54412246.82734072 35546590.70800989 69131140.33810432 34165177.92926922 8454168.535276635 8481365.234259596 68224516.65356685 55893818.75784318 74378824.24592377 34335258.51851544 26038016.44546314 60333143.825528115 34167813.38320548 34662981.65643398 84924703.3166196 34346556.25815379 54212896.68235878 27034809.67377994 64164982.22945345 6460815.43766466 64278975.45794693 68303979.38361382 29991530.44982372 74310798.36007804 52178856.1138721 69106160.68868522 60660847.36070176 16784730.291100454 80869181.70464545 15274271.973643173 15879108.02918456 91153380.79996088 10042415.981706107 81583081.13230191 114036815.80083193 25247205.310211446 62450437.81391266 84193658.71138653 69748433.25866073 27460549.72756344 27479672.711022954 17214871.03449748 8053418.406587524 67711412.31949905 30700671.19724552 79817583.88628034 62801354.03930482 8586670.674988104 70052683.64964238 83204658.02775794 15848980.70052631 91199467.98565087 51966726.758370265 55382453.38346129 55177179.935578704 71457517.90570985 55624612.05033618 71745684.91645661 61322897.756708615 46910046.530315235 82028265.21016175 70593299.55824189 85827517.88214731 36964897.99076164 62521666.55331134 79659322.84747504 44126635.03863637 44209291.84652286 5656688.8092245925 68718979.45541175 33917829.77312623 34254249.86084525 50393839.945807785 25445077.21898179 67336824.8404796 69501107.94323428 24814550.42194778 88749852.78850277 45888754.94459125 51317198.24113797 88946405.36148657 68120860.96827316 77419752.15896253 66675690.68179597 43318256.23595812 66128180.811810315 5440155.996013347 65992424.321015 62925296.793420985 81373567.71941821 76617158.3996589 50089174.26499072 62595189.288833894 67434336.4996403 46446272.83695909 75086731.6579272 63279260.98640888 25030140.381758846 5562608.953193691 70462609.08572984 80146520.52885985 62747769.70259124 4468246.92392823 4500276.92669643 46174741.5478902 37111955.55449131 56763411.025362775 66845324.77130255 87981026.13090576 75801706.53701745 63466081.98944747 76483989.0379894 74737725.88926291 43660158.65031958 84797593.10574998 76684299.5255534 72877219.31288102 34105297.274034835 40035690.88140897 82191836.22368832 42035155.02976003 74980475.93764131 66858288.56953433 10125194.654332308 55519813.341938615 17794045.74757035 8428246.371686382 61482833.22653079 80001782.13436225 93379095.41192137 76323951.10747968 69785807.76163983 81128161.83270805 58514016.46241018 65264315.690195076 10469742.525515657 20119641.97893477 68429907.00288264 62330599.82320647 5634105.296835373 86154083.33234198 64000011.052329175 302325178.5829031 76868193.28688939 78880359.01752342 81672267.61345471 60476188.06849196 20431562.99973943 73283486.93068647 60927326.126749754 72543572.31153953 52031342.79736401 85593645.55704851 56828417.628235 34061503.97349432 78971879.11629552 88347036.87531321 46495890.00199988 62320866.05898011 85196715.1336062 139336695.9601536 24791860.720429022 27705134.597836822 19096112.679519985 19130098.862834837 25287283.17463206 188133482.6040056 34343584.34681598 58051094.252222896 50380626.66072556 60922193.807301685 60616582.18025655 71328191.56247051 65902562.73186781 71272634.18090138 171829952.32852167 51000652.002490975 115211988.48682484 69490134.45763503 73887056.21511643 54787096.82784775 43765573.20846657 23719393.75956032 59414221.852636665 67872823.10411742 50813480.354561 21863466.18006416 19254724.52716197 79880082.55499032 44414499.95442328 45419630.94822028 7433496.870312133 7389293.076785038 50651113.26231075 72962663.55573009 63991107.81384684 43110283.337992944 37879136.068927035 5347255.271186655 35360244.86087383 64308206.43860564 120905872.80368893 69954125.30849846 77345739.61541651 8021709.356551831 51282973.098058134 65335929.87023506 37438057.21310406 81351678.99612373 64083979.92691921 82333835.2761968 11161215.658354634 149194701.4121695 43221636.013332814 13837100.69433011 70121183.80167194 11108605.644730937 53236162.66971743 53196551.49138897 183717630.64096388 45445174.89471872 64793970.14146769 67580912.09795189 72025117.55034937 69786482.15787789 97736165.2066346 90378100.74640706 58579701.36446322 69709008.07702598 9420316.78242931 9382394.195874693 130208555.41634734 35892655.27988379 44108918.15772223 43447336.86950855 95520889.1237924 68948841.69385545 79071472.20646079 71971725.48949882 60733973.83776654 62652570.71584761 30860358.520370666 49862615.75428162 22294463.53574512 77091830.43910706 115058663.69918177 11271863.875302762 8416120.368550241 69734383.38785951 67346907.11510709 62777412.81832507 75580291.79995534 64484212.73332369 154714937.622238 20814187.975238677 22075824.963384017 173633220.82540214 68980153.19719292 76361209.2949663 6948481.848500651 68195503.79487431 35124905.090060756 76717490.22142477 100689453.21752062 66988313.719140776 4905655.18681956 4862646.83122303 72027120.91819133 11444845.841848182 37423991.039110966 11994535.613786818 11797949.372310609 63869827.76705569 96620544.50980565 117503588.185476 23989682.461078342 119423000.90606996 100288379.65168694 3758793.4112076485 61466918.21343955 60287178.95355445 142545186.8628501 79037550.56534201 64802140.16962512 64417589.735884756 38593023.187907934 121167849.62314603 21320461.66169381 75028211.4766732 78612407.04818746 74888852.60713388 70641153.66224414 26131848.16455239 5487113.177689849 5478359.97881354 110326162.44889711 48107382.04718171 60465086.01540324 42920829.71410672 89604980.99179155 40935616.3467765 32181420.314534146 53878287.89196605 57057440.2298416 5127401.061436522 85047275.76231891 47061912.99032973 53082151.789031684 91872476.96564381 57305192.214135475 13025470.066133516 52863338.07608864 66963030.13156932 29529403.80453729 52672100.99844764 59607156.71442794 62892181.6648897 77172622.756236 65871531.6437424 36191820.33094052 79054892.33776961 69395050.50037856 13131062.662243659 69244330.17326602 50249259.57223287 66983633.43388054 69719408.8381395 67303469.59509502 44230148.27084877 32180442.577211242 47397173.27508277 78447788.04877958 71470037.8017953 67015133.83451983 107861851.05084056 45175946.055200726 97883939.89105693 73476047.55244216 33914163.30248071 51882406.87347873 65350405.3160224 40083339.001132384 57696338.34972852 73096446.60684119 94797180.78544779 79576399.01254861 77895157.03212695 76244537.84348418 86786858.03819348 58688168.39733781 63540027.299784884 73767457.46681458 34550750.14192986 112958464.57039806 61750751.11451038 93310731.4605399 70072963.62556297 81138981.36640431 25298256.565272484 77074677.48048173 83847436.32511187 66908103.17687406 36916684.90154768 71096476.955588 72625612.9859459 66123042.889523335 30605609.38000407 62434790.24199292 73333850.74394044 41932500.22903248 38392423.62586518 66423666.48041908 88105673.2431811 6784555.597657475 63160986.72376566 3201861.0152216787 3200835.1996152885 64738050.82293765 59580502.5781131 77713904.99271734 56195974.911096275 67089990.55576448 66743608.779990345 66061799.69693054 45237620.64021526 50123256.10880369 70711814.67602308 65354043.24547839 55653701.90196201 66695952.39087075 60444993.08344725 76986527.92514992 61010605.733089544 91499375.47312413 150390976.00251785 62558522.5266046 154620295.6128553 75259066.0821273 5195610.594838198 23202312.17268189 50288221.46878355 74823163.92609859 70369939.1684598 63634237.68316439 22041590.59291045 68374067.14617513 15922822.015897706 158951840.90489507 3063931.6636425974 45593969.59929235 41537112.35741321 49030175.84606358 49649275.13318774 149211594.4978417 49460169.56054834 77686587.5983186 38996638.164367005 62605450.36823704 49972049.26841433 59552764.16341705 45792169.35078825 66045173.693524204 65287787.710630104 64798374.89521534 72641911.4557025 64256801.642554455 65168765.66255867 25281252.36705404 121897805.98642893 44515249.08159754 64291987.945866086 6215460.504753774 40569903.21327743 62616879.58553708 61415646.114564836 14150797.847114118 32144457.329066046 32127351.573340997 2939819.0374339945 70584189.0428301 49061793.08324951 18209139.863647163 39165178.36143818 56546036.53573985 69487861.05649121 66994758.00185425 48735633.46002801 69541332.77389444 60001966.60598025 81856249.56111203 52418819.544559106 3540668.9032603265 3561084.0653436217 36961193.754570834 67028711.89014625 58165861.72607818 65054557.83202739 83849985.24801958 67603261.21327394 63650781.90944325 68448307.0542737 67129664.44559601 66900507.931625396 67995064.75611144 92559412.23328383 29091603.773985725 29115771.845743764 68975425.48924795 65363615.77446434 38643315.749251395 8665727.8331191 82730738.78594424 67419369.10445707 61733524.40909606 104116566.19090806 27395083.301737316 68312251.78052525 66473686.43148679 80408059.49485098 68482149.4406292 19803049.03279517 63903730.245545276 69984078.63116921 77787672.28482284 59033475.03764144 144498437.10548902 55174365.382458106 66561896.39314978 89836350.80860448 62697898.02259045 72003277.89474848 127219851.3811178 64983900.31864805 13823665.887103744 47008307.64372272 69751955.06220339 43140090.70592833 35409684.83482336 85239153.53748554 67305511.05863835 67317445.94737278 68448488.29488866 68571103.71890931 68542670.32457338 63000257.89271276 161668954.12118834 61379319.34728191 80477692.05446784 102501162.84901804 82905558.86511104 65059976.31185093 81189761.5600864 62886979.93268803 69892068.22351718 63299413.090913296 74922039.16295847 68543664.6702475 69688970.41901787 66491222.02548248 98643820.70442644 40652451.0972527 68805570.49867766 86443478.86412348 68443900.71974711 39043509.68342264 64819118.564735025 64868340.332169555 56202186.533567786 69379503.98260453 19389147.272102106 71250871.18778919 11523111.421582127 73184706.8987725 104250502.43890606 66163842.307013586 82945399.68528013 61697827.57846129 67163551.50049902 41297002.3042818 15439291.166826895 69304878.86590484 78043537.9951738 63155495.41472236 64753126.25913412 59364451.76511394 43288867.34073272 27016254.09974163 59618685.4143043 49094280.2844111 69658557.96502082 90732262.90193051 57547328.28556233 77340178.84624799 69384054.35735357 78669868.26568219 69704975.45587884 65906248.67488382 70531058.55420041 74847425.22780885 69951173.82427295 63192960.12142728 27342126.32512598 55511137.58019229 65715600.86907343 59794264.56364712 41553338.6702407 150920350.46087393 20132319.271942385 90459180.44619548 20222435.896043688 24500489.766087856 127623579.84124671 85249255.3875478 79826602.99933007 83002074.08200048 80944181.9395871 72212620.05527501 43289944.434130974 63537791.77290614 74635141.04562078 60704950.58475462 104391736.18958715 109261863.8981742 64405834.63992633 87334667.840139 82596896.4339019 93190257.01319991 69797072.4981084 64249642.74206048 43596115.29400684 64628534.52333055 64875054.08510979 60100042.661629125 13607920.867476664 61623622.99883249 104881173.5311573 72761010.15433724 94431021.13453452 70563812.64685117 62782579.40739321 67299084.10277471 33575228.457307644 74712896.23362999 52469442.03224912 69668662.50126407 73473421.83289692 66959567.70911803 76517944.03081279 64572712.68999672 64905891.88957145 21317362.783060104 21124901.112948414 83856491.97132206 20128314.804750625 20102554.772370044 36827664.64802825 45196626.77132506 66873601.774035916 70531635.28037938 32968127.55131364 83006829.40621951 81827542.6143165 58474985.61202875 49901807.76241587 71402228.79107961 35089373.94890638 86486836.67598946 64267243.99153765 71000296.08180693 37861318.573345065 64458079.01051069 63939840.26939109 67219633.89854382 64244818.535222664 68038702.4507424 61707625.86825656