# vtk DataFile Version 2.0
Really cool data
ASCII
DATASET POLYDATA
POINTS 2153 float
10.0 25.0 0
9.499999999999998 2.5 0
15.5 2.5 0
15.0 12.5 0
20.0 12.5 0
19.5 2.5 0
25.5 2.5 0
25.0 20.0 0
13.421875 5.0 0
12.5 5.921875 0
11.578125 5.0 0
12.5 4.078125 0
23.421875 5.0 0
22.5 5.921875 0
21.578125 5.0 0
22.5 4.078125 0
13.421875 21.5 0
12.5 22.421875 0
11.578125 21.5 0
12.5 20.578125 0
23.421875 17.5 0
22.5 18.421875 0
21.578125 17.5 0
22.5 16.578125 0
12.5 15.5 0
20.0 15.5 0
20.0 14.5 0
12.5 14.5 0
9.991935483858025 24.63709677361116 0
9.983870967686876 24.27419354590941 0
9.975806451505594 23.91129031775169 0
9.967741935387979 23.54838709245913 0
9.959677419287308 23.18548386792893 0
9.951612903177157 22.82258064297202 0
9.943548387037561 22.45967741669023 0
9.935483870865918 22.09677418896629 0
9.927419354663494 21.73387095985724 0
9.919354838499428 21.37096773247424 0
9.911290322402236 21.00806450810057 0
9.903225806239442 20.64516128077486 0
9.895161290090327 20.28225805406479 0
9.88709677392396 19.91935482657819 0
9.879032257749005 19.55645159870528 0
9.87096774158539 19.19354837134259 0
9.862903225443695 18.8306451449664 0
9.854838709266936 18.46774191701208 0
9.846774193129884 18.10483869084486 0
9.8387096769655 17.74193546344752 0
9.830645160817648 17.3790322367941 0
9.822580644653016 17.01612900938582 0
9.814516128535823 16.65322578411198 0
9.80645161236424 16.29032255639083 0
9.798387096184427 15.92741932829917 0
9.790322580028553 15.56451610128487 0
9.782258063860747 15.20161287373363 0
9.774193547698067 14.83870964641301 0
9.766129031557885 14.47580642010487 0
9.758064515415136 14.11290319368108 0
9.749999999265055 13.74999996692745 0
9.741935483151023 13.38709674179607 0
9.733870967040986 13.02419351684439 0
9.725806450970376 12.66129029366696 0
9.717741934888643 12.29838706998896 0
9.709677418789838 11.93548384554277 0
9.701612902692275 11.57258062115251 0
9.6935483865711 11.20967739569949 0
9.685483870450787 10.84677417028545 0
9.677419354371613 10.48387094672266 0
9.669354838248523 10.12096772118364 0
9.66129032215358 9.75806449691109 0
9.653225806025599 9.39516127115204 0
9.645161289919614 9.032258046382696 0
9.63709677382252 8.669354822013439 0
9.629032257712137 8.306451597046282 0
9.620967741597934 7.943548371907037 0
9.612903225478219 7.58064514651981 0
9.604838709395764 7.217741922809518 0
9.596774193335289 6.854838700088075 0
9.588709677229938 6.491935475347274 0
9.580645161101724 6.129032249577598 0
9.572580644996847 5.766129024858337 0
9.564516128916669 5.403225801250091 0
9.556451612836 5.040322577620052 0
9.548387096737235 4.677419353175575 0
9.540322580608505 4.314516127382788 0
9.532258064471684 3.951612901225835 0
9.524193548396726 3.588709677852687 0
9.516129032273984 3.225806452329359 0
9.508064516148213 2.862903226669649 0
9.852941176575179 2.5 0
10.20588235384425 2.5 0
10.55882353096536 2.5 0
10.91176470721401 2.5 0
11.2647058842994 2.5 0
11.61764706100214 2.5 0
11.97058823810794 2.5 0
12.3235294170403 2.5 0
12.67647059214862 2.5 0
13.02941176563702 2.5 0
13.38235294061013 2.5 0
13.73529411351178 2.5 0
14.08823528775529 2.5 0
14.44117646397333 2.5 0
14.79411764123219 2.5 0
15.14705882094263 2.5 0
15.48214285710404 2.857142857919064 0
15.46428571423325 3.214285715335077 0
15.44642857135935 3.571428572812889 0
15.42857142846433 3.928571430713412 0
15.41071428559489 4.285714288102234 0
15.3928571427184 4.642857145631958 0
15.37499999986416 5.000000002716725 0
15.35714285692995 5.357142861400871 0
15.33928571401367 5.714285719726578 0
15.32142857106964 6.07142857860725 0
15.30357142814068 6.428571437186336 0
15.28571428519924 6.785714296015096 0
15.26785714229736 7.142857154052814 0
15.24999999944757 7.500000011048588 0
15.23214285665211 7.857142866957921 0
15.21428571381986 8.214285723602668 0
15.19642857098651 8.571428580269666 0
15.17857142818586 8.928571436282821 0
15.16071428546017 9.285714290796712 0
15.14285714268139 9.642857146372322 0
15.12499999988752 10.00000000224952 0
15.10714285709138 10.35714285817244 0
15.08928571426198 10.71428571476034 0
15.07142857140775 11.0714285718451 0
15.05357142859945 11.4285714280109 0
15.03571428572961 11.78571428540776 0
15.01785714284225 12.14285714315502 0
15.3571428591223 12.5 0
15.71428571719138 12.5 0
16.07142857423201 12.5 0
16.42857142974857 12.5 0
16.7857142846084 12.5 0
17.14285714112862 12.5 0
17.49999999772317 12.5 0
17.85714285297952 12.5 0
18.21428571083795 12.5 0
18.57142855939082 12.5 0
18.92857141386655 12.5 0
19.28571427430228 12.5 0
19.64285713574168 12.5 0
19.98214285709066 12.14285714181319 0
19.96428571422755 11.7857142845509 0
19.9464285713915 11.42857142782999 0
19.92857142850372 11.07142857007454 0
19.91071428566385 10.71428571327699 0
19.89285714274722 10.35714285494433 0
19.87499999981069 9.999999996213674 0
19.85714285679789 9.642857135957803 0
19.83928571385784 9.2857142771567 0
19.82142857094275 8.92857141885494 0
19.80357142811986 8.571428562397289 0
19.78571428518957 8.214285703791473 0
19.76785714222912 7.85714284458249 0
19.74999999927616 7.499999985523064 0
19.73214285649986 7.142857129997356 0
19.71428571378 6.785714275600116 0
19.69642857096893 6.42857141937854 0
19.67857142816632 6.071428563326299 0
19.66071428530542 5.714285706108507 0
19.64285714248335 5.357142849666927 0
19.62499999965938 4.999999993187642 0
19.60714285683545 4.642857136708982 0
19.58928571409201 4.285714281840209 0
19.57142857126215 3.928571425242887 0
19.55357142848666 3.571428569733251 0
19.53571428567042 3.214285713408467 0
19.51785714289288 2.857142857857421 0
19.85294117629201 2.5 0
20.20588235487999 2.5 0
20.55882352693214 2.5 0
20.91176470067818 2.5 0
21.26470587509772 2.5 0
21.61764704895601 2.5 0
21.97058822759501 2.5 0
22.32352940747382 2.5 0
22.67647058455666 2.5 0
23.02941176067775 2.5 0
23.38235293441871 2.5 0
23.73529410473613 2.5 0
24.08823527892097 2.5 0
24.44117645565941 2.5 0
24.79411763635966 2.5 0
25.14705881820279 2.5 0
25.48958333332585 2.864583333595161 0
25.47916666664597 3.229166667390891 0
25.46874999996687 3.593750001159383 0
25.45833333328636 3.958333334977398 0
25.447916666602 4.322916668929952 0
25.43749999991316 4.687500003039327 0
25.42708333324472 5.052083336434745 0
25.4166666665751 5.416666669871431 0
25.4062499998852 5.78125000401795 0
25.39583333321691 6.145833337408416 0
25.38541666653144 6.510416671399764 0
25.37499999984903 6.875000005283809 0
25.36458333316022 7.239583339392362 0
25.35416666645721 7.604166673997792 0
25.34374999977512 7.968750007870696 0
25.33333333308926 8.333333341876074 0
25.32291666640567 8.697916675801387 0
25.31249999972474 9.062500009634261 0
25.30208333305578 9.42708334304784 0
25.29166666633597 9.791666678240944 0
25.281249999644 10.1562500124601 0
25.27083333292552 10.52083334760698 0
25.26041666625816 10.88541668096443 0
25.24999999957175 11.25000001498879 0
25.23958333293401 11.61458334730956 0
25.22916666630316 11.97916667938932 0
25.21874999963477 12.34375001278308 0
25.20833333300986 12.70833334465483 0
25.19791666636482 13.07291667723147 0
25.18749999970019 13.43750001049318 0
25.17708333305312 13.8020833431408 0
25.16666666648339 14.16666667308115 0
25.15624999988681 14.53125000396162 0
25.14583333327724 14.89583333529646 0
25.13541666672773 15.26041666452946 0
25.12500000013395 15.62499999531171 0
25.11458333346292 15.9895833287975 0
25.10416666681642 16.35416666142532 0
25.09375000019333 16.71874999323352 0
25.08333333356111 17.08333332536115 0
25.07291666688319 17.44791665908837 0
25.06250000021687 17.8124999924095 0
25.05208333355612 18.17708332553584 0
25.04166666690528 18.54166665831552 0
25.03125000016995 18.90624999405174 0
25.0208333334352 19.27083332976814 0
25.01041666669018 19.63541666584358 0
24.65909090697006 20.11363636434331 0
24.31818181387862 20.22727272870713 0
23.97727272112545 20.34090909295818 0
23.63636362933978 20.45454545688674 0
23.29545454074166 20.56818181975278 0
22.95454545175678 20.68181818274774 0
22.61363635870555 20.79545454709815 0
22.27272726938004 20.90909091020665 0
21.93181817642107 21.02272727452631 0
21.59090908415283 21.13636363861572 0
21.24999999070893 21.25000000309703 0
20.909090898365 21.36363636721167 0
20.5681818062032 21.4772727312656 0
20.22727271532826 21.59090909489058 0
19.88636362288735 21.70454545903755 0
19.54545453222531 21.81818182259157 0
19.20454544067146 21.93181818644285 0
18.86363634917439 22.0454545502752 0
18.52272726008306 22.15909091330565 0
18.18181816691119 22.27272727769627 0
17.84090907624678 22.38636364125107 0
17.49999998161302 22.500000006129 0
17.15909089129634 22.61363636956789 0
16.81818180107666 22.72727273297446 0
16.47727271035784 22.84090909654739 0
16.13636362113641 22.9545454596212 0
15.79545453028867 23.06818182323711 0
15.4545454400335 23.18181818665549 0
15.11363634812483 23.29545455062506 0
14.77272725866684 23.40909091377772 0
14.43181816866006 23.52272727711332 0
14.09090907805834 23.63636364064723 0
13.74999998745307 23.75000000418231 0
13.40909089754563 23.86363636748479 0
13.06818180839043 23.97727273053652 0
12.72727271853859 24.09090909382047 0
12.38636362812021 24.20454545729326 0
12.04545453791708 24.31818182069431 0
11.70454544876188 24.43181818374604 0
11.36363635991656 24.54545454669448 0
11.02272727049761 24.65909090983413 0
10.68181818161208 24.77272727279597 0
10.34090909059876 24.88636363646708 0
13.29836716804519 5.460937501850858 0
12.96093749805554 5.798367170236416 0
12.03906249886036 5.798367168455805 0
11.70163282969542 5.460937497937477 0
11.70163283195481 4.539062498149142 0
12.03906250194446 4.201632829763584 0
12.96093750113964 4.201632831544195 0
13.29836717030458 4.539062502062523 0
23.29836716853658 5.460937500999747 0
22.96093749805866 5.798367170234614 0
22.03906249972091 5.798367168952648 0
21.70163282978201 5.460937498087458 0
21.70163283146342 4.539062499000253 0
22.03906250194134 4.201632829765386 0
22.96093750027909 4.201632831047352 0
23.29836717021799 4.539062501912542 0
13.29836716891448 21.96093750034519 0
12.96093749723044 22.29836717071278 0
12.03906249968323 22.29836716893089 0
11.70163282943968 21.96093749749452 0
11.70163283108552 21.03906249965481 0
12.03906250276956 20.70163282928722 0
12.96093750031677 20.70163283106911 0
13.29836717056032 21.03906250250548 0
23.29836716933758 17.96093749961236 0
22.96093749736115 18.29836717063732 0
22.03906250038764 18.29836716933758 0
21.70163282936268 17.96093749736115 0
21.70163283066242 17.03906250038764 0
22.03906250263885 16.70163282936268 0
22.96093749961236 16.70163283066242 0
23.29836717063732 17.03906250263885 0
13.0357142863834 15.5 0
13.57142857334916 15.5 0
14.10714285783675 15.5 0
14.64285714470339 15.5 0
15.17857143070267 15.5 0
15.71428571720997 15.5 0
16.25000000702564 15.5 0
16.78571428904744 15.5 0
17.32142857412979 15.5 0
17.8571428511085 15.5 0
18.39285713616606 15.5 0
18.92857142211578 15.5 0
19.46428571101452 15.5 0
20.0 14.99999999601014 0
19.46428571160309 14.5 0
18.92857142040583 14.5 0
18.39285713577575 14.5 0
17.85714284336419 14.5 0
17.32142855637984 14.5 0
16.7857142655791 14.5 0
16.2499999775787 14.5 0
15.71428569556309 14.5 0
15.17857141150299 14.5 0
14.64285712475407 14.5 0
14.10714284117721 14.5 0
13.57142856006613 14.5 0
13.03571428124737 14.5 0
12.5 14.99999999867727 0
12.25307926574002 11.30432097730925 0
23.92922602659406 11.5289316500902 0
10.98894975344914 18.75768274827526 0
12.05444567152777 18.23221162589563 0
10.88559524685432 19.13632670613711 0
20.65801354949839 16.41684123914215 0
20.84761171889527 10.88134817358916 0
14.17852023192054 9.909162032109172 0
14.50116206300994 4.574154032609615 0
18.46884582335945 18.75028284100798 0
13.16377971234091 17.03181718306911 0
11.43236232590027 10.44686699568016 0
15.96125516164294 17.52945788202166 0
12.96831550991803 12.42165642994527 0
17.54860427464675 17.63534980630923 0
10.99889268633457 17.92519327941471 0
22.56404699872332 8.95898479046269 0
13.36321860550762 18.17352341535567 0
14.40721627212753 7.3480445194115 0
12.41414606104602 8.957149060405161 0
24.22074940772191 17.17416555398613 0
11.43091949863775 18.55913299897643 0
11.47220022807929 13.20318384580268 0
22.64629212538782 8.444284400407817 0
24.4857551305799 4.62331059949471 0
20.42330119725824 20.474449084161 0
21.14311392279031 9.037839260857853 0
11.43644042759211 16.79872424028224 0
16.2294190624158 19.30407653318504 0
13.60543271145362 3.863989683604183 0
11.29716091368653 19.34339640915685 0
14.56353622467266 19.58634470085942 0
11.75207754001244 11.1588712967018 0
22.72088921912678 14.21788915780468 0
19.81108180396659 17.25157156612426 0
10.9982699154643 9.117124485791749 0
22.49999999579609 3.186966078632513 0
11.12654891264537 17.13034492786917 0
10.60976340495021 9.90585847163474 0
17.12091052419849 19.72514880563243 0
23.18719755121226 9.481416620509735 0
23.97371883188816 14.10568423138679 0
10.61139187742943 10.85493398899219 0
14.98626851152956 13.33162935909376 0
14.29445491949907 12.60995778973305 0
12.58615282563285 10.92062842199313 0
10.62959044265117 5.561098700705454 0
20.87816968203698 9.500053638252183 0
19.27174352207084 20.46897891957615 0
12.77938686715461 10.02336232824182 0
12.32957883952774 16.53551452248348 0
24.2170215543854 18.3336736796603 0
24.51559140871897 7.451179179787173 0
10.90164657783942 15.71143434122435 0
23.22652451343456 18.61718278473308 0
14.09073984585529 6.567464922258765 0
10.77560265786964 6.644922383152365 0
20.53877448713824 9.254327016195438 0
11.37261962897096 10.74210496796794 0
13.36843534666583 10.40316839318644 0
10.8873209290448 22.4384852419077 0
15.37892145501571 19.16561725461246 0
22.94918846464905 13.15294762490195 0
23.20877091086044 13.50372182023081 0
12.91713906422921 6.805534407799764 0
24.36023635348895 5.568923423237707 0
14.13784350275823 13.25519045906583 0
14.5471439821359 22.16415926842161 0
23.68391598258862 7.770861766339818 0
21.49450483274394 7.591792601953257 0
20.74932941654278 3.690658526654632 0
21.79411763827555 3.359295364288434 0
24.38404766123477 7.072656976577856 0
21.85118232003494 8.421048101685013 0
14.45787673744299 20.66574637762363 0
20.0637727541153 16.13649750877745 0
12.40358627533622 9.997053519163924 0
10.64187454171515 12.58099207629066 0
22.49999999601519 2.828530218241485 0
20.81264279624154 12.50691087159594 0
11.79411764955505 3.359295362743846 0
14.56612322486659 18.77541409332411 0
11.17757821067994 23.33315057316285 0
14.55178612662376 11.22446430625903 0
22.28984882725206 13.59339094368543 0
10.53225617288997 20.98133426754291 0
11.49820097985546 22.73757268558363 0
21.57463616861098 15.17660684766645 0
21.07442998292401 10.41666359172618 0
19.12876061742406 13.06158531730969 0
18.73941778708594 17.89705737163294 0
20.64543627584864 14.15351634841059 0
24.71637391845842 11.94732953184891 0
11.11099992090731 14.63967000364076 0
23.67270895498714 19.77938933129739 0
10.45037660848356 7.434099473874906 0
22.50092347907172 19.15103323859476 0
19.19305859026527 19.05644854043653 0
12.6803801204525 13.0774956381516 0
11.34016876159187 11.93908131734568 0
23.00669846639681 6.801350173839414 0
23.78497393897706 10.95703003995539 0
23.95931992957653 9.150287531855264 0
21.40205326266776 16.18797217798322 0
23.88495107446572 12.12506460589963 0
11.29220740605239 7.074666091408299 0
22.35606585734125 11.27526699919072 0
23.60746679953379 18.54877649385184 0
11.02235948404313 19.96996293280914 0
16.11571918323595 20.42240827910631 0
23.79793501879796 19.19870925814059 0
20.87926174419512 19.5696034411492 0
21.83793200778701 9.56287127333215 0
11.03070932923701 4.390017735842412 0
24.33391890683794 8.19970882170732 0
11.67700249111016 7.840664237991573 0
20.77226153597305 8.185131051204698 0
13.21629391086683 11.51042003585881 0
21.33618546870576 14.15844670244814 0
20.75263923487184 14.8565790556056 0
22.58252167796208 6.51271105379612 0
10.64942867588318 18.58016657143921 0
11.84800039992857 8.692393708100548 0
22.61777383653918 12.92424648895749 0
22.57934329102661 10.01146028762912 0
14.80654368183151 3.223924423156645 0
22.58897923248493 7.840620835403429 0
17.75091653346641 20.42313801966715 0
23.52809358662838 10.45175393008765 0
15.33151251296183 21.16679689713551 0
23.15995685377667 18.98747230952093 0
13.49540388723221 7.595465382510222 0
15.95076795869629 21.30030255244571 0
23.38767696246932 19.36587928889523 0
18.93692298833662 19.42318094308791 0
13.65187293020625 20.02348476485866 0
11.2932638419426 7.753466274023896 0
15.96578195331961 17.09190233249155 0
24.05686110599482 16.25840010088015 0
16.69328970387328 21.33363241878971 0
24.26470586729019 3.695368899263141 0
13.83128074083936 9.037445421322007 0
20.99062293795977 20.2257334116265 0
13.74986139107025 12.24101412250789 0
23.74333432106764 12.83994451016365 0
17.88283261615297 13.34754481112354 0
12.50000000448468 3.186966076773127 0
22.16284545782475 3.687834480154442 0
21.3895835165527 20.28280805051011 0
10.27656593482999 12.06924289558006 0
13.75451810963995 5.482113901550787 0
17.02208545153932 13.5883793562974 0
14.22399864642005 8.183817880266957 0
10.56433153393164 17.10693046551225 0
14.45610904885153 17.848758923361 0
24.99735429867374 3.6215470648167 0
10.73529411908969 3.703677867399556 0
11.03926439302985 11.67609008281495 0
15.84636032454724 13.54212887237246 0
15.30052184943 20.33015432499612 0
10.15419320150768 4.062643236855065 0
22.06819498133222 19.72731223052073 0
12.39283853751203 7.833247711889868 0
21.53642079781351 13.05744546260157 0
21.87294625010731 7.747960681095682 0
12.34636737353254 11.84253890833992 0
22.58528975145729 11.82476029108071 0
24.80421232932346 7.915997023429073 0
18.53440645067291 16.78092560732436 0
13.08089318592172 19.30761175502894 0
21.64428825801204 10.45295326405389 0
16.37815975264748 22.35029651623865 0
11.2551028368417 13.72422071178576 0
20.9073650431972 6.573165709934241 0
18.70522117541858 13.56498853504065 0
14.79706712865421 3.994905262568791 0
22.57671359988347 15.28378357459741 0
20.5061483954285 13.49083241915977 0
11.77795589206453 14.01112128109848 0
13.89076765346661 22.27752391226116 0
22.09526186545657 15.09484353249376 0
18.49548740429852 21.19521869937873 0
23.66361552222301 15.40080567817181 0
21.30475722349179 11.68944344505503 0
14.51546444808539 16.16459443465825 0
24.19572406994234 6.656420563496171 0
11.64610775501717 8.492681144059015 0
17.58820052548336 21.53588378940034 0
14.24187986337554 8.718054454449543 0
20.82151618244812 9.89167505331812 0
13.2058823531236 3.359295363677503 0
19.35763650872716 16.43813361788414 0
11.78296424172675 9.480217117663575 0
20.51342528076886 12.1111079006038 0
20.0772489515621 7.307579403679641 0
20.65475364073997 17.63209829922415 0
10.68894102627122 13.7977025764018 0
22.06708270582518 6.798880198051055 0
10.54933473621338 8.278519150557985 0
24.43446371332945 15.51099156950945 0
23.07033159228918 15.88539250049272 0
14.66001718250688 21.39012832350258 0
20.66703188563516 5.484951969300721 0
10.88901580341642 20.40930097295485 0
10.25959960249897 6.155151305865626 0
15.579750008579 18.28193906711353 0
24.29578146189155 14.86125355984731 0
20.17478256513354 5.107852132266018 0
11.92291916003125 23.55907335228584 0
20.19345631498684 3.223924419847267 0
11.98538920861506 13.37352234977248 0
13.95597392792705 3.210114119756668 0
13.94395883935756 16.45589550798215 0
12.79941639363641 18.48072022476064 0
14.67729897906407 7.833302613222337 0
14.25067057848328 3.690658530691705 0
11.84073101057376 10.03451439889776 0
19.46682450898833 18.32576109007091 0
23.35168448060088 12.12423852822505 0
12.14926324653685 17.34043893246426 0
21.27996439743475 9.592330586368039 0
20.78064531568508 15.60264842519623 0
21.04402606154831 3.210114116552992 0
11.65346608273074 15.35196440340088 0
13.13318779531492 8.420986614750962 0
17.89892666446231 16.30060058874146 0
24.60213479025983 11.4208547408908 0
24.61464462724309 9.290736885872986 0
14.68498152997687 6.203758160027926 0
21.70993230247052 11.13858013552655 0
23.32039782724804 8.5016842307583 0
23.91176469182853 3.136762597509207 0
14.31850067381636 11.92887146225793 0
10.44681524618539 15.01207542899651 0
22.90641215413327 10.61052776554064 0
12.83715453876026 3.687834479456461 0
21.51951031683248 14.63599413601898 0
10.86726689463108 10.37275167208631 0
10.34673280774482 9.304389578135002 0
16.76138682041623 17.48203818732963 0
11.52290212752051 20.06733119667165 0
10.4484864579494 19.17193003839436 0
24.37470243023526 10.83919349678061 0
20.3221597058858 18.45015257991396 0
11.28924268402332 22.31363170645783 0
18.57105816420878 20.50427039876475 0
14.85129967742403 20.79228134601033 0
23.2058823475481 3.359295362816739 0
10.9585726795917 5.034945711318815 0
14.48773657473969 17.10195165026053 0
17.76486099713139 19.03297609409766 0
12.14333600230079 23.80826928583915 0
14.94458173081726 4.478387104655996 0
14.01171165868624 11.22800461183767 0
10.49560383680829 4.621755523784457 0
12.9397203847509 19.99706049512439 0
10.73837833123993 3.020489441672954 0
16.04126771277219 21.94556181360532 0
19.73531863018598 18.89475415169665 0
13.71783517904424 11.71447407277522 0
10.73149054721775 23.97573320926395 0
14.41396985123969 10.60368539621289 0
10.60494782337742 22.98557475136978 0
11.9891287737883 22.79811690118483 0
12.28080515165779 12.46439053247058 0
14.33379038873696 5.460538955818933 0
24.41432473330902 18.91024907469191 0
20.00063447359422 13.95012497237197 0
21.66230440223676 18.6266577007901 0
20.49883793288843 4.574154024836075 0
15.66143895223755 16.34173601144114 0
16.40472666174269 13.12032318521547 0
16.79264513439217 22.04675840300608 0
13.50839093241271 18.79886110479115 0
23.13157045885649 10.02909237762765 0
14.79066631575538 9.03712281618933 0
10.74105719351795 21.53424889956711 0
13.08967439417113 13.68340006462979 0
12.09495529978237 23.22494716661251 0
19.8675449196238 19.71394432980479 0
15.30567458556152 22.3644713056728 0
24.86612704931537 5.149836218462454 0
11.69639738112431 12.33100057536627 0
21.88555561089402 12.3032521755328 0
11.97680420341528 6.795721293395832 0
24.39008754302018 13.22104002773205 0
23.0228717577085 19.64998471783853 0
22.39224161296494 10.92438432417245 0
18.52300789510665 19.79637104306948 0
24.37085652901967 9.947798293808503 0
18.40252317440519 13.07097751273627 0
16.93309364422369 20.59718179147318 0
23.19750419889935 11.13521152823903 0
17.97885065246702 12.97964210499054 0
10.43475074025998 17.91159980599036 0
12.32494070309899 6.56907171771831 0
15.57201732772993 13.02496566302892 0
10.37916695614809 11.48266674652881 0
10.96221274948709 7.281893777058073 0
17.30814535416499 21.30477675712864 0
17.28269021038436 13.02203855497644 0
12.19784817740115 19.6716859503705 0
23.5484904782048 14.65489961369185 0
13.1881926512686 6.942376206578391 0
13.95469361116502 4.359981605076778 0
20.63901487247211 13.15601072505937 0
19.11988031607901 21.23770354480194 0
19.62572478348892 13.34856633770014 0
10.47917015622054 22.06674543566174 0
21.69906558546264 15.73352127907 0
14.62436592824032 8.66447986835744 0
22.17373889140859 15.86777228318026 0
15.73594347173823 19.79984927224026 0
13.13792064419943 9.588683475350717 0
14.88770594061521 16.67884540131077 0
21.53177143356733 2.965404252213287 0
20.45457365646602 12.8974053695951 0
13.56595392827499 6.933593155880715 0
14.34561271765185 22.85433860613167 0
15.36831332226645 21.76569082580464 0
10.12644793941618 5.159985210190129 0
13.7047311015976 9.597901799968119 0
16.14599838309805 17.85692888407754 0
10.54124632554954 16.40208515862916 0
11.8883087702207 8.981457688455379 0
23.52523821802315 6.29614456669827 0
22.82763144576913 12.35515549318759 0
23.68293541963764 7.090876218698893 0
20.30446326553214 19.1585578980278 0
20.20293286844681 3.994905256793978 0
24.55068952196129 13.92640116824761 0
10.06790959372012 15.02667654419731 0
24.78313167358231 8.745552067031214 0
18.17127992282717 20.14287651241161 0
12.33323661031273 8.440417039032955 0
16.71569271577767 18.24948515955569 0
10.28710998772574 19.51055080492613 0
14.01909525636924 4.963275904704485 0
23.080880623138 11.67515414023256 0
11.0431343361532 3.218157079103047 0
15.27834420144579 17.54307424380223 0
11.57082920408207 16.05856009217047 0
12.04154478524906 10.57649804727346 0
12.90162043434333 23.16864945734882 0
17.04091928465734 19.01524664859956 0
19.21984747573524 13.94219980644931 0
22.34271266578857 9.448201861038736 0
11.63364738577408 13.55358494518649 0
23.76082600296727 9.800525665842187 0
13.43539955739955 17.54370719883993 0
21.90255077111923 10.73498501814267 0
17.44164963496835 13.89008620859283 0
14.15008602914381 18.64215118335024 0
22.32941496367484 14.01031826387982 0
18.32185758804275 13.88890734933962 0
23.55825324534766 11.51930303137191 0
17.41735735448216 18.3358356243017 0
24.37496436961717 12.33428071899086 0
21.46860422491423 19.68708762828425 0
21.94323734355553 11.72379880161444 0
17.02965696895486 16.624344026671 0
21.38800872184478 6.963811601507791 0
13.47163330213071 11.00204824903276 0
20.5924000248757 7.348449480511866 0
20.47887790671799 10.42670549631863 0
14.89644393143219 18.55596217295016 0
20.97109904048126 20.7624255788748 0
10.17239608641214 8.670148299267211 0
11.41077084089178 20.58430673217737 0
12.77667488377093 10.69714164324766 0
11.86827420409835 7.487914383564363 0
13.78422919228408 13.82578849789096 0
13.64499581510276 22.86680566945595 0
17.82295449274671 19.74116655211461 0
21.17195888338373 18.72221457998636 0
24.00509624906093 14.51890194496095 0
17.02648555203663 20.97489526899251 0
24.38808203451928 19.56436726497751 0
11.39148283901839 3.872240201263003 0
23.1680499452134 12.82735510758109 0
11.25293648818809 24.01927739215342 0
11.20109948987832 9.795759369000535 0
19.63472387157777 21.42658151102797 0
10.38940592826609 13.19116729147202 0
13.89204370738165 10.38691190534883 0
14.66378503144368 6.810729659752436 0
21.26642117569435 8.457695454405307 0
24.2958252215657 11.88154435569254 0
15.81778245041433 19.05191029208444 0
12.63321073133728 9.448135126919802 0
24.93335986465289 9.08424108928283 0
23.2800464392725 20.04867367910687 0
10.19289589990458 3.224638732433862 0
10.5731113554142 19.75405249684806 0
18.01781372105408 18.61501748691892 0
21.64984579705152 13.63554994736118 0
19.74427444401963 21.014508823471 0
21.05866647649678 5.956805352859192 0
13.88858988588283 10.81664536118848 0
14.48185211697764 9.327847195924464 0
22.03787703608876 14.57851574560537 0
24.19599432022628 7.877339955795406 0
12.53671386380744 18.92227596195177 0
12.58461893330051 12.15294603357011 0
24.13103347130973 12.80138996787988 0
15.39287373028855 13.89797103483783 0
22.13121108432268 2.974444500313342 0
13.97898485043889 22.66068829038683 0
21.97917743673076 14.17687334455581 0
10.35017191114524 22.51427254529055 0
13.45706224665594 12.97175271506759 0
24.02379993716337 5.043308258418937 0
19.39861109412816 17.74824122528613 0
24.67892250992871 17.25421920678784 0
23.39806391083855 14.02226163472355 0
12.50000000459445 2.828530217369864 0
13.99688826018262 23.07191324992813 0
20.32176247780008 7.83237104535856 0
22.63830943820569 12.13380343217893 0
18.68844274488901 21.48997797652389 0
12.86878891302448 2.974444498972129 0
18.0574367283977 18.14196664929657 0
15.12434642083101 16.14515519076352 0
13.99831728745627 5.968706733630236 0
11.90678331312815 18.58530200483939 0
17.11549738264748 17.93895478266402 0
12.55295766022992 6.870482874616519 0
24.63863761028924 18.34771106649881 0
20.61218386860237 11.5743015199008 0
20.39546999394495 20.94625790189691 0
23.96776203523232 19.51787616597274 0
13.04762896492111 10.78382699291385 0
14.77215858257843 8.268526875348956 0
11.6239349127738 9.176760253904535 0
14.40360324698194 5.810609548406614 0
13.45600273488981 6.265695204816461 0
12.09863734161832 9.75046195648105 0
23.54958143372304 13.39037617332896 0
20.75581649551853 21.00320282865715 0
10.89323518054902 13.07370137855413 0
24.75632805452395 3.170905307837023 0
24.46760965186007 17.7963623998872 0
24.75737139491702 15.82752581840825 0
14.2759669185478 6.939856905042146 0
17.35274734410577 17.1519086690251 0
22.53628780260721 10.56153390327242 0
23.83980711567733 13.42407022160538 0
22.71822312097748 11.3293312061306 0
22.89817823608681 19.26772130494598 0
11.03387671564877 22.91440462936797 0
21.1294095480023 2.849730173276425 0
10.77127282689843 11.34095872129715 0
21.23047658655053 5.559568520131815 0
20.7419849118892 3.012972237474477 0
14.97127641650171 6.023144345440985 0
23.08619887273853 8.98215807055904 0
11.39064126443712 8.159269156281702 0
20.32237565076536 6.218256208792527 0
13.46822855704207 2.965404251587876 0
10.70315470843357 11.71444320350053 0
11.08312971151464 14.21949463701476 0
19.98723726020999 17.9024103108659 0
20.12744789157417 15.8307972562906 0
11.33489790289507 9.391820919969415 0
17.72531105170089 21.94431497222324 0
11.45382007495144 6.285921835277994 0
23.06395646660323 6.411404361051067 0
23.2608890218822 10.77322725015756 0
22.58425177961922 20.13911898808703 0
10.87803694548478 16.77585314239344 0
16.85091564123147 16.04618921095109 0
25.19607302142803 6.30628178260587 0
24.71639907092155 6.170614151927236 0
14.89127055747435 21.85168741248068 0
24.69606823826543 10.38880974510279 0
14.58629927265763 13.90379982657902 0
22.12334518522276 19.31635284357759 0
11.5407653302073 10.03966893898449 0
10.63070742699572 20.13423859897424 0
14.69442886460198 19.15718005517634 0
13.72282644078157 8.452602035170694 0
24.76374412670433 9.734422757556727 0
10.1780033305095 9.64312641473434 0
22.87174178973172 19.95569072865786 0
20.59106427852643 5.038213687885261 0
19.20118702257015 19.76668124456841 0
10.40187687859122 15.72855266985887 0
11.67571300719261 23.77713904377923 0
13.6171200604961 11.37340119486686 0
23.63144981813648 9.397251665897542 0
14.91215892958556 13.72100294751882 0
20.38302963574585 19.90287712447864 0
16.00280124887716 12.99621951332008 0
13.46291675167259 8.056342654063759 0
22.33746888683972 8.520201787093635 0
12.58651884920688 8.175559824878436 0
18.53871673154295 18.28317766358045 0
11.20628988722322 10.95436988548562 0
15.35607080054733 18.70082041611757 0
24.85422931764564 4.052808521556591 0
13.70395459500837 6.592584258347338 0
23.80132091227006 16.89492597758963 0
20.37316385258861 8.66596409680775 0
12.97473132731077 11.27285384952097 0
10.25145790318608 12.75550450429549 0
23.42227864115129 8.8423663093514 0
9.93275317284264 6.04088767259169 0
13.95671768539531 11.88808627067503 0
14.55315488796498 20.24993988313968 0
10.39889623969118 14.3699550356072 0
24.04931568298606 12.47392568660231 0
14.76458289444498 12.94232727513745 0
24.61774810942529 15.14576346110184 0
19.03922037945688 17.27460519366367 0
20.64760167804923 4.153490354073619 0
13.39382271058009 9.646831258975098 0
10.09269335207167 13.5563347152449 0
10.93890883647795 5.388576858324066 0
10.03105164671172 13.14122995612186 0
14.10483962486764 21.73719222384367 0
13.96829358358043 18.12900080319486 0
14.99017558830385 3.571187723724043 0
24.07581068270359 19.89181318561836 0
22.09135023494586 8.011044225679953 0
24.71574258864285 12.76247844891088 0
14.01687345048162 21.19406104624272 0
16.40186309456816 16.1994920299019 0
17.32940309899395 22.03121420268425 0
21.79300300206238 19.06379256322567 0
16.42857142937082 13.87244898555864 0
10.1687308984157 11.06223680787278 0
10.31110561155201 18.78562462442314 0
11.20199800837219 6.638409929678374 0
10.05399759410661 10.0271032441809 0
25.04871286697422 8.079372614534124 0
12.95995182566783 9.036269092435667 0
21.32740339655077 10.69482571627707 0
21.97405113164124 9.000904870616314 0
23.06507826581836 8.052359872100146 0
24.22956943764689 9.418132435382391 0
22.00632118159447 20.3326079084985 0
12.06567216293911 17.79427592145412 0
21.28786521192203 6.613405741974844 0
21.01165280525779 7.735499004252242 0
18.32961657294496 19.2115892520919 0
10.99122012353132 6.353633978988486 0
21.55818257078705 6.312483493711126 0
11.26676480515847 12.69465058714503 0
23.46697388347867 15.11103045844352 0
23.00855730446765 11.3966336492425 0
10.24185395289134 10.42614156450949 0
11.02608983842429 15.16743419552255 0
13.27184494319232 23.10899983649868 0
21.39456728166414 3.863989682869672 0
13.59179843293338 3.490188940041185 0
20.13728986021339 11.20568864809669 0
21.99631822347357 11.39496503851565 0
13.27451725524755 12.59649519713509 0
22.83084764698314 8.741368971878927 0
20.33587154292011 6.810917686424935 0
17.65757472749502 12.80125532075292 0
15.08055913828066 4.805572286184721 0
15.63810317665389 22.15650152457088 0
23.60901027545231 3.859130107423138 0
20.36115651609313 11.10900991521591 0
11.18122309766553 21.8757179511294 0
10.73931547533661 8.82425427206937 0
23.15221695970924 15.24102702439712 0
20.46857582204577 12.50690148637269 0
10.18838566966389 6.856281833435505 0
20.0283729989105 6.022509907447167 0
24.65783924043693 2.78437102478872 0
14.08571641308612 12.25936822278379 0
24.41855277926241 5.10387758957039 0
13.938375808482 17.26852705955332 0
21.57236327745914 8.791533817057386 0
24.78273582326977 6.874613638202797 0
24.95406474536557 12.60442913469764 0
12.11229613893027 11.63111843503954 0
12.08357155271804 20.17129641599668 0
11.75435141738378 11.74579864534383 0
21.62727059162847 20.6772663405956 0
19.50679116800637 12.90738626889521 0
9.970874066430476 2.967202038685667 0
21.03518040281805 21.05653292121974 0
14.11201396258042 12.95244277423426 0
11.71915796213821 23.01163804787711 0
11.72167543886794 19.60672213662916 0
10.00898662171007 3.621519251580043 0
10.62980592769058 4.202086783159719 0
21.58858531506812 9.230682629146491 0
23.10648129367505 7.50381904373492 0
19.41509426600449 20.85231572392902 0
12.47459441948851 22.93033899243121 0
10.24566599451888 4.833358959448527 0
12.44091791474572 10.56201226994854 0
24.28595239332859 13.69866707802146 0
18.82067716740979 16.16385631964403 0
22.10432577186401 7.453296628735124 0
23.78202383851035 17.76261060427248 0
15.66875998639573 20.62614570361012 0
10.7925699520741 7.872055690780146 0
12.80891427454399 10.40616807376566 0
20.82730362653406 11.21061041475609 0
19.91943302895751 13.06937070135814 0
12.88502842754079 7.46351872744447 0
14.68013302835419 9.663396148209879 0
10.3015869750086 13.93372882028661 0
15.65735054278432 21.05118347949838 0
12.8924439994267 8.010856390619725 0
10.42353876659646 20.43212814410567 0
10.62393834384528 15.32559511701472 0
10.06922208661479 11.76417303813304 0
11.1447541985828 8.427934315670422 0
10.31047051349929 18.33717565585871 0
14.68321647221733 11.58948025990573 0
22.1797508370365 10.40597372353817 0
14.65002648826253 5.429389409925279 0
25.01921281279222 2.957200141896029 0
13.8003337007733 9.987431531154618 0
13.01553450384451 12.82566634919707 0
11.7906566238862 10.41066045002343 0
23.87794616128632 8.507434315216306 0
11.61926991656741 10.75787879318198 0
14.8252246499903 5.107901231262207 0
21.61433840662016 11.97861319479095 0
14.92256187952515 7.307706883058943 0
10.83939567810437 4.702513078815808 0
20.28840107871667 10.75729953952812 0
22.5914819211378 7.209400629008529 0
23.73316532564262 5.631488635005057 0
12.76083296662441 17.75028973695232 0
13.2972392292636 6.624637373247149 0
24.88890442136602 11.73195061314692 0
18.2001227173987 21.16767993233731 0
23.06021271768384 9.232853626023623 0
23.58746136310416 8.171056585702006 0
18.26205925008894 13.46248317548508 0
21.11773289788994 13.57158331057533 0
18.12377473809206 21.70044138123217 0
12.0910848350194 10.98048577430826 0
23.48299565964751 16.35950108938356 0
17.40067439163198 20.94427629634663 0
21.77232004952435 7.193159480549979 0
13.10102207046345 16.26580199100448 0
10.5693401000263 5.101371100939488 0
21.10367180281606 17.51717476829206 0
22.06582517033962 12.89302787570066 0
13.84210631814024 19.36017006500705 0
10.01467884952177 8.926430123866304 0
11.8022075844425 14.65606102625278 0
21.39321129722215 18.26576971363713 0
11.25827173316483 5.62757518128186 0
19.5564049724325 20.05470105387122 0
21.37005334922559 16.68059563821303 0
13.7215355167854 7.807278234575104 0
15.24658198575038 12.81193810648915 0
9.915153291931123 7.386098580246847 0
14.64986637370074 7.530781186676231 0
13.76049930657348 11.06784923050411 0
17.32097438382496 16.11251216290156 0
11.43647644151697 17.43468238456649 0
10.19091531917296 16.08602783353988 0
13.03602955976664 6.321971191966329 0
21.96274633531481 12.0163561532203 0
14.05273714742371 15.97608132839506 0
19.11658731921456 18.07477838318354 0
11.72784695359153 17.96535058040028 0
20.05541826679973 4.478387096649722 0
9.888490902910142 4.888321661961311 0
23.20678343933819 3.796965000430869 0
18.26691719199913 17.44937355585634 0
10.50807799898634 10.17319400931824 0
10.28608096307707 16.86199708904799 0
11.1029277459894 12.21867980397709 0
20.20799358010035 9.038088486299081 0
24.73121292415768 12.35054442491452 0
14.26368279348373 19.17433886852008 0
13.91872535292007 6.844696875062363 0
21.3631178286372 12.2356160385226 0
10.31208891024353 21.54378152808433 0
19.26944777122649 21.54600626706807 0
11.97006478779556 16.83639345816357 0
19.8462946106326 20.37033628552593 0
19.87375777798235 3.261695857249044 0
10.44407491445485 3.495846371977726 0
20.33091946826216 11.88178537437298 0
24.06284882786809 10.41208771598611 0
12.13915425782472 18.85432241827301 0
10.15464973915077 7.918055760752917 0
20.02745319692377 20.0216441157555 0
13.05662494523082 13.25504051048669 0
11.0312987302312 9.507199402549332 0
14.71530601857998 10.90380883534222 0
21.1810507478061 20.55526472838746 0
24.5162340833474 16.70389318639532 0
24.59545405365994 16.15476330836652 0
14.6252459173986 10.16960581604336 0
13.22397017412829 20.2641215289686 0
16.4825386214944 19.89515641761282 0
10.16340015250874 16.53516795352 0
12.10682792074369 15.95529823671864 0
12.03515336048837 15.06396710804874 0
10.82592665843148 8.438033587517022 0
20.97081843667022 13.07117002483985 0
14.45426929193102 8.96393575829026 0
11.85278679247667 12.84792171942054 0
23.44739898241538 9.714865497999813 0
19.6072353868112 19.30627473888925 0
14.93030662405933 18.02026154154792 0
14.93316505440613 22.79492233111536 0
12.48510144470476 13.85664660665822 0
13.11374329921269 10.18943697980701 0
19.39283571939776 18.70002323294735 0
10.31648523076709 23.2549685497912 0
24.02608039915153 10.03885886105053 0
21.03049281693269 7.195311474382224 0
22.97465074126849 12.00148843056897 0
16.14481138014123 18.66868876388083 0
23.961077246128 4.389612859077073 0
12.70961421674343 11.48001675573945 0
25.07362097337473 8.603873200731636 0
18.89955624358838 20.27892015483477 0
11.02886894238662 18.36026537610651 0
13.37376858028226 20.65849996401448 0
24.94485040459733 11.33084311229641 0
15.8412279602155 22.50366035229838 0
20.723617283681 6.940544246424062 0
15.19850847764537 22.06795945389669 0
24.13730272995529 6.09302161514695 0
11.00186741034172 12.4863441733615 0
9.857891557287836 6.747246017315828 0
21.33504532595702 12.67418232590371 0
13.98318563451754 7.732398175743597 0
12.11989917829276 9.394461299911171 0
21.04395534318886 17.0033652240586 0
11.49590179503818 7.40524215506411 0
20.34862590177605 9.733687199607832 0
16.06208436187886 14.00822261990457 0
24.74004117055729 14.78448478350092 0
10.83497105901143 6.086530693733624 0
20.97886077138045 4.957904492544829 0
20.2006043913207 19.57712973977924 0
20.41942138749674 2.860015735189924 0
18.74563737173835 20.90408978616357 0
14.40739123368627 5.036696171616879 0
21.04530638511 4.359981599537326 0
11.86562662829546 19.0006116301679 0
10.27958373414751 22.83252457302822 0
10.07192903396934 8.31334826107054 0
12.16260976793048 3.688198582825286 0
18.99475248281051 18.59104226462927 0
17.40010754068849 20.56350165009787 0
14.1325822353062 9.072174456530519 0
10.4849630451278 23.50308810531852 0
21.14165510052555 11.25997123004182 0
21.51687965048647 8.053861770624842 0
13.42423646701128 23.3408912593692 0
14.35239831709007 4.153490360166719 0
20.06065621430548 13.47919861940985 0
24.30156480864877 15.9305188874001 0
20.99533181450631 17.97363916203369 0
14.46844526051759 18.31651901008364 0
11.91339276023649 8.046464721728086 0
20.79026480175817 10.22723308039533 0
20.52296347132978 9.981988028007995 0
22.07567152536798 9.33722503997625 0
24.01366345832281 18.73460719863849 0
23.00686544907646 8.395310289890569 0
20.2895496975885 11.45464003414905 0
11.28213838030739 5.247508674426709 0
10.2455117255084 20.10574844815345 0
20.83983430702849 4.63345117864622 0
13.59171527900243 4.284028051613798 0
11.11831617558258 21.12607818228343 0
10.50795167856192 5.864558302161111 0
18.30040236554333 21.99222783952267 0
25.1936943729026 4.199871945400247 0
18.31824864242022 21.45119843859409 0
14.80958079944373 5.737839368039101 0
17.71263207569556 15.92265989460978 0
13.57888821306465 10.68170334386684 0
20.18850130182171 5.707687575972869 0
10.1558748340014 19.07982860646126 0
18.19288604330425 19.61465502087308 0
14.94664060413634 7.67186514015574 0
22.07260237524618 11.03907404500525 0
24.71922612742735 18.7145816704856 0
13.75121835476332 20.64671508430685 0
21.81825494719695 6.086622899413316 0
13.89725197520502 8.075704165868789 0
12.62868326150326 12.62412065108873 0
22.68235792539569 13.45139916603359 0
11.39218094244084 15.69004178980604 0
18.26851197258055 15.9675703149711 0
22.91281004148594 13.80709899724177 0
12.39187531603361 7.206780015812891 0
12.57998112865056 17.02813522532628 0
10.70270310763633 17.59893955614821 0
21.27733479621638 4.716962913000216 0
13.49070631338119 9.324416952646686 0
11.68456512528884 22.41217001160558 0
22.84138607689225 14.69443708562182 0
17.50424320551388 19.44784039014847 0
11.00080741689422 4.001192230100453 0
21.50476957562824 5.923735486602174 0
18.5483777355793 21.80821628897759 0
16.96627131093164 14.04672706222914 0
23.34482371585125 9.180259609945995 0
12.58109917862337 23.58637912554326 0
17.47188316164743 18.74096990000138 0
13.16527993456256 22.75839898242491 0
11.52915509076727 2.965941563235869 0
13.67730649986577 5.871179162417993 0
24.65896720641321 14.44349690108033 0
12.59349175580818 19.4043302715058 0
24.25057159173267 11.20225283795362 0
11.54785719383433 8.836384840242411 0
14.26124690196772 11.54844349727508 0
25.06132436062814 7.765825337846962 0
12.67491838536986 9.128463941098405 0
25.11175672160358 3.299144458554613 0
12.72613571029796 16.03047590656466 0
17.77159580798309 17.00036961519734 0
10.87968291274884 10.97287968655256 0
22.24664549190696 12.28326834899406 0
20.45315663882116 16.02395363910497 0
20.29734038682846 17.04164858074419 0
13.85777354760174 13.06657148218919 0
22.91079687951331 11.01690695422503 0
10.4867564737773 24.30891926453191 0
21.69080224559558 20.37014414240948 0
24.39689385468796 6.285910422809453 0
10.96615682438491 11.965616130167 0
14.37179255842518 23.18642912520117 0
10.02302819531338 10.70102252556218 0
13.25017575825401 12.00022186982803 0
14.8290408691074 9.949019165299815 0
24.91041034016888 5.738160860947048 0
11.55222886788838 5.866452516025662 0
20.06542479267275 7.999692796276592 0
23.72053919406206 13.15436852272135 0
19.86621741225376 18.40006165041375 0
10.23536603015049 21.17995341086785 0
23.18740414147396 14.85109376239412 0
12.49991561346522 3.538984051847205 0
10.72811594637621 9.420111917881028 0
12.7545834351677 22.69668092146784 0
10.23984895509243 21.90190011147519 0
16.44567038341422 20.73734770078737 0
17.92660767235383 20.93964780225291 0
16.86655392688205 20.07862897031606 0
10.06700399473993 5.72517234035347 0
23.32284401206485 15.5038037658881 0
24.50879406514747 11.11641919478208 0
20.24790978752497 4.800831449572595 0
16.51015669967612 20.30613825329088 0
24.96371357546577 10.02756081009877 0
21.04012609058568 10.69598926435898 0
24.08107759807823 10.81412209201049 0
19.8355328734092 3.845136916341432 0
23.5080947056522 15.81371579935191 0
12.27949744582138 12.90850347906455 0
10.1598288420154 15.38486849204996 0
15.13236824679511 5.147356476480411 0
20.75157789179438 8.720569208114142 0
13.81848357636781 14.20244308096267 0
17.93724453937922 21.37146576103272 0
13.9411591565884 3.60072293115291 0
19.21902434637595 13.43296403633031 0
9.949756839631483 4.473091561620041 0
14.96070875685414 22.35935008691571 0
20.93668990880715 5.659591438808189 0
19.97582365440654 5.461735769904954 0
24.8004765955605 11.03160599185851 0
10.90986831867932 10.02985855356004 0
11.61043553347186 18.84349058923661 0
23.39570175609681 6.724448394630319 0
23.22483749450772 13.80870121929072 0
18.9337090181704 20.59117220556729 0
9.992358605324634 11.36234901715302 0
24.35874562915185 2.96992688099093 0
13.72258751172551 4.718818383333881 0
14.31344891203631 7.780635156394205 0
12.32679309104558 13.36081503232431 0
23.78241102632043 11.30303873000826 0
22.1973499568014 18.80881454338243 0
24.30770734403551 14.24940073908963 0
21.40820155798481 3.490188938181491 0
12.64219758152494 8.51825350773355 0
13.45519614721709 9.98894553227968 0
23.88134818235157 15.8409806463631 0
10.74513600344072 8.091364697992029 0
15.34672193790099 19.92466549340691 0
14.25801507891145 3.012972240636185 0
14.28642486648699 22.4518282712063 0
23.97471482515978 8.09502105468927 0
14.37387553752437 16.67179571860424 0
20.74709295476562 3.364734342710635 0
10.5718133288363 16.034930459519 0
14.58057860618203 2.860015737559255 0
24.97049312505959 4.523954460475341 0
19.83942336536498 12.74934079748311 0
23.69707827407025 16.1481553824906 0
21.56083570138513 9.956101667380917 0
17.9601440628621 17.74398867782723 0
11.10508656147073 16.40084740985012 0
11.54152263772311 24.14998219372101 0
21.88052151798059 13.31418759477894 0
22.17906552621247 10.00189293203675 0
23.19415131548367 2.774253001878744 0
24.20833207409362 8.788239129583301 0
24.21359645138591 13.93997913458846 0
12.38647845149922 9.260629978691059 0
22.21433521864832 7.133022943409509 0
15.02391458891046 5.466166000837532 0
19.73245241714848 17.63354530457901 0
13.41262612637198 8.762819704394392 0
21.46259296919925 18.92177195922425 0
12.09441880842777 19.24866497866941 0
16.54629280815441 16.94395900164733 0
22.27641882323638 7.795346141544806 0
14.88493313045059 20.39951594649989 0
10.37010686988914 9.88078254781253 0
23.11755616721203 16.31913093365378 0
12.08766628357968 13.73923763994737 0
19.83990708916359 4.159591610276968 0
23.61824415904685 12.1721752814703 0
24.86575406531551 13.8311286093232 0
16.40333290518563 21.62504799953632 0
24.30317227583361 9.112246436076472 0
20.94764404921782 11.98532098746907 0
21.40828134552411 4.28394755430581 0
23.80575701661358 10.60366330484501 0
20.00982440968679 3.571187719660073 0
11.13789555896371 10.60933980251449 0
20.39848501968926 3.553853999328441 0
10.76846287615467 23.33117635828854 0
23.51124180542811 11.12785771644098 0
25.12063236955753 4.847355988320696 0
13.81659845365659 7.510028144766705 0
14.92012741948607 8.736631379271229 0
13.509084590422 23.59328048942954 0
24.87966549201204 14.17978867113878 0
15.04719968630771 19.67514431145954 0
21.22849516014596 11.97115266976168 0
16.04497494420177 20.88948720181335 0
11.96956679354091 8.389897286610013 0
22.57719186722954 12.43023526589935 0
16.78330104770188 21.68095517566379 0
24.89993033457159 8.357680024929026 0
19.19394606303063 15.900925233216 0
12.14705882757412 2.706860076249833 0
23.67389427867684 20.13874281049375 0
12.13106342195878 2.975161239051763 0
15.89285714571177 12.70836442132424 0
22.85294117261727 2.706860076273781 0
11.12866911230418 2.852733593319175 0
22.86887929455269 2.974881630494396 0
10.49167851053098 11.14008497867768 0
12.04034126017716 12.09627510445606 0
24.76383661821313 18.99284327485514 0
21.6443862783606 13.98334212633863 0
11.93747026450246 12.51657888525505 0
16.60997673795889 12.76728702964477 0
24.68612239069564 5.479670792188699 0
23.46982830242292 2.965732786583425 0
13.19380140614863 2.773785689444651 0
11.44117647265077 2.707858586061845 0
23.63161744476056 14.27183704728862 0
20.29064187612287 13.14790178348921 0
13.66672822135025 21.05884560220612 0
21.35439454878144 17.84350422826481 0
20.68328419151169 7.782121316156986 0
13.61910628827076 16.8481552965403 0
22.82635032471925 9.07777997852637 0
20.2289446381028 8.269244563218102 0
10.7039455454736 14.10909417111176 0
13.85333660696658 12.75757124295275 0
13.95701147691388 7.189985133782849 0
21.3645528254057 3.194507466180014 0
14.27545826780283 11.23758256099389 0
12.79781951578782 11.92864466787405 0
12.46642031347185 17.58306986862928 0
24.75352129153917 13.54945064606814 0
25.28291452110348 3.031338964739938 0
24.73581182859103 4.850653160641195 0
11.35980814671546 11.37008534383284 0
24.15964662991858 3.183882306093303 0
23.30066996766411 7.850497039862 0
24.0104057742918 7.300782485965184 0
22.82281361302068 10.2268368595784 0
23.78938908645772 8.83488414911241 0
24.42349971396112 19.92081993610048 0
19.52248327105363 19.64838840294646 0
16.31907939843997 17.44734956365161 0
22.85305463252567 9.394481229689493 0
20.62919055989317 5.914813475776397 0
10.59999022325513 12.02395638402063 0
21.59552110262106 12.39527683480926 0
21.17469923801816 7.510931490568255 0
10.72504416917578 23.66777340372612 0
16.25692278573603 13.52916306034217 0
17.10077220275747 21.57582004127212 0
10.62771879181418 19.4193868956105 0
15.41533049792927 16.98276096614678 0
11.49055114881559 11.02289591925829 0
21.17734588609607 9.266898974863402 0
14.63469949988361 12.31276417449558 0
14.6237806632797 22.60222704924167 0
18.66556880310216 17.55325460074657 0
20.46580003458698 8.091269928488206 0
24.6843288621467 4.359964512491667 0
22.83745969075159 3.688305884075057 0
23.78780063869209 17.31847695816942 0
23.77169967667852 6.653992604660191 0
17.32067721319655 20.18219802079654 0
10.04106084313065 18.28206242855216 0
14.40401307475151 8.388898806371106 0
20.82317749588882 18.41150862209825 0
14.9592946976638 6.95174309048938 0
10.8179372603646 22.04056105603636 0
24.75418827203242 17.98369639914324 0
23.78371739980822 18.23297838878465 0
11.14297668833155 8.787536013679155 0
22.66837522607389 10.82702400217638 0
10.29264133524757 4.360064527442895 0
22.54980334305832 8.694903075230567 0
16.82656233679489 13.02589973354478 0
11.66490831337454 12.02930164267753 0
24.37876956040353 4.192344133284975 0
11.62631121071466 23.34853085007423 0
22.58948086043522 9.263753335445017 0
14.89062629219687 10.19139869524317 0
24.54003955529608 11.74293429477698 0
24.42564113567748 18.58876995450049 0
10.24441455963399 20.7659680520961 0
21.25206913379736 19.16779331388581 0
24.95922275888231 6.514408357183713 0
25.03172773264652 10.35933979024497 0
15.22333947204845 18.3236481628268 0
22.54330808048455 19.66117530596915 0
25.05273731342566 7.406180871196129 0
17.8632163810614 17.37644139541332 0
11.69197815178752 7.10292622663945 0
24.74898040131671 17.62957203283712 0
15.26419547858763 20.79421983762512 0
16.46668219779804 19.57706759174332 0
11.37346511451602 12.34723499678245 0
20.07940270908651 8.736654855148354 0
9.892192699067525 5.42749161272259 0
10.328595641471 17.54021122508231 0
21.72888836534113 20.01481786935906 0
10.02590077584473 2.697023928534999 0
15.55657700710115 12.70905363816846 0
23.87797496155933 15.02255836708514 0
10.96373803679746 6.939245284573989 0
18.13156642327853 13.21516190108386 0
20.49499167782193 14.51477790205756 0
13.46540762527085 19.22170110374792 0
13.80098912758379 23.42075179483872 0
14.16293556776392 9.425090585091615 0
19.96911372103187 19.29502465639058 0
19.98564124638194 2.871641101113323 0
15.26221982966887 2.739899228494472 0
23.17261430029524 14.38023820370765 0
15.01435875090188 2.871641102454489 0
15.99327074206522 15.95646978386754 0
11.42208732228668 13.97475558492208 0
21.01568668868676 14.02118926910262 0
22.82449777981263 12.69148454877024 0
10.52176481813773 21.79642844397642 0
12.43763072009225 11.54219792576073 0
24.0574342227912 5.393904682224171 0
21.16372905534239 8.74002305382572 0
11.58052295315708 6.716146835331374 0
11.46130048948374 14.31730202047088 0
20.20870342982379 9.475230946920647 0
18.05262275055551 21.99674433021627 0
12.73590450400417 13.50190801324441 0
17.94043573539948 19.34632411132125 0
10.52835688330856 16.73038102569268 0
10.65023192650236 18.89974475840998 0
20.60471153259681 18.78561283097393 0
12.21638032534907 8.11741067279247 0
18.10044329133555 16.70535280936727 0
12.3202593311498 18.52387330321396 0
12.87170768628858 14.06705645149954 0
20.48673056601537 3.857088122079752 0
22.08320015653924 8.32432401049623 0
11.7576581130344 13.16326088224696 0
11.21278936804357 13.01430961902272 0
19.67149701660578 20.66194716642902 0
22.75869655427162 7.531923538752217 0
14.85124457784575 9.39138751949854 0
24.48206362413945 12.08312284654024 0
22.39751758006517 8.16999255606181 0
20.52888623748521 6.521320440960714 0
15.56666998992154 22.81444915658233 0
13.24844639525817 18.5296875611483 0
22.30730715470543 13.22756276760956 0
20.98478560333364 14.46837913603398 0
11.90425337154428 6.424361759085135 0
20.5983127829762 10.89874534684702 0
23.6178246107628 12.44301068990916 0
10.14237042961372 20.44625279583897 0
10.01412005856087 6.49555071475318 0
24.57423296861309 6.55636278984228 0
11.01651843603805 8.10601518782034 0
24.42151827326418 3.387510416386371 0
20.30387479095208 21.2747861354352 0
12.82208811999907 7.151117695890567 0
10.57478141884726 6.271595676277192 0
16.69996642848455 19.3188571437869 0
22.0628102389358 6.30023747686986 0
12.20522587121849 6.169320645434791 0
19.82492877375612 16.78370134403864 0
12.80267482886376 23.46746958236554 0
18.82957364970544 16.5300990548906 0
20.94059561776574 8.428536258273194 0
14.96508976641746 14.08485088693662 0
10.34698795486927 2.852786011828436 0
10.41184304364108 11.80991905507998 0
25.19318861284724 3.87283507328419 0
23.11982058592243 8.699450333130969 0
10.176452268841 14.69611627979348 0
21.36409579324867 17.17198180631878 0
24.26470586729019 2.711238056132082 0
9.962940626332617 12.10219728341983 0
21.64608109235001 11.55384119649025 0
23.39800399397331 13.08215899092802 0
15.12624222065906 3.261695860350718 0
10.35075492580416 10.78716907697985 0
16.62597654635063 22.26683840198261 0
22.87709068151769 9.747547397495989 0
13.64720513514245 17.89914928820765 0
18.71367095907563 14.07921913816591 0
12.85423540120662 9.663768975605796 0
10.58666936220597 7.056334241572831 0
24.35039145958443 10.56155089084224 0
19.40020430126062 21.14138466002512 0
16.68143916258201 21.03041318580351 0
22.14868520057274 3.29594016978393 0
21.22294504325348 12.95819116190309 0
24.76480874401904 13.17115661861484 0
18.76310393347238 12.82897150933047 0
13.38806003391504 13.49991492496433 0
14.38845469875124 19.9394261331248 0
22.43050839769171 14.9311411487884 0
14.58071198077436 13.40141303425999 0
11.82919158555994 6.084654559604669 0
16.10910599204945 20.02673584908742 0
23.57659169352828 3.509963497947091 0
14.07486204362237 20.29996788327467 0
10.65297550736704 13.238710730957 0
20.22083766537321 10.10767094283562 0
11.90989669104877 9.23948710460774 0
11.40721748716998 3.497166097315893 0
17.63598677857632 21.15421011973032 0
9.836854622802795 4.12638530763181 0
13.60483825628865 22.14011206462037 0
17.05436665169053 13.25278355044581 0
20.10388852734789 21.05670028806078 0
21.18277313451538 10.02752813198362 0
24.87706523884381 16.16409394672497 0
22.49937150071742 14.56447156885552 0
22.82527348673354 6.154741498819915 0
18.32302532854169 20.88086896042806 0
16.55755205713347 18.94766219559669 0
24.62976520361022 10.09438598960699 0
11.3657439570192 3.197273262649217 0
21.09730468313451 8.077502674635076 0
21.0219517907274 16.53240751613992 0
14.20892754565302 13.67956476202099 0
20.334919840034 14.84625014473028 0
10.90952586161893 13.48634904683419 0
9.991976238062826 13.92111793406988 0
14.93440379866517 7.998976679719661 0
14.18810473042404 22.07938057425245 0
12.82226827986283 20.31598817387283 0
13.2403057250589 7.283603378578701 0
23.55882351957753 2.707936090531434 0
12.42873129143566 8.691981071910062 0
12.86105305658953 10.98190016855849 0
13.14574869849687 23.5347050263898 0
12.03847855875373 13.11297235167029 0
12.69335450930873 6.561978735563152 0
22.61648991904478 15.72636960133914 0
10.12422610783169 17.18441788655796 0
13.57548806414262 11.97644366246049 0
13.72861141904753 13.39590021962554 0
23.16591503084907 6.078073239508967 0
13.21887665040913 15.87006559561282 0
11.42650004226095 11.63911565779513 0
20.47302134354582 15.19419982683139 0
20.81783281119785 20.47995516045967 0
24.01326435190007 11.86813056763927 0
11.35353846987238 23.63771873351008 0
14.1128327993602 10.59907762422329 0
14.2770883839336 10.94941782860378 0
9.814033521640258 5.16655151594883 0
23.01254695598889 20.31412135759712 0
15.20637390344076 22.97473051113732 0
24.73782294885324 7.227138272745448 0
10.60349943671474 22.31758650026205 0
17.24784501671872 22.31171692864038 0
13.82784883581257 8.736971612283531 0
22.34488402817875 20.48799903426438 0
10.39284615040165 8.898132335114656 0
21.71211437301913 12.66823944640543 0
15.94469426243205 18.19607830466634 0
24.47148009603988 16.97066716604706 0
13.48421719599898 22.44572004997309 0
12.63570555921888 6.242833485714842 0
20.92230000424557 16.05573452263246 0
22.87102947673703 15.08047980710042 0
10.83499181726686 24.3140857496568 0
14.64880230989287 4.30023419000028 0
20.147799773477 10.96725290838322 0
20.55817502274353 18.07024357705703 0
10.39562979697978 23.92092978400707 0
24.50440280052767 7.831512215426668 0
24.01226839238645 6.95865201217618 0
24.28235923559553 11.58865228130903 0
13.57886257937718 16.06630451820138 0
14.6301455981545 21.00477426603367 0
24.17710432255302 12.13572297022509 0
13.83760697998168 9.320855067308385 0
12.96904273467408 18.11211430109955 0
10.61019531047267 20.68513174522704 0
14.92518229732853 6.552921752432077 0
19.12258828141433 12.75958861910707 0
20.0747962737335 6.543028997819643 0
20.67925927216488 17.21596367213322 0
11.67695062654955 4.134431800905763 0
25.06878807176431 11.06238205480089 0
10.05753634855366 14.25262297420933 0
24.76309964160516 7.614758837704095 0
21.60604303621715 10.81327163860279 0
22.39206355908798 12.67303540204235 0
18.13025404020527 18.9485508544656 0
10.68333390097563 14.65706029520677 0
24.14426062353251 4.70952161276523 0
11.0351534325866 23.71049580838066 0
24.96170803147005 12.10273935142722 0
24.59160836929501 19.23710714707966 0
19.7236240637074 15.91084455542211 0
22.06044084104954 12.56416464973506 0
13.27848114649807 19.72448182907675 0
10.19032621505531 7.592492529061925 0
19.98259635335466 21.35056781705378 0
11.79230237372094 3.796538850532238 0
13.71526945383137 18.5297305761663 0
24.22412229045051 15.20755200311027 0
11.19289436875131 10.18977590455069 0
19.03647970186825 16.82255128102435 0
10.2538058127986 22.22634751777644 0
18.08319666636748 20.60011655158893 0
21.07826794222983 15.22241090661545 0
13.93801960286842 11.55005468162415 0
13.74600100677452 21.87626679590204 0
13.20596765470085 3.793353012780941 0
9.977407611140155 9.336171993798223 0
24.1747891941708 16.71507885782567 0
16.67579664886212 13.44076831624037 0
21.7940323395735 3.793353013657045 0
21.86863716189863 16.23853248334834 0
12.14991192263319 9.075053750727605 0
10.99756129153013 13.87007686955805 0
21.37550210289769 11.04515690268613 0
15.68748423391731 17.8074718134595 0
13.62111797953987 10.23535694909103 0
12.99644434357647 11.72348361484698 0
14.27524760201442 10.26703106364075 0
19.40209964689976 17.38642103058255 0
21.28989558901652 20.90339982825807 0
20.2592866739485 12.24143688081816 0
21.38306491034506 7.278137308671173 0
24.43968632355807 12.9408208561625 0
21.56220855928031 8.493732346929784 0
19.73778016906738 2.739899228052561 0
14.06010380125309 19.77258408622028 0
13.54209496709375 17.18579461402807 0
15.01875695008547 19.33690837591367 0
19.91944589427672 4.805550306225894 0
14.75178376315689 4.800542165265883 0
24.96558008069191 10.70258002549765 0
23.55189622497801 13.69333553535625 0
23.9244466270164 9.520667618591602 0
10.04149575653982 12.44369956785435 0
12.58327441311642 11.22863197847317 0
20.23878784746174 16.54249794322358 0
20.16402508910762 12.79459286635301 0
14.60151497655228 3.553854003489559 0
20.84394983249341 9.066619741245603 0
14.07261060967488 16.86926504658811 0
17.64058275614623 13.13931499317907 0
14.76670181749943 10.48122563445073 0
16.10815476177014 16.61171355777621 0
18.97947980961827 21.44637162620935 0
22.72181155348683 6.935668756561927 0
21.84907195084894 9.84529954081865 0
13.03431900395916 18.83656704773745 0
24.09513504348881 5.762590366574987 0
14.52029129703804 10.38038697758693 0
10.39972338733817 6.538620735432271 0
21.07390623787067 12.33407686786998 0
24.70616270172707 19.78804950476457 0
11.80269659800875 3.066046295002621 0
22.4257071501867 7.491382550022951 0
15.65990503174985 17.38266161099651 0
23.63677900052288 11.87702018302881 0
9.779057017433793 6.289351528067435 0
15.770087541785 21.70451058232268 0
11.906413395032 16.37768981682785 0
20.09322705446811 20.69738076244699 0
16.89292849273465 22.3772285751397 0
24.26529118437092 7.53544350625845 0
14.15955466550767 4.634402742918058 0
20.04062862869675 6.950590602737505 0
9.888479358374893 8.037708575120476 0
9.909965554161124 8.554611032918709 0
24.90439837355409 15.09109067362268 0
15.36196397519048 17.99834176439201 0
23.40530912962649 16.63902181946672 0
24.06272091724666 13.10960990656892 0
14.83229665036613 11.2400315323031 0
22.77433228301007 18.79078296885729 0
24.45323888771505 17.48848379339474 0
10.67019405916935 18.20227380731502 0
14.36155485276462 12.20516255681841 0
24.01909062815123 15.49417703217388 0
21.96219913684173 13.78561037009997 0
23.44308262937097 5.871370334120747 0
23.42512924316161 10.04069749355746 0
22.26542670103952 11.92871110371676 0
13.28572869212459 5.943630046257612 0
23.18016069916905 12.44710258563066 0
19.65407471754075 13.73240245959975 0
11.446729969214 14.9693458254672 0
14.25603919207326 2.726047371644201 0
23.76157209863655 10.19298676846128 0
11.39357547277307 4.288239032988169 0
12.17805569106956 14.17579717884554 0
14.25290703783815 3.364734347578504 0
21.05884083586476 3.600722927860826 0
10.12829425580219 19.30246188396592 0
17.91884480171903 13.71263004043352 0
23.48423926447348 7.410110807689582 0
17.1900902821452 20.76996375172755 0
19.71349060440658 3.016848347251487 0
21.34771429123741 10.27959844674667 0
20.19891976288977 17.49437862522354 0
22.66328536777166 16.19137393669108 0
21.06720025383562 6.862351367957454 0
10.23060671731065 7.208796578960495 0
15.41026813452913 13.42839037627277 0
21.24919059104286 15.64740813668753 0
10.82338154302835 16.24655229434276 0
21.28014888183904 5.163141894026702 0
21.18472657567805 19.92701778617129 0
10.7531870407048 3.354438739517376 0
22.94198164662425 15.48431233185319 0
16.06064431256474 13.28474177333943 0
9.858171012177861 3.271385238567903 0
15.71901505553147 20.17668931873677 0
17.46521947136638 13.42129834321541 0
12.16045086996844 10.22507332750917 0
19.37007522882382 13.18762549005884 0
12.55865191448307 7.503570964258437 0
12.89724533543954 9.336123274482432 0
11.33965865406704 20.94981027097431 0
18.01527622281105 12.70574868677464 0
14.66962860214321 22.98876373165935 0
18.66071427914093 15.79716211026169 0
23.71202911019889 5.250492251802235 0
13.65472389523866 19.65236620434811 0
20.57038311912458 20.20135464143981 0
12.17017695192727 24.06235162791116 0
21.86374105037373 10.17133911893958 0
13.99017225089494 3.984651965245217 0
15.22243721124649 13.13315954551497 0
21.00982774268291 3.984651960195534 0
22.45086268362626 10.26842697955609 0
10.94429091112727 19.52407443174684 0
20.70662391244788 16.82886647013689 0
24.63764654976326 3.724123432444009 0
11.52204376336755 9.70580610298352 0
19.9253703690921 5.771985356558712 0
21.01685536848487 11.62252456077745 0
12.14636689925132 8.738649980004254 0
10.7361260620636 2.72901258706192 0
13.55736795836942 20.37026043040562 0
15.13021479097169 21.4526732815216 0
22.35432619984536 12.94237909315089 0
10.64050261231733 9.112960262520199 0
25.04381932708149 6.05446876443159 0
14.79863334990849 15.85339904993323 0
14.46940365034862 6.521660843016956 0
11.63890749258377 11.46452289963834 0
11.80562653000996 2.77455253708599 0
14.39898903106126 13.05383084998982 0
23.20780347801633 10.36274768900767 0
24.44134472946895 9.631951694062291 0
23.99815288614208 3.984042629187383 0
23.91207416037551 2.875355905869318 0
10.88826179471504 5.755281948957842 0
11.14866490998491 21.45968609460374 0
11.30485728701873 18.97696352689195 0
12.25738054676264 16.97574650133564 0
13.26411761409324 9.025277672159332 0
24.94644025790064 9.434090316589142 0
20.33358059559475 5.917741883332042 0
13.87059044134713 2.84973017432605 0
21.1978614707433 19.48409397229012 0
13.2118404404854 16.64245485975422 0
17.18071225787945 17.52735578021637 0
13.19810574775839 3.070101744253955 0
11.23031474504484 13.39489446065808 0
9.901468187649183 7.037623362955113 0
16.52498542574558 14.19354092341248 0
14.67149019285804 11.99265457813605 0
25.06889384621806 7.057177157914355 0
21.81448053872128 14.86385352167504 0
9.811297211777791 3.870174075029087 0
24.76595692343277 16.4768164316258 0
18.74381838066178 19.08540901600791 0
11.68282456256369 17.10694374028023 0
16.195333694646 22.61358116357574 0
15.00025763373253 17.15226370337595 0
10.59386428018707 12.91810865466545 0
20.74597039996054 13.76866507142833 0
15.16446712525759 3.845136921285023 0
15.16009290950619 4.159591616605984 0
19.22542079541746 20.13029451999349 0
23.58225545295214 10.77492432462739 0
25.11425381895012 6.766323165996887 0
10.90944536368073 12.78376235846156 0
24.19177182307515 19.19977345690851 0
24.34947466318558 10.23918303565981 0
23.98089758638849 6.364058778079636 0
20.78024502959966 12.23051877323765 0
20.85288168205612 19.17847746613145 0
22.2765985539523 15.47448220369989 0
10.77823545006758 14.96036700807626 0
20.79419895969329 10.58908284000528 0
21.69483315355964 6.678931393338971 0
10.56784612024415 10.53859459626477 0
14.34188744198727 9.666134114473401 0
23.81011665641363 6.01379844732585 0
12.02008695766918 15.51327924562025 0
17.72312942595324 18.37177311981453 0
24.83321146953523 15.4069639606655 0
23.43531481068175 12.7073722257147 0
13.48126766933657 16.45791574318082 0
22.2256001393763 20.05931190733923 0
15.00160914663431 21.09024329761974 0
16.57325222907086 22.56066583482184 0
18.5668352999714 20.13512696912878 0
13.99066656467025 17.69305864143172 0
21.8239759991022 8.127192777562746 0
21.98812927935446 20.65012395102778 0
16.97389800680609 18.5466263129905 0
11.45530949101189 14.64559471895791 0
17.48458791002514 19.82092822026223 0
18.93188471207922 21.71225612596342 0
20.39320664041851 7.114478593646601 0
13.11574082003842 7.761351816865525 0
21.23325657984983 13.26018641306364 0
17.52869364505467 22.23472195018559 0
20.05303387470432 7.671772275183457 0
22.43855496340831 6.917244554228263 0
16.55836981567569 17.87391845697178 0
14.27448578609865 6.210573261709485 0
17.55536627144265 16.64951247334318 0
15.02887897689498 18.93665208669318 0
13.4127614674462 8.456692027200619 0
10.70681708496546 17.91476103739922 0
12.7909302045583 16.58665100013319 0
10.52450849231435 21.28707377085047 0
13.36690692445296 14.03980068193295 0
10.47884628621409 13.52422728325919 0
13.34620779562407 12.26874647916689 0
21.80619858673587 2.773785690345655 0
16.33236831699308 21.21686670639993 0
24.77835922231583 16.88244871795359 0
12.69394398001248 7.794736733623125 0
21.78364534596798 19.47994581186699 0
19.42886348552765 16.99093773409482 0
13.19132298223948 9.323052891647574 0
16.33484454986474 18.23350917978561 0
11.89947212873718 10.79412264863699 0
11.89368977888034 24.022082872819 0
14.77331272131628 17.53154951017493 0
12.8935103869921 19.66185490525791 0
14.67343432845692 12.59126230984152 0
24.43173027335807 12.61795424315389 0
10.43487801103786 8.51228124405727 0
15.07462353118606 5.772610472174987 0
14.19087660688073 14.08683343315339 0
20.37010154311033 13.84529343114275 0
13.12238417826175 9.850171425043351 0
11.34388323817454 19.71640605373768 0
19.27014077590469 19.42598801543728 0
14.44882406376709 21.78362014960022 0
15.76486231282609 19.4194463594615 0
10.01241700013144 16.8303692053369 0
17.66198246120499 20.75349954764673 0
11.2000550100575 16.05887415402438 0
19.63047023733057 14.10132008013161 0
23.96005193432601 3.491165803200637 0
12.89415015706903 17.41905716023672 0
24.47255497264118 5.874405396510189 0
17.37594288640571 19.12208346140802 0
11.7705234358292 20.41195399429806 0
22.70131293018922 20.48592490315418 0
17.68197436899293 20.07384133112319 0
17.85714285031339 14.06498105623528 0
17.65115616418482 18.02507593855406 0
11.44241267937844 16.42816644101084 0
15.53438265260928 15.88867219721444 0
22.30542895834911 9.139878429669176 0
21.93200041582618 15.41781237318551 0
12.22419658285852 7.514527626961653 0
12.5131483776195 19.97776364529422 0
20.17121501450756 20.32263438127335 0
20.75560964857366 12.80346845445897 0
11.15277697840948 22.60275572564575 0
10.48838283911537 7.863893662531017 0
11.86520075998978 19.90809429200068 0
11.38287282089051 21.22565895499027 0
24.14993246774783 17.58809977347541 0
23.52729021287193 18.91162632369079 0
12.80506597994759 23.76450934342697 0
9.902788094340398 7.744011118005369 0
11.25853706853509 4.744019977569732 0
20.17663677835665 10.46831344037246 0
14.51326942987614 3.85708812721687 0
12.45526584571628 23.88163883732281 0
23.28706869678653 7.113734354810369 0
20.543091928823 8.949113709732401 0
10.50069202089303 9.654630599194437 0
10.96175124982651 20.83692728943567 0
20.75968091602427 6.245675345620427 0
11.3803306792039 18.1567691727142 0
25.08885284929708 5.442821264404406 0
16.54535974194464 18.52919432236186 0
20.13915063781766 18.82379887934245 0
18.58121801558154 19.48838413136572 0
10.39371468483166 12.38876721909541 0
14.04616071093352 8.42020863442283 0
15.76884511057612 18.57143249464195 0
20.5922793646558 8.390296107454226 0
21.69660231272269 14.31081444990325 0
11.71561140358305 16.64248341840234 0
11.13858977591572 17.57115157270789 0
21.91460881217139 10.46215557236494 0
12.27606039111646 23.54911166390457 0
14.49991187626308 3.20310015048403 0
18.371366884165 17.84480308649002 0
11.04876958312468 3.58722586030138 0
13.60621824600658 7.286813169019159 0
9.941527398087043 10.34647605025535 0
23.73324476461487 4.745874565337279 0
11.15987701842294 6.00335195754094 0
12.15549554840343 14.64178597699735 0
24.47326672237359 13.50134630516974 0
11.38366468090041 23.06644308861356 0
23.38580461904071 20.30835962257531 0
22.58706419538706 13.81601930572906 0
16.44332804043764 22.02890198121708 0
12.99104518936201 8.690733318651239 0
13.15775489227998 11.00088844093519 0
22.25024658287876 16.30162633045934 0
20.67270390768017 20.7332581108099 0
21.99770591824756 8.696464614894234 0
10.11789905988519 17.92486846350318 0
23.35611432391084 19.72642637681814 0
13.40475971450881 11.73964605036697 0
24.77080167321829 19.48457648127674 0
11.7486782215333 15.71382875354325 0
10.241110703635 23.69424599129454 0
12.85131479549364 3.295940167746482 0
17.35079501581342 21.72036347751683 0
12.14841457412226 3.296840004281877 0
22.85150725780598 3.296530309672715 0
13.29606647764745 11.23482628421378 0
15.31135358988586 16.55131718430422 0
16.24237770490944 12.75741588558154 0
22.52452341337952 11.54078809447432 0
11.0703825884665 11.24844305994838 0
23.27878627993177 8.20672270538822 0
17.0978077830785 19.37338427419299 0
11.16430426957623 24.29631674261273 0
20.35119768654605 4.300234183088348 0
20.6955621856087 11.86243985877499 0
14.03653631052248 10.13763413306334 0
16.73186178393451 13.77869864282531 0
21.69016574885104 4.126797881709184 0
13.0894625100824 10.5101103600388 0
20.56018494450996 19.47925363546209 0
24.96074881695349 12.88369997715074 0
10.03094058798239 17.55569294900988 0
10.4132927900567 3.835433277938705 0
22.12639324579975 9.656250249076905 0
21.17942163234259 6.270878521783667 0
21.36816187404434 13.80328131440161 0
10.65755057883638 24.51441535505026 0
11.8628916103007 14.31635274745928 0
19.55029115058724 20.37852442454853 0
10.80177415476978 21.19605074819016 0
18.81298666118484 21.23453049612224 0
22.76330379730294 8.121342134052039 0
16.46155888911805 15.8338510971172 0
10.83280770565071 9.7303369449499 0
12.85294117889281 2.706860077024843 0
12.4990578148168 18.07296547730201 0
13.82639624305403 18.9479835730527 0
10.83202096530845 14.38849772022355 0
23.59901316653245 4.283197633697864 0
13.89107818307384 12.45938017641754 0
25.24121431109425 4.499451363922694 0
20.58884633052272 9.561223132655408 0
12.52453517533754 10.25389400096831 0
12.03845232936552 7.192795263293289 0
24.38296755934162 14.54946653243721 0
22.19793559813515 10.70257439602716 0
19.08851304403309 20.89259898910214 0
11.3744674200406 8.540761093986541 0
12.59554848888709 9.755595925863895 0
17.30948155791995 12.7063316594351 0
21.19425244554171 14.86096114573656 0
24.6321674280001 10.69605313736558 0
13.60285419405122 12.53558312934379 0
11.61167260665986 12.6184584512106 0
11.28402268212986 15.37804411108421 0
13.71939582301783 5.15234009671026 0
15.37433725284699 19.55529587480198 0
10.81281667280344 10.66969994928206 0
10.32438915498111 24.53816545280559 0
23.33742487139276 16.08817186543115 0
11.21126206396796 20.25772545865325 0
22.80792691262647 11.62158226299972 0
24.57317447739202 8.968757128982588 0
12.52279530310458 23.31857635448562 0
10.29875447574384 5.47327954451204 0
20.75007271348429 19.88424952290923 0
10.80593946022518 12.27964734903186 0
20.3494329993967 7.530206996603045 0
14.60671684559855 7.114327861418611 0
24.39202835408453 16.42185728336587 0
22.93703123982484 7.193865875838996 0
23.594144892563 8.585232432517493 0
18.32765105208034 12.76296351044566 0
15.52906838998098 21.42123425705415 0
22.38003396181724 9.75143741801365 0
12.62015956100282 11.74277934827701 0
20.08025513857343 9.81071938057227 0
10.69737788607099 22.68575641015773 0
11.79425517254201 17.54587012757947 0
16.13163939478465 19.66919591604447 0
10.23329056898613 24.19069967300113 0
14.53253745477162 8.09280393699494 0
20.34427924922114 5.414088006135325 0
21.38753391751571 9.014663422626718 0
16.07604276573766 22.28333437746749 0
13.86680112486236 6.246033923863379 0
24.14712806632246 17.96817904930453 0
21.27282109176087 7.808308205948429 0
21.57554086556998 9.66015526760945 0
10.06826614319851 15.73827688500655 0
19.86758185119191 5.146456210250287 0
24.17966332840193 8.453557992936933 0
15.89277329726172 22.79195630607625 0
14.46295086986951 9.934637509077564 0
18.86066626752136 19.81943681683645 0
23.95587999717032 13.73127386308888 0
20.30223279407502 14.19274253079657 0
13.97981568026223 9.691838770010477 0
24.52105977221477 8.528333525624133 0
18.43065596908693 16.40323700534513 0
23.77067736837966 16.51987758287211 0
11.40725622606505 17.78750098445267 0
18.61470160104599 17.16084437515463 0
19.04428873286897 17.67223993367906 0
15.23794448036779 22.65611853307828 0
12.90020489047171 8.323356264384124 0
17.05659488639314 21.86798386924288 0
13.15475722029328 8.141185866372709 0
14.04652603990245 20.83134172540779 0
18.81044379002114 13.18061331994233 0
23.32746982103772 11.82006176602621 0
11.95729006513689 11.37429108201415 0
20.38859633570127 15.5909277149743 0
12.33583655907823 10.82445481779482 0
16.61080684303763 16.51843863216983 0
21.04060584910881 9.752896852480491 0
9.956736544889797 12.80518356775661 0
14.32924014361195 17.4887691569563 0
14.86743958564303 20.01277021687091 0
14.28340386334554 21.4469347575518 0
23.08013451175088 14.07054812015308 0
12.35908912012805 9.59182225629944 0
11.80443527345889 9.771567225848067 0
13.29541622508032 10.72987510137128 0
17.84709891547182 21.67891368374661 0
20.844589106578 13.42454812017892 0
23.19873526089466 3.072192428724173 0
16.09956488708644 21.55845793086199 0
21.37311922449983 11.40708523291411 0
23.16095117778171 9.764490877511928 0
10.15922433775743 19.77812243004771 0
21.78922729765878 12.96607471454488 0
16.99107966446314 21.29648471335245 0
11.69753304937347 8.199323577087208 0
21.80189424585474 3.070101747605871 0
25.16619693968467 5.168013375269118 0
21.03918407597681 12.7279715831067 0
20.33125821723688 17.82195956840687 0
13.55770290415825 9.019647136098307 0
24.44491703097792 18.08592451889881 0
18.19188012068301 17.07888455971887 0
20.74396079808806 2.726047369883279 0
21.09326700599816 10.96465028361821 0
22.61995868383555 11.07032880375816 0
13.11429176086746 17.749641560544 0
24.17215101620967 13.4082418944723 0
23.37540267589506 18.33164846752385 0
10.30474616000027 8.167095592524504 0
12.04868081686077 7.806704892488001 0
22.61598585500128 9.593689010753055 0
11.52897865224204 12.92363085080809 0
25.10189104191443 8.861379616695805 0
9.90478493278709 9.63192548415532 0
21.44117646202685 2.708062880683279 0
13.55882352706094 2.708062880222657 0
22.25740564263662 11.63284785832156 0
22.9305348518695 7.816760410650791 0
16.92421837948503 17.13602264723875 0
13.8236289469861 21.48289504858531 0
12.81135445237413 19.11769625905599 0
19.92855569715209 6.279620535167736 0
16.78984748181077 19.69805194808738 0
9.89174989179344 11.02373169936397 0
15.07171136674406 6.279717031131671 0
14.10713323860282 7.493935525148208 0
24.13119012692103 9.745162455660491 0
14.0513718767248 5.29307099668278 0
19.59676493479665 18.01824906939172 0
22.14705881753443 2.706860076644245 0
10.99748144569799 7.665558734301472 0
20.05415938261747 8.491515556272594 0
14.94547324302224 8.491070485369992 0
10.10179782531194 18.55700636678132 0
11.63448315038899 19.22566383849056 0
15.79241054192058 13.23587423544694 0
15.73238584402056 16.72474651451917 0
23.70223528192712 13.96487846236882 0
13.30983390531232 4.12680609356552 0
16.96428571286855 12.70836442144615 0
11.20821344764365 7.43616540637117 0
20.88626385981905 7.497913351753713 0
21.71314342526742 16.57463598753034 0
22.29137163530612 14.33102340933696 0
20.91446330710488 5.283477940395899 0
10.5053265850126 3.2160829724089 0
24.66926761062405 8.184839514198558 0
10.71294882617735 7.528972596686407 0
23.98130514122608 7.679190223998416 0
12.25700604242866 6.92697023296737 0
16.1873912375262 18.99308444618675 0
14.13847943858199 23.36763701754571 0
14.06426434501886 5.659359082432364 0
23.31001428975067 4.127890059242825 0
10.99412837750941 24.0708468899001 0
20.50008811776553 3.203100146910149 0
23.66885588852508 19.48477561127715 0
14.38196534969739 15.78158261154335 0
13.63544716270411 3.194507467073418 0
21.49734109842332 13.39338749379179 0
23.76856031644352 7.45036430053838 0
11.70006522321782 18.29975327656518 0
19.82896096506169 16.38000688900093 0
9.73596557855249 2.734159333879655 0
19.79237340714572 4.454577753190515 0
15.20762659182043 4.454577760750271 0
11.32958732265981 9.061925302717453 0
17.03649586208853 22.14274838384922 0
23.63477955936705 3.19599393882407 0
25.23757617758847 2.757448205079339 0
12.28491956809769 22.66599512684996 0
23.62945223823466 9.081009853232521 0
14.95171466761603 23.08308784402037 0
21.52524809628238 19.28570902786343 0
14.31159743175414 21.12271435879275 0
20.55282654859434 11.26880418970011 0
23.26727255247051 11.43739557837854 0
12.99800074413729 12.11328634131055 0
11.17162923016507 16.67216871186033 0
22.57654054785309 13.17681529285485 0
24.77392513799573 3.459854424556963 0
25.0535295918925 9.682964781106685 0
20.43251671843319 5.68785658210347 0
13.62779092261455 23.16187236201814 0
15.5542296637736 22.49901105696316 0
20.22236926220343 18.1321032306653 0
12.36332316338135 11.06021460104832 0
9.69817339160045 3.04021980355751 0
22.50008293379186 3.538950320386443 0
23.96565203634049 11.16107507000359 0
20.57669053251928 21.21490722433631 0
12.68516505573438 8.837141665372346 0
22.28808420614321 8.835222927994433 0
15.28650939523111 3.016848348342577 0
24.97058822728124 2.681326786664974 0
POLYGONS 3976 15904
3 565 877 1268
3 739 452 1234
3 487 1336 1887
3 172 173 1401
3 103 104 1404
3 1092 1558 1919
3 1677 988 1040
3 572 805 1167
3 450 928 1104
3 391 824 949
3 1089 834 1004
3 913 875 928
3 805 630 1167
3 1558 1092 1339
3 491 375 1136
3 1245 274 1931
3 1130 422 1438
3 743 496 1076
3 928 875 1104
3 480 486 1032
3 1368 362 1580
3 640 713 1393
3 824 391 1237
3 877 565 1741
3 561 1677 1040
3 435 596 1046
3 217 1322 1482
3 220 1152 1281
3 1055 556 1675
3 683 512 1207
3 849 3 994
3 1152 220 1077
3 1742 901 1848
3 1403 752 1307
3 987 72 1659
3 640 1403 1307
3 391 889 1973
3 1887 1336 1985
3 324 325 683
3 535 981 1784
3 633 622 1440
3 83 84 1208
3 614 903 1359
3 1322 217 1266
3 458 535 1452
3 850 544 1077
3 671 711 1122
3 331 332 743
3 496 743 1694
3 1057 1368 1580
3 217 218 1266
3 1463 847 1579
3 498 926 1941
3 859 513 1631
3 667 1272 1274
3 958 748 1029
3 328 689 1855
3 692 326 1855
3 18 297 903
3 820 576 1879
3 584 412 1260
3 871 69 2071
3 682 1506 1800
3 497 938 1384
3 926 1023 1941
3 302 937 1361
3 438 458 804
3 1559 390 1575
3 558 1242 1501
3 557 1135 1321
3 986 1015 1619
3 842 721 856
3 190 493 1159
3 541 706 1880
3 1390 486 1698
3 566 1117 792
3 774 414 1705
3 1800 1506 1884
3 740 551 1640
3 1476 907 1643
3 1015 369 1619
3 455 826 1916
3 901 1490 1848
3 834 428 1004
3 659 1138 1565
3 592 927 965
3 446 731 1722
3 554 774 1705
3 34 747 1086
3 889 391 949
3 249 250 720
3 849 994 1719
3 928 558 1345
3 71 72 987
3 512 683 1474
3 945 534 1315
3 401 1130 400
3 302 20 937
3 629 714 1479
3 236 237 860
3 895 748 958
3 742 482 848
3 1187 629 1479
3 405 811 1209
3 533 1099 1557
3 490 1128 1221
3 390 1559 1655
3 571 1463 1579
3 614 1359 1409
3 544 850 1591
3 433 1866 1587
3 914 410 1445
3 652 522 760
3 847 945 1315
3 1509 454 1311
3 298 706 1852
3 1362 904 1041
3 373 904 1362
3 926 86 1702
3 712 1357 989
3 713 544 1393
3 205 206 728
3 412 846 1260
3 850 537 1591
3 3 849 1833
3 371 1140 1503
3 31 1052 1919
3 80 1190 844
3 1164 343 1629
3 331 743 1076
3 452 739 1559
3 860 237 1291
3 145 1024 1614
3 1140 371 1403
3 874 426 1689
3 1176 196 1734
3 728 206 1749
3 1165 372 1454
3 1401 173 1081
3 103 1404 1238
3 1049 27 1681
3 508 874 1689
3 837 1368 1724
3 1866 433 2105
3 512 692 975
3 689 489 1704
3 927 451 965
3 1135 1849 1321
3 456 574 1439
3 501 1070 1547
3 602 1200 1301
3 68 69 871
3 375 365 1765
3 884 1452 1784
3 1163 621 1002
3 489 689 1145
3 938 447 1284
3 596 435 1051
3 27 1049 1425
3 702 1783 1441
3 701 1311 1986
3 129 130 953
3 938 497 1703
3 576 820 1600
3 497 1384 1260
3 13 458 1452
3 1096 346 1656
3 607 852 1110
3 1017 1070 1644
3 1393 1591 1669
3 668 1152 1225
3 358 839 1601
3 692 512 1474
3 1190 80 1388
3 677 594 1295
3 512 628 2028
3 1221 356 996
3 906 417 1864
3 1128 1071 1221
3 868 635 1218
3 732 588 1148
3 1130 401 1133
3 243 244 919
3 40 41 1109
3 881 1509 1311
3 971 213 1582
3 913 928 2002
3 446 1722 1840
3 530 1072 774
3 1117 566 772
3 1636 608 1405
3 196 1176 1883
3 718 825 1245
3 622 633 2107
3 683 325 1474
3 711 671 1854
3 1156 570 845
3 1099 533 984
3 1491 412 2027
3 482 742 1663
3 1862 1153 1832
3 33 34 1086
3 763 694 1800
3 864 1636 1405
3 458 438 1638
3 145 146 1024
3 394 1476 1643
3 963 621 1337
3 673 763 1800
3 813 333 1837
3 143 144 920
3 131 3 1346
3 503 1298 916
3 966 702 1441
3 1232 549 1751
3 560 791 788
3 124 944 1432
3 696 1390 1698
3 722 736 1119
3 664 1055 1675
3 535 458 1809
3 825 718 1535
3 598 1558 1339
3 1298 503 741
3 944 124 1175
3 595 900 1651
3 1272 169 1022
3 107 859 1469
3 1156 845 1597
3 1357 1099 989
3 1152 668 1281
3 656 754 745
3 732 1148 1789
3 410 390 1655
3 551 740 1424
3 635 868 1297
3 767 363 1912
3 410 523 1445
3 1463 56 1574
3 740 1640 2078
3 1126 1491 2027
3 1076 496 1340
3 1200 1044 1301
3 1737 918 1531
3 417 906 1779
3 1631 513 1875
3 667 1274 1426
3 1368 478 1724
3 642 1096 1656
3 852 1084 1110
3 1047 703 1100
3 709 1818 1484
3 18 903 1745
3 129 953 1664
3 413 1164 1629
3 363 767 1653
3 1077 544 1963
3 628 512 975
3 462 1472 1329
3 900 657 1651
3 576 1184 1879
3 918 437 1531
3 252 1144 1803
3 480 1032 1533
3 417 1644 2055
3 687 912 1797
3 1298 918 916
3 534 945 1819
3 40 1109 1443
3 1472 612 1329
3 999 375 1765
3 437 1367 1386
3 477 1267 1822
3 1644 1070 2055
3 1727 1093 2047
3 1441 941 2133
3 520 1393 1669
3 1131 391 1973
3 1593 851 2021
3 55 56 1463
3 1228 659 957
3 1328 410 1655
3 433 1476 2105
3 942 645 920
3 434 1379 814
3 1384 584 1260
3 356 1221 2083
3 299 298 1852
3 528 892 1599
3 1226 409 1603
3 777 1429 1756
3 326 692 1474
3 689 328 1145
3 381 849 1719
3 1311 701 2099
3 1138 659 853
3 1880 706 1709
3 877 440 1268
3 458 13 1504
3 344 941 1441
3 492 1047 1100
3 1094 407 502
3 937 20 1352
3 51 52 1000
3 1334 378 1472
3 1184 373 1030
3 710 1550 745
3 944 737 1432
3 356 1317 781
3 53 54 1201
3 455 1916 1610
3 1818 615 1484
3 117 118 964
3 1379 499 814
3 1916 1174 1610
3 626 671 1122
3 158 159 532
3 1317 356 2083
3 1136 375 1893
3 629 1187 1194
3 387 940 1961
3 954 1247 1721
3 414 387 1961
3 83 1208 1007
3 599 1031 1537
3 1031 421 1537
3 1247 462 1721
3 558 928 2007
3 737 944 1786
3 1209 811 1066
3 309 839 1352
3 591 736 1537
3 537 850 1790
3 1143 884 1943
3 519 757 1116
3 1743 1219 1326
3 1476 636 2105
3 981 699 1784
3 440 877 1626
3 941 1093 1727
3 718 1245 1931
3 585 1490 1008
3 818 831 1128
3 447 1187 1284
3 1843 366 1998
3 757 519 1949
3 1257 925 2092
3 501 1547 2050
3 891 1720 1683
3 1718 367 1206
3 693 339 1649
3 649 1525 1691
3 951 1362 1041
3 1011 491 1526
3 931 616 601
3 593 1862 1832
3 726 366 1843
3 421 953 1156
3 1379 806 1793
3 273 274 1245
3 216 217 1482
3 770 648 1356
3 846 412 1491
3 713 379 1225
3 1495 418 1589
3 476 1229 1098
3 1367 620 1386
3 318 998 808
3 735 1143 1943
3 754 710 745
3 960 1249 1330
3 602 1298 741
3 495 789 1928
3 722 1119 1609
3 1822 1267 2046
3 903 297 582
3 522 652 1235
3 1513 777 1756
3 1054 701 1065
3 788 653 1318
3 796 1751 2116
3 491 807 375
3 1249 440 1330
3 840 1314 1890
3 469 831 1805
3 1452 535 1784
3 499 1390 1825
3 998 698 808
3 928 1345 2002
3 284 11 573
3 15 291 485
3 627 819 1507
3 11 283 1088
3 292 15 1351
3 1187 447 1194
3 474 794 1446
3 19 917 1862
3 422 1130 1907
3 991 617 1028
3 1528 404 1511
3 1247 954 1717
3 1562 311 1003
3 892 367 1599
3 891 1226 1603
3 369 1282 2037
3 935 529 1456
3 1168 598 1554
3 657 811 1731
3 911 403 1411
3 981 535 1252
3 1262 979 1662
3 550 522 1235
3 639 1153 1862
3 352 782 1381
3 974 406 1234
3 985 1438 1246
3 1565 1138 2057
3 598 1168 1558
3 729 432 1291
3 526 648 1043
3 1094 724 1509
3 26 605 2015
3 447 938 1703
3 819 565 1749
3 819 627 1741
3 70 71 1600
3 882 347 1764
3 867 1076 1340
3 471 624 786
3 71 987 1600
3 560 788 1318
3 1751 549 2116
3 940 387 1050
3 1040 24 1788
3 1227 672 833
3 372 1165 1690
3 143 920 1569
3 888 871 1010
3 434 1224 1665
3 384 983 855
3 826 455 1924
3 284 573 1599
3 690 858 1100
3 485 291 1603
3 565 819 1741
3 647 649 1604
3 311 312 1003
3 1089 347 834
3 1550 517 745
3 1017 963 1337
3 1088 283 1589
3 292 1351 1008
3 1304 1743 2126
3 1070 501 1481
3 1249 960 2010
3 1242 558 2007
3 1010 871 1261
3 1239 837 1115
3 431 889 1782
3 319 320 1132
3 75 76 995
3 415 842 1887
3 1213 575 1010
3 1295 1150 1508
3 1490 901 1008
3 659 1228 853
3 327 328 1855
3 326 327 1855
3 1390 696 1825
3 249 720 1588
3 605 26 1847
3 624 1379 786
3 840 1203 1878
3 1408 1577 1286
3 200 201 1380
3 1226 891 1683
3 367 892 1206
3 712 1375 1780
3 361 832 1434
3 648 526 1356
3 381 1694 828
3 737 1399 1091
3 782 1161 1381
3 1379 434 786
3 476 1098 1988
3 358 1601 1549
3 1532 457 1596
3 403 911 1303
3 1295 594 1729
3 1058 841 1610
3 1568 116 1358
3 858 492 1100
3 348 687 1849
3 687 1797 1473
3 436 1200 1129
3 1219 1743 1465
3 319 1132 1118
3 716 1495 1589
3 808 698 2033
3 520 1229 1199
3 841 455 1610
3 1468 401 400
3 160 1570 1657
3 662 1155 460
3 1000 52 2008
3 866 606 1224
3 1501 426 1102
3 541 948 816
3 1282 369 1621
3 1459 91 1729
3 671 465 1854
3 333 813 1458
3 230 231 765
3 1094 502 1798
3 518 738 1486
3 621 1163 1585
3 709 1528 1511
3 53 1201 2008
3 1021 991 1028
3 1052 1092 1919
3 1322 668 1904
3 122 123 613
3 369 2037 1485
3 842 415 1768
3 337 24 1040
3 1275 1092 1052
3 461 1577 1408
3 820 871 2071
3 807 661 1696
3 385 395 1632
3 726 399 836
3 529 935 1289
3 441 647 1604
3 1345 364 2002
3 1991 631 1710
3 1152 1077 1963
3 826 597 1916
3 849 382 1833
3 212 213 971
3 61 1627 2035
3 506 1593 2021
3 1208 1364 932
3 499 1379 1793
3 304 606 989
3 474 1446 2088
3 486 480 1698
3 649 1691 1911
3 153 154 1013
3 590 513 1771
3 667 1006 1264
3 1024 146 1107
3 388 1039 1160
3 903 614 1745
3 1482 1322 1904
3 580 1154 1197
3 1184 576 1733
3 1743 569 2126
3 1155 524 460
3 721 842 1768
3 527 1501 1102
3 1368 1057 1742
3 623 1482 1904
3 770 1356 2000
3 741 1320 2135
3 537 1098 1669
3 146 147 1107
3 185 909 1465
3 666 1421 1780
3 983 384 1983
3 889 431 1677
3 389 1105 1361
3 19 299 917
3 1325 495 1928
3 1012 437 1386
3 308 1262 1662
3 705 1087 1835
3 758 484 753
3 374 744 416
3 484 1292 753
3 189 190 1159
3 1296 374 416
3 933 680 1705
3 668 934 1904
3 717 1468 400
3 444 625 2062
3 904 373 1733
3 1727 521 1283
3 559 1532 1596
3 412 584 1563
3 1232 1751 1678
3 788 791 2060
3 86 87 1702
3 317 318 808
3 677 1295 1508
3 1234 406 2106
3 587 912 1633
3 572 783 1329
3 1421 712 1780
3 785 444 2062
3 736 722 1536
3 735 790 1143
3 842 856 2035
3 639 925 1257
3 422 691 1670
3 482 1442 848
3 1694 743 828
3 479 1565 2057
3 1269 1727 1283
3 1037 1194 1489
3 672 1227 1520
3 373 1184 1733
3 562 1255 1909
3 839 358 1352
3 736 591 997
3 369 817 1621
3 1890 1314 1349
3 31 32 1052
3 952 459 869
3 843 793 1462
3 1135 557 1747
3 789 495 797
3 632 1389 1136
3 58 59 854
3 1835 1087 2066
3 716 1142 1898
3 635 789 797
3 430 971 1582
3 436 958 1029
3 720 250 1019
3 913 411 1913
3 1208 84 1497
3 810 1176 1734
3 127 128 1031
3 1194 447 1489
3 1273 575 1592
3 953 421 1664
3 600 1275 1052
3 1190 542 844
3 1203 840 1890
3 569 1743 1326
3 1097 515 1838
3 1704 483 1685
3 1081 174 2060
3 102 1238 1678
3 963 521 1467
3 701 1054 2099
3 1098 1034 1988
3 600 787 1275
3 1073 984 1571
3 1154 339 2147
3 874 508 1576
3 606 304 1224
3 32 33 1086
3 1586 1397 1714
3 1595 1188 1845
3 694 763 1856
3 351 741 2135
3 351 895 958
3 1452 884 1127
3 491 1389 1526
3 387 414 1967
3 645 942 1097
3 1237 391 1696
3 207 208 1195
3 832 361 1365
3 568 843 1462
3 945 847 1574
3 945 854 1819
3 1329 783 1721
3 1376 1734 809
3 831 818 1814
3 724 1094 1617
3 697 963 1467
3 468 471 786
3 653 788 2072
3 1751 796 2073
3 1052 32 1086
3 1031 599 1635
3 1144 757 1803
3 875 913 1913
3 1228 397 1050
3 365 375 2136
3 933 1705 1961
3 305 304 989
3 207 1195 2139
3 778 1219 909
3 1389 632 1914
3 632 952 1914
3 115 116 1568
3 339 1223 2147
3 227 228 751
3 252 253 1144
3 961 349 959
3 1297 868 1470
3 603 1083 955
3 822 540 2001
3 1105 445 1361
3 160 161 1570
3 255 802 1416
3 878 1390 1793
3 375 807 2136
3 1085 1257 2092
3 787 420 1275
3 347 882 1578
3 1673 1163 1002
3 1212 1192 1970
3 1005 341 2119
3 621 963 1002
3 679 1039 1652
3 302 1361 2065
3 689 1704 1685
3 219 220 1281
3 1389 491 1136
3 1224 21 1665
3 1242 508 1689
3 382 849 1739
3 1049 1417 1425
3 895 351 1820
3 564 1212 1063
3 928 450 2007
3 848 695 1834
3 373 801 1030
3 1192 580 1970
3 1417 615 1425
3 341 1005 879
3 153 1013 1415
3 829 1938 1984
3 1091 479 1544
3 789 635 1297
3 1229 520 1669
3 567 2047 1607
3 1212 564 1192
3 1219 778 1447
3 355 858 1590
3 1439 574 1969
3 567 1467 2047
3 382 1316 1958
3 268 269 1522
3 508 1242 1717
3 24 310 1160
3 582 398 1359
3 1316 748 1971
3 785 1167 887
3 529 1584 2120
3 1244 807 1696
3 432 729 1915
3 1255 818 1544
3 573 11 1183
3 15 485 2146
3 817 369 1015
3 734 720 1478
3 558 1501 2034
3 11 1088 1183
3 1351 15 2146
3 827 440 1626
3 1586 507 1397
3 681 931 1185
3 556 1055 2029
3 1070 1017 1337
3 462 1247 1993
3 1098 1229 1669
3 465 1595 1845
3 691 746 1670
3 1545 242 1799
3 440 1249 1268
3 595 1267 1908
3 948 541 1567
3 1095 1522 890
3 609 1366 1602
3 1049 1263 1222
3 1234 452 2010
3 720 734 1588
3 919 244 1613
3 406 974 1327
3 1167 630 887
3 953 570 1156
3 470 1651 1992
3 794 474 453
3 169 170 1022
3 106 107 1469
3 364 1632 1412
3 241 242 1545
3 1149 295 1550
3 397 1228 1609
3 526 1091 1544
3 1805 831 2026
3 411 913 1617
3 624 729 821
3 1743 1304 1519
3 763 352 1856
3 239 240 1539
3 491 1011 1419
3 239 1539 1906
3 58 854 1514
3 1968 638 2097
3 376 1213 1010
3 556 1442 1675
3 1112 1880 1709
3 837 1239 1350
3 150 151 1493
3 946 470 1992
3 638 1366 2097
3 1105 604 1776
3 634 1392 1293
3 324 683 1847
3 1610 1174 2135
3 741 351 1129
3 830 634 1293
3 628 631 1991
3 1376 810 1734
3 295 294 1550
3 1390 499 1793
3 414 774 2040
3 937 1352 1869
3 1635 599 1642
3 1067 1850 1170
3 747 34 1594
3 1113 1078 1450
3 844 1444 1650
3 426 874 1196
3 388 1160 1816
3 380 1297 1470
3 1632 1203 1412
3 391 1846 1696
3 594 677 1699
3 805 572 1740
3 308 1691 1262
3 1150 1295 1306
3 1423 563 2018
3 1072 530 1494
3 1602 1366 1499
3 549 1232 1682
3 791 560 1236
3 748 895 1971
3 466 805 1740
3 1089 435 1764
3 926 730 1023
3 1149 681 1185
3 308 23 1691
3 782 698 1812
3 465 671 1595
3 463 859 1631
3 1272 547 1274
3 657 1731 1992
3 420 1581 1275
3 542 1444 844
3 671 583 1595
3 36 37 1018
3 1080 829 1028
3 579 342 1342
3 906 531 1779
3 630 805 1276
3 495 1325 1531
3 713 640 1307
3 1176 810 1850
3 498 1208 1497
3 1011 1038 1419
3 1076 867 1758
3 1255 562 1814
3 1495 716 1898
3 625 444 1124
3 243 919 1799
3 347 732 834
3 1967 414 2040
3 542 1190 1113
3 261 262 1436
3 605 1097 1838
3 1038 661 1419
3 80 81 1388
3 223 224 780
3 90 91 1459
3 493 190 1461
3 730 926 1702
3 858 355 1473
3 544 713 1963
3 731 1109 2049
3 1389 1914 1940
3 1914 952 1355
3 652 587 1235
3 1109 948 1443
3 837 493 1461
3 948 1109 816
3 1039 24 1160
3 451 927 1142
3 889 949 1782
3 802 865 1921
3 729 624 1915
3 86 926 1762
3 1165 1629 1723
3 926 498 1762
3 666 1780 1938
3 858 690 1590
3 1491 1126 1730
3 1091 1399 1565
3 432 860 1291
3 910 481 845
3 264 265 1172
3 1065 897 1435
3 347 1089 1764
3 529 1289 1584
3 742 848 1834
3 1224 434 814
3 220 221 1077
3 724 913 1412
3 723 781 1736
3 613 123 1432
3 19 1862 1517
3 563 1132 2018
3 1954 879 1321
3 1528 709 1484
3 1275 1581 1339
3 1117 772 955
3 849 381 1487
3 620 1298 1301
3 654 906 1864
3 866 1224 814
3 448 471 1870
3 617 1080 1028
3 1188 1505 972
3 1188 1595 1505
3 508 688 1576
3 570 953 1759
3 910 382 1958
3 780 537 1790
3 1522 681 890
3 547 1272 1022
3 859 463 1469
3 1627 842 2035
3 513 859 1770
3 1272 667 1198
3 743 332 1458
3 738 1503 1486
3 1239 1324 1350
3 342 579 1420
3 1351 585 1008
3 185 186 909
3 1025 1271 1679
3 169 1272 1198
3 859 107 1770
3 418 1088 1589
3 79 80 844
3 1039 388 1652
3 640 1393 886
3 195 196 1883
3 949 571 1782
3 1288 670 2017
3 1849 687 2063
3 1031 128 1664
3 705 987 1659
3 818 1255 1814
3 1161 1812 1423
3 61 62 1627
3 1014 862 1834
3 674 731 2049
3 573 528 1599
3 409 485 1603
3 1200 602 1129
3 385 1632 1345
3 1820 351 2135
3 903 582 1359
3 629 1354 1090
3 992 1073 1510
3 448 1105 1776
3 1078 1113 1744
3 196 197 1734
3 348 1135 1816
3 1353 665 1215
3 732 759 834
3 1552 343 1164
3 502 936 1259
3 527 1103 1960
3 1042 1806 2044
3 1364 592 932
3 1105 448 1870
3 522 550 1003
3 341 879 1954
3 429 1439 1396
3 1703 497 1231
3 943 1805 1824
3 1421 581 1357
3 1446 939 2088
3 173 174 1081
3 102 103 1238
3 1354 629 1189
3 530 774 2041
3 967 1647 1252
3 984 533 1571
3 847 1463 1574
3 691 371 2101
3 1320 1610 2135
3 378 1334 973
3 421 1156 1319
3 594 1459 1729
3 1438 422 1246
3 695 1014 1834
3 706 541 1979
3 117 964 1358
3 790 289 1143
3 912 587 2036
3 1327 974 1929
3 492 858 1797
3 1393 544 1591
3 532 159 1657
3 516 685 1263
3 525 802 1921
3 339 693 1223
3 513 590 1555
3 1006 667 1932
3 1161 782 1812
3 1421 666 1885
3 349 815 959
3 806 1379 821
3 790 735 1210
3 717 400 1408
3 815 554 959
3 272 273 1830
3 1258 475 1636
3 912 687 1620
3 1559 739 1655
3 958 436 1129
3 832 1913 1427
3 992 306 1464
3 616 1369 924
3 992 441 2100
3 685 548 1263
3 710 1149 1550
3 2037 846 1485
3 902 1441 2133
3 951 794 1966
3 794 524 1966
3 1314 840 2089
3 1742 1057 1957
3 1805 947 1824
3 1197 1154 2147
3 824 1201 949
3 1073 992 1464
3 443 870 1413
3 1138 853 1827
3 1537 736 1536
3 370 961 1829
3 595 1908 2003
3 349 1273 1592
3 400 461 1408
3 1025 1053 1777
3 706 298 1709
3 1711 264 1172
3 1812 563 1423
3 794 453 2052
3 1053 627 1777
3 1850 1067 1641
3 1201 571 949
3 829 1715 1863
3 754 656 1172
3 431 798 1414
3 20 309 1352
3 1568 723 1736
3 909 1219 1465
3 648 770 2090
3 1119 397 1609
3 861 502 1259
3 985 1246 2050
3 789 1297 1162
3 700 1119 997
3 698 998 1812
3 1297 380 1162
3 961 959 1829
3 493 837 1724
3 1518 1449 641
3 731 446 816
3 587 652 1767
3 1229 476 1241
3 473 1491 1730
3 1273 835 1162
3 1039 679 1918
3 1119 736 997
3 1215 665 1877
3 839 309 1662
3 1472 462 2068
3 773 1151 2004
3 1056 1889 1548
3 1273 1162 1976
3 841 1058 1628
3 1451 366 1506
3 445 1105 1870
3 738 574 1891
3 897 1570 1435
3 1024 531 1614
3 1722 368 1840
3 28 277 0
3 288 13 1452
3 1399 737 1786
3 574 456 1891
3 831 1814 2026
3 998 563 1812
3 1238 1232 1678
3 791 1081 2060
3 939 1866 2105
3 330 1076 1758
3 1096 642 1718
3 1084 852 1720
3 172 1401 1618
3 1404 104 1402
3 1006 607 1193
3 346 590 1623
3 983 586 855
3 738 518 1761
3 567 688 1124
3 371 1503 2101
3 1369 825 1535
3 268 1522 1280
3 739 1234 2106
3 726 836 1889
3 425 647 1695
3 682 1451 1506
3 1518 943 1449
3 1629 343 1723
3 1155 662 771
3 1258 577 1333
3 1244 1846 1857
3 749 911 1411
3 473 1036 1586
3 913 724 1617
3 799 1180 2086
3 521 1727 2047
3 353 1061 1667
3 131 1346 1759
3 1000 824 1237
3 794 951 1446
3 1298 620 1367
3 377 1354 1189
3 1160 310 1530
3 63 64 950
3 1151 761 2004
3 1314 156 1178
3 566 1568 1736
3 1083 962 955
3 127 1031 1635
3 1263 548 1222
3 545 822 2001
3 7 235 1645
3 616 931 1982
3 1324 362 1350
3 581 1421 1885
3 741 503 1994
3 1913 411 1427
3 82 83 1007
3 459 952 1667
3 977 1205 1116
3 156 1314 2089
3 1552 559 1695
3 1617 1094 1798
3 511 1065 1435
3 218 219 1266
3 570 1759 1668
3 120 770 1515
3 441 1552 1695
3 370 1325 1344
3 658 983 1983
3 514 518 1486
3 234 7 1645
3 781 393 1736
3 1325 835 1344
3 801 373 2124
3 1672 612 2048
3 911 619 1303
3 1570 795 1435
3 554 815 2041
3 1028 829 1863
3 568 974 1990
3 995 76 1757
3 1083 603 2085
3 517 1598 1516
3 974 960 1990
3 886 520 1191
3 444 785 1927
3 1379 624 821
3 770 120 2090
3 325 326 1474
3 714 980 637
3 1909 1227 2024
3 1005 2020 1997
3 1909 1255 1748
3 601 616 924
3 475 1258 1333
3 1267 595 2046
3 1346 3 1833
3 1439 457 1396
3 524 1155 1966
3 1755 796 2116
3 653 2053 1318
3 200 1380 1760
3 1267 477 1287
3 219 1281 1266
3 518 514 1781
3 1320 741 1994
3 1045 1672 2048
3 590 346 1555
3 607 1006 1932
3 1036 593 1586
3 150 1493 1874
3 66 67 1173
3 124 125 1175
3 1598 857 1516
3 964 118 1123
3 831 469 993
3 385 527 1960
3 1130 1438 2137
3 815 1725 2041
3 420 1369 1535
3 379 713 1307
3 158 532 1808
3 882 1764 1886
3 462 1993 2068
3 772 603 955
3 1518 469 1805
3 1060 386 1217
3 478 1742 1848
3 1000 661 1038
3 1777 812 1477
3 1208 498 1364
3 812 1970 1477
3 596 1885 1400
3 1328 665 1560
3 1020 557 1765
3 824 1000 2008
3 407 1094 2006
3 328 329 1145
3 273 1245 1830
3 254 255 1416
3 1116 1205 972
3 441 1604 2100
3 959 680 1829
3 443 636 1394
3 930 734 1478
3 388 1135 1747
3 1055 676 2029
3 960 974 1234
3 898 139 1710
3 661 1000 1237
3 1201 824 2008
3 765 231 1125
3 482 1468 1791
3 193 194 1277
3 952 632 1667
3 1288 2017 2104
3 321 1289 1712
3 410 1328 1560
3 1148 694 1789
3 1013 395 1415
3 574 425 1969
3 583 1060 1217
3 1468 717 1791
3 1288 203 1059
3 1235 587 1633
3 835 1325 1928
3 333 334 1837
3 719 801 1725
3 386 930 1965
3 1901 293 1957
3 953 130 1759
3 713 1225 1963
3 25 323 1532
3 1596 425 1695
3 574 738 1761
3 1513 534 1819
3 602 741 1129
3 152 1415 1995
3 793 843 1146
3 723 1568 1358
3 281 990 1108
3 801 530 1725
3 1814 562 2026
3 807 491 1419
3 446 541 816
3 540 822 2102
3 990 281 1177
3 1343 678 1767
3 421 1031 1664
3 678 1343 1648
3 737 613 1432
3 1149 710 890
3 443 1413 1382
3 1570 897 1657
3 854 945 1514
3 371 691 1907
3 1415 395 1960
3 1672 466 1740
3 931 681 1982
3 519 1082 1949
3 612 1672 1740
3 1647 936 1252
3 1287 610 1908
3 1160 982 1816
3 1472 378 2048
3 1325 370 1737
3 609 830 1926
3 547 1401 1081
3 1404 463 1238
3 936 981 1252
3 165 166 1622
3 110 111 899
3 1207 645 1676
3 668 1322 1266
3 152 153 1415
3 702 1493 1103
3 942 1630 1308
3 961 370 1344
3 1346 382 1668
3 780 1034 1098
3 537 780 1098
3 528 573 1920
3 485 409 1480
3 860 432 768
3 51 1000 1038
3 1289 935 1712
3 943 1518 1805
3 1088 418 1922
3 585 1351 1923
3 673 1800 1884
3 1180 596 1051
3 1846 679 1857
3 1510 1073 1723
3 802 255 1807
3 141 142 1483
3 28 29 1977
3 349 961 396
3 1075 1415 1960
3 1354 465 1090
3 289 288 1143
3 635 950 1218
3 1673 504 756
3 470 1822 2046
3 163 164 1211
3 112 113 1253
3 230 765 1360
3 578 706 1979
3 763 673 1810
3 2045 1304 2126
3 470 1284 1822
3 529 1593 1456
3 599 1537 1536
3 811 657 1066
3 843 568 1990
3 1180 799 2143
3 601 424 1139
3 1154 564 1561
3 1343 475 1648
3 286 968 1671
3 1908 509 2003
3 1285 1728 460
3 841 1628 1521
3 905 886 1191
3 1336 487 1460
3 1503 1140 1486
3 1311 755 1986
3 577 763 1810
3 934 668 1250
3 441 992 1510
3 552 1221 996
3 952 869 2091
3 581 1557 1357
3 339 1154 1561
3 652 1343 1767
3 562 1909 2024
3 407 981 502
3 528 1755 2116
3 2053 409 1318
3 1429 360 1756
3 1271 466 1679
3 1007 1208 932
3 3 132 994
3 760 314 1858
3 1284 1187 1822
3 672 1728 1285
3 1133 371 1907
3 827 686 1045
3 571 1201 669
3 1020 388 1747
3 1084 1720 1270
3 1718 642 1111
3 289 790 1697
3 1977 29 1999
3 1707 1134 1449
3 471 468 1870
3 746 738 1891
3 1545 878 1793
3 378 827 1045
3 276 277 1977
3 279 1001 1551
3 896 1106 1462
3 411 1617 1798
3 730 921 1459
3 1649 339 1534
3 453 708 2067
3 1150 1646 1508
3 918 1737 2030
3 1799 919 1169
3 780 224 1502
3 1763 226 1823
3 718 1581 1535
3 929 1327 2075
3 402 1001 970
3 1163 1673 756
3 440 827 2129
3 657 900 1066
3 518 425 1761
3 193 1277 1959
3 1061 459 1667
3 687 348 1620
3 1057 1901 1957
3 636 1476 1394
3 896 361 1106
3 806 1545 1793
3 1393 520 886
3 1539 729 1906
3 583 671 1796
3 564 1154 1192
3 976 1944 1407
3 968 286 1713
3 498 927 1364
3 1622 166 2122
3 110 899 2123
3 430 1014 1433
3 920 427 1569
3 1368 837 1350
3 555 1180 1051
3 956 778 909
3 1298 602 1301
3 451 1142 1680
3 1316 382 923
3 811 539 1731
3 805 466 1773
3 123 124 1432
3 330 331 1076
3 278 488 1151
3 1102 702 1103
3 510 685 1406
3 1267 1287 1908
3 636 443 2098
3 685 516 1406
3 585 2045 2126
3 1014 695 1433
3 276 1977 1945
3 589 1830 546
3 860 715 1331
3 388 1020 1652
3 1630 654 1308
3 530 801 771
3 829 1080 1938
3 927 494 1142
3 683 1207 1676
3 688 508 1894
3 787 424 1905
3 901 1742 1957
3 488 278 1974
3 486 919 1032
3 296 601 1139
3 1001 773 970
3 248 249 1588
3 471 448 2114
3 1442 442 848
3 981 936 502
3 1646 418 1508
3 738 746 2101
3 1154 580 1192
3 907 1444 1643
3 1759 1346 1668
3 1444 542 1643
3 715 860 768
3 797 495 1171
3 825 1369 546
3 425 574 1761
3 916 918 2030
3 465 1354 1854
3 1938 449 1984
3 1486 1140 1553
3 529 1454 1826
3 1665 468 786
3 1463 571 669
3 524 794 2052
3 810 1376 1445
3 865 802 1807
3 1830 825 546
3 698 782 2076
3 617 991 1332
3 507 1640 1397
3 661 807 1419
3 938 946 1384
3 355 1590 1437
3 478 1368 1742
3 710 754 2141
3 751 228 1383
3 1401 547 1022
3 463 1404 1469
3 1317 655 1016
3 900 618 1066
3 495 437 1171
3 681 1149 890
3 853 651 1827
3 484 758 1920
3 744 374 1480
3 434 1665 786
3 1292 484 1922
3 665 1328 2118
3 374 1296 1923
3 706 578 1852
3 714 637 2051
3 1376 914 1445
3 304 21 1224
3 533 1690 1571
3 203 1288 872
3 1720 891 1270
3 367 1718 1111
3 984 1073 1464
3 998 318 1118
3 24 1039 1788
3 138 139 898
3 950 64 1218
3 1336 797 1171
3 475 1343 2094
3 75 995 1872
3 435 1089 1051
3 845 481 1527
3 1583 715 1776
3 1640 611 1397
3 1708 727 1158
3 978 338 2030
3 655 1317 1899
3 1665 303 392
3 521 963 1283
3 1004 750 2086
3 930 386 1430
3 227 751 1823
3 282 1873 1680
3 494 1023 1699
3 370 978 2030
3 649 647 1860
3 1631 553 1682
3 408 1274 1236
3 708 1074 1382
3 1064 900 2003
3 1380 201 1157
3 424 787 1865
3 878 1545 1799
3 1018 37 1181
3 555 1004 2086
3 553 1096 1718
3 852 408 1720
3 827 378 1146
3 21 303 1665
3 927 592 1364
3 688 567 1576
3 425 518 1860
3 1690 1165 1571
3 712 1421 1357
3 927 498 1941
3 211 212 1063
3 342 368 1722
3 1482 623 1616
3 362 1368 1350
3 1101 453 2067
3 1068 885 1775
3 787 600 1996
3 862 1482 1616
3 919 486 1169
3 1047 492 1831
3 342 1722 1342
3 582 297 1139
3 604 1583 1776
3 1354 377 1802
3 686 827 1626
3 1764 472 1886
3 963 1017 1283
3 606 712 989
3 1675 1442 1791
3 1327 876 2075
3 974 568 1929
3 802 525 2043
3 811 405 1842
3 437 1012 1171
3 671 626 1796
3 1415 1075 1995
3 1089 555 1051
3 542 1113 1450
3 921 730 1702
3 1440 622 1413
3 801 719 1030
3 1850 810 1170
3 314 760 1735
3 420 787 1905
3 577 1258 2076
3 645 1097 1676
3 745 517 1233
3 878 1799 1169
3 1255 1544 2057
3 918 1298 1367
3 1769 976 1407
3 678 1047 1831
3 1132 563 1118
3 978 370 1829
3 449 1698 1984
3 1103 1075 1960
3 382 910 1668
3 1885 666 1400
3 1061 359 340
3 225 226 1763
3 1173 67 1900
3 1302 136 2097
3 1055 504 1980
3 482 1663 1179
3 699 1054 1692
3 1491 473 1619
3 570 910 845
3 1195 819 2139
3 1019 644 1478
3 437 495 1531
3 277 28 1977
3 1866 1027 1587
3 1343 652 1925
3 885 1429 1775
3 505 1559 1575
3 1436 262 1540
3 1246 422 1670
3 1276 805 1773
3 1135 388 1816
3 1203 1632 1878
3 382 1346 1833
3 578 446 1840
3 720 1019 1478
3 758 753 1953
3 416 744 2087
3 753 1292 1290
3 1296 416 1294
3 761 1151 2110
3 900 595 2003
3 1142 716 1680
3 1221 1071 2083
3 1046 596 1400
3 1552 441 1510
3 676 1055 1980
3 126 127 1635
3 368 342 1746
3 212 971 1063
3 1091 526 1043
3 1217 386 1965
3 539 811 1842
3 854 59 856
3 778 956 1159
3 541 446 1979
3 1158 727 1251
3 1048 1711 1347
3 1096 513 1555
3 667 852 1932
3 266 1398 2109
3 1082 519 1505
3 261 1436 2011
3 803 1440 1413
3 1200 436 1222
3 36 1018 1186
3 1417 1049 1222
3 946 467 1384
3 409 1226 1318
3 892 528 2116
3 9 279 1551
3 1727 1269 1933
3 446 578 1979
3 479 1091 1565
3 1165 1454 1629
3 351 958 1129
3 1720 408 1683
3 553 1718 1206
3 1369 616 546
3 539 1563 1794
3 1781 649 1860
3 359 1061 1882
3 943 1707 1449
3 1082 583 1217
3 748 1316 1166
3 336 27 1425
3 1109 731 816
3 494 927 1941
3 404 1528 1166
3 708 1382 1962
3 555 1089 1004
3 1513 1819 1492
3 502 861 1798
3 1014 214 915
3 1686 929 1877
3 1369 420 1905
3 879 1005 1997
3 1406 798 1606
3 321 322 1289
3 938 1284 946
3 729 1539 821
3 427 1207 2028
3 1200 1222 1523
3 1705 414 1961
3 684 1104 1859
3 1087 73 1658
3 259 1766 1795
3 1054 1065 1692
3 1143 288 1127
3 1163 1577 1585
3 236 860 1331
3 1366 609 1302
3 513 1096 1875
3 852 667 1426
3 1109 41 2049
3 250 251 1019
3 438 804 1215
3 348 1816 1753
3 1593 529 1826
3 386 1060 1772
3 1358 964 1987
3 1258 698 2076
3 1909 873 2149
3 532 1657 1804
3 209 210 1624
3 1447 478 1848
3 96 97 753
3 179 180 416
3 983 592 965
3 1711 656 1347
3 670 1288 1059
3 353 1667 1815
3 266 267 1398
3 1699 1023 2103
3 1037 1189 1194
3 2038 857 2077
3 1522 1095 1280
3 1436 1064 2011
3 652 760 1925
3 920 144 1240
3 557 1020 1747
3 16 301 1309
3 1412 913 2002
3 1140 1403 1182
3 1490 585 2126
3 910 570 1668
3 604 1105 1373
3 454 1890 1349
3 1473 355 2063
3 851 1593 1826
3 1271 1025 1197
3 362 911 1580
3 1097 605 1676
3 487 950 1460
3 966 149 1874
3 1663 742 1616
3 623 1663 1616
3 244 245 1613
3 418 1495 1508
3 478 1447 1724
3 16 1309 2077
3 763 577 1754
3 1048 1209 2023
3 436 1029 1417
3 1515 770 2000
3 1873 451 1680
3 680 933 2032
3 583 1082 1505
3 1054 699 1615
3 1731 539 1794
3 48 1526 1940
3 435 472 1764
3 1021 1653 1430
3 1653 734 1430
3 1356 490 2000
3 1717 954 1894
3 1253 113 1836
3 163 1211 1726
3 1135 348 1849
3 875 1913 2150
3 941 344 2061
3 760 608 1925
3 729 1291 1906
3 1501 1242 1689
3 78 1444 1069
3 73 1087 1659
3 1828 1056 1548
3 1105 389 1373
3 14 289 1697
3 1525 538 1691
3 1201 54 669
3 1093 941 2061
3 890 710 2141
3 1035 1611 2012
3 804 663 1215
3 214 1014 1582
3 1032 704 1533
3 950 635 1460
3 748 1528 1484
3 1705 680 959
3 631 898 1710
3 1698 449 1752
3 346 1096 1555
3 852 607 1932
3 817 1015 419
3 691 422 1907
3 1376 198 1774
3 135 136 1302
3 823 472 1841
3 1142 494 1898
3 1226 560 1318
3 549 892 2116
3 894 444 2074
3 881 1311 2099
3 1447 1848 1326
3 798 431 1956
3 554 1705 959
3 590 1771 2123
3 1264 1006 2122
3 468 1665 392
3 616 1982 1895
3 1189 629 1194
3 552 1515 2000
3 864 808 2033
3 643 1042 2044
3 664 1675 1408
3 1314 1178 1349
3 1151 488 2110
3 1631 1682 1896
3 1236 1274 2113
3 1375 712 1256
3 862 1014 915
3 608 760 1858
3 982 1160 1530
3 1550 294 1498
3 639 917 1867
3 1277 1239 1959
3 1037 1489 1998
3 613 737 1043
3 781 1317 1016
3 920 645 1706
3 978 680 2032
3 624 471 1915
3 1806 976 2044
3 795 1335 1881
3 892 549 1206
3 560 1226 1683
3 472 823 2013
3 419 703 1813
3 899 590 2123
3 1006 1622 2122
3 50 51 1038
3 1981 1249 2017
3 1632 364 1345
3 817 419 1813
3 733 1246 1670
3 1366 638 1499
3 1199 538 1191
3 1786 345 2016
3 1399 1786 2016
3 1060 583 1796
3 950 487 1466
3 634 830 2093
3 1681 1903 1946
3 1944 976 2117
3 341 762 2119
3 1034 780 1502
3 917 639 1862
3 1029 748 1484
3 963 697 1002
3 1096 553 1875
3 408 852 1426
3 48 49 1526
3 26 324 1847
3 449 1780 1752
3 510 1406 1606
3 353 1136 1893
3 873 1909 1748
3 1113 384 1744
3 803 870 883
3 1902 803 883
3 644 1949 1965
3 2020 999 1997
3 940 1050 1937
3 203 204 1059
3 807 1244 2136
3 1209 618 2023
3 1675 717 1408
3 44 869 1121
3 64 65 1218
3 223 780 1790
3 647 441 1695
3 617 1046 1400
3 259 260 1766
3 906 4 1614
3 760 522 1735
3 278 1151 1674
3 1178 755 1349
3 648 613 1043
3 1771 513 1770
3 667 1264 1198
3 359 1746 340
3 697 894 2074
3 1239 1115 1959
3 309 308 1662
3 405 1209 1347
3 677 1495 1898
3 782 352 1754
3 695 848 1564
3 453 1101 2052
3 257 258 1654
3 833 672 1422
3 437 918 1367
3 776 767 1912
3 1444 78 1650
3 1197 1025 1477
3 1276 693 2134
3 1047 678 1661
3 762 341 1424
3 1493 702 1874
3 876 1327 1929
3 1446 951 1041
3 122 613 1279
3 703 1047 1378
3 650 1703 1231
3 527 385 2034
3 63 950 1466
3 498 1497 1762
3 12 293 1901
3 746 691 2101
3 424 601 924
3 385 558 2034
3 157 1808 1178
3 1341 1287 2051
3 4 906 1630
3 278 8 1974
3 933 940 707
3 1207 512 2028
3 383 933 707
3 395 1013 1878
3 1013 154 1387
3 336 1425 1818
3 618 1209 1066
3 1014 430 1582
3 1115 837 1461
3 514 1525 1781
3 361 1434 1950
3 721 854 856
3 1780 1375 1752
3 281 280 1177
3 563 998 1118
3 198 1376 809
3 766 941 1727
3 1123 119 1515
3 787 1996 1865
3 1037 1998 1385
3 395 385 1960
3 684 1859 1370
3 558 385 1345
3 1745 614 1948
3 1153 639 1257
3 1877 929 1989
3 55 1463 669
3 925 578 1840
3 569 1848 2126
3 287 286 1671
3 613 648 1279
3 1547 1070 1337
3 481 910 1958
3 1001 402 1524
3 425 1596 1969
3 781 723 1987
3 282 10 1873
3 1454 372 1826
3 565 728 1749
3 1013 840 1878
3 1359 646 1409
3 368 925 1840
3 579 674 1684
3 1467 567 894
3 947 1805 2026
3 1097 942 1308
3 1765 557 1997
3 575 1213 1592
3 352 763 1754
3 826 591 1597
3 1258 1636 2033
3 339 1561 1534
3 897 1065 1804
3 1335 735 1881
3 1029 615 1417
3 1561 725 1534
3 840 1013 1387
3 415 1887 1985
3 1565 1399 2016
3 1949 1082 1965
3 773 1001 1674
3 1731 467 1992
3 659 1565 2016
3 306 992 2100
3 1579 847 1956
3 917 299 1852
3 772 566 1811
3 1128 831 993
3 1611 345 2012
3 37 38 1181
3 1064 1436 2142
3 118 119 1123
3 462 1329 1721
3 25 1532 2031
3 572 1167 1363
3 500 833 1422
3 157 158 1808
3 1442 556 1265
3 597 826 1597
3 356 781 1987
3 572 1329 1740
3 697 1467 894
3 442 1442 1265
3 1444 907 1069
3 318 319 1118
3 559 1552 1164
3 1525 514 1700
3 1352 358 1869
3 559 1596 1695
3 1065 701 1804
3 586 983 965
3 472 435 1841
3 601 296 2128
3 1438 985 1732
3 1329 612 1740
3 663 1787 1778
3 1590 611 1437
3 1353 663 1778
3 1889 543 1548
3 907 1476 1693
3 1624 210 1573
3 1495 677 1508
3 954 783 1964
3 914 1376 1774
3 1487 813 1511
3 783 625 1964
3 698 1258 2033
3 1287 477 2051
3 740 1153 1257
3 1233 517 1516
3 410 914 1541
3 819 1195 1507
3 1434 832 1427
3 911 749 1580
3 1476 433 1693
3 68 871 1900
3 1459 594 2103
3 519 1116 972
3 404 1487 1511
3 394 870 1394
3 1434 464 1950
3 1060 2013 1772
3 390 410 1541
3 538 1700 1191
3 1374 948 1567
3 882 1418 1578
3 1996 398 1865
3 130 131 1759
3 231 232 1125
3 295 1149 1185
3 1232 1238 1896
3 1081 791 2113
3 30 1558 1999
3 987 576 1600
3 1768 777 1492
3 830 609 1701
3 1159 493 2138
3 1015 690 419
3 870 443 1394
3 723 1358 1987
3 1622 1006 1193
3 590 899 1623
3 687 1473 2063
3 1624 1212 1970
3 715 1583 1917
3 1199 1229 1241
3 1657 897 1804
3 868 1173 1470
3 715 1645 1331
3 1522 269 1871
3 1446 1041 1230
3 551 1566 1437
3 1227 833 2024
3 655 970 838
3 1403 640 1182
3 730 1459 2103
3 854 721 1819
3 988 1677 1801
3 1238 463 1896
3 547 1081 2113
3 1554 275 1945
3 925 368 2092
3 393 781 1016
3 74 75 1872
3 1700 514 1553
3 942 920 1240
3 1525 649 1781
3 628 1483 2028
3 1430 386 1947
3 474 1074 453
3 403 1850 1641
3 711 1141 1418
3 576 987 1546
3 1033 1763 1823
3 1810 660 1333
3 201 202 1157
3 631 628 1395
3 766 1024 1107
3 59 60 856
3 1112 1745 1948
3 335 336 1818
3 346 1083 1656
3 822 607 1110
3 987 705 1546
3 315 316 1405
3 1086 747 1996
3 883 394 1450
3 600 1086 1996
3 1783 344 1441
3 1579 431 1782
3 575 1785 1010
3 1180 555 2086
3 842 1627 1887
3 1584 413 2120
3 447 1703 1489
3 1509 724 1457
3 1440 803 1488
3 761 772 1811
3 845 597 1597
3 1483 142 1569
3 670 1981 2017
3 1704 489 1499
3 762 1424 1026
3 1398 754 2109
3 700 826 1924
3 141 1483 1991
3 2013 823 1772
3 888 1173 1900
3 454 1509 1457
3 1228 957 1609
3 360 685 1756
3 1724 1447 2138
3 1414 988 1801
3 1212 1624 1573
3 693 2029 2134
3 1121 579 1684
3 869 44 2091
3 1397 986 1714
3 1239 1277 1324
3 399 726 1843
3 1425 615 1818
3 765 389 2058
3 1852 578 1867
3 818 1128 1888
3 1754 577 2076
3 332 333 1458
3 991 823 1332
3 366 1451 1385
3 459 1061 340
3 863 2038 2077
3 1353 523 1560
3 1849 969 1321
3 1223 693 1276
3 1128 490 1888
3 279 278 1674
3 577 1810 1333
3 1414 798 1406
3 1547 621 1585
3 1935 1145 1758
3 1284 470 946
3 734 930 1430
3 389 765 1373
3 523 1778 1170
3 994 132 1392
3 294 16 1598
3 675 1083 2085
3 840 1387 2089
3 665 1353 1560
3 833 500 1824
3 931 601 2128
3 1645 715 1917
3 29 30 1999
3 501 1246 2117
3 873 1158 2149
3 988 1414 1946
3 366 726 2108
3 1526 1389 1940
3 1848 1490 2126
3 772 761 2110
3 964 996 1987
3 314 315 1858
3 1024 766 1933
3 504 1673 2074
3 149 966 1556
3 1760 1380 1541
3 906 654 1630
3 1766 509 1795
3 923 382 1739
3 1046 617 1332
3 489 1602 1499
3 813 1487 828
3 995 1757 1693
3 947 833 1824
3 1279 648 2090
3 778 1159 2138
3 149 150 1874
3 73 74 1658
3 702 966 1874
3 1167 785 2062
3 1986 532 1804
3 92 93 1295
3 638 1704 1499
3 1568 566 2082
3 1074 708 453
3 237 238 1291
3 1434 861 1259
3 1053 1025 1679
3 531 1024 1933
3 534 1513 1606
3 246 776 922
3 783 572 1363
3 307 1604 1911
3 1061 353 1882
3 1087 705 1659
3 375 999 1893
3 1528 748 1166
3 1601 1033 1549
3 795 1570 2079
3 1451 682 1930
3 867 1935 1758
3 1442 482 1791
3 663 804 1529
3 721 1768 1492
3 1188 1496 1845
3 1686 406 1327
3 847 1315 1956
3 1449 402 641
3 957 659 2016
3 1611 599 1536
3 722 1611 1536
3 1141 588 1418
3 275 276 1945
3 1124 688 1964
3 985 1547 1585
3 1476 394 1394
3 84 85 1497
3 183 184 1743
3 625 1124 1964
3 782 1754 2076
3 1487 381 828
3 1703 650 1489
3 1366 1302 2097
3 1859 875 2150
3 1222 548 1523
3 995 1693 1587
3 631 483 1634
3 457 1532 1512
3 2017 452 2104
3 43 44 1121
3 566 1736 1811
3 1591 537 1669
3 1094 1509 2006
3 536 1835 2066
3 685 510 1756
3 757 1144 1116
3 531 906 1614
3 925 639 1867
3 1001 279 1674
3 1233 405 1347
3 633 764 2107
3 1625 784 2014
3 960 1234 2010
3 940 933 1961
3 561 1040 1788
3 1141 711 1802
3 191 192 1115
3 100 101 1751
3 175 176 788
3 1545 806 1853
3 248 1588 1448
3 619 911 1324
3 1027 1087 1658
3 1100 703 419
3 726 1056 2108
3 637 525 1921
3 56 57 1574
3 1335 795 1750
3 1065 511 1692
3 588 1141 1851
3 1157 202 872
3 464 1434 1259
3 1108 586 1873
3 377 1141 1802
3 690 1100 419
3 629 1090 1687
3 23 307 1911
3 1246 501 2050
3 1019 251 1803
3 523 410 1560
3 1056 726 1889
3 76 77 1757
3 1681 27 1903
3 2092 1746 1214
3 2029 676 2134
3 996 356 1987
3 359 1882 2119
3 1636 864 2033
3 905 1700 1553
3 394 1643 1450
3 432 1915 2114
3 1435 795 1881
3 870 803 1413
3 1809 458 1638
3 699 880 1784
3 228 229 1383
3 774 1072 2040
3 455 841 1924
3 162 163 1726
3 1557 1099 1357
3 1698 480 1984
3 1541 1380 1575
3 806 1539 1853
3 933 383 2032
3 202 203 872
3 233 1583 1299
3 1341 637 1921
3 113 114 1836
3 685 360 1428
3 701 1986 1804
3 578 925 1867
3 680 978 1829
3 1218 65 2081
3 686 1626 2084
3 199 200 1760
3 489 1145 1935
3 1087 1027 2066
3 923 404 1166
3 1302 609 1926
3 917 1852 1867
3 983 658 932
3 550 1562 1003
3 929 1686 1327
3 167 168 1264
3 108 109 1771
3 1181 38 1374
3 1544 479 2057
3 970 773 838
3 38 39 1374
3 728 565 1981
3 72 73 1659
3 391 1131 1846
3 868 1218 2081
3 229 230 1360
3 1174 1820 2135
3 750 1004 2022
3 1188 1205 1496
3 670 728 1981
3 1693 433 1587
3 257 1654 1543
3 656 745 1233
3 1445 523 1170
3 774 554 2041
3 1920 758 1755
3 744 1480 2053
3 1493 151 1995
3 275 1554 1931
3 719 815 1592
3 1672 686 1679
3 1185 931 2128
3 598 1581 2112
3 919 1613 1032
3 822 1079 2102
3 1190 1388 1983
3 1468 482 1179
3 871 888 1900
3 1390 878 1169
3 1075 1493 1995
3 10 281 1108
3 241 1545 1853
3 245 246 922
3 1124 444 894
3 4 145 1614
3 1927 504 2074
3 1581 718 2112
3 1930 377 2080
3 1694 634 2093
3 1923 1296 2045
3 732 347 1578
3 1246 733 2117
3 579 869 1420
3 435 1046 1841
3 719 1213 1952
3 1513 510 1606
3 966 902 1556
3 630 1276 2134
3 242 243 1799
3 1292 1922 1646
3 902 966 1441
3 1808 755 1178
3 442 1649 1534
3 686 1053 1679
3 696 1752 2131
3 1699 677 1898
3 1915 471 2114
3 1141 377 1930
3 1558 30 1919
3 728 670 2070
3 222 223 1790
3 338 978 2144
3 1083 675 1656
3 1079 822 1110
3 1213 719 1592
3 1131 679 1846
3 216 1482 1939
3 1277 619 1324
3 945 1574 1514
3 776 246 2148
3 663 1353 1215
3 552 1123 1515
3 851 1826 1612
3 1539 240 1853
3 390 1541 1575
3 633 1440 1453
3 658 1007 932
3 8 285 1220
3 290 14 1137
3 1842 405 1516
3 957 722 1609
3 766 1727 1933
3 1454 529 2120
3 733 1944 2117
3 606 866 1256
3 401 1468 775
3 1388 658 1983
3 1467 521 2047
3 528 1920 1755
3 1480 409 2053
3 469 1518 1899
3 1810 673 1828
3 457 1439 1969
3 116 117 1358
3 159 160 1657
3 1418 588 1578
3 67 68 1900
3 1654 258 1795
3 715 768 1776
3 1173 888 1470
3 981 407 1615
3 1862 593 1517
3 1681 516 1263
3 1482 862 1939
3 214 215 915
3 743 1458 828
3 483 631 1395
3 286 12 1713
3 753 97 1953
3 179 416 2087
3 96 753 1290
3 416 180 1294
3 1505 519 972
3 1205 525 1496
3 364 1412 2002
3 486 1390 1169
3 1493 1075 1103
3 1060 1796 2013
3 42 674 2049
3 1053 686 2084
3 548 685 1428
3 585 1923 2045
3 85 86 1762
3 1334 1472 2068
3 549 1682 1206
3 1236 560 1683
3 1451 1930 2080
3 1595 583 1505
3 869 459 1420
3 190 191 1461
3 119 120 1515
3 156 157 1178
3 2047 1093 1607
3 461 400 2137
3 505 872 2104
3 567 1124 894
3 991 1021 1947
3 948 1374 1443
3 1922 418 1646
3 1566 355 1437
3 1809 967 1252
3 77 78 1069
3 107 108 1770
3 168 169 1198
3 198 199 1774
3 288 1452 1127
3 120 121 2090
3 872 1288 2104
3 155 156 2089
3 514 1486 1553
3 538 1525 1700
3 612 1472 2048
3 232 233 1299
3 1044 1200 1523
3 777 1513 1492
3 1015 986 1955
3 660 1810 1828
3 1628 383 1521
3 1383 229 1360
3 368 1746 2092
3 1130 1133 1907
3 426 1501 1689
3 647 425 1860
3 372 1690 1254
3 783 954 1721
3 423 1374 1567
3 908 162 1726
3 804 458 1504
3 566 792 2082
3 438 1215 1877
3 114 792 1836
3 679 1652 1857
3 857 1598 2077
3 1964 688 1894
3 1220 285 1111
3 290 1137 1270
3 851 1348 2021
3 846 1491 1485
3 954 1964 1894
3 595 1651 2046
3 1268 1249 1981
3 712 606 1256
3 1173 868 2081
3 472 2013 1886
3 880 884 1784
3 66 1173 2081
3 1881 735 1943
3 1883 1176 1303
3 1496 980 1845
3 255 256 1807
3 908 795 2079
3 749 1713 1901
3 884 880 1943
3 603 772 2110
3 643 654 1864
3 427 1483 1569
3 593 1036 1517
3 871 820 1261
3 1049 1681 1263
3 690 1015 1955
3 427 920 1706
3 311 1562 1530
3 1335 540 1210
3 693 1649 2029
3 345 957 2016
3 1757 907 1693
3 1315 534 1606
3 358 751 1666
3 642 1220 1111
3 1137 1084 1270
3 1174 1527 1820
3 1796 626 2013
3 363 1715 1533
3 1036 300 1517
3 1888 526 1544
3 1483 628 1991
3 496 1694 2093
3 1690 799 1254
3 1042 643 1864
3 914 1760 1541
3 74 1872 1658
3 751 358 1549
3 1562 550 1792
3 971 564 1063
3 1518 655 1899
3 678 1608 1661
3 1209 1048 1347
3 1539 806 821
3 2014 784 2064
3 376 1879 1952
3 246 247 2148
3 54 55 669
3 94 95 1738
3 226 227 1823
3 986 1619 1714
3 263 264 2130
3 22 984 1464
3 297 296 1139
3 1413 622 1382
3 857 1842 1516
3 466 1271 1773
3 619 1883 1303
3 274 275 1931
3 2013 626 1886
3 1056 1506 2108
3 181 182 1248
3 121 122 1279
3 1050 397 1937
3 322 25 1584
3 668 1225 1250
3 591 1156 1597
3 10 1108 1873
3 934 1250 2014
3 699 981 1615
3 848 442 1564
3 1876 589 1895
3 869 579 1121
3 154 155 1387
3 98 99 1305
3 177 178 1821
3 400 1130 2137
3 1203 1457 1412
3 735 1335 1210
3 597 845 1527
3 262 263 1540
3 30 31 1919
3 1581 420 1535
3 1205 977 2043
3 426 1783 1102
3 957 345 1934
3 664 1408 1286
3 650 1843 1998
3 634 994 1392
3 17 295 1185
3 962 1083 1623
3 822 545 1193
3 838 393 1016
3 674 42 1684
3 722 957 1934
3 1879 1184 1952
3 818 1888 1544
3 625 783 1363
3 1134 764 1449
3 826 700 997
3 717 1675 1791
3 1312 348 1753
3 423 1181 1374
3 1250 379 2014
3 1611 1035 1642
3 323 26 1512
3 81 82 1538
3 768 448 1776
3 44 45 2091
3 34 35 1594
3 592 983 932
3 1092 1275 1339
3 1199 1241 1978
3 300 1036 1062
3 389 1361 2005
3 1080 617 1400
3 1225 379 1250
3 644 1965 1478
3 866 814 1825
3 1741 627 2084
3 969 1954 1321
3 1501 527 2034
3 1062 1126 1309
3 1457 724 1412
3 1627 62 1466
3 1636 475 2094
3 1131 561 1918
3 1640 551 1437
3 540 1335 2140
3 392 445 1870
3 17 1185 2128
3 1396 457 1512
3 1583 233 1917
3 1855 689 1685
3 1736 393 1811
3 1506 366 2108
3 815 719 1725
3 600 1052 1086
3 313 314 1735
3 867 1340 1602
3 980 714 1687
3 213 214 1582
3 264 1711 2130
3 911 362 1324
3 823 991 1772
3 944 1175 2012
3 1903 988 1946
3 468 392 1870
3 1274 547 2113
3 463 1631 1896
3 1225 1152 1963
3 310 311 1530
3 1084 1137 1110
3 1220 642 1656
3 941 766 2133
3 877 1741 2084
3 632 1136 1815
3 1715 363 1863
3 1942 1247 1639
3 596 1180 1885
3 1148 682 1800
3 62 63 1466
3 861 1434 1427
3 1429 885 2069
3 904 1733 1546
3 737 1091 1043
3 936 1647 1259
3 525 1205 2043
3 686 1672 1045
3 1156 591 1319
3 515 1097 1308
3 1604 649 1911
3 543 1608 1548
3 1180 581 1885
3 92 1295 1729
3 1594 646 1542
3 301 1062 1309
3 1965 930 1478
3 82 1007 1538
3 520 1199 1191
3 1036 473 1730
3 148 149 1556
3 1982 1147 1895
3 1506 1056 1884
3 588 732 1578
3 1133 401 1216
3 1132 935 2018
3 1023 730 2103
3 814 499 1825
3 935 1132 1712
3 798 1315 1606
3 1691 23 1911
3 307 306 2100
3 1071 1128 993
3 1423 506 2059
3 1291 238 1906
3 656 1711 1172
3 13 287 1504
3 614 1018 1817
3 797 1336 1460
3 1743 184 1465
3 1416 802 2043
3 934 2014 2064
3 679 1131 1918
3 1509 881 2006
3 564 971 1372
3 1018 614 1409
3 621 1547 1337
3 696 1698 1752
3 240 241 1853
3 1788 1039 1918
3 1177 280 1488
3 1583 604 1299
3 1137 1079 1110
3 675 1220 1656
3 971 430 1372
3 899 962 1623
3 545 1622 1193
3 1783 702 1102
3 1182 905 1553
3 1414 516 1946
3 1632 395 1878
3 515 1769 1838
3 269 270 1871
3 1751 101 1678
3 175 788 2060
3 1030 719 1952
3 41 42 2049
3 982 1562 1792
3 591 826 997
3 1653 767 1500
3 1295 93 1306
3 1574 57 1514
3 655 1518 641
3 1145 329 1758
3 1147 1876 1895
3 270 271 1876
3 387 1475 1839
3 1115 192 1959
3 209 1624 1377
3 194 195 2054
3 531 1933 1779
3 467 946 1992
3 836 543 1889
3 1608 660 1548
3 1624 812 1377
3 977 1416 2043
3 1273 349 396
3 1933 1269 1779
3 1503 738 2101
3 1627 487 1887
3 507 1153 2078
3 655 838 1016
3 1231 497 2037
3 183 1743 1519
3 35 36 1186
3 280 9 1453
3 694 1148 1800
3 527 1102 1103
3 256 257 1543
3 171 5 1618
3 2 105 1402
3 900 1064 2142
3 870 394 883
3 1733 576 1546
3 1608 678 1648
3 704 776 1912
3 1653 1021 1863
3 115 1568 2082
3 1325 1737 1531
3 1691 538 1262
3 504 1055 756
3 100 1751 2073
3 788 176 2072
3 1570 161 2079
3 523 1353 1778
3 1532 559 2031
3 734 1653 1500
3 208 209 1377
3 5 172 1618
3 104 2 1402
3 1843 650 1975
3 1557 581 2143
3 874 1607 2061
3 1537 421 1319
3 882 1122 1418
3 167 1264 2122
3 1771 109 2123
3 1686 665 2118
3 506 2021 2059
3 26 1396 1512
3 779 1383 1360
3 1713 12 1901
3 459 340 1420
3 833 947 2024
3 591 1537 1319
3 1596 457 1969
3 450 1942 1639
3 222 1790 1660
3 1645 235 1331
3 1854 1354 1802
3 714 629 1687
3 1625 401 775
3 386 1772 1947
3 776 704 922
3 1619 473 1714
3 976 1806 2117
3 436 1417 1222
3 1475 651 1839
3 899 111 1202
3 1195 208 1377
3 165 1622 2009
3 747 1594 1542
3 646 1594 1186
3 487 1627 1466
3 1625 2014 2095
3 164 165 2009
3 650 1231 1975
3 111 112 1202
3 1577 985 1585
3 581 1180 2143
3 1594 35 1186
3 1405 608 1858
3 287 1671 1529
3 884 1143 1127
3 1132 320 1712
3 6 188 2127
3 1119 700 2042
3 88 1 2121
3 1361 937 2005
3 674 579 1342
3 343 1552 1510
3 296 17 2128
3 1707 943 1824
3 1186 1018 1409
3 1613 245 922
3 1168 1977 1999
3 550 1312 1792
3 754 1398 2141
3 704 1613 922
3 1447 778 2138
3 1282 1231 2037
3 1374 39 1443
3 1765 365 1892
3 803 1177 1488
3 607 822 1193
3 1083 346 1623
3 587 1767 1831
3 235 236 1331
3 533 1557 2056
3 1823 751 1549
3 1746 342 340
3 582 424 1865
3 510 1513 1756
3 1007 658 1538
3 1055 664 756
3 644 1019 1637
3 1581 598 1339
3 27 337 1903
3 1168 1554 1945
3 1153 740 2078
3 929 1431 1989
3 371 1133 2039
3 1068 1012 1386
3 1977 1168 1945
3 424 582 1139
3 1175 1035 2012
3 1558 1168 1999
3 1846 1244 1696
3 1772 991 1947
3 856 60 2035
3 443 1074 2098
3 1078 1902 883
3 46 47 1914
3 1787 1067 1778
3 1613 704 1032
3 1153 507 1832
3 1871 270 1876
3 703 836 1813
3 1708 873 1827
3 977 1144 1114
3 359 762 1214
3 1944 456 1407
3 1034 1763 1988
3 836 703 1378
3 1361 445 2065
3 956 909 2152
3 1562 982 1530
3 1 89 2121
3 1074 443 1382
3 697 1673 1002
3 398 582 1865
3 618 900 2142
3 1148 588 1851
3 1532 323 1512
3 543 836 1378
3 187 6 2127
3 1671 663 1529
3 315 1405 1858
3 834 759 1897
3 1136 353 1815
3 1861 708 1962
3 1767 678 1831
3 815 349 1592
3 1459 921 1391
3 1095 890 2141
3 341 1954 1424
3 864 1405 1951
3 285 284 2096
3 291 290 1936
3 206 207 2139
3 940 1937 707
3 473 1586 1714
3 340 342 1420
3 1769 429 1838
3 301 300 1062
3 867 1602 1935
3 888 1785 1470
3 1811 393 2004
3 483 975 1685
3 1937 769 707
3 1491 1619 1485
3 1663 784 1179
3 665 1686 1877
3 428 834 1897
3 507 1586 1832
3 886 905 1182
3 873 1708 1158
3 1309 863 2077
3 1985 1336 1171
3 731 674 1342
3 969 1849 2063
3 247 248 1448
3 838 773 2004
3 1954 551 1424
3 377 1189 2080
3 907 1757 1069
3 303 302 2065
3 283 282 1572
3 1577 1163 1286
3 1547 985 2050
3 1586 593 1832
3 1289 322 1584
3 1281 668 1266
3 1590 690 1955
3 22 305 1310
3 1763 1033 1988
3 681 1522 1455
3 293 292 2111
3 1790 850 1660
3 451 1873 965
3 1078 883 1450
3 1277 194 2054
3 611 1590 1955
3 439 1271 1197
3 1104 875 1859
3 215 216 1939
3 233 234 1917
3 1837 709 1511
3 759 732 1789
3 1431 967 1989
3 812 1624 1970
3 599 1611 1642
3 376 1010 1261
3 503 916 1410
3 634 1694 1719
3 205 728 2070
3 810 1445 1170
3 1778 1067 1170
3 161 162 2079
3 916 338 1410
3 1760 914 1774
3 1797 858 1473
3 114 115 2082
3 762 1085 1214
3 1012 1985 1171
3 571 1579 1782
3 1708 651 1475
3 849 1487 1739
3 1189 1037 2080
3 1177 803 1902
3 727 1708 1475
3 476 1601 2019
3 511 880 1692
3 1704 638 1634
3 1827 873 1748
3 401 1625 1216
3 1405 316 1951
3 885 1068 1386
3 1004 428 2022
3 1227 1909 2149
3 635 797 1460
3 984 22 1310
3 1253 1117 955
3 1120 1211 2001
3 2051 477 1479
3 1873 586 965
3 134 135 1926
3 836 399 1813
3 450 1104 1942
3 1134 1861 1962
3 1205 1188 972
3 90 1459 1391
3 431 1579 1956
3 94 1738 1306
3 1752 1375 2131
3 767 776 2148
3 1104 684 1942
3 439 1276 1773
3 714 2051 1479
3 1020 1765 1892
3 1248 182 1519
3 316 317 1951
3 1608 543 1661
3 1211 545 2001
3 962 1253 955
3 898 631 1634
3 1305 99 2073
3 177 1821 2072
3 768 432 2114
3 1207 427 1706
3 125 126 1371
3 1527 481 1820
3 1869 779 2005
3 1643 542 1450
3 251 252 1803
3 1738 95 1290
3 1195 812 1507
3 990 1177 1902
3 456 1439 1407
3 69 70 2071
3 466 1672 1679
3 909 186 2152
3 1144 977 1116
3 999 1765 1997
3 181 1248 1294
3 431 1414 1801
3 1625 752 1216
3 505 1157 872
3 98 1305 1953
3 1821 178 2087
3 429 1396 2015
3 506 1423 2018
3 561 1131 1973
3 670 1059 2070
3 985 1577 1732
3 363 1653 1863
3 1577 461 1732
3 300 19 1517
3 142 143 1569
3 1825 696 2131
3 50 1038 1844
3 1554 598 2112
3 525 637 1496
3 1640 507 2078
3 1213 376 1952
3 140 141 1991
3 258 259 1795
3 1431 929 2075
3 1436 2023 2142
3 132 133 1392
3 439 1223 1276
3 1008 901 2111
3 777 1768 1775
3 1913 832 2150
3 619 1277 2054
3 587 1831 2036
3 1831 492 2036
3 423 1880 1948
3 1041 536 1230
3 561 1788 1918
3 762 359 2119
3 137 138 1968
3 1797 912 2036
3 1245 825 1830
3 126 1635 1371
3 589 1876 1716
3 716 1589 1572
3 516 1414 1406
3 1019 1803 1637
3 524 1285 460
3 1635 1035 1371
3 1671 968 1787
3 1487 404 1739
3 348 1312 1620
3 1780 449 1938
3 784 1625 775
3 539 1842 2038
3 1483 427 2028
3 751 1383 1666
3 605 1838 2015
3 812 1195 1377
3 880 699 1692
3 52 53 2008
3 708 1861 2067
3 128 129 1664
3 337 1040 1903
3 784 1663 2064
3 355 1566 2063
3 1388 81 1538
3 663 1671 1787
3 962 899 1202
3 1181 423 1817
3 1622 545 2009
3 604 1125 1299
3 1651 657 1992
3 841 1521 1910
3 1241 979 1978
3 260 261 2011
3 970 655 641
3 750 2022 1612
3 144 4 1240
3 1876 271 1716
3 1599 367 2096
3 891 1603 1936
3 353 1893 2020
3 494 1699 1898
3 550 1235 1633
3 345 1611 1934
3 660 1608 350
3 1682 553 1206
3 408 1236 1683
3 765 1125 1373
3 1611 722 1934
3 538 1199 1978
3 553 1631 1875
3 1274 408 1426
3 380 1785 1976
3 1882 353 2020
3 1107 902 2133
3 147 148 893
3 1785 575 1976
3 766 1107 2133
3 1882 1005 2119
3 112 1253 1202
3 1211 164 2009
3 1106 568 1462
3 620 1301 1972
3 1728 357 1605
3 1348 428 1897
3 1912 363 1533
3 889 1677 1973
3 1601 839 2019
3 511 1435 1881
3 1305 758 1953
3 744 1821 2087
3 1504 287 1529
3 771 801 2124
3 448 768 2114
3 1248 1296 1294
3 580 1197 1477
3 725 1372 1433
3 1023 494 1941
3 761 1811 2004
3 1292 1738 1290
3 2042 700 1910
3 1439 429 1407
3 575 1273 1976
3 1147 1871 1876
3 1818 709 1204
3 1649 556 2029
3 2022 851 1612
3 1448 1588 1500
3 1593 506 1456
3 1050 387 1839
3 1766 260 2011
3 1737 370 2030
3 1785 888 1010
3 253 254 1114
3 565 1268 1981
3 151 152 1995
3 967 1431 1647
3 1174 1916 1527
3 654 643 1308
3 645 1207 1706
3 792 114 2082
3 225 1763 1502
3 162 908 2079
3 1085 762 1026
3 1604 307 2100
3 1526 49 1844
3 1312 550 1633
3 1436 1540 2023
3 1563 584 1794
3 1792 1312 1753
3 329 330 1758
3 224 225 1502
3 1914 47 1940
3 46 1914 1355
3 1607 1093 2061
3 1040 988 1903
3 879 557 1321
3 1398 267 1280
3 1588 734 1500
3 611 1640 1437
3 912 1312 1633
3 60 61 2035
3 1356 526 1888
3 1901 1057 1580
3 334 335 1204
3 298 18 1868
3 672 1285 1422
3 1749 206 2139
3 1654 1795 1471
3 662 1728 1605
3 1085 2092 1214
3 1067 1787 1641
3 1847 683 1676
3 306 22 1464
3 2023 618 2142
3 284 1599 2096
3 1603 291 1936
3 354 896 1313
3 1842 857 2038
3 556 1649 1265
3 1009 1348 1897
3 343 1510 1723
3 1694 381 1719
3 752 1625 2095
3 1649 442 1265
3 483 1704 1634
3 1996 747 1542
3 234 1645 1917
3 1563 539 2132
3 1220 675 1974
3 628 975 1395
3 517 1550 1498
3 1176 1850 1303
3 1690 533 2056
3 256 1543 1807
3 320 321 1712
3 509 1766 2003
3 975 692 1685
3 1626 877 2084
3 197 198 809
3 853 1228 1839
3 1300 733 1670
3 1144 253 1114
3 651 853 1839
3 70 1600 2071
3 1312 912 1620
3 1038 1011 1844
3 78 79 1650
3 1619 369 1485
3 749 1901 1580
3 615 1029 1484
3 1728 672 1520
3 1521 769 1910
3 508 1717 1894
3 91 92 1729
3 1589 283 1572
3 516 1681 1946
3 656 1233 1347
3 1766 1064 2003
3 1247 1717 1639
3 184 185 1465
3 490 1356 1888
3 1861 1134 1707
3 1785 380 1470
3 1228 1050 1839
3 752 1403 2039
3 796 1305 2073
3 1821 653 2072
3 1738 1150 1306
3 500 1861 1707
3 1099 984 1310
3 1077 221 1660
3 511 1881 1943
3 204 205 2070
3 827 1146 2129
3 1304 1248 1519
3 65 66 2081
3 1429 777 1775
3 1652 1020 1892
3 896 793 1313
3 280 1453 1488
3 195 1883 2054
3 1382 622 1962
3 101 102 1678
3 174 175 2060
3 1113 1190 1983
3 1022 170 1688
3 106 1469 2151
3 312 313 2115
3 292 1008 2111
3 338 1628 1410
3 221 222 1660
3 661 1237 1696
3 1628 1058 1410
3 608 1636 2094
3 1403 371 2039
3 1203 1890 1457
3 1285 1101 1422
3 412 1563 2132
3 1301 1044 1972
3 1106 361 1950
3 1700 905 1191
3 360 1429 2069
3 1035 1635 1642
3 79 844 1650
3 1663 623 2064
3 1074 474 2098
3 1033 1601 1988
3 176 177 2072
3 99 100 2073
3 1546 705 1835
3 1651 470 2046
3 267 268 1280
3 1372 430 1433
3 937 1869 2005
3 994 634 1719
3 1219 1447 1326
3 182 183 1519
3 93 94 1306
3 557 879 1997
3 1902 1078 1744
3 1734 197 809
3 4 1630 1240
3 210 211 1573
3 393 838 2004
3 1431 464 1647
3 1401 1022 1688
3 1469 1404 2151
3 1787 968 1641
3 361 896 1365
3 238 239 1906
3 1125 604 1373
3 1221 552 2000
3 188 189 1323
3 666 1080 1400
3 87 88 2145
3 97 98 1953
3 178 179 2087
3 95 96 1290
3 180 181 1294
3 904 1546 1835
3 1082 1217 1965
3 1249 2010 2017
3 1880 1112 1948
3 1715 480 1533
3 1064 1766 2011
3 134 1926 1293
3 610 1287 2025
3 170 171 1688
3 105 106 2151
3 490 1221 2000
3 192 193 1959
3 812 1777 1507
3 138 898 1968
3 1117 1253 1836
3 799 1690 2056
3 1890 454 1457
3 344 1783 1196
3 885 1972 2069
3 620 1972 1386
3 759 1856 1243
3 939 1446 1230
3 2010 452 2017
3 1080 666 1938
3 1783 426 1196
3 1667 632 1815
3 39 40 1443
3 1838 429 2015
3 1211 1120 1726
3 1107 147 893
3 1011 1526 1844
3 109 110 2123
3 166 167 2122
3 1970 580 1477
3 1955 986 1397
3 405 1233 1516
3 1677 561 1973
3 880 511 1943
3 1543 865 1807
3 1041 904 1835
3 1033 1823 1549
3 1392 133 1293
3 57 58 1514
3 89 90 1391
3 1155 771 2124
3 136 137 2097
3 335 1818 1204
3 133 134 1293
3 137 1968 2097
3 727 1967 2040
3 265 266 2109
3 186 187 2152
3 271 272 1716
3 1819 721 1492
3 1677 431 1801
3 1140 1182 1553
3 140 1991 1710
3 49 50 1844
3 791 1236 2113
3 1682 1232 1896
3 975 483 1395
3 536 1041 1835
3 850 1077 1660
3 47 48 1940
3 45 46 1355
3 42 43 1684
3 1777 627 1507
3 637 980 1496
3 755 1311 1349
3 1872 1027 1658
3 1763 1034 1502
3 1360 765 2058
3 876 1106 1950
3 594 1699 2103
3 467 1731 1794
3 559 1164 2031
3 1311 454 1349
3 611 1955 1397
3 1598 16 2077
3 1162 835 1928
3 1702 87 2145
3 789 1162 1928
3 1287 1341 2025
3 2027 412 2132
3 139 140 1710
3 438 1877 1989
3 398 1996 1542
3 1972 885 1386
3 964 1123 996
3 135 1302 1926
3 317 808 1951
3 1717 1242 1639
3 406 1686 2118
3 1497 85 1762
3 1122 711 1418
3 1123 552 996
3 1722 731 1342
3 1316 923 1166
3 357 1728 1520
3 1848 569 1326
3 1125 232 1299
3 627 1053 2084
3 1383 779 1666
3 1856 352 1243
3 1768 415 1775
3 1808 532 1986
3 1543 1654 2125
3 755 1808 1986
3 921 1702 2145
3 643 515 1308
3 1095 1398 1280
3 646 1186 1409
3 1571 1165 1723
3 1601 476 1988
3 725 1561 1372
3 191 1115 1461
3 759 1243 1897
3 835 1273 396
3 402 970 641
3 1644 1269 1283
3 1242 2007 1639
3 1079 1137 1697
3 1850 403 1303
3 2007 450 1639
3 1343 1925 2094
3 357 1251 1605
3 1654 610 2125
3 1673 697 2074
3 1458 813 828
3 1162 380 1976
3 1711 1048 2130
3 429 1769 1407
3 804 1504 1529
3 1926 830 1293
3 1879 376 1261
3 1251 1072 1605
3 795 908 1750
3 820 1879 1261
3 1416 977 1114
3 8 1220 1974
3 1017 1644 1283
3 1598 517 1498
3 1151 773 1674
3 1257 1085 1026
3 1489 650 1998
3 980 1090 1845
3 1732 461 2137
3 1453 1440 1488
3 189 1159 1323
3 1243 1009 1897
3 902 1107 893
3 990 1902 1744
3 908 1120 1750
3 397 1119 2042
3 1012 1068 1985
3 338 916 2030
3 1757 77 1069
3 1438 1732 2137
3 1600 820 2071
3 1725 530 2041
3 976 1769 2044
3 1370 354 1313
3 439 1197 2147
3 384 1113 1983
3 896 354 1365
3 1786 944 2012
3 1146 843 2129
3 610 1654 1471
3 1159 956 1323
3 764 402 1449
3 484 1920 1183
3 1480 374 2146
3 1922 484 1183
3 374 1923 2146
3 402 764 1524
3 1334 1370 1313
3 1068 415 1985
3 1396 26 2015
3 1090 465 1845
3 1925 608 2094
3 493 1724 2138
3 586 1108 855
3 535 1809 1252
3 357 1158 1251
3 199 1760 1774
3 1769 515 2044
3 1018 1181 1817
3 389 2005 2058
3 1244 1857 2136
3 651 1708 1827
3 1826 372 1612
3 1728 662 460
3 684 1370 2068
3 392 303 2065
3 1271 439 1773
3 1362 1155 2124
3 1251 727 2040
3 1253 962 1202
3 545 1211 2009
3 373 1362 2124
3 1340 609 1602
3 539 2038 2132
3 1264 168 1198
3 108 1771 1770
3 1713 749 1411
3 1184 1030 1952
3 1993 684 2068
3 1247 1942 1993
3 1370 1334 2068
3 1025 1777 1477
3 1108 990 855
3 530 771 1494
3 1072 1251 2040
3 1241 476 2019
3 1630 942 1240
3 740 1257 1026
3 638 898 1634
3 771 662 1494
3 404 923 1739
3 711 1854 1802
3 518 1781 1860
3 1021 1028 1863
3 605 1847 1676
3 423 1948 1817
3 475 1333 350
3 843 1330 2129
3 1944 733 1300
3 764 633 1524
3 1384 467 1794
3 1330 440 2129
3 1629 1454 2120
3 1058 1610 1994
3 626 1122 1886
3 378 1045 2048
3 1859 354 1370
3 1475 387 1967
3 968 1713 1411
3 1424 740 1026
3 1146 378 973
3 1984 480 1715
3 1056 1828 1884
3 384 855 1744
3 1857 365 2136
3 1820 481 1971
3 793 1146 973
3 793 896 1462
3 551 1954 1566
3 640 886 1182
3 413 1629 2120
3 865 2025 1921
3 1111 285 2096
3 290 1270 1936
3 1954 969 1566
3 1561 564 1372
3 1522 1871 1455
3 813 1837 1511
3 504 1927 1980
3 746 1300 1670
3 1027 1872 1587
3 294 1598 1498
3 1872 995 1587
3 1003 312 2115
3 1927 785 1980
3 750 1612 1254
3 989 1099 1310
3 898 638 1968
3 589 546 1895
3 1828 673 1884
3 1610 1320 1994
3 808 864 1951
3 282 1680 1572
3 477 1822 1479
3 1157 505 1575
3 961 1344 396
3 1380 1157 1575
3 866 1825 2131
3 1344 835 396
3 1411 403 1641
3 428 1348 2022
3 1175 125 1371
3 823 1841 1332
3 1155 1362 1966
3 1009 1243 1381
3 1071 1278 2083
3 1745 1112 1868
3 584 1384 1794
3 1137 14 1697
3 1278 1317 2083
3 1122 882 1886
3 1348 851 2022
3 541 1880 1567
3 1957 293 2111
3 1138 1827 1748
3 1223 439 2147
3 1164 413 800
3 727 1475 1967
3 1362 951 1966
3 785 887 1980
3 1348 1009 2021
3 829 1984 1715
3 1939 862 915
3 1042 2055 1481
3 862 1616 1834
3 305 989 1310
3 887 676 1980
3 779 1869 1666
3 609 1340 1701
3 682 1148 1851
3 1857 1652 1892
3 1338 881 2099
3 633 1453 1551
3 819 1749 2139
3 1920 573 1183
3 485 1480 2146
3 1088 1922 1183
3 1923 1351 2146
3 1612 372 1254
3 979 1241 2019
3 2025 1341 1921
3 1369 1905 924
3 1616 742 1834
3 767 1448 1500
3 1841 1046 1332
3 658 1388 1538
3 967 1809 1638
3 1330 843 1990
3 792 1117 1836
3 1998 366 1385
3 637 1341 2051
3 1161 1423 2059
3 1120 908 1726
3 764 1134 2107
3 1054 1338 2099
3 1822 1187 1479
3 1540 1048 2023
3 497 1260 2037
3 960 1330 1990
3 895 1820 1971
3 1307 752 2095
3 1621 399 1975
3 345 1786 2012
3 1942 684 1993
3 1883 619 2054
3 515 643 2044
3 2014 379 2095
3 855 990 1744
3 1090 980 1687
3 1648 475 350
3 1680 716 1572
3 1738 1292 1646
3 2055 1070 1481
3 1296 1248 2045
3 1172 265 2109
3 874 1576 1607
3 1196 874 2061
3 758 1305 1755
3 1821 744 2053
3 492 1797 2036
3 901 1957 2111
3 399 1843 1975
3 1027 1866 2066
3 863 1309 2027
3 1899 1317 1278
3 211 1063 1573
3 1333 660 350
3 1063 1212 1573
3 1260 846 2037
3 1163 756 1286
3 1813 399 1621
3 968 1411 1641
3 367 1111 2096
3 1270 891 1936
3 1009 1381 2059
3 1861 500 2067
3 1869 358 1666
3 756 664 1286
3 1856 759 1789
3 1746 359 1214
3 660 1828 1548
3 445 392 2065
3 1309 1126 2027
3 1864 417 2055
3 413 1584 800
3 817 1813 1621
3 121 1279 2090
3 1893 999 2020
3 1564 725 1433
3 379 1307 2095
3 1387 155 2089
3 1916 597 1527
3 546 616 1895
3 1559 505 2104
3 1044 1428 2069
3 695 1564 1433
3 779 1360 2058
3 1534 725 1564
3 1584 25 800
3 442 1534 1564
3 1816 982 1753
3 464 1431 2075
3 1210 540 2102
3 754 1172 2109
3 469 1899 1278
3 1398 1095 2141
3 1042 1864 2055
3 1428 360 2069
3 1453 9 1551
3 18 1745 1868
3 254 1416 1114
3 1428 1044 1523
3 1243 352 1381
3 522 1003 2115
3 1871 1147 1455
3 1803 757 1637
3 746 1891 1300
3 1005 1882 2020
3 1924 841 1910
3 1905 424 924
3 1048 1540 2130
3 1937 397 2042
3 979 1262 1978
3 769 2042 1910
3 1866 536 2066
3 2085 603 2110
3 692 1855 1685
3 383 1628 2144
3 865 1543 2125
3 1285 524 2052
3 709 1837 1204
3 509 1908 1471
3 1262 538 1978
3 1340 496 1701
3 1150 1738 1646
3 536 1866 1230
3 1931 1554 2112
3 1079 1697 2102
3 2021 1009 2059
3 1779 1269 1644
3 1605 1072 1494
3 1540 263 2130
3 272 1830 1716
3 1880 423 1567
3 1891 456 1300
3 444 1927 2074
3 1248 1304 2045
3 1608 1648 350
3 1908 610 1471
3 676 887 2134
3 1054 1615 1338
3 839 1662 2019
3 1305 796 1755
3 653 1821 2053
3 568 1106 1929
3 417 1779 1644
3 662 1605 1494
3 769 1937 2042
3 215 1939 915
3 1662 979 2019
3 1806 1042 1481
3 1866 939 1230
3 718 1931 2112
3 757 1949 1637
3 1071 993 1278
3 562 2024 2026
3 1615 407 1338
3 501 1806 1481
3 43 1121 1684
3 548 1428 1523
3 1101 1285 2052
3 1282 1621 1975
3 1697 790 2102
3 2064 623 1904
3 543 1378 1661
3 500 1422 2067
3 1974 675 2085
3 694 1856 1789
3 1147 1982 1455
3 1448 767 2148
3 1375 1256 2131
3 790 1210 2102
3 646 1359 1542
3 1830 589 1716
3 1179 784 775
3 1949 644 1637
3 1106 876 1929
3 452 1559 2104
3 1576 567 1607
3 1948 614 1817
3 1256 866 2131
3 1795 509 1471
3 1468 1179 775
3 934 2064 1904
3 2006 881 1338
3 1427 411 1798
3 993 469 1278
3 1381 1161 2059
3 383 707 1521
3 707 769 1521
3 2024 947 2026
3 1422 1101 2067
3 415 1068 1775
3 861 1427 1798
3 1806 501 2117
3 1334 1313 973
3 488 2085 2110
3 488 1974 2085
3 1059 204 2070
3 1378 1047 1661
3 500 1707 1824
3 344 1196 2061
3 1950 464 2075
3 2005 779 2058
3 354 1859 2150
3 982 1792 1753
3 1158 357 2149
3 1313 793 973
3 1035 1175 1371
3 407 2006 1338
3 876 1950 2075
3 1735 522 2115
3 1982 681 1455
3 1315 798 1956
3 902 893 1556
3 1359 398 1542
3 2032 383 2144
3 2025 865 2125
3 1972 1044 2069
3 863 2027 2132
3 1647 464 1259
3 1930 682 1851
3 88 2121 2145
3 704 1912 1533
3 456 1944 1300
3 1837 334 1204
3 2127 188 1323
3 1989 967 1638
3 1134 1962 2107
3 1231 1282 1975
3 313 1735 2115
3 1141 1930 1851
3 2121 921 2145
3 956 2127 1323
3 1628 338 2144
3 2080 1037 1385
3 2062 625 1363
3 1126 1062 1730
3 1073 1571 1723
3 2088 939 2105
3 365 1857 1892
3 2039 1133 1216
3 1021 1430 1947
3 25 2031 800
3 2121 89 1391
3 1062 1036 1730
3 1566 969 2063
3 187 2127 2152
3 1451 2080 1385
3 2056 1557 2143
3 247 1448 2148
3 438 1989 1638
3 752 2039 1216
3 700 1924 1910
3 1962 622 2107
3 636 2088 2105
3 978 2032 2144
3 1410 1058 1994
3 610 2025 2125
3 887 630 2134
3 921 2121 1391
3 171 1618 1688
3 1402 105 2151
3 2091 45 1355
3 1551 1001 1524
3 506 2018 1456
3 739 2106 1655
3 503 1410 1994
3 474 2088 2098
3 2127 956 2152
3 1618 1401 1688
3 1404 1402 2151
3 2031 1164 800
3 1602 489 1935
3 1120 2001 2140
3 1167 2062 1363
3 2093 830 1701
3 2106 1328 1655
3 2018 935 1456
3 2086 750 1254
3 952 2091 1355
3 799 2086 1254
3 1709 298 1868
3 2088 636 2098
3 357 1520 2149
3 496 2093 1701
3 1365 354 2150
3 633 1551 1524
3 1971 481 1958
3 2038 863 2132
3 1520 1227 2149
3 2001 540 2140
3 799 2056 2143
3 2106 406 2118
3 832 1365 2150
3 893 148 1556
3 1138 1748 2057
3 1328 2106 2118
3 1748 1255 2057
3 1112 1709 1868
3 1750 1120 2140
3 1316 1971 1958
3 1335 1750 2140
CELL_DATA 3976
SCALARS Von_Mises float 1
LOOKUP_TABLE default
42156719.27864182 42167338.46777065 38529598.521378525 829298.450791891 830086.97599905 2965491.5045927814 27246892.092328344 40529849.0994843 42962012.75916547 19183993.665681448 42928819.470215514 43971026.86252079 41096091.73914432 3987959.531062917 12508526.942057172 9819104.83363696 41669954.530497864 6377384.319804624 42818827.20389009 37729527.81575435 17459640.8103306 18628852.736662664 11630475.537827566 42830398.432126455 14671361.43646803 32609975.07907466 48411061.16519751 50597727.89481823 40554349.44455243 63197817.44060343 46365182.5954916 46971122.810960926 12943274.569171492 23410250.463775445 39952791.51511286 18178293.24245043 18336160.87381158 39439800.10934972 28140930.34515505 52109947.72838805 53403058.95806247 3777766.478188215 20920234.887009107 50499271.92649149 53213959.17387836 41692257.06078382 37872032.98968423 5334511.834070514 19347672.293848023 23350965.27462549 55166746.89654967 30117005.23749073 8950940.983230945 8792930.256888948 8779421.11894053 63614654.06251281 16039150.542405345 14561041.82158224 36985456.161760636 40550431.3908291 39767647.080736175 40482842.67292716 37970314.3362243 39455955.14284586 9311905.145106684 34674439.65820556 53410645.9173338 40826286.15310676 44362462.220417745 39469233.21729665 49575940.26658958 36361916.30060866 2819750.335600868 41932754.788256936 28499375.304247346 29570867.831926584 43533473.7581975 35812875.57981725 44756474.13709064 37717828.08259832 49963930.212082304 48958974.072762154 6354014.106212325 51601951.59099921 45907164.61242602 17339136.205745503 39599478.39294837 43466827.022569 15311903.537606396 13573826.663135944 75747660.1323994 29839904.98668957 44702814.31609197 40367843.002564535 21134086.872519452 31123407.583044447 37897691.847240895 66997990.71672861 41126529.95763267 13280313.175756551 59113639.00307129 42611039.45471612 35415376.6644701 22927515.305597704 26675437.381248564 45741129.84530008 41414850.71466341 25086654.314881153 23695949.745137483 30035867.742458694 39825467.50639166 38604580.350648046 29176842.728018712 30410784.633477326 45605810.564511456 76152598.05321966 41226752.91854312 41603796.64889858 2701337.413961285 12511872.363181157 23211432.551270705 43295311.2796559 47770491.547027886 34206343.733412825 44568402.71728584 20613094.64038872 6953671.205053143 23311165.25174612 101611383.10577032 8099598.702706915 42115920.37585731 3856046.21826719 51930835.24356879 14180808.4398916 43475914.34397568 24004980.964060273 43025765.467760555 94008390.95867938 1224359.4793916033 1237398.1402997945 103669269.76135753 43759783.242891066 10962926.747784005 40537810.42794272 40043349.2696796 23917777.218650118 22921748.36236435 40838841.320647866 52352940.25907276 65644188.36894092 53422902.14902 40546296.09006059 18178988.219209284 57056268.09942883 49842642.5612606 16135842.529658666 33862757.73503551 39265583.8119771 100049970.38481145 51051402.679109074 44028125.710090175 55158342.30725288 36325565.12508303 40532458.24151252 38046913.809309624 50552046.244688 17427750.14763355 17392833.239906114 66530734.563397676 13145972.789205672 43919964.259656005 40078600.62404989 24500832.762697633 15945255.73488314 5458294.254878394 74526044.92800574 44090311.81209523 94340181.79761302 45845172.08105777 40029291.776484445 36821945.516425535 31118014.417452637 61841148.960244894 23663164.091822892 45608839.467971444 49034565.991699226 43853560.52547354 43919979.04865229 43328580.68114782 32158089.99908584 28319852.24206795 16340012.393039024 12721708.127032382 50405579.90643454 26326195.05393113 42198828.81728923 48712686.091424845 23355568.73020473 53394393.76693363 41636502.17090239 50595302.105158545 17733082.35265665 39146264.02998131 27846541.287060224 50155460.856114775 80813300.96954714 40389682.182497784 54987530.08164941 35456672.186494716 25285979.859418318 166948689.54692996 59796214.24674495 47760344.846607365 51429020.548102684 5348614.4586745445 5318958.733610654 48526677.627991624 30467633.29167693 47106747.97139442 42814002.67201155 50317446.74818334 14082088.196053898 2067400.8141286743 50004757.60914271 49515380.702917375 34493001.30456641 2344940.741055709 2361374.801212067 47727776.54209478 20910932.53235487 43659937.24109839 25167835.185517605 41924652.229184054 41517881.56774551 43216892.405563064 40082353.72077953 54901995.13942169 41352235.68780095 31293417.334650975 45167490.12602021 57435303.253275275 14980171.009791763 50328843.76392115 44529448.20455889 90749644.16427544 8810997.665825311 8816274.809262127 14814317.082475236 22943738.062000975 22851216.075163674 39656229.542354785 58617311.5329966 27416399.989187084 51172691.550710835 113415455.18028216 51376948.92500674 35681503.91194817 41642487.86858333 40708942.908274606 27249901.35269725 40777140.5920263 43608240.34894587 60922450.812531635 47121272.67572915 82988529.2481072 40737929.89395038 47440265.85221529 33736082.1578053 23960308.206264727 40852566.07417484 22558878.0851274 43679125.3367042 37610842.19981917 77971971.99669796 47355981.78228904 51300255.586180344 13746299.095568493 12264572.05738832 74607807.10064295 33685444.16856978 45870684.478726044 42875376.88243225 40685925.54800561 107181566.21943742 24173113.576263446 40588554.58046879 45397373.95671596 69347847.34850666 8235726.81025432 8169617.61495787 38208505.58038788 13956456.465415085 16017529.106388137 38934633.36743319 45269875.6556802 45237319.46977141 56399272.19661217 42374459.06073651 53253058.96627729 47236556.046842046 39657956.236851126 46905219.786973394 16797997.616334576 21867432.1082015 41350504.414737925 41369334.227034606 23473504.687227827 48406279.55904116 45159963.11854968 30790807.170696724 49708908.16544342 59564989.87445265 41105277.69140735 12492632.222661046 51047960.32953196 40551311.513036124 40886020.741581894 46155887.582788 17331285.826432753 40116930.8554331 44841340.777932726 41075810.58810426 44388590.99186555 10849001.393037466 48629526.03649424 49543300.04912932 40621038.16393731 43316218.54707104 47446124.526482806 27184562.73098928 30015292.58133844 47115719.96203551 41246382.998627245 62766767.08810669 56080289.06139396 5911904.090070757 42131196.113657355 51845036.400487885 41952836.86069361 45794499.80935131 14036116.118079673 8355209.210319654 46254372.53120112 38906091.66014542 36900439.09681755 53763412.8834038 49189096.312085636 61087638.99890321 13795039.162730165 13722024.181127423 41799185.71372793 29438925.59483415 42100984.47232847 1089118.8445621151 18635654.958525605 50266236.276642986 39561600.92634477 49540142.843586564 21300288.453424733 15339623.191114115 54086984.9458935 46447730.42859462 49389744.493800946 28642556.687844664 8547202.602151005 11838329.741589397 45584837.8076274 34515626.24165577 53313645.35263243 23398492.399823785 42120405.476036206 51719518.65086316 41689967.306468956 46068114.41567591 35294114.3515875 11596919.618737265 32421617.29115163 35600947.05988588 44976714.56410761 14008978.69369061 14060149.940499168 8002205.176550169 42290591.883907765 46737818.35888251 47332811.55214068 52574237.097462155 17591223.039880726 31857902.49914314 44282186.60774421 26367055.41321545 26472028.275567543 43811273.75164992 26611204.22866692 26693958.101114355 34857784.21819788 43675288.72173946 53650599.53442243 37047773.12564859 41955985.12125034 48915096.583997145 40983722.80108568 34518045.96940715 7159928.737642094 7243431.127446931 44672948.499023594 80747837.72298785 3213898.322777509 29944339.72684336 27451616.912698634 50069759.85720626 48200223.464208774 32138893.892099615 48729592.827068545 38760334.14316988 43814356.03947773 51239053.19978224 45341224.41865956 2267600.024185991 10287928.59677802 46784115.06789504 45771622.533086136 236163710.36355737 39153465.17567305 43263632.625684656 42829604.87739189 40548273.24689471 42297151.9448095 11755191.460222237 31236815.101146396 40337717.033682965 5935598.165726369 5987145.908065293 44798434.2569907 5003602.297279243 45206237.2677893 69279957.08996074 115881033.57382742 40539619.3878117 29057866.33171144 27061959.54979237 47776278.02660654 31063409.56036657 42388518.48227453 31030928.229911122 42782117.853022784 10639480.742186576 30593075.664458934 44479248.54998194 29384179.802735265 57977381.09481175 31382209.872400694 31301983.185422342 13651174.629964452 76563054.16735922 42239311.49952478 43314925.78562455 40655432.24354443 10271743.399162764 20608124.03794914 49060600.16090839 35851901.83860141 38040278.97047468 41207287.83701332 14358393.606924674 6489611.62790822 45632782.14758782 16305418.268699465 16305418.268699465 21436473.46083207 65975526.20501184 212744385.78856722 36674330.99879953 47157234.389220804 44631888.73954811 37082381.94773132 6824687.285604681 6768763.600743418 23106896.049054623 44242412.78441619 45541675.74517569 30283611.849482637 46410137.717525914 43992189.83572659 24565973.858458728 37283424.94652845 27579966.18462038 11547438.568963956 27184066.49173729 8959501.439541752 48914290.320484534 36532376.59967298 40567044.55787891 44107502.717476964 40783022.440060385 58717770.99334946 7790027.7207701905 42442223.03075807 7004583.102043733 31865521.73784703 2001442.0279249488 48893880.77870431 35205490.656954266 36310337.97563271 43356316.33155639 20654752.25617418 5032976.762893957 45309046.273645625 32536697.85691276 44443704.157341845 4913689.787688532 40241286.06590004 26633064.126880884 18475454.361552224 45797076.21726732 17591249.15689749 49437724.70478125 53470559.86354865 22390068.635942094 38977337.71027541 8121697.600980361 44280325.32974513 49011263.420468405 48337043.64054379 37302422.29423385 10418104.28728571 6433677.665795265 42276417.31327369 40510620.994756356 400203.40750405483 46296711.43262425 40195001.639969826 103378318.10778809 6367620.075911501 45306216.32417855 81888336.28613655 46245260.56091949 48862083.59570782 48189679.521167785 50817199.26320542 36837099.45756497 62767715.06079585 14954371.896788683 14919240.329800487 45361347.63941063 43227314.309381455 39687417.23216425 7681494.7362840595 50010952.66923475 10972814.01007952 10930337.299922101 58660435.104517765 39443226.29217437 30269983.711469404 48626170.09396354 43835254.82170873 40790863.683370404 5271425.426572842 43154829.67583737 35849570.41924976 47232995.80773385 18996281.333232213 44502303.21713847 45018606.462745816 52465217.82354204 25732474.11320275 73287158.74078703 4313615.299489703 27298564.48036498 26703139.12097872 24721127.175218657 20779446.2527464 69706183.59966141 41897632.99261287 43157451.99922922 52000220.751816966 40030223.58948697 30431929.244626027 30387642.60743816 30472155.582182698 572830.0173022207 30439433.634678055 44002546.33939615 43992846.8952501 38961498.71271244 41000887.0179428 40938632.62568092 49522051.13288597 30968313.57993901 40581379.24030778 8821376.000180157 8783828.79590704 583028.4367667222 30554474.735581342 6148712.358913931 43676840.36771658 37355462.8186191 40672607.81717864 11090203.934940917 41477450.037435025 46773745.900038786 56559925.88512317 35990369.54725333 49834549.8810777 41764301.93534721 40453893.00098669 15291745.43105693 45958732.76419695 55493746.026291266 36210313.418350644 44743673.643946335 41098096.884491555 45294932.522233635 12970903.990242423 47474935.61177366 45933342.7335703 45072790.52503641 10485968.299121793 23910030.842173386 42560880.476222984 35308856.37712447 40970048.8580594 14040221.979666077 34960297.04372208 39794389.732364945 13587782.658443347 40586911.48125033 48911744.54897245 62685746.7338975 64253802.113536656 44188713.51717762 7014408.759162283 25055017.773677617 52548970.3677334 38400229.61805414 41797306.60882404 50091338.17552281 9835574.498247696 24329084.150285583 45620768.16801378 4488662.202138199 120033404.0321128 34281724.325482644 5136676.100373431 5163783.327781973 47007046.05526546 46012969.94687486 29840740.786143787 8126516.3689386565 49130585.97033421 42819913.04710317 42037902.89812986 12869023.540797768 15516749.496547598 51751234.46421859 41844702.03137374 36363050.90224437 54311431.985000074 58971391.8553004 60294713.57581685 8151393.086114037 44202704.27414032 103742771.522401 6751187.555687985 45032151.80073631 43604742.742347844 42692322.69235654 31353689.29187274 32737952.223553315 40311754.23080754 27866868.049193364 45715352.87261309 44985292.30781323 47134103.142280445 51613281.86944241 12395669.353001125 12440536.41694751 12100224.329902632 50355660.972702 63679098.516576335 43626313.477693446 45749727.94822105 12033884.844800176 44543253.82002457 53563723.552954614 44024816.18205818 3016602.7645369186 11815139.8750958 18386548.16923024 32348191.421976566 43074079.7769674 40774429.771110095 66707803.34835541 42990625.72379775 40448235.80744571 26652966.941809967 26188315.60154912 27611065.813829545 32131300.365858797 54238574.08746333 22641038.53712439 13183777.130691823 45023550.97132746 5281011.907089436 37552192.32531738 46123467.774759375 44976456.65056548 34817555.28175991 49399630.68556065 22775682.146004643 73040136.83043016 23883846.516544603 56670983.641899064 8669378.654572003 39329295.9057863 42542986.28916199 55106834.93612534 76758775.15683307 56450756.66905629 46278032.82840219 43433532.7815994 45421389.509933166 41501437.06426673 44978257.10551942 76970611.41975422 36475979.5244478 49204103.95504743 35369234.58898519 45606575.644894555 40458869.34271761 3280179.968983529 43875840.41956741 45843723.90656439 4437735.196032065 42850084.30795558 37592716.90047863 43809055.22400013 55658624.19098891 32069984.40332595 42434597.219240054 48286102.53907932 22990416.78715095 58522339.63541339 41311759.124623194 154285709.8157705 1839257.2142719226 22489366.936686948 45496716.53567644 37765203.06004521 37712299.816921845 45534390.2541376 58086035.3795311 44675539.80586717 37728209.8519943 37665578.6006725 42003013.581890725 48360120.17639333 24499436.684083343 42170421.03721803 63047105.47813569 41182080.80447119 17847413.022974223 45175849.81648396 38024084.10408603 40137290.83603114 41904607.63110111 34629361.97802401 31501701.941543024 6533347.443695475 31258429.142001364 63532950.80746285 42421972.40484795 68281138.16100545 58477244.99586411 44530070.633614115 40675304.15537287 47454309.37789251 29514925.342500698 44438268.03049538 510209.89693877794 529308.3724846456 45019231.07715558 38985798.86898144 5878172.270083864 45501284.63325017 46286774.14709947 46406830.213735156 44917428.50192726 24539108.88852479 12126234.587349689 40764543.68562847 10403763.213750387 3123021.327416001 5566647.236150368 33648330.00903863 51703651.419391535 40907743.75501299 41607072.18074759 39584100.48039545 9305695.064624174 55335596.727520056 35265275.67642054 42739635.14023641 12204982.54568039 35804164.98004602 66885055.287438735 51908120.311483204 55156114.32466139 26394778.12210403 68846881.14446972 29403988.711388968 15199884.007970136 23237166.24541849 43849687.18162044 15758509.30083497 48736680.780914314 37333658.77611668 17193431.882990833 36242714.16926971 27067680.43827601 45457171.43996816 52261496.94155714 40535684.470281005 46176163.80043405 10355421.876542658 4978553.78415683 40948561.72272136 75088419.94265643 12697686.394292843 47045170.95271639 42974421.63300678 32896961.514986396 5028487.222287572 5012643.020164738 58805383.81741393 40811598.706265576 42478074.01249455 4185769.0775457094 9872762.722494416 53999807.45577654 35590659.329713665 40691047.74894887 4728483.60318881 4727110.864942574 27954504.02762073 437737.37625434954 28489120.02955964 46425457.012164526 11969809.804074297 39132900.57190858 32712483.80193451 74152248.67411496 41228854.705699936 42936033.606736794 20828680.90284353 29222900.78521578 9165956.97602342 3835509.8789610835 9362952.229979241 45794984.949777365 6571702.05610718 40872314.78222154 46217879.827083215 41338253.09095122 43845433.55460432 28375063.190552626 31741581.226182297 124585053.39414532 2033586.54913618 12390411.361642167 69344253.32222034 1443144.895609514 4267239.274995245 4860968.594023413 43810317.080037646 31887606.220327016 28189733.366195563 11379654.118497591 16059245.103429891 32652279.62055124 26057743.088127553 6682921.252671326 29234959.765964735 75591623.68670201 19000407.613422822 23599619.914469678 50691389.385691345 17544250.218887657 4430205.849247276 94485926.45550367 6663129.994690885 20856590.356066607 44306963.23569117 64855535.56030938 46468558.71354335 12195392.347342879 50803511.95203824 15177367.090092259 41465713.70090223 37151092.53414252 102862892.32984875 42249789.38199812 9057355.738186134 57660164.65045488 44799593.172819905 41533996.21142348 48138471.99318042 63373341.4633248 55895998.34530364 39265132.7629651 53442698.384693235 3880484.334954806 27549190.032700293 41533248.54441246 48420540.5524135 109501637.14715669 8650706.165757915 41895841.430205576 32659271.019068293 45494019.62988657 48542251.81883462 42445115.40128126 49767967.46554607 52894998.99472453 50391854.174926005 2309938.2206983203 4384672.760519014 4405550.515211997 37209483.932657085 5884316.299822935 5865552.606113074 11246445.004896382 17056135.298532657 15861182.885404017 29613868.738141242 7916993.607429053 1358706.2726383493 41910214.74814497 4299551.6220534025 4348696.131875215 7987622.2394164475 17520672.398639083 33847576.29282469 10960649.953936227 12818647.101973483 20054114.470248956 41819945.28253196 41316819.413077034 51255371.554120615 40234047.84764928 45707841.85999264 41916538.96763595 37288483.91498742 48082836.04922694 28935127.24002053 7720347.801093044 7634987.962706922 54549236.556543134 46460443.643873475 54625510.78146113 23223914.104778852 41184975.90920341 69738421.15948717 19962282.49635485 41218296.47436627 18141171.209887676 46138397.881129734 50831370.83430877 42578267.67520854 67042084.4313963 46814950.35986828 48534865.31031736 86860969.10648696 13835536.303827526 20226825.03193519 32811205.63549139 37733714.733785294 85192267.17088573 41411751.58155903 47319810.90696197 14287962.31941615 42745885.77662236 1209924.101274918 1219569.3442934393 38191361.95045706 42795532.39551418 48401771.87218381 45256150.30265378 30187303.556997925 28476496.17263141 51815989.08244916 41592903.44060431 47662400.67965784 2690946.7131045987 47007644.13007013 45223594.50118217 48673363.66197733 39475357.52491788 60700943.077615224 36591953.51291349 44215757.02701318 40689519.55811049 27127696.970000755 39332237.11733645 41493877.010476686 46687273.859994024 42635457.37447087 10123833.540878551 10092892.77658316 41519208.25781598 20286309.019318216 42568377.56752208 15810629.700281046 48474822.30636882 38758642.054796115 43060720.164982684 23828093.578539252 30556033.15794789 40852032.88649749 41923485.5516053 60393993.17540094 44166501.92764427 69171017.92160946 15773681.425953 49883522.6210382 50837374.83200404 24804986.15865866 48187886.194073655 50717517.68174041 42981255.83986749 43088267.336430594 45827527.57323714 20950155.835271332 47019025.44783207 43259235.47275622 17436943.908156034 39886506.18221343 50505738.196228795 45341521.982544996 47856509.18714859 43887418.231035255 36005789.156217456 41890381.536398016 42779610.08724774 42499870.45274426 55773855.20319251 13882708.822085379 47791650.93841282 44424204.729639575 43051191.0245373 42272209.558159694 24154143.78067008 43307697.36062118 17415015.909539673 27588572.28257808 34374363.294573806 39987531.54310171 3002095.6409085817 45611992.45520411 46372925.83590169 46378216.65162424 55584683.04563082 41014497.29855679 46944597.89820259 37061532.56934221 40853561.38755762 43472717.83163594 8962095.09564935 50716340.84702523 35270955.41920272 33242132.00463513 16436637.279115366 60410002.352027155 41931277.20046543 6915967.6442970345 46805657.880382665 50811189.0331147 48045385.89273823 41104598.1435072 59299977.1352802 37229554.263751835 41387804.059388235 47740347.03307662 38703252.30824737 42002032.486765355 36669977.05928645 39814678.42764402 67302268.4237887 44516826.918863654 88686.24385660843 64426661.0937586 47507443.11812115 40219328.19748078 46188467.45000818 36830592.68380765 2790272.5243908786 2768432.974182808 41177904.4737025 9348098.690290205 18778361.750418674 18813491.71063975 153195.58731621123 153788.9488474349 15783511.878270095 15791519.32998782 32948356.601106606 25023655.692680508 42165253.30539317 20809961.75647795 14002642.515295545 13590511.44005069 43268278.60264126 37433241.36931832 10054860.253447358 35783636.72968451 48814165.68315746 79659856.91376817 42821836.41662551 33734508.1789804 2595363.6844997033 33632279.19780629 57117823.18188927 44882986.775471 40512720.08018856 46927127.45691761 24814207.6289266 48179228.4498589 16748876.00635826 42848171.158979736 46182781.75374819 39017529.94985265 43980757.78509369 38914343.15728205 51657630.66465034 44755542.38076432 35572892.027385466 23647579.234161966 50207403.41978479 54115616.400223196 23755575.670478743 2778460.3416325133 27581459.111974772 14466735.434054075 27478134.4090415 51001025.03168519 44261859.28874957 4449338.508206136 23586375.476862688 51543227.32434554 47022823.446492955 33956635.85396231 45447157.52667428 44834508.01953241 55967022.39504538 47108109.79659602 44723637.40941062 15975851.892511353 43233228.10436718 22949157.194819566 10585535.755200403 4477939.3752520485 44915143.10891022 42848489.73895748 42013948.14005662 41072619.191021405 23177953.558690432 35342160.17467227 42861651.59721355 36718948.7688866 42975776.442550935 35101020.01896624 27748008.80592062 28101930.26501522 42895323.495621294 6808774.102272648 41082775.87801318 19875440.945061795 46742078.1405412 818731.1244777184 40056207.55366139 45311949.21204502 31079198.32754627 45356406.10773586 26624368.965846796 30728347.542774264 36508286.01422469 53974073.30924955 72633140.6206497 43132192.38655841 14052046.47030631 13992253.325402044 36181068.30940086 37824036.3998371 50101764.46111562 4952587.8684703475 51100719.744468644 41317854.588292055 14402462.180030145 14386196.668971842 55848746.29057757 54025703.446594104 40234786.240306474 50380022.99796603 24819448.19416098 42359383.19887005 46891787.95634166 47181956.42841397 42734856.302858844 42398908.13978813 5889231.190092859 29464974.138888866 42268617.2451175 36428466.40340302 40973082.48204419 32758670.77217566 47945812.61557277 47278000.84022281 13047997.18674002 12847402.662734378 43520469.32346502 9663914.374097675 44805689.44172982 28418369.251662415 45995753.91179429 31304461.54584487 17103107.99280979 46464297.21191558 13501878.993172713 15310109.455893287 59681776.79202255 50747217.51022975 11179906.307428561 43672456.27977116 45470162.828421675 59029889.43926847 37544147.96837032 41339336.066868186 43056568.98728797 73885168.11127642 8234550.331270392 23484509.218475945 5531628.23727481 38112510.74758109 4534755.140190483 18086528.835249405 41019328.581485555 77962410.27059934 44998612.04434495 36705544.2916145 49261252.49890778 32294820.30314017 45800679.653663225 38916758.899689384 41689151.43961684 34293122.5027356 42409066.42829577 31001566.421771996 41925066.65929762 54065727.598620586 17392295.928719245 49366592.061617166 35794376.17702968 11116198.399064971 13228124.839207398 30834183.960773423 32263562.769340802 54078680.49400534 51515171.987662636 42166474.22811915 36361166.534166105 55507598.870944515 42390437.3549461 45715448.19680682 3939660.7486480847 40143973.93881575 27219394.44811966 63157745.44439443 32101315.51731693 50453324.27258997 32875714.453440703 47917911.060739785 12917163.20349009 50814809.42409695 36122885.346051045 33877276.31648325 32096636.200900674 47908889.7014786 41260188.45516591 22143366.40581435 53832822.8632111 40833003.03643271 48156307.86526111 39488669.811295815 48255996.66572962 41214797.12834003 44229470.98460186 29036036.664130256 2567589.9498948893 2574681.671618555 48907826.16374397 4722252.934005984 4972127.02091503 97670011.80800878 47450696.777858466 51507476.397947855 50744402.98575218 120018584.00408176 43502493.14863386 50018029.35901107 45018931.36724654 33469327.126630347 24055540.929695126 24017739.744512703 12394228.674102431 11726635.66073374 66646681.37380509 48365798.821358 24285907.029132113 24335242.30093973 37974222.46317707 34094409.281068735 9259851.685031032 59551547.72346907 52179566.16574822 129127232.24576561 521594.6027149177 42584768.338262446 50120749.8457667 41217472.23156233 79341993.66491076 39348479.05686309 43832756.91295551 32823241.423779275 12688762.00461652 12771838.170140635 2652299.097842059 59973333.02037612 33981440.27815953 14158551.206457095 37339572.887201265 77784352.74113594 48138518.38770236 22727972.075544275 42788028.306485675 39499701.65725069 12275755.596743524 44202004.22836185 30626223.807358503 63616607.78562358 34169288.35267723 43900520.209074505 47073088.48781495 11033073.989309326 39506790.24844744 13845322.65701583 43971487.09714777 36562276.70746768 39392000.16807522 34335045.82492293 44057100.96537048 23012056.309858546 23843073.847445663 44322289.93016786 31933670.238224432 45435581.39579106 47788900.35625939 12255285.204931425 12197274.94060843 38306651.87971395 41942776.257969655 10111633.038455468 43923516.24950405 27052086.598744333 33636858.647426516 44439589.131279655 26667257.547346458 41638498.03324538 25188322.799398202 36007264.32882808 20809368.8602336 20746059.98545988 55883311.255035184 892422.2451665692 48670578.45599239 35432538.436417036 36914931.45879198 29564112.53644651 41564471.20220093 215612.16045617263 58224454.4394922 43110351.40049831 44887416.42834147 2554412.628434033 43098248.34144725 46423159.942345716 14394203.82259856 45175922.47560037 44698309.41707126 55289019.76744897 47995968.322744794 7349223.659017258 46130164.254877575 54907783.28109806 45157785.75669514 41943476.10236167 29162468.10832934 20496584.532631338 7826460.418871602 24582333.86916154 40417271.81053876 29292127.018912118 44387601.39435183 43505597.30450006 15856418.51367892 2567793.7437299136 14336542.491139691 40774719.35143409 45424962.74133901 69067047.14763622 56032550.8557393 13980526.74839371 7708145.838391864 7841528.588421771 48043579.83879726 111352440.4417075 13856201.628068537 41754655.97917433 2275083.743527356 49616638.26529344 20703282.619790528 53062612.391365066 27592115.842561387 41513250.256623566 49929817.49009968 5278808.539723847 55431300.96944486 50422985.667541236 34522451.76365698 38261028.41931721 46085661.19360956 40556450.64164867 12494085.304730846 45983332.00007984 1096539.4034832579 25144534.312118754 3190491.2304513766 28791596.734661527 116208217.25636078 42459121.548468485 28999349.65231583 14503409.185324674 71470905.8305714 41153808.94615302 4829297.356655016 13797618.698580988 56555874.33684657 47612673.19832765 26250748.77292903 58392215.53311804 77879334.54141623 21487773.06774222 42590366.28908623 48151884.0008236 12480987.417010447 29087537.094354 44172612.70178046 34902332.59739621 48289190.7657615 32670332.662694354 5678039.897630067 41199621.991760746 17186169.264361095 26327212.26732982 46042327.33517377 39310865.93863082 25737650.35714604 6113604.054237249 101342840.06473275 43672776.18854475 29588657.653138578 44024527.174383365 33591818.49295138 47739226.211288236 17441337.101816934 35479459.139920205 35930501.8758174 47482616.93110621 2167022.9577663997 33256445.482752573 44672608.4499074 14385547.324341038 17009909.76584739 22032230.26704369 1181644.3095502607 1186306.256156316 49466572.32701887 28868367.995783128 41845657.375835925 2379478.553132965 44938312.59259542 26199407.0834325 26166039.54423808 52573565.03433604 26319116.087153144 46410509.97246918 26240884.607526165 59495051.52876873 42829457.914118625 35939482.84112493 32265843.346952572 49297774.44974907 40324422.77334996 14270750.48478102 14188489.243456908 63439533.48287913 34210753.1374087 22726345.66084286 71642026.67866452 39497183.24028822 40477633.08015523 30846671.493857935 36997359.51044477 35111331.43693862 50678246.005660444 2295048.7362699057 46077772.039965086 44185962.41984612 45434271.83800649 49281481.43938705 73871675.30731477 52547007.21948217 57901973.78585768 49968914.865545504 40033904.30257827 17243159.116041765 9097012.621146971 45131571.78190142 7360791.001703737 9076948.059889428 9104985.04421541 48190004.003376 31963898.092784673 38247305.76704294 15295212.550842308 30004546.375258025 17790651.815333653 45847476.28677003 14617973.287380422 14649611.438277598 41655755.59502569 54786346.11858346 18360303.6975548 41498229.932772435 16854210.46755973 75229594.88601735 18931823.5472593 11965496.892123118 49557479.48812889 39220638.8863773 44348852.34816941 18642676.26921965 45709014.87569194 40014177.72968545 14461933.85810445 48281566.914430805 35296786.44709525 37862607.51865783 35635590.81599385 9663164.909987636 5109294.3812512 36557572.20599186 41851288.303528264 41367645.77334567 54009468.38542043 22880480.207024496 40149689.84208382 45328788.227586545 43764996.85022427 50319915.494831994 26557192.620443527 41640957.776627764 42707897.77058061 50273770.24643554 39725206.504133284 35109428.780473754 1501553.7247616232 53363114.73509572 41798379.74360625 36000669.26227014 27082700.90199371 5124128.187731314 32236946.323501453 110039085.15481183 26983808.130581062 34372391.85092244 45699793.87336747 45960248.37241938 76763572.27187523 35318990.46385242 41779996.31235012 44218003.13216845 34084067.774588555 49009849.27504869 49154355.19262226 31127070.32745292 30783957.886257876 71229396.4225682 40364588.78447011 46065758.68113339 42641101.73233423 38833504.96082866 48912774.1500885 56658402.15405458 48236449.4197112 44316937.6445633 57261738.68662018 43100550.463561766 215037.5590564456 38833958.34825898 30024081.93007399 40126377.1383661 39947206.36684448 23634381.624905948 45768347.68584985 41329586.54832123 40623678.34662985 45863542.919526614 54966700.284319915 48596828.64889592 67492077.91118449 34099432.2962803 34048398.72303076 34148176.71917654 34087912.87940799 46945175.51848496 30247879.207647607 14265564.027313309 45775972.02739884 36527000.45834474 41753039.53151167 41042356.082646996 51814073.27816528 39604621.75309563 47894988.18515373 45872493.44528543 45892665.43250388 27591550.092281733 35139551.82551518 1536009.1780146663 41555869.45234973 44296109.82209989 24700741.373062916 13899932.905528923 13890148.701602831 4135652.5954886363 48600076.8009598 29104699.7710596 56012232.18215711 59905975.19389185 17534148.9762728 71928125.13377212 35307901.45785866 7171758.435010382 7238024.36254722 62437455.27252766 51987645.75323433 53967669.98010288 45839910.49752075 98769759.09166896 57990434.240099 14320640.82692647 14266066.297819719 14204370.321895955 35617616.119514294 7385123.714747946 31662864.99579961 48395580.29294971 46291339.627567664 56884069.047064014 66487656.441680156 32909884.284954622 15446506.357369117 57116750.76299092 48561713.8932162 47274292.58185358 35116533.320473485 45985833.447035894 50581041.989100374 48092363.66423641 6433086.284462765 31873932.074187532 29585838.25910797 87347977.62594649 37055662.83375023 11483490.70754131 78124240.53531325 57718084.42513116 44114131.50555099 42123620.93290217 38815778.41476145 36457967.92342437 47919277.30590689 61284428.501881056 49949276.54901579 2933332.6290219687 35050523.715804584 12644702.271193258 12653930.116511729 27730650.001053005 73519837.42078811 53102794.17363518 41843480.11358791 100308811.62180538 43869378.15691706 40621574.06132206 33724579.77087395 45008079.977563374 40465725.845482215 47102591.09851002 10499907.037073543 50866475.895449154 50804239.22065258 21283402.317974534 21059375.735775914 41187288.94188245 19894506.122816514 7704083.684793942 5315924.168809139 38361104.90563249 29234839.83167145 13541278.430463228 31006997.71738172 29529517.668173537 119906745.57227536 33429866.677159403 88388228.45323884 44887532.512125134 12753488.081730392 7437840.779752017 49561618.82988127 12793096.515765931 46065075.79571524 42004539.99708916 79649577.81061807 42830503.76391056 21582897.176302835 138981707.9512976 38917863.665941805 55316059.50929127 41897403.65557613 44203213.034851715 70504798.49516806 7375039.373431159 8124670.126885212 52002919.82493198 34719181.66879839 27089358.236342207 66809194.857412115 46120531.37238055 29230382.51419399 44765974.79753785 50232708.04833359 49087208.790024355 29943916.72873214 5589635.460456961 35879081.95058891 52727246.790476464 52061755.32494458 46004990.33728675 41467126.60310062 20876437.385517556 20456442.88529117 40933844.64299251 43633703.505596235 47611773.064568534 28321287.197616186 7673195.671829995 43650575.665038325 30798608.65798526 39794741.12897905 34433717.02952929 13774253.497438801 92717481.3303061 34635678.501468904 27123228.969875235 45388136.61841236 14784627.154135823 47938537.55934697 56152867.92950091 49704584.207994506 46171140.09723536 39780664.29720464 60831982.20663714 43930225.821212515 66721920.5265248 25176604.924231544 18583789.137896817 18590393.515499204 45433776.48536832 35352894.08045766 31774246.183648404 45919638.140358 35925542.79653144 13999561.344538655 5580707.140943727 5624852.4262909 42109780.723109186 45531588.41208026 5512210.760900973 27775554.742717106 43099502.03758644 6865609.786079073 6767467.044648737 54761060.38606383 18430534.828380283 36675973.120031156 44057747.671646975 29749941.880496904 99691685.74451557 41039884.351257816 46312332.27218372 55544984.68272022 5179532.430073766 5188614.230406894 14391127.28092179 47711714.76955586 27510129.714168612 40873891.31910542 12154086.781519974 57208042.92820271 9959632.55048476 39007323.202900134 47027490.57780892 48249299.60363126 89425297.19979984 44541068.15852197 27331894.120407447 82598101.04830126 39387962.189880304 6574897.125279908 6604878.924648984 41245157.10015194 41951374.42640049 9932710.801934596 9795602.844659809 15635358.698310932 41912479.77807519 45141083.31329306 43520553.85837754 53342631.50333882 42042647.41588412 17077861.254687354 47261895.89061985 46602582.51391694 44346266.919296436 38897073.09912385 26641116.169392902 50200209.71710435 69195840.71139574 38399783.916667804 51368039.52961695 58904695.28901651 62484093.05698146 48944255.198037066 15843749.34119501 15867483.032494817 1588797.438067586 82934246.22500816 26177765.306532145 35111854.36493765 21438599.870761815 44831872.20225752 32561180.183854856 51131518.55156618 53400492.398709804 56913023.14709849 26524120.107753582 45513606.77012834 41731938.21098648 4831925.524319958 23420312.574948825 41895879.48829979 26238168.837053403 39467009.772450395 50592105.92045798 5597316.867809018 31248029.59545939 39313866.11722738 118326342.5368724 29002659.21829024 73788012.41020194 44064453.11730507 46656723.50070701 5598657.773214002 5536330.220278605 36133532.96688794 44267389.564195715 6776002.33371827 82670647.10317996 27226730.26123837 6320158.618017709 40531262.59005885 43553917.135358594 44687315.41840913 47232072.97239858 45293268.46550099 45194310.64065827 60299613.220682055 25571224.753469095 42790667.424875624 41962215.26691412 36413987.990815006 39448618.3406268 53504009.41025666 44444095.86321725 42042560.64751906 47327131.06774544 39526999.38457916 38340645.748082384 46773397.02939301 38474376.994501315 5832067.49707283 53504167.20671512 33155209.72304184 7965252.878392151 45886188.34479963 43963730.23797832 43057385.36300592 106959698.04388927 91870574.54044819 45384870.48516682 59453138.703485794 45413826.92353105 47434529.249708034 47919463.14328192 63814255.950292684 26138347.755702253 47693856.0840418 5465736.493437622 12386572.28840495 44474903.90202424 34777845.12886203 17518047.485924605 78786634.40301281 41618819.544582784 26395452.796759173 49179832.5273658 43979543.30230463 10756825.21302229 36720960.36201264 48224887.37794158 42183366.28454005 44758187.586484455 25397385.73307359 50631527.75829622 48432105.30411445 28579455.58047581 55784288.95914611 6814776.457651 78532857.13105558 47442337.05282994 65211741.736299716 51814908.501094766 54350326.86393773 19791822.344310306 42461918.11698293 53104368.83261414 90483676.19296438 42999203.391145736 47071841.864065215 20627183.591952678 49395821.09257691 28907026.059462145 44208818.01735314 46620320.305439085 121269516.95086412 29266868.994154613 41307885.88711584 37315495.6612103 47880269.68971034 30152707.564440407 43045222.54022267 42337824.07520455 43132499.16524517 68558382.11316177 44607441.22400929 48190614.48852411 38436605.224430665 46339569.57564274 51375714.8654916 65187851.23242119 32127896.150829896 46025930.3107626 33530856.029063947 25418283.64667229 62922230.25454138 38452993.77397006 46133631.36069262 47699603.75452031 10617845.115001492 29617470.64503752 44048606.575032294 40907116.32057163 122131035.20471822 40651272.34901959 45816162.57158439 43872971.90065462 41120938.7678168 48002305.71142285 44582159.04979808 40461618.8748425 43922078.01863466 40922759.579434805 31254477.11674521 39540911.427010335 48354410.782177225 16583780.66672309 27371983.71356649 3472703.16903704 44470405.52531492 23372805.548977498 40520543.75027626 31971712.393531583 46017889.87930935 40874305.588826075 54511216.10021403 44561886.593514174 51832228.90730756 35290617.68208228 37335948.11491596 46984070.80932751 5601735.111105371 40729811.90366538 32185862.16014088 35206610.728683114 40309611.45254346 30420029.541500438 38140741.94053219 46335075.28605858 27077761.188280683 38377685.92746315 43582505.80942112 44349339.28940875 24074991.990905907 39874961.623295195 40432035.90877712 4416159.67161961 51261118.46276311 50097018.63522558 46297478.68441682 45158295.86424218 43364152.29180992 40821800.72934913 32158627.92806267 25757979.645156734 41419413.40486849 18299417.58440388 57619321.84207351 24813342.520243697 21807769.01894204 4300814.830039784 4280042.26970308 1441608.533334283 40337808.35495231 36122921.03255252 29225377.958213758 4528606.534044063 44756435.44261765 49107155.352309026 40725796.76453702 11378831.801222267 11476313.733722296 43619892.352000035 45902628.878447995 1648624.5284152816 11932799.533152217 40595764.61309826 40196130.61325114 1997070.9443541833 24184124.018918406 41751703.33452169 43915719.139815494 45323779.874926016 53557632.697467715 11163273.746293142 1586631.2538349177 34693289.38706219 27000000.478206504 1695074.2951981921 1697418.455250439 2457089.474185032 45909849.581401326 47370633.95814607 37931901.453610726 7556541.112535084 114767474.67956822 3260052.2680517766 70999093.99583851 47408132.616399035 45595998.43427542 33251537.48207319 36431705.25622673 40482284.932477705 52771478.92224754 34588102.14462829 39328191.215586066 68662269.94133328 57941625.599847354 35543858.30584968 34389922.54653214 50333467.47519272 21721809.44186346 21743899.04119925 40090880.781220004 26876014.639052436 17231323.798408553 42917220.73581257 11825840.161200037 48156938.65206125 24140077.52796336 40846035.581539884 48653208.593550056 37295188.09711718 148860323.36192584 36223424.73231717 45179645.38879456 59272359.73529233 41324822.79569322 48516672.32260859 111644020.34955478 41953720.83873383 31879988.82132742 41870966.52512005 11678940.548240783 47495862.62341992 91872445.05945618 39024520.8364009 40322868.06951041 45693957.04411378 46050584.59296097 40880182.07701652 8454449.840983972 32845774.66713212 46444790.04938843 41090430.059232146 27686202.844559945 22704102.41544205 50540003.59160434 11461871.68002452 38075436.64769357 63077858.9216411 11171047.74747607 63518157.07085941 45560661.95099444 36150731.32042976 14951725.45095829 37593309.22333104 35867915.95732267 29744149.418562587 38326001.82231913 46962434.09629577 40910749.29002412 41536836.00583333 45869311.59206348 74584569.52249134 32070223.350980666 32363755.230500698 55252565.92083638 11763193.949473077 31698085.41087216 54336447.426702276 9548709.815508135 43901684.52740855 33989959.89017911 64547036.50189621 33371007.129662864 47664554.907283 49463951.58279883 46432334.94445474 45856783.939136505 4572970.760299305 1679646.5263763138 62321990.62539862 44418875.290628396 34435751.42936437 36674876.669305004 3919313.2248353134 2996206.6889814734 45505766.73358661 42632755.57179325 26469221.355737872 54138559.97063192 43798681.08685247 59382323.27505363 36790632.61623079 133189674.62046345 39069496.35516651 53977017.57404371 38239040.4990036 25541636.231974322 36699717.80864975 35662736.55086094 46191764.08927808 47239262.8055193 4654525.139416607 58634958.12018976 39309609.38008824 55051429.95835083 40576522.272499874 42554973.16712026 13359379.429820828 33759157.848507285 34910798.33086935 46546258.34330909 12359829.072232973 45546032.24398689 42451890.584458865 53153200.915777385 33705218.66744957 64776787.12567212 40216568.96405406 11003958.211519826 26495787.20794416 39538810.780992135 17909793.089088086 58631414.420043126 40591902.71238148 34896065.07739879 37858216.710794166 13910237.313163565 41626632.88514558 59487239.25339187 36320361.18110832 47012089.86669873 45596954.74593649 30417523.335081473 50743674.15207203 46073527.67840447 47840137.61945479 47647890.90344836 40587569.99839489 2623444.0456617433 40744182.00553166 54724417.55241576 42959105.4815783 2042797.129246148 13024375.67947178 41317106.65426811 34881639.29779307 30826365.363120757 39653451.61233587 43513344.08126742 42800939.09685087 53274511.80192946 37665896.33529783 49942478.23391794 41188884.682874374 41805812.656221345 26539557.358658414 40884656.204502404 26775581.285643626 45729947.87085424 40529431.81202605 36227473.6458525 55586027.31375015 70270554.5726016 57493738.28276962 57593149.74795246 24321133.781639464 49840863.52978334 35953015.209340975 42446173.10057051 44522962.249090396 5791480.697030303 39805343.35369551 2387026.2209970797 12992167.694721514 12957239.05045994 25551717.138701987 68224091.42699277 15911263.561870951 39309861.84062501 41955398.97767895 38469016.004251264 48568396.34173964 34608266.31816853 33258795.174116943 47155963.27376232 35693542.09078758 39594018.006528 45776915.51419087 39040166.50985139 37403181.21028245 43322340.96701045 38021058.74487875 45767555.58310587 61850436.97392356 63799263.50898342 43768315.38243461 36947199.05782315 32680501.843066495 66418024.68215983 41335865.99924957 41825552.221377656 43004909.90493047 33784038.577662185 29885829.536621146 13888557.598777857 39373612.762134664 18599215.25374872 40835002.018569656 55821651.841098905 49190835.02359311 53070191.949592516 16838643.88083918 43300889.84392955 48033839.997486055 19141091.107540663 12039866.864828091 31078723.04572117 38751408.568679005 12333376.193090016 45149382.730347976 40916039.24024578 9926137.416257812 42973351.07067791 19615272.06944663 42039364.98848688 42869423.451822594 56056613.31068422 44393216.90026252 39857195.34613123 41924977.829467654 33772287.169292964 16163001.974140206 39234357.21973254 53649742.28305476 39050238.29949713 66238212.96933751 15912250.871778952 32700403.274588235 46455207.769030474 2262750.3588113855 2367671.2003824725 19728283.131175365 45719132.367604285 58102682.92533034 13860522.327188585 42453490.25567957 39892770.63145543 5695145.017029987 39738464.13883447 7621568.603202277 52851119.741065964 54006193.36712741 44483634.20072524 42049113.823018044 37886783.16099396 44268689.66718855 25208223.803346295 40297221.82184665 42982283.413017884 23855400.66539744 23813760.086717926 52154832.899161816 6169823.583488496 41850973.44304565 41731109.50048992 15434689.053794721 4731738.287800619 47568794.14891344 33044822.939249896 22275215.311409608 39346951.59684021 40502501.80059244 33145556.363008376 52016687.004161455 90948665.18022257 24724496.14064258 77358488.22212705 42214273.06506437 78574905.28932281 42675338.972209655 8730376.93168755 38146428.3295481 21819646.144286577 23912085.94022172 38989041.04549527 59296733.720229484 28464184.098862257 35852881.35299612 41359883.13425173 32543266.21374013 54839207.76901043 40987843.328374796 52849171.526902646 24192755.559310026 55305751.40068264 44357242.16859226 42567409.064794555 41744938.62731581 21352380.241987236 6218114.718518364 31066631.840256274 37754585.20136465 4669131.611339585 42564243.93767679 66161085.21232506 45870209.15420798 22393012.8794994 22189702.560178466 41772319.4416625 4134665.6379310777 50676535.91971663 16712554.094242273 32495667.417381626 71682708.23019852 56005585.69246545 44387237.23200691 77372364.17924188 21078687.503703054 39032184.00146208 52631118.177543625 17037528.538870044 54834997.6679479 55194478.39007555 25429147.298595637 46549019.79603612 50683751.850292824 119777999.32040171 62352624.07702961 17791990.161694206 36220443.05515932 17834691.370192476 47552407.92130956 16126531.643794766 16060181.193191975 48890549.30909563 36611625.483009025 48714159.6190622 37295133.99441168 37056870.96434021 36533837.072563075 40441886.17261142 40158207.61817826 9933156.327089371 40486526.707172856 48628599.72535861 49226570.93451159 55480710.52219667 48081257.683742486 53292249.80622803 22725100.383210916 53196771.35764562 91359213.08291511 35027496.24046802 34977785.32178043 35152501.20434297 35073851.31182282 52242331.53210959 50093130.16584954 45061728.9142974 35658443.995788656 50889924.246136144 42258088.85640277 27776457.321648058 42309244.40486805 45378840.072854236 16265602.286928479 1007143.8933022028 41288888.88661705 6340627.45038035 6371521.363205759 36436623.28744128 42570813.42401799 26932572.38831315 1216744.7692242982 46145932.8137231 46103142.298699155 43710030.11967665 40730201.58234968 40137313.856741264 41500197.367998496 46497119.16779708 22607916.2313965 16283923.381701602 43120236.22954433 48456503.658622034 27961626.963078626 1395661.3169800106 1346380.7884836309 28907605.31849571 59432794.895344086 47104430.65964328 41401184.486621745 47222567.94343111 3060550.767332031 21798666.842733882 41040312.99121727 21159156.00193017 52488274.351782314 35743002.22313421 48622905.893269345 33280844.51503851 46343583.52077055 10311347.409586791 41904511.67774386 34947452.52785477 45185903.54804222 13466893.220277946 72395697.8376725 40627381.18879045 25992602.476203743 22497017.723700322 52894610.4869457 27547916.280316714 51293175.34593509 22890640.63714365 9056038.763510723 37971406.527281195 41391490.068090074 17264794.679467477 17252468.380808894 61053141.59580002 51028276.31475067 40710110.709533565 29644313.989821352 42123463.03157333 7950072.666366945 40199995.827899955 36888770.72986966 57626905.92208445 40005658.7294803 50794827.78496981 22997005.704675768 41493897.22525052 56227593.80437669 27988079.2302502 39900771.645514496 55069853.70272762 33742290.985609084 115928321.37071404 105308170.97155726 59125776.263537295 40551258.011776865 59033826.78029368 46017894.62678311 104300523.56717364 34445059.131758995 35535342.818985574 42265499.84476722 46323735.99497049 36191559.99980683 31022062.834757473 25003444.858670264 29563809.194000486 29666833.24334226 52679955.75050193 39840209.5212113 48084857.52002351 61054158.53166041 45576555.51342441 94031388.04174441 15368455.73022908 53103926.62935316 100507469.01713657 37172102.12517756 38260823.37165497 35397021.71657574 38265162.27007193 48009419.21774858 49658345.23439664 35000205.0917193 20772430.71084382 18464809.97033434 35839614.71075209 40892234.59566082 77001909.47125627 33698392.74676003 38061777.58257643 62697816.81940434 52270055.632924415 22419974.711410597 10541086.890636895 13584885.843506379 51297060.073447004 25406067.12432497 41437074.74592612 18005048.51573153 7662621.954947416 41998696.25851791 37803867.64273742 37942019.322223134 48398755.41176405 45351382.62936458 147809759.18895388 37301562.09919531 47895582.266941726 40151207.94260309 38027288.78576957 49565807.92103787 42822779.60728761 28773281.364587694 25773170.341950715 48871097.68117311 37620509.90054018 37587295.30871665 37446613.16637465 45296210.63507548 44554741.95511512 49725976.05853474 27752879.32767414 5279902.486656499 6839808.014587015 53191295.40523385 47941344.33040296 47125341.8290748 42545619.74075211 39940498.60904062 27548889.993418217 32921619.73873571 16219593.714772902 16114454.65848455 50077908.797099106 27605677.814365566 46596565.89507354 40965354.80155979 45994015.2335461 40826208.87870097 48645903.39078678 47106313.31580885 40294220.9816096 42243441.28603084 18951701.80485027 33001724.996334076 48941492.78826426 43560399.150907785 6295629.835482234 13006308.374791289 23676584.661907602 17644675.352414805 20307256.855264287 3046102.3464411185 12568320.826602105 69748568.35813284 25075410.011872515 35196991.66345541 37293413.17868098 59109730.292560436 13679496.333763529 43041030.58281717 39729966.2493923 45438844.26811048 71450342.60453048 45482431.67085314 38132479.36495375 29253406.545760024 6125161.537019713 44110242.760307044 36161875.868464 37901504.4965461 47210674.38605549 80567225.77674313 6950015.484744137 17873745.421251286 43791453.543642625 36021118.9979581 42295194.861301616 12316378.050872913 27134524.64283038 19749116.958247617 42500732.037031576 52529403.04609868 19781849.574050818 20744864.447934836 42143828.164808564 48494250.97980015 44489248.09921699 63467362.7459328 6473160.94849789 6469410.970914391 35399424.89140461 37546451.55600912 20735260.18200357 20801948.016697984 49680858.76399971 42290030.007365175 17050807.144678287 41812318.7527504 41453190.71583769 35006569.9503995 36731384.52848698 38191521.79434262 45203436.72639825 41080868.52904366 40890536.260193914 47073234.8503871 47280270.756917454 46661167.94012267 41356015.41473596 47847582.41562492 110738680.85766622 16197298.0953754 36345095.63029921 24877538.212637972 7271685.848618796 19398129.629874967 63715080.836992316 52218493.09219022 12282459.254803274 15068066.520825379 65316408.51941384 62725812.56865759 26565508.385783594 35736062.86431795 42600354.65679486 31652338.623822525 55077434.04690225 6181937.995082754 15890655.350063719 67496678.01600242 31439067.25185715 46857448.635925785 80892588.40753008 46462157.97560064 51219573.416548185 2687602.420316178 22305890.50505803 64865930.39422352 21400701.284708306 39881959.196907416 6657761.711983874 53269486.045464106 39390234.52390137 8257704.704554704 46175523.79293583 46191854.84561601 18616775.907064706 56764691.748799354 26445699.757773932 24582368.055519775 14082569.030606413 60369230.81270083 3392924.7966596466 29235151.906185884 29667925.28055474 47456796.08713772 17223730.576985728 17138923.510338444 47834464.018458016 1731937.516776016 41056314.53197471 47460934.724747635 98678844.28669874 41605136.782916434 7151535.059455651 7118849.096762041 41418873.21182628 26856452.036328822 37658622.5307176 47215175.15071055 60530858.72653287 18675838.610494144 33049229.845272858 51147533.65627844 13659802.2011873 21164201.77598699 39954705.13489175 44479482.19189563 6756832.705002154 45528513.78350657 6813550.126034708 63126489.21896228 29965135.134127986 38650331.15840984 33484305.00082084 45763400.08479385 52702556.875594735 42417380.66782944 58140940.57306251 26192612.20946181 38478692.94095344 47729978.666782685 52405093.08092821 40349935.48094705 18159637.773322802 14381433.613276718 65052624.537262775 37427842.607721254 47460754.47293796 51874168.35095586 378589.17158371536 380031.5663807398 31061069.08748517 48012379.157723546 40520163.79820326 33158581.86329148 54609895.217002355 44643133.80159826 29558978.759757847 43244825.05445125 41673633.032763585 42084116.659134716 18326320.335890114 18284111.15943456 29348672.795231383 48854054.47662913 59561689.255066514 58917801.57687973 46039077.47801147 361771.09832592134 363506.3068369031 38705605.12676458 24410645.351311613 43678229.63975496 47945169.898821965 37070884.13153199 6695906.412692717 6806958.884177909 46862908.85557493 63391562.59588953 128236807.59621431 10446677.626136867 40817936.60478448 28501873.2256463 46007053.67292579 48215255.19412903 29262485.70425968 42369866.86914588 52686241.421273224 3478623.6673502037 41276872.54276457 40079320.541630566 34610982.03774494 46114428.079785004 63958226.01180454 54556106.10446941 73441673.96278802 65069819.13054031 45025035.290847845 12591670.160729237 45125616.67581838 12392940.474731052 17025081.96771747 17576506.70801568 37924371.14204724 29824089.92816233 6848775.486345561 41490607.047927305 7043461.678801812 50370423.4828448 32675965.952281673 17317077.42799284 27036878.027746253 60548642.4023071 62665475.87389021 52144348.28688455 319751.37224004394 46661828.038685836 332358.66085129697 28583745.849535216 29361850.43493298 51979279.73808214 42646593.23098248 47724860.25160375 17844622.59882164 65007558.24059392 1590536.0426711566 37276888.73281087 13142003.5100305 58656473.2145953 4332706.0400499385 44111856.89308354 22371944.760373726 23872268.78623719 66174164.36725843 19836429.856320474 19814626.739707842 33835055.01742388 9179541.656613836 29640631.214806877 36258862.54946431 33995270.78374492 14851406.49880467 36395603.21674988 11373925.069228467 42405237.77935836 61865301.89461232 2962280.6510051577 21085150.627067834 3456822.305135135 46639474.213887244 47712217.104457095 26450011.050738297 41454850.254479945 1247273.7963051908 9812242.402812012 48992568.235248566 2012508.4313496482 3728950.59913758 42034452.7685546 36281187.339344844 46630506.34298491 47167032.10504667 12582729.881284928 48132965.52139564 55461577.566044584 46743138.209684424 27851817.62075396 40285317.477351874 44621149.74690201 58385967.770992234 39154455.14482759 62151157.66688724 46059191.57098742 39554196.7118989 38603071.08125446 1593191.5112289274 41667768.759155534 322375.04894718947 48247918.38088875 46928322.003236584 14286297.15270199 25522729.147793397 40675926.14060489 14566650.597761104 37123353.063262515 306028.78872159106 66216910.74220041 26783032.545396596 47941929.59930692 17362402.851021595 48011587.775419846 35112801.68543346 42382451.66857951 1600368.4604118832 10220802.364092208 40504974.60266011 28450509.572184842 1110252.1498690143 964069.8112371037 44209335.90865787 45209924.69751158 54070555.862192325 33414812.411366977 92407911.0350257 77544557.49326092 15242383.425693696 40526320.00706164 47435906.376607925 38074636.37121657 45964435.35704511 54692956.02996697 37732673.95981685 48391210.35263369 44216117.54625301 49873128.899995625 5664837.76644053 44746686.1681165 48408028.23849642 40023069.555892654 32744683.276049107 42602250.89835415 78627514.33332078 54603013.04815788 42224187.8807274 36572157.000604 33467949.89245289 96446095.22034897 1294982.6951957783 44536671.8079142 55686849.17333953 50195345.02212125 124556627.29941666 50336983.37526787 44845978.11094692 53443948.55231633 38176773.92875892 21561561.719102174 1493524.3633045345 52388535.77932813 20660610.05807461 43802262.118885264 11995417.814317115 45666473.64805193 42108457.15244312 42838387.52943084 54927044.232854 14727486.118313061 41346590.35159405 40220304.59126097 48091441.24087346 44740742.888970286 48459114.96656106 40797051.24456092 48238557.724057995 23779271.94734357 42390653.14219505 36418100.521736115 44810366.65672059 25189259.65609476 46948796.65974095 34535103.23380815 41022229.85579627 25416411.51030832 40943817.90427383 40985074.54962455 26281217.585847624 44505160.02191867 44310897.59986621 37128045.23827085 59003680.79877114 44612708.15288472 34744104.05438524 49921396.907693 46978495.603903465 45138065.62429459 30350260.090000868 27681046.122455873 41835003.470278725 56116166.98750765 44796768.574804716 39807791.848231435 32860113.089957807 25526925.10332828 24508447.28433449 40612022.385540165 29624309.211589277 43893167.33380345 40036176.18366623 42101187.8704456 48386821.42700714 50136480.27111489 726730.9163942902 29290869.53396216 22526654.021078385 21713148.327528026 60814693.54033734 42104593.1495446 41503631.88331008 37773057.0835142 24531943.23339348 22571107.37619985 28420540.70648093 35244419.67483407 18444676.31332898 18534246.667841725 60033228.62926317 22263083.80332297 22219464.50753182 18517009.945577383 96403453.85963131 51428895.116814956 52876649.37309689 13092265.625568382 35412568.87861928 71266074.75989756 33271536.117701862 44366573.1029772 55925828.18865143 61038820.33893008 40638103.45113834 41296036.76721965 917106.9265947667 56909490.670695685 27203715.153402757 33168622.204795793 29886288.876266517 28651511.68512073 39876120.38761946 33065318.681801222 33018920.979812797 89230516.79430531 61146318.61634864 10207277.529264484 42038767.33887623 48673494.52661972 48993084.29036948 46827291.53712906 79177337.09940358 158649336.7018898 20536461.43675693 6374132.108872889 6230264.856007416 43002142.70966621 46245369.17305803 41175689.19862421 108625038.31735426 44084312.51608286 46715792.03844502 25359357.51220541 47275207.643990725 42408349.06773158 2479276.180201526 37648032.09817293 43481264.529228106 11004680.20043846 37246433.2858827 37005839.60634298 28571996.79113647 41165150.687452696 7148277.051343747 36211962.02538152 60057663.83224244 39474737.89741138 22717731.50185438 50114851.27898365 28363715.217481323 2079427.1328096327 31733756.105523933 65210393.343527496 43924402.46437425 50022805.85762185 56577541.10389948 47311819.713205576 40949116.39583348 28202393.22089773 33543648.308197785 26772003.61259453 87610489.94348437 26304485.634471618 128190571.18589585 44738775.58401736 51925892.866712674 28122815.316170532 47066441.136363365 54615587.2541722 22419852.28209038 39994451.7691994 43329873.62386662 12360219.6357628 59881009.48422204 11595636.699050786 22975348.667284805 11399206.771812847 9498168.068988008 32525612.68564827 47124595.68688581 35746045.20703192 35989637.777457684 53293980.112857275 64740548.80649181 204474980.44148272 26426207.988916755 2156413.104663187 2195428.891678816 21560236.48116777 9038710.084058113 35295039.55322726 47382147.94699191 34412976.80319791 9341553.676325878 9380606.120872783 9713990.829018796 46832642.954409465 37149800.00792311 10933645.18041062 10950738.672901848 40837726.20882106 27894186.77347044 56810719.65954285 70560114.3048787 41202400.96709541 50813252.486124955 33656643.870855905 14167538.322709262 13875165.063229656 43226507.06238532 46376886.3817482 43736427.89557385 55262646.90801379 46042078.10233549 14228036.1854581 16530153.038691565 44548961.80144359 31826497.498708926 31784769.672308918 60609205.06704459 42106017.73343704 25241360.59277587 31938628.087590814 43869795.04817418 45993199.06903434 9180621.29000069 48618178.92634976 32037488.947054915 46627682.2493364 68584659.77902414 41351122.36223411 31781010.39136457 45726912.86457083 41233802.32358444 66539034.59446459 69790139.76178014 77725288.96897703 45148762.73179645 32278663.493794076 44470389.13723345 40779484.64744997 64288103.73316503 42320209.687842205 53644861.466116145 47366244.63508532 50983217.41213874 114045520.7194588 80437250.14553042 29440353.754944008 55610899.6309574 29363947.31456933 41838904.64917846 46617132.22398304 3460564.6664279285 37445715.97452494 28484052.68649207 36358546.395258546 40214425.94035642 11322491.28793253 76474147.0496228 8919023.555510104 17108577.36216775 44817017.50097121 26226042.496236287 36084959.07947798 12150352.107915621 59222137.94653788 45991064.20066767 36814487.871018454 36394129.88583666 46248665.3714362 20843321.718297053 39107712.20944519 93236007.08178204 44854815.22066987 43804661.24901455 43561927.70070559 43717836.07870697 43608396.07338742 44015270.43459655 103234068.2275393 31410867.878871653 29159633.988119155 10051656.742366957 9973480.179301925 42415336.90221364 28473847.033456475 42027546.84389963 49877640.37002382 78098300.4696475 21710023.74473054 30549726.785310846 41610477.16116754 38692231.167211816 17728658.594020054 5140157.000112462 33483660.119420454 38146111.81557859 56840124.08666715 27768875.147897307 26612864.25122359 43786323.756716125 48061002.08769641 61066911.16750839 35484226.004954845 25309631.702962507 42408987.5455132 23738415.08022566 45492082.636531286 49580506.30515994 58628660.30749603 44904244.17713468 40483588.27762995 41318271.58745953 7317444.834081915 22905177.237417273 50197651.732497014 30441816.79663543 67999281.96029517 44394118.7513744 46529371.56379976 41635153.75140841 5609843.610371835 10129224.52326535 38847336.93876102 26540507.7295294 32424012.785347577 41842963.2514272 5953276.657979624 45312642.44801831 47731551.145105615 40771383.95979526 44984820.3852447 19817870.770216208 24180963.495249026 24136008.522900898 24416849.72677513 47277734.99004819 27646422.625495307 52369678.72443598 47753819.569657356 42765298.13253699 41950935.60105292 24449908.697574295 39915276.665741965 38057904.64927905 28066214.53528413 42432118.459233366 60561521.2511074 12642466.622236105 49979966.564302504 5193678.63427611 5170642.866384663 25969987.130340196 449389.4145210878 456144.47157022386 28401776.95463946 10080533.435712252 47369445.37988512 64264890.40129892 9685748.969114408 47579836.00191305 28598063.62944298 24102725.479041982 46290958.05990146 44929278.7658212 42085196.72709144 48679637.289596 44096226.60373235 12104014.521129364 41853528.45850218 49231856.140267104 24875383.158257872 40245851.32457145 45497355.93807052 39643048.30607137 24613901.49101809 24648805.229919966 40387907.70607043 35784196.366476946 23215904.32776869 45772808.26989358 19617642.636030532 30542066.774570066 4287715.892458529 25021582.275134474 25063410.837953188 34676801.02315354 42925036.934164 25696884.258004494 128330164.07719533 48677036.70556981 52563235.42362657 46834340.469855346 1733022.0673434865 1742790.1500571724 51845627.681741685 43326035.488577925 8630415.612020724 4048150.551221867 45444699.830614075 993014.8017525015 28604601.01164649 1045172.9207680909 50195185.96868131 50157379.862363964 50442455.96651602 50353913.14245823 40460519.518615045 53005950.55272293 42127321.91108734 32934423.558860026 38650324.93399193 34528683.1176225 37681032.33808813 43626805.90862794 1017784.923586852 1015737.5129341922 44969837.298235945 2660204.4380945917 44030986.411084294 57077270.513013184 19485382.273945186 53164063.21545793 45215352.535658605 47666719.7808103 43822935.52307286 45274372.25460074 44853642.189021856 41552655.55646899 41614328.20797893 32035991.778482556 45352105.59183876 20532741.38521106 17888087.824620128 109426496.0665349 18914655.540835653 63108520.77753186 635498.7474894903 2815748.9310989897 2631493.4434503666 43907968.05970624 48465635.406811565 25988442.829283733 20483837.652582817 53004831.59121426 50404401.7611817 41138463.35944663 35640151.169414625 34736293.5713305 34812192.19829687 893365.1855176537 42591766.307882756 51837460.32976655 48504241.6656976 44964420.637874275 51672745.49739598 44206533.04349092 7566180.960308602 983953.8206090995 34462306.97606262 34079276.00818252 23332524.946197264 2827620.0455406387 81123944.51465489 10068433.853607014 4132494.792098155 4119447.2083464204 41086796.62572375 40609105.22713886 45555879.469490066 5697859.360144428 18975990.731558375 27792491.177009705 43039901.43190929 46378382.28836623 45490577.64355375 38376894.904448815 50168610.05740262 9120081.074069692 44382162.64661983 3875113.6013794383 31790155.237802897 79341430.32098474 44874995.668321855 46931203.78497145 35219574.12701396 41832665.66106287 516499.04116667574 41378639.87783927 39431470.32162212 44322235.16995214 88685390.4350487 49793747.57084352 18167895.054039635 43009165.15517725 42463833.939187795 39193590.66645532 30486125.154579036 41769929.047769204 45741520.28098874 5580865.720165909 41658271.7502407 43839924.4835988 34189177.16116216 57961457.858106025 44385180.745216064 5673085.952745474 7697693.169277095 42303996.490403004 15399767.6295575 39152050.048417665 37799568.10158331 42341258.62456866 47112189.07360103 43805780.82463523 2087076.725972718 114527047.27328864 6157198.297235537 19346910.1011344 70916093.76786104 22394024.72336676 44434806.25512207 5527325.087101971 43233375.4882191 42095023.866988145 53252223.55101835 58157155.02015346 43200324.437778875 38508793.56042862 30809580.933620635 42372506.07963731 29439179.857820384 44025561.34344952 43788015.81585188 44252227.91164903 21009530.451783206 41261668.605526164 17957816.354770206 80413470.3683675 59613758.7635823 37985825.50358891 40750831.97392621 43494372.31215953 33451444.877697002 40705699.81185355 58125281.60519419 38719306.36542214 61979788.610298395 34659422.742718205 60998240.99071452 44911500.07513107 37044405.3699958 43961341.361658305 42648423.64871546 59673326.251013346 679259.5642000816 51112099.23765532 57115787.683268264 50525050.956009135 26809132.488940105 45999434.21325735 40464507.70626301 46568694.07050063 32325593.578017794 44500729.94049473 40438605.12694209 42740244.44468227 84965425.13167015 42291715.51401434 42925226.865104325 30089088.14459276 43020648.66506108 48081343.99244155 42090142.085717425 40851209.47919382 2149786.291867785 50580852.077120535 28692095.80235207 28660433.954109468 28729308.439879704 28716265.01283207 49532599.527924545 41816659.46261495 39656037.67793122 181655224.20328915 39415838.2183669 29116219.41953012 6260012.406195541 31948150.920948595 50340810.49676373 43947935.53796862 33315457.20068561 96475652.67917171 16828246.709082082 11745441.052594494 7178767.1551669575 45000808.34154946 81623992.14613888 43547186.86416476 41610677.74537079 59113577.906198986 42171076.43184812 42347261.75212396 43760550.46655169 17689122.264054157 17341856.933233894 41704059.71644021 22486611.01952685 35116403.847130015 5556549.292240776 5619914.878755143 32399356.70603211 41204914.21244488 41571790.39142752 41410312.24309862 41666949.96897378 43519793.69944399 52787312.696282014 42899049.28036941 43820734.6195393 8991028.774667468 120585277.53334077 45261163.498638526 47107404.082859 43090997.194788046 55541265.26002399 36771128.92625657 12144594.071851447 46875903.00862076 128338929.0121099 22214795.752081692 32438093.276040845 42276256.29669751 57145581.06645432 50965514.458821945 32912695.088612307 41980370.87205225 123907558.62488252 49274803.89054299 37874368.89367044 41282274.169374205 42223615.75456694 44617228.480236456 53445380.71313216 43238498.04818593 41689997.71665209 41038646.53634653 37303134.514204144 40157852.89071009 13176749.085881269 54292542.77685988 41957349.482005715 42666653.636104226 42191694.33903768 7172472.244944125 139275468.81960562 44013139.616526805 3550980.5059465207 3468550.693850423 42196168.214920044 46232320.007866316 18464821.508652452 41660187.409042254 41591369.45855458 44564601.85278313 38693406.29990699 18681386.40282732 37158263.22832029 30731949.89751396 41930186.38817274 65243330.052404 16423245.366343215 58558697.51062635 19334552.778889008 34271776.88876078 50447150.50716191 28551813.050481822 3647226.302973684 35904006.7805636 39871007.70179619 42908071.03034513 38437355.47711553 14909120.206192775 42663996.48892075 40838914.34423311 55100025.51038267 50075157.90144075 39382017.9106018 42477965.14894363 44158290.52213039 46789326.475983605 32480953.025624167 36414251.97334869 38886849.64941825 46587397.34166186 41753173.609884396 64250263.424384594 39325225.68091617 3693658.1239918876 44990075.62462199 42191654.018817276 175104684.86521995 44109064.43520577 42223639.14390272 40868079.324900396 60060220.17591511 32906549.32288807 50890510.7799438 85602171.74816103 44710732.63175879 42069778.91155862 41882729.119603574 15305985.595754338 22577071.862951513 36956496.80399431 20274171.666008633 46515843.3224687 53511116.194285415 43289609.868842855 25421068.694431305 25367671.778340183 25635019.14915636 25593456.6395788 68278100.35811478 19045541.11996003 46624860.77430588 7254013.669465209 45054961.41156691 60384014.30922526 33951387.31169841 15174654.88234441 49311297.91556719 42401860.64246527 26550492.78343377 39613504.91255701 41646281.79686884 51760830.67665483 26324871.253446218 49561228.21994882 46345517.05113555 39865813.01229494 20816412.999802187 43541693.78067512 42535054.87745209 56641374.21507486 25457200.3845904 40857162.48913803 47427581.3703243 41526334.743229434 15438363.638715127 99269666.55986 33684032.41205724 41036259.23436466 40145101.44289299 32380204.12372553 13872099.963736577 25065770.739119347 79362574.59890518 24956475.5456319 7850024.318777627 43373902.82531862 44841842.96134332 24908324.815924924 24858242.216829572 39229209.324341945 13830994.070233947 41198928.80748744 39888062.020870864 46299095.16657023 48122609.673121735 47542990.40404966 32105951.77693208 47346757.57798441 44515986.23118749 45289973.92063383 42572215.5162154 41723604.74586639 14259325.449970976 14360339.090941893 52430891.665436655 46657072.53779711 19818846.96757731 44107949.30505265 40435750.397451 36742102.86095179 36004304.82438577 73823610.55413081 61182261.70251962 90386505.67773598 166320479.06591162 42671439.69586948 46879919.42887782 25712757.73058372 44637695.43992055 26863985.890135974 47277537.50959321 49634462.94916758 27154311.6313361 41154638.98225284 46299588.1740282 45350144.85873998 8243089.359179207 43983296.970489144 294573330.6553051 43463743.27280183 45570886.06948417 46183792.611857384 40412205.56166478 15662227.041705547 48185261.388536595 9369484.324617699 94142322.65498725 42978028.25069937 50526987.67988756 60758506.85020955 56912955.83907465 48123014.61241093 45498352.36798168 29829513.37305378 19918640.84516928 58395512.57002727 41826300.98618535 28884139.581768256 47327467.16988354 3043107.7555499543 24578695.675195236 46084665.57548611 29250778.055862773 46519131.51280893 40128139.02375318 40573802.886589795 19102530.02363007 46416810.00273415 44660628.13865166 43982321.56862233 46281163.33109169 40452549.86795705 48433297.74660425 15441218.011046179 18843803.76509375 40601805.50190333 6799054.036810714 31018386.471689504 51990084.77645412 66511178.93972965 43532526.84088324 19949071.094383717 23814119.300708696 27187502.80617114 49811890.83483359 42585032.54986982 18664360.949154723 32815827.497851275 38792132.273687296 41090345.492895484 47936158.102920115 35474600.9886466 18674531.235787638 18625429.053201456 43607595.012588955 75846671.80316427 43214029.810430296 45813099.54149104 50679974.10096436 35778537.703219496 84792593.57895562 41389787.1510065 8120148.0824605 60378043.86630775 46476835.511202134 45915118.176932774 47808435.357989006 73755604.00908633 27376168.26067863 51715419.929264955 44684957.38342293 43809992.5109065 51588919.21511538 44121859.28317071 37723916.8673391 46097627.642668724 31804838.005488336 41602446.1158069 20416859.074822336 69501221.25488834 20094126.57572252 40753418.53150878 17954543.645962123 23258402.2041642 37517480.89241746 55688316.736108296 44196668.10743743 41074825.67722597 42672043.049012534 23276916.881835487 14502302.767629078 36881891.75741043 35421395.369306 39887956.76009756 46142819.89207255 45050835.474296145 47341410.07150621 43074593.14022412 46021446.94367379 46035104.033278845 45957148.68603603 45613856.04354838 38884797.323621795 45203926.92697685 69347603.37544079 41856800.80059035 41019198.32575622 53211430.401062615 42115053.38739253 36202059.24194231 46839626.7949366 45385631.45258871 45525903.51729961 15606055.461258482 42871667.34129759 41512874.82809853 44522387.26606899 42014558.774795964 49651277.71449909 46964247.55435337 45123336.225573845 29063710.39699566 14310697.348383747 27584664.158995826 60312593.29917806 21751118.676864453 45474046.715347 47547788.3636414 45331313.20239068 46603253.98817291 46375370.126711704 36791325.11758855 444559.4722148728 55139352.91116085 55291835.21097039 33649363.06196303 436009.222305902 48490189.46753089 48840907.86449926 40866587.88328733 27769257.544574697 39007184.43527444 438870.7788907194 425999.435147168 46279809.41965637 37901710.265709564 40508166.79464805 65673950.55370115 76459164.11188617 42191889.20156079 13131217.436210264 25268456.20824283 44467819.476442 206504124.6422456 272544.0808804253 67279490.37097034 41879527.9927471 340423.38343860145 37896796.52604328 34442803.98781696 69165257.75206245 50018850.591621965 27271493.27434998 47166747.25816393 50224539.05736762 43339992.6999996 45486242.50364026 49134578.19772318 41127096.508605585 41441772.19078896 782895.1683819325 314428.57346550276 317840.26147503336 19294441.273129754 52599336.10957857 60730393.914709754 42797571.8637161 48784217.189747155 44526381.30072089 787252.6718504896 687686.4599447235 693867.1482076216 81445489.93608727 23519963.276706003 25452456.44068326 40777409.2341475 21404319.72715916 43861805.045468815 77443421.74565852 53082395.25030148 20790708.11285811 56362740.036765315 61220444.330288984 44046326.909665 44282100.23021293 22380758.816583022 42903723.220820464 49719379.66810665 54238166.347131 34844485.513718136 44801644.751433305 27866170.549054347 38459013.48122127 44828249.89726562 43508864.58835343 60337334.19071688 45520647.991536744 44535114.64606193 45128604.11594963 57304392.96776947 31036409.516939443 54436150.55026587 32016935.87273483