# vtk DataFile Version 2.0
Really cool data
ASCII
DATASET POLYDATA
POINTS 2353 float
10.0 25.0 0
9.499999999999998 2.5 0
15.5 2.5 0
15.0 12.5 0
20.0 12.5 0
19.5 2.5 0
25.5 2.5 0
25.0 20.0 0
13.015625 5.0 0
12.5 5.515625 0
11.984375 5.0 0
12.5 4.484375 0
23.015625 5.0 0
22.5 5.515625 0
21.984375 5.0 0
22.5 4.484375 0
13.015625 21.5 0
12.5 22.015625 0
11.984375 21.5 0
12.5 20.984375 0
23.015625 17.5 0
22.5 18.015625 0
21.984375 17.5 0
22.5 16.984375 0
12.5 15.5 0
20.0 15.5 0
20.0 14.5 0
12.5 14.5 0
9.991935483858025 24.63709677361116 0
9.983870967686876 24.27419354590941 0
9.975806451505594 23.91129031775169 0
9.967741935387979 23.54838709245913 0
9.959677419287308 23.18548386792893 0
9.951612903177157 22.82258064297202 0
9.943548387037561 22.45967741669023 0
9.935483870865918 22.09677418896629 0
9.927419354663494 21.73387095985724 0
9.919354838499428 21.37096773247424 0
9.911290322402236 21.00806450810057 0
9.903225806239442 20.64516128077486 0
9.895161290090327 20.28225805406479 0
9.88709677392396 19.91935482657819 0
9.879032257749005 19.55645159870528 0
9.87096774158539 19.19354837134259 0
9.862903225443695 18.8306451449664 0
9.854838709266936 18.46774191701208 0
9.846774193129884 18.10483869084486 0
9.8387096769655 17.74193546344752 0
9.830645160817648 17.3790322367941 0
9.822580644653016 17.01612900938582 0
9.814516128535823 16.65322578411198 0
9.80645161236424 16.29032255639083 0
9.798387096184427 15.92741932829917 0
9.790322580028553 15.56451610128487 0
9.782258063860747 15.20161287373363 0
9.774193547698067 14.83870964641301 0
9.766129031557885 14.47580642010487 0
9.758064515415136 14.11290319368108 0
9.749999999265055 13.74999996692745 0
9.741935483151023 13.38709674179607 0
9.733870967040986 13.02419351684439 0
9.725806450970376 12.66129029366696 0
9.717741934888643 12.29838706998896 0
9.709677418789838 11.93548384554277 0
9.701612902692275 11.57258062115251 0
9.6935483865711 11.20967739569949 0
9.685483870450787 10.84677417028545 0
9.677419354371613 10.48387094672266 0
9.669354838248523 10.12096772118364 0
9.66129032215358 9.75806449691109 0
9.653225806025599 9.39516127115204 0
9.645161289919614 9.032258046382696 0
9.63709677382252 8.669354822013439 0
9.629032257712137 8.306451597046282 0
9.620967741597934 7.943548371907037 0
9.612903225478219 7.58064514651981 0
9.604838709395764 7.217741922809518 0
9.596774193335289 6.854838700088075 0
9.588709677229938 6.491935475347274 0
9.580645161101724 6.129032249577598 0
9.572580644996847 5.766129024858337 0
9.564516128916669 5.403225801250091 0
9.556451612836 5.040322577620052 0
9.548387096737235 4.677419353175575 0
9.540322580608505 4.314516127382788 0
9.532258064471684 3.951612901225835 0
9.524193548396726 3.588709677852687 0
9.516129032273984 3.225806452329359 0
9.508064516148213 2.862903226669649 0
9.852941176575179 2.5 0
10.20588235384425 2.5 0
10.55882353096536 2.5 0
10.91176470721401 2.5 0
11.2647058842994 2.5 0
11.61764706100214 2.5 0
11.97058823810794 2.5 0
12.3235294170403 2.5 0
12.67647059214862 2.5 0
13.02941176563702 2.5 0
13.38235294061013 2.5 0
13.73529411351178 2.5 0
14.08823528775529 2.5 0
14.44117646397333 2.5 0
14.79411764123219 2.5 0
15.14705882094263 2.5 0
15.48214285710404 2.857142857919064 0
15.46428571423325 3.214285715335077 0
15.44642857135935 3.571428572812889 0
15.42857142846433 3.928571430713412 0
15.41071428559489 4.285714288102234 0
15.3928571427184 4.642857145631958 0
15.37499999986416 5.000000002716725 0
15.35714285692995 5.357142861400871 0
15.33928571401367 5.714285719726578 0
15.32142857106964 6.07142857860725 0
15.30357142814068 6.428571437186336 0
15.28571428519924 6.785714296015096 0
15.26785714229736 7.142857154052814 0
15.24999999944757 7.500000011048588 0
15.23214285665211 7.857142866957921 0
15.21428571381986 8.214285723602668 0
15.19642857098651 8.571428580269666 0
15.17857142818586 8.928571436282821 0
15.16071428546017 9.285714290796712 0
15.14285714268139 9.642857146372322 0
15.12499999988752 10.00000000224952 0
15.10714285709138 10.35714285817244 0
15.08928571426198 10.71428571476034 0
15.07142857140775 11.0714285718451 0
15.05357142859945 11.4285714280109 0
15.03571428572961 11.78571428540776 0
15.01785714284225 12.14285714315502 0
15.3571428591223 12.5 0
15.71428571719138 12.5 0
16.07142857423201 12.5 0
16.42857142974857 12.5 0
16.7857142846084 12.5 0
17.14285714112862 12.5 0
17.49999999772317 12.5 0
17.85714285297952 12.5 0
18.21428571083795 12.5 0
18.57142855939082 12.5 0
18.92857141386655 12.5 0
19.28571427430228 12.5 0
19.64285713574168 12.5 0
19.98214285709066 12.14285714181319 0
19.96428571422755 11.7857142845509 0
19.9464285713915 11.42857142782999 0
19.92857142850372 11.07142857007454 0
19.91071428566385 10.71428571327699 0
19.89285714274722 10.35714285494433 0
19.87499999981069 9.999999996213674 0
19.85714285679789 9.642857135957803 0
19.83928571385784 9.2857142771567 0
19.82142857094275 8.92857141885494 0
19.80357142811986 8.571428562397289 0
19.78571428518957 8.214285703791473 0
19.76785714222912 7.85714284458249 0
19.74999999927616 7.499999985523064 0
19.73214285649986 7.142857129997356 0
19.71428571378 6.785714275600116 0
19.69642857096893 6.42857141937854 0
19.67857142816632 6.071428563326299 0
19.66071428530542 5.714285706108507 0
19.64285714248335 5.357142849666927 0
19.62499999965938 4.999999993187642 0
19.60714285683545 4.642857136708982 0
19.58928571409201 4.285714281840209 0
19.57142857126215 3.928571425242887 0
19.55357142848666 3.571428569733251 0
19.53571428567042 3.214285713408467 0
19.51785714289288 2.857142857857421 0
19.85294117629201 2.5 0
20.20588235487999 2.5 0
20.55882352693214 2.5 0
20.91176470067818 2.5 0
21.26470587509772 2.5 0
21.61764704895601 2.5 0
21.97058822759501 2.5 0
22.32352940747382 2.5 0
22.67647058455666 2.5 0
23.02941176067775 2.5 0
23.38235293441871 2.5 0
23.73529410473613 2.5 0
24.08823527892097 2.5 0
24.44117645565941 2.5 0
24.79411763635966 2.5 0
25.14705881820279 2.5 0
25.48958333332585 2.864583333595161 0
25.47916666664597 3.229166667390891 0
25.46874999996687 3.593750001159383 0
25.45833333328636 3.958333334977398 0
25.447916666602 4.322916668929952 0
25.43749999991316 4.687500003039327 0
25.42708333324472 5.052083336434745 0
25.4166666665751 5.416666669871431 0
25.4062499998852 5.78125000401795 0
25.39583333321691 6.145833337408416 0
25.38541666653144 6.510416671399764 0
25.37499999984903 6.875000005283809 0
25.36458333316022 7.239583339392362 0
25.35416666645721 7.604166673997792 0
25.34374999977512 7.968750007870696 0
25.33333333308926 8.333333341876074 0
25.32291666640567 8.697916675801387 0
25.31249999972474 9.062500009634261 0
25.30208333305578 9.42708334304784 0
25.29166666633597 9.791666678240944 0
25.281249999644 10.1562500124601 0
25.27083333292552 10.52083334760698 0
25.26041666625816 10.88541668096443 0
25.24999999957175 11.25000001498879 0
25.23958333293401 11.61458334730956 0
25.22916666630316 11.97916667938932 0
25.21874999963477 12.34375001278308 0
25.20833333300986 12.70833334465483 0
25.19791666636482 13.07291667723147 0
25.18749999970019 13.43750001049318 0
25.17708333305312 13.8020833431408 0
25.16666666648339 14.16666667308115 0
25.15624999988681 14.53125000396162 0
25.14583333327724 14.89583333529646 0
25.13541666672773 15.26041666452946 0
25.12500000013395 15.62499999531171 0
25.11458333346292 15.9895833287975 0
25.10416666681642 16.35416666142532 0
25.09375000019333 16.71874999323352 0
25.08333333356111 17.08333332536115 0
25.07291666688319 17.44791665908837 0
25.06250000021687 17.8124999924095 0
25.05208333355612 18.17708332553584 0
25.04166666690528 18.54166665831552 0
25.03125000016995 18.90624999405174 0
25.0208333334352 19.27083332976814 0
25.01041666669018 19.63541666584358 0
24.65909090697006 20.11363636434331 0
24.31818181387862 20.22727272870713 0
23.97727272112545 20.34090909295818 0
23.63636362933978 20.45454545688674 0
23.29545454074166 20.56818181975278 0
22.95454545175678 20.68181818274774 0
22.61363635870555 20.79545454709815 0
22.27272726938004 20.90909091020665 0
21.93181817642107 21.02272727452631 0
21.59090908415283 21.13636363861572 0
21.24999999070893 21.25000000309703 0
20.909090898365 21.36363636721167 0
20.5681818062032 21.4772727312656 0
20.22727271532826 21.59090909489058 0
19.88636362288735 21.70454545903755 0
19.54545453222531 21.81818182259157 0
19.20454544067146 21.93181818644285 0
18.86363634917439 22.0454545502752 0
18.52272726008306 22.15909091330565 0
18.18181816691119 22.27272727769627 0
17.84090907624678 22.38636364125107 0
17.49999998161302 22.500000006129 0
17.15909089129634 22.61363636956789 0
16.81818180107666 22.72727273297446 0
16.47727271035784 22.84090909654739 0
16.13636362113641 22.9545454596212 0
15.79545453028867 23.06818182323711 0
15.4545454400335 23.18181818665549 0
15.11363634812483 23.29545455062506 0
14.77272725866684 23.40909091377772 0
14.43181816866006 23.52272727711332 0
14.09090907805834 23.63636364064723 0
13.74999998745307 23.75000000418231 0
13.40909089754563 23.86363636748479 0
13.06818180839043 23.97727273053652 0
12.72727271853859 24.09090909382047 0
12.38636362812021 24.20454545729326 0
12.04545453791708 24.31818182069431 0
11.70454544876188 24.43181818374604 0
11.36363635991656 24.54545454669448 0
11.02272727049761 24.65909090983413 0
10.68181818161208 24.77272727279597 0
10.34090909059876 24.88636363646708 0
12.86460193220061 5.364601935898014 0
12.13539806564783 5.364601933746452 0
12.13539806779939 4.635398064101986 0
12.86460193435217 4.635398066253548 0
22.86460193304701 5.364601935051613 0
22.13539806478868 5.364601932887309 0
22.13539806695299 4.635398064948387 0
22.86460193521132 4.635398067112691 0
12.86460193226812 21.86460193583051 0
12.13539806566697 21.86460193376559 0
12.13539806773188 21.13539806416949 0
12.86460193433303 21.13539806623441 0
22.86460193292542 17.86460193517321 0
22.13539806482679 17.86460193292542 0
22.13539806707458 17.13539806482679 0
22.86460193517321 17.13539806707458 0
13.0357142863834 15.5 0
13.57142857334916 15.5 0
14.10714285783675 15.5 0
14.64285714470339 15.5 0
15.17857143070267 15.5 0
15.71428571720997 15.5 0
16.25000000702564 15.5 0
16.78571428904744 15.5 0
17.32142857412979 15.5 0
17.8571428511085 15.5 0
18.39285713616606 15.5 0
18.92857142211578 15.5 0
19.46428571101452 15.5 0
20.0 14.99999999601014 0
19.46428571160309 14.5 0
18.92857142040583 14.5 0
18.39285713577575 14.5 0
17.85714284336419 14.5 0
17.32142855637984 14.5 0
16.7857142655791 14.5 0
16.2499999775787 14.5 0
15.71428569556309 14.5 0
15.17857141150299 14.5 0
14.64285712475407 14.5 0
14.10714284117721 14.5 0
13.57142856006613 14.5 0
13.03571428124737 14.5 0
12.5 14.99999999867727 0
10.51052595849455 6.658343760671874 0
22.50582675528416 3.152115701282633 0
21.19829802921114 18.91669453384074 0
24.04119928705821 17.88501697256194 0
16.04946291460968 20.42415974947397 0
22.73599202738563 13.91477835175727 0
23.53840937035347 7.035020036500073 0
15.03852701004804 21.30198130333103 0
24.04579305379783 3.915724261779597 0
13.41853508864343 7.057554396533718 0
13.57932735068285 5.537320650143106 0
20.93075499500906 5.831937374873746 0
11.41810287596835 19.70643821661577 0
24.81269040850584 9.23322304700572 0
10.61052375942212 21.44576471011291 0
14.11148318418155 5.99444266436705 0
17.0892115322108 19.00441744855603 0
12.44191108629645 8.615897014470049 0
14.67138343031858 17.61436335871299 0
11.51724865428384 16.75016371020453 0
21.55500972407864 7.093314590925661 0
22.9402673762115 7.061342146128661 0
19.05684105765545 18.60308228177223 0
24.36222459325712 10.39169395060037 0
20.55669156803598 20.906282249013 0
15.91344158330424 19.357349269196 0
21.62232631260859 12.80777655777594 0
13.07095415227171 18.93090181366789 0
18.62050513621295 16.37407160340701 0
20.79009023653234 19.37157449941035 0
17.42639231104279 21.43603950405019 0
11.54037289581056 6.288359441356042 0
11.0230308457619 8.457015068863319 0
11.02452982947765 22.02017814500763 0
15.03319487412435 20.10306287187095 0
24.02093340745919 8.527920634991514 0
18.14810017819633 17.91216248319913 0
13.98841799468791 19.57110882154742 0
10.45208378655683 15.74230660844924 0
21.34654771279 12.38291165242357 0
20.20340026492391 17.28262483480205 0
11.03881722935999 20.80146713521461 0
23.27311491486013 16.89807882293206 0
10.07730214015332 2.792256816597478 0
20.59836297667898 11.21695685011569 0
10.572421635814 4.868479065546869 0
13.98496124454265 7.230503374580241 0
13.01330319019083 23.38783023094106 0
21.56384235975194 16.927927708561 0
10.947808404587 3.919010063543375 0
13.71673313027386 11.54074737036475 0
23.17303387874112 10.72511953057309 0
11.92430363217581 3.553007237457963 0
16.52200315899869 21.24059722196256 0
11.08643978845723 15.55906171622184 0
22.56584414226137 7.522156782973434 0
15.7305043954372 22.02010510680132 0
14.36195957100619 16.56446793109614 0
11.38526182846678 12.8979549379332 0
21.74970987202599 6.213911564199552 0
19.23905127884857 20.2953130000198 0
14.62754051982721 3.323440797249155 0
12.05239841453598 14.65774469340587 0
11.36980739998738 23.05587667895542 0
16.5846912337275 20.11795066632502 0
19.76541610688636 19.45660099545583 0
20.83369527905831 10.52739556050048 0
21.63457055771326 10.09725828288769 0
23.0721929560175 3.550676125723948 0
21.10990330882979 16.45408585503132 0
12.76604823855424 19.20910398171813 0
12.0519655432079 5.985655242134413 0
13.80780668331956 8.681015342462908 0
15.93323738887856 16.92238276266204 0
12.40171698605229 9.669061856106582 0
18.38586423845069 21.07566329997227 0
13.32453551214672 16.97106411850502 0
23.47678046464429 15.44082788323073 0
14.12937622675693 11.91513247248361 0
20.69226130168574 13.30381133044625 0
23.74191278626016 12.45816015544576 0
21.27248597096924 11.34088177443621 0
22.00323899785919 7.50272446838941 0
24.34790398267146 9.757478206151651 0
22.51553611440673 14.92835595745846 0
12.76590195825643 22.57087272027063 0
10.86120419909212 9.938820527217 0
17.18019547607696 17.64085898830562 0
11.43697065394585 7.02924978474896 0
10.46051269476194 22.1423019093236 0
20.11215685103035 13.03565909333602 0
13.53607940852808 22.18960823182159 0
13.34417635970869 22.49396858041736 0
24.27446898196737 9.397454119920162 0
23.45827878667805 4.016588162495712 0
19.10627797331354 21.19194864194136 0
18.64845919263901 13.53489162667386 0
21.76957049554907 7.967730087073111 0
21.38437058264912 7.608294069292757 0
13.21198359740283 7.969111711273346 0
11.20660880046453 10.60343101338954 0
24.21837560113003 5.3603023077012 0
21.70554033457037 15.49296468821041 0
22.53559080390146 8.618547449626748 0
20.61102771786262 14.02435955317059 0
20.03141235009721 18.47519187611982 0
18.72814426510546 17.2007366024384 0
13.01092931587956 11.97621193719935 0
24.55627069674192 11.37837819947608 0
11.60958865118994 17.6075552173512 0
13.38597859096307 10.05633752288169 0
23.5440925059242 10.08122699903677 0
10.37470566433017 8.69946077537819 0
17.75718891592601 20.90991730237161 0
10.34335804304292 7.41443432075428 0
23.92305388661057 14.31357535433354 0
14.19713969739972 7.750380818935103 0
9.83578928557349 5.524984124749484 0
11.17823717168891 14.24417563032126 0
11.20477771241238 18.25620205367922 0
21.40315437310339 4.572337553312718 0
24.40618163095569 4.876680708838439 0
24.91709974157632 4.859290869225566 0
11.72765191222504 10.85661187930518 0
14.20868416388319 22.21094239176988 0
21.520221574646 17.90583751013294 0
23.95140518798101 11.22296878992742 0
18.41726896606052 19.57695078313294 0
21.35957213576585 14.12845344402322 0
21.18233167741134 8.681508406732108 0
10.90210539941622 5.855475407353739 0
13.75283926489368 18.40423003312351 0
22.34264377900999 19.41429498625926 0
11.7810468574089 8.060638372175331 0
9.90929886381177 5.189252030248532 0
20.80690842066864 5.336384488433785 0
10.70590026662639 20.1438673281371 0
20.86099907963898 12.18352588954362 0
13.35620728434153 12.83606642636818 0
17.02208545153932 13.5883793562974 0
12.22222805172003 11.97410403182106 0
15.89773275300526 13.43860217709375 0
10.87221291059012 23.74493260041865 0
12.37687045151971 11.47375423642704 0
19.77858685022072 20.93332082057393 0
14.1648724865863 12.27922576733576 0
17.75315927992379 20.26115641042379 0
12.61586624724901 18.1873296412648 0
11.4070843181501 10.02886625424457 0
14.32577340703889 13.37572350163144 0
24.2865142528135 19.54903721373045 0
23.19122893734332 8.064706420595046 0
23.65685614451547 19.00103036465967 0
12.20978839357412 13.58992063357994 0
22.57896716547644 11.4778324697816 0
20.9640654374233 3.872463436767204 0
24.07261231329734 5.877110338750692 0
23.35807899947681 11.78740576334211 0
12.29721983882711 10.97548047839885 0
14.3604754824497 4.909096167938274 0
11.03682758874533 11.32527336526491 0
14.88079579387436 18.88292308083858 0
23.16790801026163 19.18790905980376 0
13.95037999461665 20.76664813343396 0
19.51844636362203 16.45147868947755 0
11.96517481772403 12.94852746363694 0
12.58612952813212 10.52697507982221 0
20.3987318644363 20.40074108569517 0
11.28004889461982 3.244234233265667 0
22.37871558372629 10.53863949574993 0
14.37111048271564 11.31731860186476 0
24.29892842596523 17.22548557515994 0
19.67782050852893 13.51524074138426 0
21.9687136759705 13.57000427975218 0
12.45839439537206 23.05708318504635 0
22.66868511148203 12.56087527075363 0
12.37820959315121 12.53584284972297 0
12.42152766704396 7.515586898109081 0
16.52096985147658 14.20420175627883 0
18.81423089837114 19.72308060621638 0
10.65920266366705 12.19397863264823 0
16.06003118856733 22.43825393391023 0
16.41216400830694 17.65502949838722 0
20.97987712248088 18.20277245235618 0
17.88283261615297 13.34754481112354 0
10.74546513585201 17.4081407388736 0
24.47475637042056 12.62239702094962 0
24.99433866002089 12.17609504166219 0
13.38972566148602 22.82662770984564 0
20.78286529718536 7.78994744241997 0
22.53097067787471 9.642390291278884 0
21.83604052130186 9.231635407741395 0
10.61923914641889 7.571040188024751 0
14.22983777936062 9.55856496862057 0
21.69569340750647 10.78462088886599 0
22.86034742678248 18.76435220154389 0
12.98327325116079 7.497195036424359 0
23.63407703899048 17.20288962188173 0
13.69137606131829 3.237528030186767 0
10.78021111489858 3.003648959548385 0
20.76518072991733 9.556082553565744 0
14.70023558325138 4.298121473939616 0
17.60399348194277 16.63773168967573 0
13.40220571280487 11.3207729093467 0
15.17582093879063 13.17159943557132 0
11.90545012270291 18.90230201571296 0
10.64254466608101 9.381926351693902 0
14.97098907836054 22.49729097710868 0
24.73799534131969 4.242550188985971 0
24.19538736681232 13.35610635821512 0
20.69253098966376 6.718526022156937 0
13.35362693714737 10.84260018384586 0
21.58798400423424 20.06130247887923 0
23.96616251796501 16.6069711479965 0
10.34283227708671 3.320795940795827 0
14.03343298737857 3.865849436057036 0
14.45675604178857 8.440502691347245 0
23.35964956582511 14.74469687481461 0
13.18592195709032 18.34372519768653 0
12.42699990669991 17.11539835975563 0
12.73340235925988 19.72938901783126 0
23.75019998361942 19.78864480549885 0
12.01252302871412 20.3020842865831 0
10.51960458658672 12.51031939366018 0
23.69648787259105 9.526924486983166 0
23.36702916667584 13.28629958094458 0
19.18771329390582 19.62296121373689 0
10.85025895208327 19.02229667806824 0
22.56701938138497 16.04917345438629 0
24.24021495186663 15.15706592581 0
10.33411109221996 17.71630129532644 0
15.75567160157205 20.69472442264496 0
13.2398844367559 6.232243679242032 0
20.29722229708609 16.4671853193815 0
11.66031790610061 9.17655743972588 0
13.03453392968874 3.598327779465232 0
13.78935264201866 21.57522661381571 0
23.1389207462062 8.612305130974791 0
19.80897803660761 20.09710768603949 0
11.3797203782884 11.60051223210597 0
21.93432186660525 16.37855176975086 0
21.30862393876683 3.23752802974642 0
21.96503057309513 3.599256309240131 0
12.09775120420835 19.56149306392094 0
14.05849203553691 22.94059991787526 0
12.02608486557986 10.26165980560748 0
22.50721606771353 3.868181993073267 0
19.38332598648746 17.81954563023159 0
23.76138844507394 7.683986607883154 0
10.75125223477925 13.44516768965602 0
14.62808309823075 19.56705820640821 0
21.89933376392727 11.90613838886085 0
15.15258455959588 22.20607511025125 0
11.53893167022159 4.025342033906465 0
20.65157665832468 4.837375119160038 0
21.14330119893073 17.36709169542388 0
10.61211752327281 15.01337674546047 0
22.26437588153913 20.16687359525508 0
10.39647206426974 12.83046218502525 0
10.24811192641211 4.233770270066141 0
20.3363759401353 19.75597849432797 0
20.92447260506409 8.985024201536508 0
10.19620502517421 6.12405697445698 0
12.26895625510151 6.541826417411514 0
23.61895792944224 4.587259407679765 0
23.43507691264946 6.291412292724875 0
24.3193954791389 18.60269000695076 0
23.34377872882825 9.165768422323529 0
22.53082182583258 10.20452966691031 0
14.17571932804454 10.70661237827622 0
11.01716005861096 15.19930956931692 0
22.71594425453415 6.483012116524775 0
10.02093958814803 3.738571849917296 0
15.52458424967172 18.7995781085627 0
11.34500559277339 4.621419741480036 0
10.47373436672557 3.650287704304024 0
24.34228622304894 7.586466495997114 0
24.36876140868171 15.97406372261573 0
11.64427410020263 11.96425371774186 0
10.29632304628847 9.886291552435805 0
18.65814973253514 21.59101639362506 0
15.31298147526035 19.5420808669854 0
18.07782790075354 21.70760370875138 0
9.901655259249834 6.312400893989214 0
14.71144054373775 7.947832320488633 0
11.67716816281636 4.443954985001836 0
13.0073218271153 11.33759476201029 0
24.5190877276172 16.51989059573264 0
10.45034870100921 14.42109220892123 0
17.0858015445162 22.02088264617369 0
21.30467588120868 7.292550890114751 0
20.28558152733593 7.92862191242189 0
16.45144088254715 13.12429434978326 0
10.65979365720499 16.40966626754537 0
15.89404886424751 18.15416167100611 0
14.85796303750143 4.795130297484845 0
16.7902800112155 16.42160950125684 0
23.64314967540498 5.255499720975329 0
18.05521346650697 18.29888183491117 0
21.82082688808472 3.031417766867225 0
9.992679835938706 8.88077241728476 0
20.42517365530122 2.954617572707384 0
20.56338727925644 12.68495264600073 0
11.83856639311444 9.666973771026148 0
14.48267261492263 10.17764168311253 0
11.56488808785429 16.09820967462477 0
14.3778126163953 6.809692077048589 0
10.60669660633401 10.50135038361032 0
10.93070339343049 16.9182262720501 0
20.45058166068803 10.10499971438713 0
22.08005527413541 14.3087683555323 0
11.40040956660185 20.3102388058176 0
13.85126557389598 5.662382036307133 0
10.50191691420483 18.3014354021698 0
11.30934443017586 21.41851961428148 0
24.44418407449167 6.668883156057858 0
10.48937474116902 20.79329516664102 0
20.18520242473107 6.636996503117975 0
25.04078182266416 9.953679917913995 0
17.28269021038436 13.02203855497644 0
18.55048421110073 20.41513092582193 0
16.30081185951963 21.78310542357576 0
23.78289631499643 10.60566695863962 0
22.0316846194055 14.97013049993318 0
21.91935660151306 19.10159194854914 0
25.03025881438228 2.998844347494042 0
12.17713633435766 22.84059405080396 0
13.99861932132054 13.91537430226275 0
24.62554585643126 8.720803737336247 0
21.40823685319665 18.38974040518923 0
12.24214111098174 16.3548149735239 0
24.044325476164 3.428134360282785 0
12.84682400873216 2.849504961869079 0
13.16196891401457 9.21320481242493 0
20.77914706091682 15.76528221986846 0
12.49363031605743 3.152545433397028 0
16.76147390850626 17.86291601111124 0
21.07872692559755 20.5704077695006 0
11.20120957759245 7.680235826408737 0
12.61211807146148 20.38886522485529 0
24.79269009236355 6.121668108330661 0
10.18708969446519 7.13224404679201 0
22.92559460978377 10.21058667192746 0
13.26264240255558 17.78104744282107 0
15.22739276581075 16.33758628424189 0
12.99204842479551 16.26600760804254 0
23.18324871458322 12.66327387270135 0
21.5379421481632 9.614879572912905 0
22.044388543224 4.210982998948372 0
23.20510548805611 7.539749816499601 0
21.37521273133979 5.27501133895123 0
21.52598909090822 19.3713999409894 0
21.30621815948153 13.42347235446497 0
16.46627693505175 22.03326131264067 0
14.67627029393267 6.247896880852439 0
23.0808290838981 19.68917216334261 0
11.64465476193321 10.30718230843348 0
21.12787100946885 10.90522885964361 0
20.28154095158801 5.511499771116998 0
24.10347575995367 9.946415225956237 0
11.07739723789226 6.608029631757528 0
11.71805996626493 15.0244177124578 0
21.75591396068877 18.68152203062237 0
20.38201132368492 3.332014639905354 0
20.00044455277473 2.974158135281118 0
12.74335661732344 6.998081101195368 0
14.95636845406002 2.964971568572362 0
15.18490410226355 2.791257481965864 0
17.11686332249376 20.79208771395181 0
9.965708761257622 2.997863461395939 0
13.80685736267141 11.04758844945152 0
20.27764908185055 21.17787179594953 0
24.38643372189723 11.97161467273195 0
13.69537383170444 5.258534203744886 0
10.26562775821145 11.73764287644242 0
10.37419233300764 11.13073285141632 0
14.62140183272422 5.599807518014073 0
24.65249928700804 3.319433527312896 0
21.98222300401044 11.32382863080909 0
13.28815017140119 5.437943970594008 0
20.35838944550886 10.75913333048554 0
20.71135950462993 16.96528340053328 0
20.28154652756745 3.894329791446316 0
22.92087494044838 18.36088251588133 0
11.95199050040001 22.55174511219632 0
23.9025432782047 15.43109253554389 0
14.62227485895665 20.68750085420455 0
24.7763961809608 8.097670243077525 0
24.00570368887195 4.623777460841735 0
24.70420528985334 13.2412511140572 0
22.65770098813844 13.22646544330724 0
24.09109106859886 19.04890022229225 0
13.67214152119985 9.698352018265787 0
24.5176028273274 3.650972861327571 0
10.09265350016664 15.81337188906331 0
20.48125199633485 11.75884227466866 0
14.21503654282571 6.351579443410113 0
14.49658033465862 12.84023050274915 0
23.42347406264649 5.71434348720423 0
23.75586521429753 13.0295118845715 0
20.54388548012339 5.830512779511325 0
21.81631472027041 6.674732399381934 0
10.17013867398359 8.071436819798517 0
22.82907967418979 11.9972509260045 0
10.69941101731297 22.70396810640798 0
23.07199226344314 11.31205304980976 0
20.9425106970943 14.99666196854164 0
14.82474351843657 10.15188853100785 0
25.06780174692864 3.375609781167864 0
16.5736871698248 21.64618859042253 0
13.17917311164908 3.031417765914038 0
13.58499952876825 4.564072411206846 0
14.36392750898213 21.24454648771962 0
21.24297788453982 8.09473844242218 0
23.45056025776333 17.76585435062901 0
13.21807416645029 20.39328848010875 0
23.2058823475481 3.023826614845467 0
10.15763454587876 9.219297037412556 0
12.12063997074713 7.791041249040723 0
17.96993952674577 12.97171354653367 0
22.16826873263432 10.04820470770457 0
23.71343169930905 3.24275547538679 0
20.44946059164129 13.00688140259132 0
11.1106445737313 11.86206838361182 0
10.59460926012891 5.178905518933447 0
15.80345510986227 21.3660483617427 0
11.02072247402681 8.993511176975971 0
11.8390816032996 21.82164439640433 0
13.48942083502579 4.919073727715856 0
19.24937920527667 13.07665367712372 0
22.15959478920049 12.8944401740996 0
19.97386046371714 20.49207795939365 0
25.07517237778127 4.5223287527019 0
14.21549588949578 18.98162351529793 0
11.89112121984389 23.58881633857733 0
13.48251982572979 5.7904223899264 0
23.95611237298756 4.948246777399998 0
13.71366385316004 9.24404296061135 0
24.27353131886416 4.37281660450073 0
12.49064930750828 3.866960055620046 0
21.87444450424781 9.836624487819913 0
20.5608662300423 8.435736988984182 0
14.65445744957044 21.79527504730966 0
17.2987582461756 16.15784974448859 0
16.42857142937082 13.87244898555864 0
21.6870079763898 5.669514835643114 0
10.73753950191185 20.51087428341897 0
10.24336039078345 13.7551746563122 0
15.5371398395945 12.85306340647375 0
18.09066471484245 19.95089083023199 0
20.28726669200961 4.231810813987264 0
20.97995718369089 3.186367145688001 0
24.51855867137749 13.92858071898191 0
16.70859696352505 18.31958099441703 0
23.4280787872113 4.944412199663237 0
15.2449716889531 21.68569842343745 0
10.26842094404905 5.512727635491052 0
14.70654165054053 7.350837477919971 0
20.89875836895827 19.96172921616295 0
12.16817890162883 23.89692007063359 0
10.21712036867106 15.37892029555904 0
11.85360516843354 8.613679981601686 0
13.74655876758238 16.16719143665466 0
23.15314482204723 16.48455601759377 0
20.34993751439449 12.19290323401965 0
12.63284332058983 13.45596780216934 0
22.06229572472778 20.50849664800803 0
24.75396978629195 5.523658430075058 0
15.87795501825699 13.02704297757448 0
11.8989652827756 18.22572510776623 0
16.607708700722 19.40123886511825 0
14.0170591928194 11.35035786234016 0
10.71308397544682 4.366772965289518 0
24.80678546553529 10.58496909504832 0
10.32810957683876 18.72619240206462 0
15.96646914545291 21.73361782390893 0
12.99345449795684 13.69136024309215 0
19.24971683894012 13.89816143454837 0
11.37641594124642 5.315715553240333 0
14.60051880441327 22.92127151930365 0
24.0201690263791 9.622646797896579 0
20.32979136036267 6.171659350734552 0
12.94160675997726 7.840815636068225 0
20.65795640243198 17.49615792706994 0
23.47838520588956 18.41602743720441 0
16.05383052240123 16.2027760083831 0
12.90080278431201 10.9410736907228 0
10.37044496075469 21.75714831688718 0
24.60185566034626 11.04272265634976 0
13.07249459984481 10.43880607866475 0
10.06505081683477 4.851464203930734 0
10.09441432806199 7.636103158281774 0
24.56127803537153 19.07526270101193 0
13.37725671519427 19.76821503826849 0
12.52478031808177 13.93520238636924 0
21.89041168745948 10.37906620256744 0
24.81565590818599 15.79860206895132 0
10.35553335472086 20.39129093012475 0
10.12522115515869 14.63112855144947 0
12.69320875253994 9.022244591890317 0
23.12874840457334 9.64489179732635 0
12.30734254785753 3.528919386310647 0
11.39703801200254 13.56262262759762 0
22.24721315544446 7.00897644005611 0
21.84574857705572 8.612766161780362 0
13.1360143603165 8.6114110921487 0
13.44625928555206 21.0487063002909 0
9.989549598471593 9.553943995042106 0
17.74214060057119 19.53072419098454 0
21.06336769644744 10.06989549126892 0
23.88226896619884 9.034739697344138 0
18.25885310956595 16.76075946189636 0
10.75901919785993 13.79556988336417 0
13.76509526684524 6.534545078544161 0
20.34723848743922 7.286092481349414 0
13.31331848881616 11.65876781648797 0
23.55884997321333 12.73310820664144 0
20.04868527684908 3.74175803920789 0
14.71637511795462 6.741151504911207 0
20.45350869514681 15.20592371022653 0
20.95356261099687 11.65586346509141 0
10.94812282283091 3.429481420842475 0
24.61184642760265 9.557624260012554 0
19.90750211027807 18.05288082149194 0
13.09105347642011 5.727353956680027 0
14.60384367725552 9.055931235746941 0
14.62059778814766 9.593806083083493 0
20.45369341777823 9.026078258568063 0
19.6077173749496 18.8732418467863 0
23.45465426351337 8.685544063955756 0
12.46306082661934 19.43974100765139 0
9.909991743849597 4.513187493322878 0
12.40997317930445 22.44803074835605 0
10.18585620423877 10.72786843443142 0
24.9649112729681 8.46666033278368 0
11.00103496291953 17.57445573860807 0
20.97387493905958 14.47889421959355 0
12.60796281992967 11.84749312531735 0
23.4835909430067 14.33991133236273 0
12.14978636858577 9.513146907454127 0
11.55656923275656 5.695794068499452 0
24.69245410372486 9.924819654438636 0
22.65094123683815 16.48893962404124 0
11.32455943406925 12.3222472717582 0
24.52878570423912 14.59613106723913 0
22.4491461539878 9.315652165301094 0
24.97216047589904 9.585285317381196 0
19.90661386813437 16.10578767568425 0
14.15857428057012 4.407926032637365 0
14.44240948899811 18.27698575460535 0
18.31246135854402 13.88397345383742 0
23.89160147445657 6.61144017278134 0
18.4135615130294 13.08521164663017 0
10.8961943563062 23.40709384944549 0
23.93341878145365 2.865045157215097 0
23.62962400763887 12.08546471388533 0
23.64050539715179 8.103634298457663 0
15.07127193916666 17.77085446152639 0
17.53627597393038 21.98222870161234 0
22.28132765909773 12.50739403535178 0
11.06976747084484 16.61660950047037 0
13.75209231331248 22.58706358281456 0
17.93663138494258 17.51057499498879 0
21.25670039229378 6.548935146370606 0
22.71976803908487 10.97346931879541 0
10.67324849654197 8.3856848855554 0
21.60459544172228 20.60924089087704 0
11.77416138990968 24.00173682980228 0
21.63476435118672 8.90909219981948 0
23.40766909224106 13.92994775765626 0
21.27980169620225 19.7465282443238 0
20.28504320819891 10.39661357897151 0
10.49327807168527 5.849219933154193 0
13.92721745698957 2.862561628372794 0
22.48875020453101 13.57506103574456 0
12.84145392999159 16.777028413505 0
24.6557015789268 16.94732825482775 0
14.01681912448225 17.95866304656328 0
21.58915967418303 11.54612872455681 0
24.71913658512891 16.14428029405187 0
20.04094845228406 6.952770671262515 0
18.4391448013849 17.62412234776108 0
17.17608827818304 16.73819596838951 0
11.88523967106699 10.59113421725533 0
21.83628006232946 13.11254008970309 0
15.94374527129078 20.03332350985331 0
24.56820759716104 5.856096860191112 0
23.87122471907789 10.2299380018353 0
21.32362089503495 6.089491612199124 0
10.29428308760212 12.31419004018236 0
22.99604631972529 4.186403632292027 0
10.00354503768673 8.44422570267776 0
19.58201524887764 21.32971185123453 0
13.96634506850981 6.861605139412181 0
14.71555733319496 16.08848087375452 0
22.1678871907136 3.897542700632874 0
21.59245206046203 10.45745851440843 0
10.56232174748635 23.26293679760345 0
13.23371749718613 6.771613910839065 0
24.60000022871678 19.70206399962211 0
15.70845549978162 16.47023111127428 0
23.56622939938144 16.36533638666202 0
9.98109460094646 10.99772040781301 0
12.0370682600514 7.058412274657538 0
10.97498255290254 21.62485697910128 0
16.26550054549729 19.18206971446707 0
21.08343565818574 12.88072318848583 0
12.63408737976329 8.066525152281585 0
11.04242754356902 14.51561175151294 0
24.48626727430731 13.07226522278225 0
11.07530737572768 16.07049571719556 0
9.946762412340439 6.657473213118887 0
12.48216840434538 19.01826793343552 0
13.76728517864249 4.19732397970707 0
22.34670129052151 8.072848694861387 0
24.1927774530579 16.29506414072389 0
18.68921177368652 17.97873688786575 0
12.15496469972404 20.68047626692526 0
21.5404173184412 3.999365752557763 0
11.05401991950753 19.58077601772347 0
20.65161920973227 18.75467449494165 0
21.55719776659631 6.45614592092957 0
12.05683454235765 3.232506911965586 0
11.42579982099534 23.91011127520436 0
23.87204399762948 18.51309385711115 0
24.71045885137482 14.96531276754046 0
21.31448667240582 10.34070756333047 0
14.54410924995503 7.654487581229806 0
9.917249660879154 7.013224774737814 0
13.6823251627284 20.21339049073974 0
13.60889424358755 12.19857951613284 0
13.51397345636684 3.953212988222501 0
10.31402824473436 4.605590013696119 0
13.77379328752576 8.109509243547855 0
14.97060818849404 5.864464759466369 0
24.78502605763843 7.151939725134444 0
10.84539671516164 18.71585885698859 0
20.29115623679803 13.70305458535435 0
16.96312339426164 21.53312766240989 0
18.887165592702 19.2133356723819 0
11.76133244664906 11.37990715191486 0
15.4177656124693 17.50711697977284 0
13.6409504390533 19.11282069239756 0
13.60036539704009 20.6634037466801 0
20.34779747214983 16.91646453728298 0
11.10962547571896 6.224037544687596 0
14.55258038052102 22.52275985386074 0
13.93574201196014 17.4334173834217 0
14.6057901239144 12.30127164920217 0
11.40218702036245 8.726899477169725 0
12.22508097454524 18.60212836672719 0
11.22981435694232 9.515587335566401 0
18.13432136466925 18.97382916485682 0
21.12969628130696 15.46522279267712 0
11.85155521573033 14.18522357163985 0
12.18101800331378 23.35260978058552 0
12.80974922876695 10.03891010415948 0
21.26044720586384 9.254674573978361 0
17.44164963496835 13.89008620859283 0
21.00669573605714 7.202070019539669 0
11.58530644561137 21.98053733276846 0
12.21156691630222 9.137476965497521 0
10.42927871067085 24.5367595071936 0
22.92364173807733 5.994332450931036 0
20.45603548716202 19.42794258377329 0
13.91312255185547 12.77923245333493 0
14.91870158604176 7.667795328402747 0
13.39061740293721 21.38062140140625 0
13.63152859973287 23.2711847769126 0
24.27903989929098 16.82572336066357 0
11.80027452656932 3.021823751350219 0
23.47593427703825 3.632811614415558 0
23.30669095535986 16.14395833458526 0
10.3137896010137 23.72254905031975 0
14.21877858276038 21.80076811270369 0
18.82292058078211 14.03167927724094 0
13.17546001981957 4.393003726197028 0
23.13147395634956 15.15639054444659 0
23.65176745787645 16.03165255124623 0
23.17511316008495 10.05716628587559 0
24.30516924421767 19.21718382325727 0
24.38500959640113 10.09590917868575 0
16.01675019218838 13.96829899941955 0
23.35406731290424 17.48598231420884 0
22.80380944355396 9.117670401801341 0
12.1699656557568 23.61528422490563 0
14.775568165951 22.20946018470996 0
13.98776405408477 3.488273661681634 0
11.47155621941183 2.870671674360455 0
13.69916363658443 3.651850609791195 0
22.8182197074163 15.44452721546222 0
13.95130726736184 10.1197474093294 0
10.8997517835315 7.128684752442646 0
13.91604726496389 4.483488737042108 0
22.25804446427017 15.55093952996839 0
20.97566898773423 12.52879648153955 0
10.29209216966943 19.20098765157219 0
18.80603720154463 12.86995320642162 0
22.87686475713299 10.60707388566693 0
22.99823317748734 11.03924588897758 0
10.27905429070049 16.60380410684866 0
21.58295663383306 14.76883978706234 0
10.32014920018997 17.37793940809432 0
23.36638427380608 20.18902247973407 0
14.50623117025857 6.518907348978685 0
10.78769601457026 24.4230797838329 0
14.86301303561439 23.06653823817408 0
20.72568924026842 4.410981553209719 0
15.19096445546721 20.70753829795214 0
11.74014527739692 20.56270914193824 0
14.72221794497109 11.9574427783374 0
24.39373766521511 4.055801746597945 0
15.23419380084357 19.07996418869082 0
15.12686028644874 18.17508124260107 0
11.03079627747766 7.956571679936182 0
20.87606373796562 19.03082160808169 0
11.86041901608067 19.89641984915545 0
16.47496401085595 15.95466369613771 0
12.72606091373564 9.425258399093561 0
13.44676937814111 13.95989133342366 0
17.1706949853439 19.89795932916772 0
10.32297847395576 22.53578179906425 0
18.4175640102382 21.78918174920858 0
19.49262952529001 18.25058087879099 0
10.60069734610082 9.739251962165064 0
21.43299142541277 16.01004862942065 0
10.42750171791235 19.55693792855538 0
18.48172252742325 19.99185275302247 0
11.82967198240632 12.43629330907399 0
10.50941920777817 24.22325112321884 0
11.76557514186355 9.986332653411353 0
23.08854295064699 15.92047831268574 0
12.69453190141939 7.31807403137031 0
13.37460132096543 8.417094742895975 0
20.38456806967599 17.91743750544106 0
11.7558367791197 5.351469209352364 0
12.20616769274321 8.130023381620228 0
10.73386289305076 8.051253620755064 0
14.61401997791627 10.8529779579362 0
24.20311557693591 8.80961601950751 0
21.92415017769499 12.43146892049602 0
25.09507372767099 4.069434983240537 0
12.94545377715534 14.06815013629653 0
24.5026430259016 18.25099741782091 0
11.0883853802334 14.83715568916475 0
13.65209712363145 13.44501484310684 0
24.92502389851515 12.5554222996372 0
11.59307983412855 20.8692583948013 0
13.06338331489455 8.21170570155681 0
13.99985601713219 23.29106217783892 0
12.92121683938644 20.11254379528969 0
23.38015580381264 9.451451404027086 0
10.36589739340314 16.97647038543731 0
10.80333101775428 6.811242308240184 0
11.12711042381794 19.97719764712791 0
11.34497473444219 22.48875232251575 0
15.51940220172914 22.58606827411811 0
14.77468259314404 10.53371517196885 0
17.37487457621084 18.34073810685175 0
10.93271887088959 10.3142071383861 0
15.20138425702232 22.8379634417661 0
14.46499859624494 11.82840405918056 0
11.31018650790456 17.39457592146673 0
10.23312259292937 5.818487943453747 0
24.57761857798742 2.89167338464053 0
12.43954449824073 23.62279070982607 0
14.13425299331983 18.58960986770404 0
20.50992592074371 4.320910139139397 0
24.85571189997906 12.92200540985267 0
20.80027027356743 3.007056725191618 0
14.25774019466364 2.749232567861416 0
13.46615322296247 18.76936364895773 0
14.19972972441839 3.007056724310033 0
21.0109277425891 3.490173275372592 0
14.92820650827283 3.768575592747025 0
10.56443074108815 23.90089436629448 0
20.40225433838879 4.566937920373253 0
19.43195404509601 19.26141066965127 0
12.71974301998255 13.04826866935159 0
14.18846715051758 20.18815452052377 0
21.00965865286354 13.69887973745015 0
12.22291996152638 18.13889131823503 0
15.4366503550371 16.8426811135549 0
16.35106418265335 19.81008001992278 0
23.23726778480611 4.438087708380714 0
12.13766275851371 2.846651011397087 0
15.20135173699375 3.73819258861722 0
10.29740794261379 5.105856655209357 0
22.30157741387494 6.009807257973028 0
21.12007729474647 9.66012905041779 0
11.4522069313427 15.7310918382317 0
24.5294606309644 17.7484204716588 0
13.86173720389973 7.823201715397518 0
20.6740208004148 9.256769941858698 0
23.2658492879067 12.22562413842853 0
22.49866986770292 6.79817090554477 0
24.21499060232264 3.004256666590574 0
21.3539350184679 12.6929217969718 0
12.0078496809413 16.85258168400537 0
22.21180290784913 11.05963117374771 0
24.04073536735907 11.51105299323879 0
13.91774183127825 6.268258061189082 0
10.639821406741 9.016195876061271 0
20.97264082310751 11.22316362597671 0
22.31630673481327 18.56511049984457 0
14.66531919518144 21.08100366945916 0
22.65651954853957 19.12285690334832 0
13.29680531157768 23.13438911941985 0
10.73431827210904 14.63500578135671 0
22.81813195450672 20.14655546785313 0
22.552104409189 11.82740223782769 0
16.42158965572625 22.4497168952679 0
21.34452268325474 11.87512540178867 0
10.64424169197151 6.230362452067902 0
22.87787837390425 7.798270053757659 0
20.06078507876705 5.86612243587425 0
14.81959863466664 13.79608542185356 0
24.1300086285092 18.2431737725206 0
21.10577252012799 4.927963962342584 0
11.72965566806183 7.516662680534717 0
23.78846502118555 5.615880644772041 0
14.51114120944354 9.33446444408069 0
21.90444795988157 16.81608342506147 0
14.93206779779688 20.52128601551461 0
24.63564117331227 17.39605735686744 0
12.17173382208378 12.31184115939792 0
12.39130796188191 7.142688987785688 0
23.89129225776789 11.76532935972094 0
20.11111876082467 4.796676198319439 0
24.07950402187012 7.134342382256756 0
13.60379890037236 7.607267808932268 0
14.31379669260861 20.88095735617281 0
22.17916653695235 10.34061262019207 0
16.34545848355809 20.67587882113686 0
13.87194865522553 16.90234055475196 0
24.97788630651252 8.881867008219743 0
12.82723051017898 23.00401155484975 0
12.61814945976711 6.079834691123899 0
11.5708665033243 4.957075042830046 0
11.31173095398942 21.0436048089346 0
21.64010299295628 11.8372321656724 0
17.54659370694408 17.14308349066531 0
23.6509411864312 17.51354397699289 0
17.69382229905974 21.70462352975753 0
20.97271196887917 6.853674973848094 0
11.37245120654401 19.10342599368364 0
14.83034359956314 12.90516289283801 0
15.52087791631912 20.25485731904043 0
10.23714111401756 13.20260604135361 0
14.03369112039406 8.344639840099992 0
13.80503739445493 4.847068827349794 0
14.9479880974791 6.998304450948333 0
16.20006505428358 18.80307131778344 0
12.16455693264349 8.801367844839568 0
19.12104311705004 15.99637997422929 0
23.83262646056617 6.930707524109065 0
23.01983099642495 6.3495951896851 0
13.4868504410771 17.3897103752782 0
24.71522369040835 11.55943577176192 0
18.4596104754135 19.12529888884409 0
21.91828301772619 15.87878430754643 0
23.9536499207825 17.45764906699326 0
22.97029674975127 13.51776643194548 0
11.95625306182112 6.356059307909594 0
23.71331694906681 13.41627782167862 0
24.9635994982291 3.74529788123145 0
20.02439591262729 5.126971023663129 0
23.78023016656212 4.221400883461783 0
20.59587466694213 12.3474535847826 0
22.24768215326549 16.63398091274419 0
13.96147551454466 16.47460165794212 0
13.54532876966256 2.855996337645687 0
23.87540222928209 16.23915445880468 0
20.09557207567345 9.438673481642047 0
20.22112936520952 8.728358286451176 0
16.69204165628469 18.9090802550853 0
19.8916271279839 3.380752056400796 0
11.89779668906445 22.12605637681607 0
10.82319269823549 5.327986440186216 0
19.85874972553705 14.0067702754149 0
11.51826014227562 3.636924281563858 0
25.08784733950197 8.144194757608393 0
22.24927811434776 9.037402103382204 0
23.49221869583656 7.415124705008439 0
10.44849611505578 13.54835315698448 0
24.60475625696609 15.52280458226365 0
20.51168516933467 3.677002973722839 0
24.14657896297037 10.9004077817019 0
23.34368561500484 10.39925077332113 0
20.09160393898467 19.43594118550129 0
10.17608317362976 18.27475784345866 0
19.6358200019277 17.1920721437638 0
11.27161348145055 17.8087511623955 0
12.78695249926419 23.71780518907771 0
24.79075333872116 11.90740185059046 0
11.88409684584077 23.07424685291263 0
12.56477140904196 11.19813995068554 0
10.42707696618537 2.892053402206415 0
21.76969578089226 4.707655285405372 0
19.57786009757863 13.78705201128331 0
14.96023933548165 17.00387533025021 0
22.26566114464218 13.93274558040871 0
10.03903656807388 12.07643336026866 0
14.33979553893822 23.12505914539562 0
10.46481465363275 7.816565710206905 0
10.06071582578991 11.41050968927932 0
24.19588547480588 13.68096959104568 0
9.974586330808947 5.787947230712765 0
12.88324675333314 20.69687953143084 0
10.76745173213317 12.75298197973337 0
12.43844982235751 10.224093951248 0
22.23135911795029 6.510553260550542 0
23.24617323968767 5.340418602074657 0
22.34985491572387 12.08756194942859 0
12.30903292358919 19.94639661067847 0
11.60354790857202 13.16413210941743 0
10.90942352659293 9.615800457066948 0
20.08850045888927 7.64555421836279 0
14.97098076187142 17.38253862434731 0
20.73018597064534 7.423297823974545 0
24.23869336524209 8.074921933464292 0
21.95111918436379 7.10745521064375 0
24.85131725003153 13.58847165838969 0
24.50365638468771 10.70785300593842 0
19.05387163283503 17.90205510274716 0
12.94092399469825 4.132014510279946 0
20.17565870915699 2.768488980937015 0
18.6340187524695 15.87742011194456 0
23.39620808795977 3.28038661756594 0
17.326855098509 21.75381143461133 0
15.13639422863347 4.841290067968083 0
11.84163928560139 15.49822401449124 0
20.24839441513092 20.76113864574353 0
19.79231366460278 2.778882390717729 0
18.82254400316108 20.68791951899497 0
12.91472822928029 12.5233858168284 0
20.38562585158407 9.516306063792836 0
23.71152492860491 14.87686782297703 0
17.74400273570745 18.82272824206929 0
21.98258721979627 19.80366169430932 0
20.2731373647383 11.09968594568001 0
12.03121184472922 4.11287185918019 0
17.85714285031339 14.06498105623528 0
14.44732303553488 10.6108364067357 0
11.58935721874135 18.13553662786467 0
23.28822298733787 18.84694264091682 0
21.26903396992493 14.78588717542644 0
23.85044228700475 13.76924265730172 0
14.58871306530669 19.14832320198668 0
21.75592072493056 4.365070962041358 0
21.62828993924271 19.70268521536992 0
19.99381181009673 18.85910735178082 0
20.22002942612808 19.12087177110507 0
20.22166093853094 14.16416958190391 0
14.45345886617199 14.07858367195296 0
13.08283181974707 22.75065734037073 0
12.41572820095549 8.910565473112094 0
22.46463167462306 14.29504705138894 0
16.79017791399872 17.03917472049167 0
20.25682980944296 11.93303869547809 0
11.62403211813099 21.6133116941831 0
14.17374375075601 5.397390160112708 0
24.87216368442839 7.658523234277432 0
20.53837721303522 7.891571626747385 0
22.84194536721926 14.4519610907692 0
11.1078856805483 13.90327760936766 0
11.16290675008761 3.650834320592786 0
24.16995390506742 12.3467988646981 0
12.91803784062408 17.34567942162356 0
13.54522333247175 6.17308705572397 0
20.68279973358186 8.099608388538865 0
12.25826987977131 10.63125981598951 0
24.74369951886045 12.28940069768547 0
20.79153636011691 6.32585514593198 0
10.76838931834974 10.98959220292977 0
10.22214785118696 6.826671092683874 0
13.1220112753871 9.779066314271464 0
14.61250144920668 20.3321239730148 0
14.67406923120824 11.58733128839505 0
23.584815596872 6.726302839417253 0
23.15383947299033 8.938118688267778 0
13.06916881650556 22.27502438653091 0
21.16723597478776 19.30050300488597 0
25.02616647197918 6.67509716480131 0
22.18833228159431 9.649560912292989 0
15.86935450219876 22.72169992088735 0
20.70718142690106 3.334516069513446 0
14.25205235432919 19.80466934053474 0
16.28464225422476 13.50797194154153 0
13.69767368664989 10.52841780019796 0
18.93376277280179 20.35633753852927 0
14.03078742914116 8.980410322832958 0
22.90195677660803 6.711198280528292 0
15.80964366688727 21.02227856634692 0
11.23169472639894 23.57905535385513 0
10.57183621950242 10.14824717009431 0
13.97396573267867 21.1721775796221 0
15.96212763401367 19.68521809354795 0
19.9241667037309 4.053362158734132 0
11.11010043763437 8.67291736819208 0
15.45717243125829 14.06255527182563 0
23.4151403678787 7.796476615627207 0
23.58007665181416 11.17125401457315 0
14.41081796318109 12.07225986817321 0
14.21166171689338 10.33521705649804 0
11.08096790284581 24.28504112115378 0
11.64682862458159 22.36463041262748 0
18.33516113224288 12.77084472253368 0
24.11911363826796 14.01096736189179 0
21.54540994632834 19.00556273101606 0
22.81131481170968 8.473431712608084 0
19.9108832082236 16.81778701258175 0
10.80815961765222 8.712923672705546 0
22.89789721092218 16.78833304211029 0
13.04459793703283 7.110828259522764 0
24.49234086949642 11.70569133573702 0
25.05827756416447 7.378416843979613 0
13.37681309569786 10.46887992517306 0
12.25252556784392 17.79071943377373 0
17.07701787182236 20.33147306186093 0
16.93665026771717 15.89039440091752 0
15.58672609518421 19.22196119719246 0
19.56077738281817 20.46175279471868 0
22.77029771461403 8.135201512287892 0
22.55965602652266 20.05271804871409 0
23.20350212767058 17.22467210474508 0
10.2898939878841 16.16276903238477 0
22.75341882030081 19.76535518779399 0
22.8898009744144 7.401814521751067 0
16.88587441775002 21.14738542397525 0
25.0936189308663 9.238686741040318 0
10.91343788192181 17.92588179330206 0
19.13791301163922 12.74585293277893 0
14.68204782148793 21.45530897375254 0
11.36479244431682 11.02152456297169 0
23.05498365389961 5.691492135526317 0
18.10711695080266 16.0166489820865 0
13.65693203351053 13.02584457692533 0
11.30269322495339 8.127507326241249 0
17.88368653368599 22.03795743798617 0
13.35119364624558 8.90610962322186 0
19.38816107750971 20.79156277928619 0
11.17751884732343 7.270954728350873 0
14.47062105590136 3.692671351916481 0
20.59435420148854 18.32549032026613 0
16.86073147696559 12.96249038891501 0
14.60558104519302 4.920480769993582 0
11.73317477794259 6.730950539308708 0
23.09960066216526 20.32543908452056 0
12.34243645004595 20.30395987208862 0
10.64718543733474 5.545061925931852 0
23.3391392190349 11.46560518400771 0
11.17621419253417 9.825233485990687 0
23.2434226073953 6.733361910897375 0
22.23403645142302 18.26006268779791 0
24.3643666356655 6.242972342743372 0
19.96514544172333 19.73800858156628 0
23.2058823475481 2.732187948737399 0
10.68819385386459 11.62094423926351 0
24.16489460676241 10.24144543291104 0
18.37199945878725 18.64859613324403 0
10.63741908121182 22.99480073166135 0
12.21026556248754 22.18339509394058 0
16.20486074072257 22.66924519439804 0
19.0931349466147 20.89492061907587 0
14.13346705291456 6.618487573685089 0
21.85256109369338 19.45983484007098 0
13.1362905557649 23.68907745405166 0
13.65696570754191 10.27386878168056 0
14.88092393440067 5.171027111588701 0
22.79410936179686 11.25480741659631 0
12.17153532318959 8.468767619961236 0
13.66441272915552 17.71122282675293 0
21.68387711332672 14.37021693131654 0
17.5672801763324 17.57456794263066 0
12.77170946642859 6.472959488038377 0
23.70739894644183 8.447090472597734 0
22.91734548994884 14.79605206439922 0
17.06970887284818 19.43261639614665 0
9.925982938556478 3.373407727547494 0
21.60850818670112 8.417197461318574 0
24.65796333448482 4.87562841159539 0
13.60608902483175 21.902714355128 0
19.69952368416016 12.97035523526593 0
13.59583437187705 12.61145393888408 0
23.17136714459552 17.75769014464826 0
13.33520038558673 12.0388513026191 0
11.01438274064689 13.09632463305613 0
14.28923050020151 3.334854219380309 0
10.28867330599738 8.986568899301714 0
13.51876641626817 7.907897030726128 0
22.63814938122386 10.46227485977943 0
13.73439907336546 20.97692983673216 0
18.79488165430423 20.08124235187064 0
17.84739691061706 20.57408443101266 0
21.04309641531967 13.21194934404538 0
22.50083407399343 12.85704599007857 0
19.93705169017247 5.521783620912212 0
24.31060490810812 11.51245611084792 0
20.45949151663413 14.67552018297931 0
15.45421251578314 20.58928656796771 0
11.3012109543712 21.79863879548423 0
15.43475741200883 21.03364752306322 0
13.26331064303911 7.69999533706291 0
15.22626351189814 20.43520621446917 0
21.84496097030433 18.21656572009937 0
21.80275849241237 13.99308600494378 0
24.89185780609591 13.96324161570572 0
12.19052656803801 15.66015490948503 0
14.76248985943674 13.37291417482568 0
21.29167162374486 5.649583775841842 0
22.2058931749998 11.71382694920675 0
14.50923178088022 18.72045237295444 0
10.59427103118797 4.05408270647381 0
19.80380420210737 17.55404677920976 0
15.00110876404537 6.232693457493413 0
24.45135060450887 7.059327879689908 0
11.60260159869131 18.93006768052964 0
15.54460896252714 13.29285469266206 0
12.05117502604178 6.720401764102647 0
10.93295266750047 23.07358115174119 0
14.57160130011173 2.95279850316922 0
23.29689183627945 12.96069315214126 0
10.95459960370133 4.970574143689871 0
19.74110470828781 3.042016489569063 0
17.38485962239908 18.71535436001133 0
10.01785557959957 10.34408582960993 0
22.44087369804921 9.902475634532296 0
15.11750206810965 3.463769002729142 0
23.94495077458554 9.324987956053578 0
10.07493188438541 14.2874029155397 0
14.48201374853721 22.10784111807078 0
11.59648378532418 23.6755553441451 0
15.08641932218525 15.8990893665418 0
18.16359391656599 20.71793486659737 0
13.36292884226573 15.94945503961118 0
10.26424081238347 23.3653956209583 0
11.45614378001483 18.64662413864956 0
13.93910473078335 19.2364998499808 0
24.82036305782445 19.08121320101163 0
20.81345877789584 10.85505954492006 0
14.78860421945197 8.73025221720982 0
12.03845414199383 7.428785568822079 0
20.75215976692472 17.92210612111258 0
10.41666707469638 14.73315467362862 0
16.7590544877614 22.26170403711992 0
22.10807690097159 10.70498986941349 0
10.69422185868732 15.43934940281641 0
15.75048999006516 22.35164567487934 0
14.48596711799658 5.185940620218894 0
21.47036661173735 8.65904717545059 0
20.01412715181106 7.998520880898627 0
19.50340499622077 19.62543557756159 0
23.5634076043694 19.42623650285467 0
10.10195017051739 18.63770581445729 0
20.7751219606094 15.415617135164 0
13.58048005655066 18.03555027087046 0
23.78283482049452 9.852695169151417 0
11.6981323942272 21.21189739976359 0
16.42640143041707 20.38650287731218 0
14.33754633648092 4.05499901470225 0
10.91899648557244 7.464012306905415 0
12.63690046003466 23.35071396585002 0
13.35098137060041 3.699409355614204 0
20.50894358479784 9.772984711658314 0
21.59252348949882 5.942361296974829 0
24.5207240753917 15.2317916116755 0
23.78253562556127 10.95030706783334 0
10.70393502086684 19.33928975361178 0
10.02674144095306 12.86150266439594 0
20.17854821727877 9.800803419819873 0
10.83630531199262 18.30826255949078 0
22.83999602809921 3.851478227576484 0
20.18113307943126 20.09313322664158 0
24.50101253850023 7.849956481355594 0
14.29950821148952 17.6721700254422 0
22.86352088631637 2.845957066542509 0
24.42353444871823 5.569173132480976 0
24.13881512413994 7.76780359447288 0
24.8238849916368 16.53462886368699 0
14.46172194557904 17.13311903871044 0
12.21095443455106 14.2401764659358 0
23.26111934734375 4.168366287960209 0
24.82048083826899 17.16951338713822 0
10.65168630760215 17.6954853787536 0
11.35868356872157 9.14504648940715 0
19.53409426116119 14.14560034009585 0
12.32808642003208 5.7875756591614 0
13.39649793215687 21.70201291893763 0
19.10511403206887 20.01838337209513 0
13.00220678337818 8.941801123607165 0
12.52400323714035 6.759120699459795 0
20.51100920915517 5.184082255090747 0
22.51813342624104 11.1455389779569 0
21.30793004731934 3.655625487669376 0
14.37273236623207 8.050913412034822 0
24.00166385668444 12.67059052712244 0
21.93087591543151 20.16710505526022 0
10.82395591431359 24.08569526025322 0
23.38751809858421 15.81024098198176 0
25.0782951790191 5.199493098023043 0
15.05397215976873 5.49994595145221 0
11.46568208652789 13.97282903056625 0
12.50470440642277 16.00623169116784 0
11.46459964737354 14.56217935345911 0
21.45467122052801 2.855996335710135 0
22.05887317551679 12.15290296146632 0
23.71635443928774 14.06366332191006 0
20.91378972467509 8.386592786776514 0
23.64543175685652 11.5235262314408 0
18.94952490873417 21.73493840979249 0
14.20352479656938 9.91157701841638 0
11.61511352270812 17.16964374707692 0
10.65062215220974 16.03665111835914 0
24.91130623074771 10.92985392062329 0
25.05701716906571 7.022539181880116 0
22.15301964087079 2.849344607414871 0
11.0593217678232 20.39877403521422 0
13.48260794987107 4.2620060287544 0
10.34389879839709 22.95001344005139 0
22.06976736097447 5.747996840888251 0
10.82815317229083 7.756613222039508 0
14.72612459952273 11.17128512185165 0
15.48993767075611 17.93338045947448 0
24.31011191414861 7.3272882560219 0
10.28291847783197 21.15698942997575 0
13.11840114794728 19.43930785583291 0
22.63701259826252 12.23254402579959 0
13.79546103527768 23.48409715951514 0
22.0449780057685 18.50225718969646 0
23.8678086492193 6.24732893879093 0
13.78164674951146 5.977718441502727 0
23.52760562011424 2.869193923217639 0
24.48683159819035 9.083980642216037 0
10.12086244233133 19.70019304080977 0
20.12688437782066 10.85475786735043 0
14.04415425255165 13.53743777908628 0
19.19148869654094 18.90426901527643 0
19.96151319422572 4.486064318452659 0
18.7814631886968 21.05196060690027 0
24.14839804375432 19.86007127564021 0
13.96795135661789 11.63915558575452 0
24.61702983340342 7.427630159609019 0
15.04323378546054 4.450730711091989 0
13.14208483303866 13.21694802511091 0
13.32043493305324 7.377684798953137 0
12.50522819151302 9.915556229312909 0
24.26470586729019 2.735987437659964 0
21.79411763827555 2.737079350543909 0
11.87567771869692 9.338918349612674 0
22.33788146445272 18.98158874607678 0
11.06904051894435 10.90392030742987 0
13.2058823531236 2.73707935020572 0
21.86321394601752 20.74079782168638 0
18.02509179814759 12.70196043565522 0
21.63495991893809 11.17998539562569 0
23.67477237436989 6.452105708704861 0
10.94963717585121 3.171413993043684 0
23.99022596913805 12.07701858952855 0
12.31997411395137 13.23033757160876 0
23.11861157406921 13.82017675930328 0
21.56628867018775 9.245735738939901 0
16.74705877545525 21.92471035472634 0
10.8009442052714 14.24546751628841 0
21.09137076177374 5.427852457448714 0
13.87732844325436 21.9911154474865 0
16.12843003185782 21.13931329397581 0
22.2374434489322 8.761273555192858 0
13.35376731442368 19.14781784728342 0
23.94223605486102 13.25288077976763 0
19.65351214946072 21.57053219900953 0
11.59643997777638 22.76184726973493 0
25.00207230662967 5.80199880876592 0
17.13531028544385 18.04791414372123 0
20.27389502632212 12.46146916178378 0
12.46855293298425 17.50699506696093 0
24.17226755523342 9.121278113612583 0
10.33340598800202 19.95275934117849 0
9.951929919703202 13.2008889805512 0
21.60345869461524 13.37589813218161 0
18.96716178516983 16.7592134430481 0
13.87241246315 12.42829515891386 0
23.17392499290854 18.50456437582723 0
13.50501909675997 11.05315799956734 0
14.76121748528322 3.572497759184093 0
23.43472911008696 12.47279892845676 0
23.74638645266349 17.79038653437048 0
10.28311367623047 24.02849911454359 0
21.3396956219116 20.57540290535331 0
14.55410385332518 7.064228679285824 0
10.82105449476643 12.44934969749017 0
14.02409290995902 4.156700912200497 0
10.61660106113379 21.07230669898724 0
20.93856486387202 20.97726001589274 0
11.2910999831996 13.24698089234539 0
14.42290205475719 5.89741594957126 0
17.63624747691053 17.96339872935293 0
15.87767006261375 18.9905732671373 0
21.14400887149588 12.10365693940874 0
12.12603822440721 13.92271167826407 0
12.60116090161765 20.0713317755842 0
24.77453013883936 14.31125752127002 0
11.73600372729544 7.189099411598799 0
15.55764022876961 22.88468692000998 0
9.955334094711471 11.74653007853714 0
21.56963073947435 4.965469846724397 0
20.77194104070645 20.37256544140073 0
14.60618432436265 19.96065846340402 0
11.6190018042709 3.278244884790562 0
24.96637786771695 10.31037792704909 0
20.636120008849 14.33513255166296 0
24.31649001622801 8.418734164876456 0
22.55182000913021 18.76717306733571 0
14.29417412161003 19.37498130303475 0
21.98179726339822 8.96283261566143 0
18.96920760827102 17.59023945977968 0
22.26408698424781 16.21167589025663 0
20.58440629882425 10.54767500961902 0
15.88379235759961 18.5851109627678 0
15.46865531917924 22.25610232526373 0
13.76811422148172 3.914415781773206 0
13.44595669901554 16.50462550421917 0
23.10597011215551 14.14422038331271 0
17.64748752908265 19.86742307260301 0
17.84310109856253 21.34719594647535 0
13.6590343841417 8.39398184610595 0
24.16449959657924 12.97335786628881 0
20.95664691055065 9.331361247194224 0
24.69772097396343 18.76869601550511 0
17.72804622440093 16.24044740095223 0
11.20868863173035 4.225723928926358 0
14.85219331506547 8.326659956527012 0
13.67035262663024 11.2790952583654 0
22.80261359642117 9.871118874774053 0
24.56017698800695 15.78765236486285 0
16.96627131093164 14.04672706222914 0
16.70518624362053 20.87802470204781 0
18.14585772102555 20.32172385812563 0
18.12343122341609 19.38743883465776 0
25.07508997147427 6.325929867513508 0
19.97738745955937 6.295251947053616 0
24.31426286187319 15.55969178033157 0
22.32023885490398 3.540308358480812 0
20.72129229200982 16.21310809205741 0
10.95184779490248 21.17164134615868 0
19.1117664308174 18.22708977414791 0
22.69134482842028 3.528015982998018 0
15.60342669743653 21.68507699636042 0
12.83712106596215 3.833870836267283 0
20.15585328506847 8.295703535585204 0
20.76628989656513 16.59966254901947 0
24.62830518025596 10.34636848487359 0
21.55202479697444 17.49402189193636 0
15.92260325731396 17.66921653543383 0
9.757272035298064 3.757143967768479 0
12.73274335050028 22.24104421806742 0
13.06743545562347 12.27840067093815 0
22.57180400517382 7.187724235089219 0
21.77230772718992 17.19162448686626 0
24.73257961951843 18.00107126596417 0
24.79072232528581 3.082759017149177 0
10.6511649917732 16.77176848295803 0
10.96741202430165 22.40252673913398 0
11.980121673055 13.3226480714209 0
15.02567639921612 21.90918017433794 0
13.42783403718417 9.48925076974923 0
15.26330690542353 22.44350258959265 0
10.57285121564631 18.566334774846 0
19.30287508622194 21.5152090900248 0
14.73005777931341 17.98898606402872 0
22.56402768188895 20.41583760176679 0
15.73189198445219 17.2488905506782 0
23.27796471708017 11.07855901667923 0
14.12789895186135 4.725027326636503 0
13.31128944723176 13.55816738808598 0
10.17151915108664 20.74239042807653 0
21.25791837053187 4.235239284518578 0
22.46060606802723 6.362689713790634 0
24.0112901699315 19.63359813512629 0
20.34007097586412 4.902408503321322 0
20.32604187118845 15.95271702069636 0
24.46341400627819 16.25148019990472 0
19.36371648153907 18.57141275628086 0
24.25005296589767 16.5611497166176 0
11.91867292499539 9.013497793007105 0
12.72073855977583 17.77350273006714 0
14.1080827548705 5.053842884333509 0
11.93727824408307 5.686289719398327 0
22.87798480216525 12.87579170980004 0
24.72028293067174 6.464201455260531 0
21.20178622798004 20.23655334621147 0
11.71269454240786 19.33587083424472 0
15.29689806212655 17.18799635826367 0
20.36531916595058 11.45123499329421 0
23.16335747531148 14.45983018170121 0
14.77089646491574 9.316798303146061 0
11.47289500665569 7.402699103439053 0
24.07382731727202 4.170735269700973 0
21.12093683156484 17.7858960652152 0
24.10253836512227 10.54327080747754 0
24.66747590599361 4.613903798814326 0
21.32909777831481 20.86582684705675 0
13.31727449423897 12.42303010593663 0
22.83419179127633 9.467461176248552 0
13.43122816698062 23.51337000028737 0
23.11670621693427 15.60115565357121 0
11.064433173463 19.24126563328416 0
9.911208692743104 7.354857711432626 0
15.28223430759525 19.89909692390816 0
10.79013014092887 15.75365985916173 0
21.27639066499014 7.000125187520153 0
13.26604846703706 5.978689153362911 0
19.43858084755628 19.95834661297247 0
22.91958969385147 12.60555985903577 0
10.98041749027135 17.23321859097969 0
17.2019611146112 21.18251614005223 0
11.5393794503254 23.36808875082405 0
12.81148712616902 10.34855879048597 0
21.90347422403644 10.10633889127531 0
20.65003564366535 21.18046463186651 0
23.67967233531662 15.19319651777011 0
11.47405857429761 4.301166713956983 0
9.8401341805999 6.030696327681947 0
9.892265969892668 4.061862262740437 0
21.41002444760678 17.20156848493901 0
17.84215834156641 19.17852720554425 0
15.07845809332562 14.1134527688201 0
24.64109605941364 5.152638269503229 0
10.08677220415634 20.45954125284221 0
15.57049173533431 19.85920421598135 0
9.7241248689746 3.046288709392479 0
12.73124242732315 8.421163541012227 0
10.50008401203133 10.77373933942324 0
14.9308326684018 21.62935508437961 0
14.49909722098828 4.616369756612609 0
9.87205106270012 7.870277530458839 0
20.42641847759962 8.167324319277142 0
21.25254039585834 8.38506085044567 0
10.51916790580187 7.045529903916905 0
13.34249297689981 3.365043725134651 0
22.56850774452813 7.828806613964031 0
21.65750702269494 3.365043726009743 0
11.28700625740443 5.017852077244811 0
10.72681031167733 19.76468713835649 0
13.44057514661 3.118651564980651 0
22.2482224178031 8.42443734164489 0
15.18054526408805 3.083020195270706 0
24.74733788472593 6.840331427137361 0
24.27931458211083 11.23957426343258 0
23.90195930916712 19.35072757228023 0
14.97051468038984 20.92735275126695 0
20.84373059812591 17.22433455422679 0
20.53799910680615 20.63378695387331 0
10.08366199569142 17.12615832249498 0
22.53131983577193 15.6677829641174 0
14.45369243841735 13.69774762211495 0
21.48935269675176 4.293003388107604 0
12.72830254088185 18.69701626188978 0
24.33832792139361 14.29938086261921 0
21.33338761434276 9.923896515424934 0
14.97362553693811 19.73627934566264 0
14.65965302660976 12.61963594974787 0
22.25317675614033 14.64163799250921 0
21.70838872651554 5.29138837827645 0
14.12453728270727 11.03720296172109 0
10.77268254940915 3.688163708930557 0
11.06381971308062 2.865447645130624 0
11.58134265718784 8.427676953290458 0
10.13246309211451 18.92866135666958 0
10.60092984523652 4.553693852665009 0
14.37454895671902 8.813502354607166 0
17.47418584437971 20.56708364565587 0
24.73074400119895 8.980010608571694 0
20.63642845236915 8.754371118927882 0
11.09212795946129 18.56206224043651 0
21.13821638986357 16.94128649565198 0
15.06811118331125 4.068152884253119 0
12.87987052119793 3.248658754263535 0
24.96865224532655 11.67021921737702 0
18.31973142751605 17.14962223815833 0
14.3278923327106 7.37954413991479 0
22.11991254855822 3.248597304151312 0
20.10960165582028 9.093180622334849 0
25.0868647742247 7.894660983366368 0
21.07278253663 2.86256162861593 0
21.07914918867111 10.6113962401398 0
10.7676096901336 22.16590298568623 0
23.37286092147249 8.37960841195229 0
24.98246913970485 13.24920150976724 0
10.41366189228817 9.217431618476288 0
11.12227727497955 12.59972866440935 0
11.71120382176789 20.21819139462449 0
11.9353289299703 15.974165457616 0
19.94951096966399 13.69229813103668 0
20.30400300404305 18.69262028796645 0
12.63320015618773 12.25849518567148 0
12.09127007735473 12.6559777938151 0
24.10352828447476 14.72228337977384 0
15.56723229305373 15.96476878769788 0
22.07367191161309 18.7880250101181 0
16.06042821383821 20.77164612197281 0
22.95502567607627 11.6337625908136 0
11.42461254017931 15.33778127788121 0
17.65912981380968 15.88624772169887 0
20.67970678936247 7.076743751353305 0
21.66623619718668 7.398410854629279 0
14.2000378899191 16.01908867443946 0
15.0328934765448 6.600572697279773 0
23.41938241062898 19.16914222717649 0
16.31046663804363 18.0492720380248 0
16.40033062514677 16.78853852595007 0
20.96658636480066 8.112107223921441 0
11.7816093230921 16.40536269362548 0
14.17167586225781 22.59640440132509 0
22.9558293102577 3.230163018159752 0
12.15489582629487 9.88706099828201 0
11.29640223036848 8.474237445245825 0
22.26202917953174 13.23290332139351 0
16.20170210292385 12.84040182380109 0
13.21362912261806 4.760073304924702 0
12.06294578426117 11.64683780999346 0
10.44165653595793 13.99176792407142 0
11.21195235110913 5.647377628019152 0
14.11529053929223 8.65577132094714 0
10.31222715999923 4.857847484595769 0
25.27249544953597 3.047555027845657 0
19.91354589436021 6.596733409890092 0
22.50596696413493 2.775121036731344 0
13.41414735851338 8.155818035217624 0
11.98490584705465 10.99857853914271 0
22.39832579437771 19.76896839090147 0
21.50254739523087 13.71467093958239 0
22.04143817681411 7.844087373260169 0
16.21889560240541 21.48310635102066 0
22.9585224158652 19.03842474031181 0
11.09015756913676 22.74678196963238 0
18.25871134717021 13.46122001525822 0
17.46521947136638 13.42129834321541 0
24.8965855804931 11.33962224726666 0
18.28536198495983 21.41057901473624 0
22.77057083198228 18.12943849100017 0
19.54195031058607 15.8877370137692 0
17.04516386999396 18.56826802194698 0
11.19400572010368 23.29673915696425 0
24.08254617357758 5.556864610721751 0
21.12110670032417 7.84516951502761 0
16.21996852923811 19.48719119245041 0
24.06242839313965 7.465689960942456 0
16.27958023777611 17.24669033239208 0
23.96834594709418 17.04440458664659 0
13.6709162043696 21.24541283935032 0
16.79219303219504 19.78674159683627 0
10.34914685537939 9.490230262097285 0
13.94159900864051 20.45805239350987 0
23.63675210209783 16.79091460147742 0
12.35620687212639 12.8728188974815 0
19.15342998082485 17.17597130871233 0
19.72185580398103 18.57021274091132 0
11.56259858385026 9.457754883786432 0
11.05526942630979 13.51387015372257 0
11.76256645216399 4.18446324387257 0
23.08635494218952 19.98711467499909 0
10.70769899387487 11.33759129882091 0
12.13377070574005 15.22342355475287 0
20.46249013292145 7.630177638036104 0
20.36225339037431 13.34220887680859 0
10.16132972193217 14.96517008095523 0
11.83047198064334 3.878148823566484 0
14.68110345174738 3.93719504034988 0
10.00811318167489 16.10429996840276 0
21.90571458762205 12.72730241945009 0
10.61365200553349 13.12009539921591 0
10.69913634555066 21.87774718497277 0
14.27150319242444 20.55223953847662 0
21.64327422887791 12.17278156039681 0
21.55616492360969 8.157181480192872 0
13.9552481982824 13.18671830141796 0
14.87168324101173 3.221019611240621 0
19.92001359331574 21.36075024727419 0
23.82921330556796 3.649322742117556 0
21.83751737818476 9.501086035369745 0
23.19110838269991 4.74471163128816 0
12.91999418370659 9.21067999737213 0
24.04500584644234 3.170691744709454 0
14.87349052252329 10.88251381228717 0
20.40255312772356 6.873233837147486 0
24.86144957138193 14.67286770142321 0
11.79677464266748 13.66657316257582 0
17.5269955302037 21.1548692300558 0
9.967335509440499 9.949413304641975 0
23.79903825868964 18.14941882128561 0
12.17598809484715 11.28015467668359 0
14.99299059533092 8.024203110785075 0
17.31593918303524 22.29408563506957 0
23.40731030959666 16.63472145716631 0
23.69912027930496 20.11631852276722 0
23.17751538664201 18.09443527606803 0
10.4738700956751 8.141964759267601 0
23.45123876124678 9.769059357066727 0
22.84295821387065 8.803363792339612 0
10.17061070658306 22.24192143880842 0
11.54252222004588 20.01950488962806 0
12.67921007573712 3.542264718628803 0
20.30354772838058 9.256376987351352 0
22.42555106471156 15.29221470607608 0
10.4294568893329 11.48356409674973 0
16.59713955785261 12.78279463189321 0
24.33475983153837 17.96992002863277 0
14.93639879507564 19.32610481509538 0
10.73529411908969 2.734816346024862 0
13.07022101062518 19.81294534727075 0
20.77454687312122 10.23103126815206 0
22.94844014717535 12.32229858288804 0
20.62449341230801 4.073910268987355 0
21.0205474827883 18.61757001474585 0
21.91779366878187 8.213186767037058 0
21.4180052653323 15.6676476563714 0
24.50324478619412 4.371570572792504 0
10.13711737704013 20.17988203669052 0
21.54706012320753 16.52350204938829 0
12.4949566438148 6.407580945816997 0
16.31983312557567 18.42737834110194 0
24.42864972077362 19.9366934010109 0
10.24384719757819 3.592974510431215 0
13.19080025528672 3.981692174971514 0
17.02761358153716 22.38351628418111 0
23.79398265100303 7.266703013419098 0
16.73158273287408 13.77789910870209 0
18.52676929126962 20.78517808382881 0
11.54968713776964 7.771679064724232 0
22.84234745225439 20.42844069025639 0
13.90712214400568 22.29171554670228 0
22.098297535985 9.277517036968119 0
24.66220141875609 19.36072262510451 0
21.04735729807052 7.538112410592063 0
19.32038187741117 13.48630584924647 0
15.88050225043975 12.74410164156986 0
22.90684045722855 16.18526500370685 0
13.56663443502693 6.781369913849806 0
20.764781464521 9.886731806725976 0
17.30922695432791 12.70610512919348 0
17.94138098134576 16.99830866816133 0
14.8475010829607 22.76740847430232 0
21.29830648221088 8.948657972607355 0
20.22660861167097 12.75445248605024 0
9.861831344378858 8.119654155787059 0
17.65630170953484 12.8001226695448 0
9.784527834486287 2.778551764009358 0
10.80529008166357 6.505601305464413 0
17.46689578346807 19.17791559515286 0
11.11801627772502 18.88336359337444 0
12.49381233424374 2.775591366856363 0
10.94061084758095 5.552299057846659 0
20.48728614947887 6.47410954974596 0
13.60189942689101 10.77682546196475 0
21.63283097667918 20.87371305795613 0
11.38639959965372 6.707827706686278 0
23.50294565147195 18.08441762932738 0
19.37157891759288 17.4498769609489 0
13.70589002642357 22.95441664145264 0
15.19526535058823 13.63904404494381 0
12.82168970138104 4.362539043273592 0
12.66439246037218 11.54244778995317 0
11.28581615155278 10.32557176229029 0
23.62238979539388 11.81126628207428 0
12.0363335468282 17.42025276634251 0
22.92612865782668 19.38383495831706 0
21.9263500793682 14.61191871327071 0
22.58804487106298 18.401956985865 0
22.3084221501961 11.3186078413204 0
21.9225539652936 11.00936086476627 0
23.50327439262848 4.298865340212133 0
16.7370120934969 20.49070207112244 0
10.04744598918878 13.53352843441909 0
14.81613507543702 16.57308124915124 0
13.82032015736683 15.82080029918563 0
11.03673621646566 12.18973981699972 0
12.44266891065331 9.314591167356806 0
15.17362185028722 18.60939182021519 0
14.27062709109772 11.6058198027962 0
24.15675456232682 6.819242651150081 0
23.9270817798348 7.945800087194675 0
12.32453310135397 4.239457114041119 0
23.68365881443312 15.72008574402241 0
22.67267182046723 6.172523395454516 0
10.33618221016741 18.50128524739928 0
15.17471856874712 5.171036954743355 0
20.61224258713157 13.65114850084157 0
12.9016110402083 6.751587544696606 0
20.60994039988923 5.548606317304724 0
23.97706987982021 5.306999870847196 0
20.24168437805389 18.23674935240635 0
10.5198031354987 18.00895636078724 0
21.49032641424457 15.17304090981829 0
11.35181543133996 20.6568270942652 0
13.75638928238519 19.84953605832041 0
22.34204317426931 20.59328425054208 0
21.7652843886324 20.40785183935765 0
19.51808816611392 13.24055337400656 0
18.76724936834539 18.83969782838858 0
21.63265800634356 12.5358604845857 0
12.52787536449947 22.77459651822038 0
18.68666519532577 21.84761808770089 0
22.2868315761681 7.326743159540264 0
14.87956734521108 9.03058137042517 0
22.79770212396426 15.8344689836202 0
23.2404023029965 7.195750946865405 0
15.50888005196413 18.36214669822049 0
12.74578424081908 9.726593398439338 0
21.85641233152689 3.962767242820402 0
12.29196480063643 6.184163433051404 0
20.67282655075833 19.71016301313451 0
10.3400388644519 10.44850778253897 0
25.04854153325742 10.65861671677981 0
11.12900870900906 23.93697256660068 0
10.25209147514056 6.453210856865755 0
10.6613143107685 7.315854910731598 0
25.21296123213939 2.779373621372439 0
19.99176605087771 7.305454897299028 0
11.4315044201267 24.21074881440859 0
21.66482963875687 3.704384733501919 0
15.18008944741411 12.78596514697662 0
21.4950126831229 6.763029484741777 0
12.62746255803519 4.167903913637439 0
22.64090829656062 5.806820042774756 0
10.21717088544218 12.6222852441752 0
11.32434034357815 19.39355533911035 0
21.40353418006384 13.05880299740542 0
24.49661593577331 13.48107193559682 0
10.86292527080876 10.66521313458952 0
12.16409728129512 3.81952878901558 0
14.29578779094959 9.17082365615827 0
20.20637598896762 11.6877058787918 0
23.61234088152629 18.71995270661293 0
24.64527249084998 8.390418986264656 0
23.17829729866807 3.901118053642179 0
21.45977722741406 7.9064163127047 0
14.423759649007 4.363124680209291 0
18.39800348906162 18.23055750875038 0
20.78434060904996 11.89948013521875 0
11.63184089915171 11.11179909608661 0
10.90431815338333 4.193302857351194 0
21.72077194624537 7.704610527558238 0
23.50531311196038 10.75807643213411 0
10.35645384784768 12.02794646793849 0
10.96355777611916 9.300525648076647 0
16.38253838852004 16.35864741191766 0
14.12588235497405 21.46620118646654 0
12.41721408276625 7.82195630574476 0
21.55942485020639 3.11865156451361 0
25.22812714098422 3.758941683012947 0
12.14770101247151 19.14330053694879 0
14.81049616330034 18.44230338920722 0
22.65031901093343 4.194362020455573 0
21.40234953280208 18.7151911270368 0
23.62404224514349 9.24688452056484 0
19.82306956222422 19.13505577154637 0
14.85311445359127 9.82315299454727 0
10.92557659244335 4.563306636565754 0
23.03837314674156 13.17617365818867 0
20.54240911038342 20.06340364182228 0
11.13528957664267 6.920846596160423 0
13.36053842151779 20.0794838634112 0
11.31651123947446 22.16435893118331 0
12.92078498242257 11.67250308619363 0
24.0000743181297 15.89674806739476 0
24.92197762546646 2.792527252938197 0
11.89599579380515 20.89745382990601 0
9.78228993303902 4.854227970164604 0
24.31886267296234 3.313267064072025 0
21.35550116539312 14.51199899211638 0
14.50945647832266 13.11888774550466 0
13.59118466059315 19.45303993188338 0
23.97674342697674 13.51635146719593 0
13.19574475831733 20.84740602348735 0
10.24947092862885 3.888464352210925 0
13.67934506491093 7.304341486150207 0
23.72553257326084 3.908009926152836 0
23.41410026595316 13.5999480969417 0
10.20705902783994 21.49145114107093 0
12.73671860180162 8.753847139373423 0
11.50285500706335 10.68273119910056 0
21.02643182389779 4.569496400879051 0
14.0245676937777 9.282068611061304 0
13.49599206720065 8.6580293449056 0
21.22551941640317 3.935244722724546 0
16.11726099351267 22.10858139441514 0
20.78054153428364 20.68270532758896 0
11.34722487985344 15.03323935511693 0
20.68510776767316 11.50993757999494 0
12.39798116096422 16.71951174106699 0
13.19238730165632 21.92719987234087 0
21.07433126721522 15.98334668659073 0
10.32728576116641 8.384882760022123 0
23.98181574951185 8.240305317247554 0
14.27738990232723 12.59610935924523 0
13.84822481918351 18.85547512521048 0
23.39976485846015 19.80714366675024 0
20.96847131091796 14.10299480666827 0
15.01821769516126 7.33195888447449 0
10.09476657599161 17.91778652956969 0
18.93506389816928 21.41973630891422 0
24.41397175437255 14.89175995696261 0
24.15812767564138 6.517707426407465 0
21.47506558780417 20.36179667434887 0
24.28689825218739 17.59927491570047 0
10.00574259088518 13.9258580173366 0
20.74202473509397 2.749365154914252 0
23.24166649573417 6.010563653311134 0
13.39940362162601 6.49401560718516 0
17.42450910211048 20.18501910394227 0
20.13640604574472 10.1319119128673 0
13.19517251441493 11.05206573442982 0
16.27129097266664 20.1550103838427 0
18.05789874816396 21.08164820700633 0
13.70963410745069 11.85790527413264 0
23.06194323561821 8.341030250503836 0
12.86078253021589 10.63140463075517 0
18.7325119297256 18.42129340236148 0
12.72206360599903 5.752220919185308 0
11.72778285118577 6.005496623436668 0
11.70804800672891 12.73658935473495 0
15.98214286211781 15.80399855958422 0
19.41374579812508 12.77388029809145 0
12.57496369165022 10.83207438236136 0
11.51409184122118 9.753505451600702 0
10.07903757939331 16.88122057276337 0
12.48086788052399 23.91987639714067 0
22.5323669785241 8.933557505879943 0
19.93675766717006 12.7669993660257 0
10.67598333382613 3.314257706431266 0
10.95744595852121 11.60860623774394 0
21.25731809547209 18.07106160822338 0
17.39861994200857 19.58073111701513 0
12.60723823740099 16.42187569735503 0
11.79411764955505 2.734919595614592 0
20.83502030491774 5.055213838897702 0
13.1000440243023 10.15882647380056 0
21.02361816739703 10.34495338069859 0
12.65037702885373 12.70309621449131 0
10.1282294039448 19.44947765254802 0
13.89703790550629 12.13582763779974 0
14.24650604701634 7.096281892141019 0
15.42502758366176 21.41449052158697 0
23.63818390912205 5.959439892592316 0
11.89979607637314 17.86592919449764 0
21.89250838700663 11.64242211260178 0
11.91105334279322 12.12964831545418 0
11.43490275143026 11.28780328166881 0
20.9623924484665 6.546875513892733 0
23.09058587077627 9.280571370135993 0
14.23615927926299 5.710287665674445 0
13.64730200821514 8.93856342259822 0
25.1424683264578 5.53735108798452 0
13.44560134639017 9.161052650616357 0
22.61540732001096 19.49106208532402 0
17.40965226286101 20.90691980437329 0
10.82159036262274 11.90524790739652 0
11.3414013676662 5.952756785558774 0
20.77524732943931 12.9432948883909 0
21.82084504884527 17.78131519049472 0
16.81593342790508 17.48878677144825 0
10.95272634755714 8.195606516270244 0
13.67878490844994 9.985740115016661 0
20.78022756758294 3.68537597589645 0
23.60944245339275 10.41483183299339 0
11.80974580655548 4.734600002329365 0
13.01727559414119 9.474008948558438 0
24.44371087906141 12.30755281401628 0
11.80477167949087 18.54973417135823 0
19.90829143426652 16.46055967428126 0
11.91873953979261 8.340157261729788 0
23.10053763982986 11.9760946091068 0
11.67158686364941 8.844489464548994 0
19.4017045075947 21.08529159633595 0
22.07911506688644 6.242702891712525 0
24.8046451245519 17.68007916652066 0
11.40176418236055 16.38816825922414 0
12.97897629833349 18.01967607384088 0
21.09848253137885 6.287386281156043 0
10.66316019254896 17.11020748331902 0
14.59828056670597 8.191477095099426 0
14.34461252433345 22.82121896755207 0
10.27551037387044 10.17163547435232 0
24.84067977589696 15.2941146571447 0
13.99607280478247 7.527117206917735 0
13.88395200100975 10.76051325508032 0
13.01895421939005 12.84423356092464 0
17.63954355781139 13.13839037994795 0
14.41419898380162 10.98065279650944 0
13.45053803638418 9.788888008051927 0
11.59916990272049 12.25148084017315 0
16.67196806831305 13.42979870806988 0
22.30775073668022 15.87167122925503 0
11.74826297031502 11.6904716201743 0
23.83838809994651 8.748330339656402 0
20.17273423190726 17.63463442496736 0
11.34918410091295 12.03171704373178 0
10.08367634123694 17.62659898664641 0
13.72269929104381 7.039188928093454 0
12.45467956513595 8.332311963759485 0
22.52448991460189 8.333981998904125 0
14.04712877328108 8.017349126662879 0
19.78031979799845 3.73910900758186 0
24.73922268781371 3.892565369787186 0
13.93762726934762 10.45179446829499 0
12.48698250344355 20.6567255449907 0
10.65302173640017 22.39632315082111 0
23.93398623215802 15.08278910658065 0
20.54983401333462 10.92694618534885 0
22.77502659742617 15.12796298372957 0
12.68204017368849 7.676692176666386 0
22.30209365469207 7.682894515498116 0
16.12290094630567 13.213911792472 0
18.00147163651764 18.64452823238025 0
9.87172136934342 9.210814765722997 0
19.84896272075549 4.810586706928726 0
11.26873074155646 3.911953539560951 0
18.21672477433439 21.99331221738961 0
21.23154865239584 11.61838019068553 0
23.71999883670082 14.56419945518426 0
9.970589073738488 12.47482651196971 0
23.92297120720658 18.83432858615006 0
10.75508088706349 20.82156663360626 0
18.92495578276659 13.25287336025975 0
24.49557291835622 8.166340361807706 0
20.55511861542139 12.04452884153901 0
19.35512003317736 16.86035715773708 0
10.17793311431677 21.98888008197688 0
22.3327739989838 4.236224605178329 0
14.22801692949157 12.97369423645327 0
17.70179043863255 18.41325592085589 0
25.20182714516596 4.863898303169671 0
24.77821709422697 18.43855126339455 0
20.88340511245374 8.655293218527518 0
20.20583361752259 3.539194200083067 0
22.58551348979876 14.61586648669271 0
21.36176522580083 10.69503253174557 0
11.29257083809432 6.437236768044865 0
23.44377672289622 15.05949425637053 0
21.35414836486181 11.06344955593799 0
12.96507422856259 6.099953121667149 0
24.74315852857911 3.592750979358008 0
17.14743779639894 17.26816142006865 0
18.61423402275165 16.80323135370405 0
10.59055058533387 23.56194684473219 0
14.01906355940251 3.186054852786307 0
14.62415249246193 23.18003960034276 0
19.94435854380996 13.35705286245605 0
17.60430048796353 22.24471970079107 0
12.87907919197348 15.84433886776431 0
25.1359658356265 6.046049083393782 0
12.35894858336414 11.73259926201243 0
15.37096984330301 21.96037302274201 0
14.82434129255856 2.768488980419692 0
20.54964018359389 19.06641754087974 0
13.94565075543048 9.776513535815432 0
9.88677098562056 10.66075990576605 0
16.0995996027967 16.55660676100384 0
24.18542091361905 11.75950896287068 0
11.89947454213338 11.86610955633777 0
11.84077646481881 7.734974556479014 0
22.49573093304289 10.78888564750002 0
24.20743363276731 5.077776783984542 0
11.12101759636733 10.08525295390145 0
13.17667005821863 21.17223597482531 0
20.96174256544779 19.61809959558352 0
23.25859596226698 19.45137476521341 0
14.49207323466722 9.865782960454396 0
11.49483140489522 12.54071572968047 0
16.86466769051642 19.18683824122656 0
23.98033629450237 20.07112959215896 0
19.01507275901068 13.64603368739504 0
19.12759873778327 16.43550668182209 0
17.05874442239196 13.26169686509717 0
20.60063385671877 6.097515231251999 0
12.90866395765784 20.39789425792114 0
19.13638382494419 20.59466593132595 0
11.09237062966339 5.278054659699283 0
16.4043753359234 20.96611326133334 0
16.96428571286855 12.70836442144615 0
13.78099002517625 14.2188164089216 0
14.42538007650753 6.165029113842103 0
15.62230593791346 13.68027103718896 0
13.25886593665427 5.145211726892537 0
10.06058225386644 16.36925843668521 0
14.78915632029987 4.535931185948988 0
18.13126125077459 13.2164225048864 0
24.32797138059895 18.91845260512428 0
10.52652119054028 18.95124874606573 0
23.14652330960304 7.801548968009573 0
24.21301503244176 3.681803834030983 0
20.14188497349758 3.219088902825535 0
17.91807074119804 13.71225364006125 0
23.5416309729925 8.973263388580719 0
21.71917064375078 16.15320980943788 0
11.23195474897255 16.99370539156065 0
20.46493745681808 15.58737978424978 0
21.99256111079462 15.3468546505772 0
14.68695298845669 5.964917773477716 0
18.00492018441207 16.47117390487733 0
10.47953877774406 4.364320582226791 0
19.19725889030906 14.2259843082757 0
22.35178414678912 5.749107432431531 0
10.20687839019884 3.082522083961776 0
14.8001807754628 6.456523716554805 0
20.55284884845231 17.17697305078301 0
18.58303005334564 21.29354477058468 0
21.90179372225262 5.964164437691233 0
14.90257403049043 9.551909590867297 0
13.82443192330744 9.490317812861406 0
13.14374512662849 10.69232956517111 0
24.37695007670576 4.590645251887155 0
16.89864000527169 20.08193888670686 0
10.241458383447 24.31318671836824 0
14.20960014617319 3.68449902939637 0
20.13611118474741 10.61117975839043 0
20.94981180636588 4.155809805065112 0
23.69819702684686 4.858432462285052 0
14.08658021792347 18.30737217549905 0
11.95677057256973 4.391790878087844 0
23.08858645171015 10.40808559536546 0
22.1279501135443 6.793956325150337 0
21.5155702644975 5.471374582178159 0
14.40687778131223 21.5296261361026 0
15.66581990313145 19.54146522972402 0
10.53675422925773 11.82822070340648 0
19.69336068765937 19.82785839599146 0
18.00419860679458 19.66268554232205 0
12.25740204710407 6.878908111561369 0
13.08523338179459 6.470395558611398 0
POLYGONS 4392 17568
3 1594 662 908
3 551 1819 2124
3 1029 576 1098
3 540 453 1093
3 934 1779 392
3 789 1594 908
3 571 834 1206
3 1691 871 1497
3 588 1065 2255
3 247 248 693
3 2061 842 1620
3 576 1029 2104
3 841 307 1421
3 362 1213 1333
3 803 639 1662
3 1066 578 1130
3 418 874 2246
3 874 1019 2246
3 1135 452 967
3 1650 588 2255
3 1819 551 2230
3 1206 834 1843
3 591 1265 2211
3 1452 2128 1843
3 398 897 1643
3 1217 756 1738
3 1294 694 1216
3 453 540 1478
3 578 1066 592
3 842 1134 1620
3 276 984 1027
3 912 285 2075
3 478 1377 1552
3 7 235 921
3 2117 970 1783
3 285 912 1106
3 1212 2122 2014
3 606 1517 949
3 1409 1231 1812
3 1779 349 392
3 226 227 898
3 1218 465 1913
3 480 1218 1913
3 1786 591 2211
3 283 767 1785
3 462 859 1817
3 234 7 921
3 223 818 2206
3 977 1217 648
3 247 693 1741
3 385 1217 1738
3 1140 1586 2158
3 1861 1646 2136
3 454 1261 1388
3 1689 958 2311
3 1269 891 2100
3 767 283 1542
3 958 549 2311
3 423 1749 1499
3 580 1231 1893
3 547 721 1186
3 580 1170 1491
3 597 536 2152
3 312 980 1264
3 872 310 1264
3 756 1217 977
3 1045 569 845
3 897 667 1643
3 1276 1138 1748
3 141 142 1019
3 553 1169 326
3 2114 975 1938
3 1134 1896 1620
3 1213 362 1436
3 496 977 648
3 77 78 933
3 1024 507 1506
3 732 1761 1799
3 1763 621 1803
3 1631 209 2035
3 1160 10 1057
3 683 1253 1824
3 274 275 1327
3 1734 560 1344
3 1362 827 2106
3 1433 1235 1528
3 391 1047 1941
3 944 374 1630
3 905 1293 1851
3 541 897 1290
3 1101 951 2017
3 380 1409 1812
3 1038 334 1713
3 979 669 1111
3 670 284 1271
3 1170 580 1893
3 815 1548 2094
3 698 1283 1471
3 116 1173 1829
3 53 54 782
3 827 1055 2106
3 1217 385 1593
3 947 221 2206
3 198 199 1305
3 948 831 1781
3 723 381 2197
3 1140 442 1627
3 1814 627 1112
3 1067 649 1041
3 1222 1502 1996
3 818 1207 2206
3 1140 672 1586
3 604 1646 1861
3 845 427 1879
3 389 948 1781
3 672 1140 1627
3 1459 1266 2191
3 30 31 995
3 1116 479 877
3 559 851 1302
3 1517 438 949
3 466 1363 1344
3 2046 282 1357
3 619 720 1234
3 960 611 1584
3 867 1006 1725
3 611 880 1915
3 656 975 2114
3 495 1853 1601
3 871 899 1497
3 737 951 965
3 2062 962 2170
3 221 222 2206
3 535 991 1871
3 1896 361 1620
3 303 304 1358
3 941 334 1076
3 535 1871 1876
3 1507 971 2195
3 1017 459 1620
3 1142 478 2166
3 803 1137 722
3 1303 414 1277
3 1058 455 740
3 390 1836 1250
3 721 547 1444
3 407 1303 1277
3 699 715 2091
3 974 1382 1181
3 962 561 2170
3 720 619 1142
3 1137 680 722
3 556 1507 2195
3 1459 441 1266
3 226 898 1501
3 418 872 1858
3 980 461 1859
3 507 1024 2202
3 361 1017 1620
3 565 1038 1713
3 1169 907 326
3 706 1217 1593
3 2094 1548 1590
3 522 1258 1115
3 1309 1101 2017
3 1231 580 545
3 1170 1893 1206
3 462 1817 1147
3 478 1552 2166
3 461 980 1657
3 473 1345 1136
3 771 468 1645
3 495 1839 896
3 447 1427 651
3 1502 379 1996
3 1358 304 1249
3 1045 845 1879
3 855 697 924
3 872 418 997
3 728 841 1421
3 1467 258 1133
3 1233 723 2197
3 1761 557 1799
3 564 1763 1803
3 573 1433 1528
3 342 723 1243
3 809 336 1894
3 1261 579 1519
3 748 971 1507
3 343 1679 1117
3 1593 385 1857
3 1527 563 1806
3 520 1193 895
3 457 333 2011
3 1196 155 1671
3 897 398 1290
3 1253 1814 1112
3 1271 940 2031
3 1540 998 1946
3 343 1117 1314
3 644 1209 1489
3 536 597 1945
3 787 1100 1566
3 1156 969 1179
3 1749 423 2285
3 588 946 1139
3 1006 867 2150
3 479 1116 2194
3 1223 495 896
3 996 446 1587
3 808 608 1218
3 472 921 1944
3 775 1197 1943
3 1562 472 1944
3 971 748 1321
3 495 1428 1853
3 862 800 1057
3 883 510 414
3 631 1933 1639
3 1129 1158 1277
3 1864 775 1595
3 211 212 1860
3 2050 531 931
3 32 1541 1458
3 953 1540 1946
3 639 803 1975
3 611 960 1251
3 724 813 1226
3 467 970 2117
3 826 890 1472
3 333 457 1586
3 1302 851 2316
3 1860 212 1800
3 1225 265 1071
3 697 855 1754
3 795 1631 2035
3 141 1019 1329
3 534 1261 1519
3 597 2152 1787
3 1253 683 1885
3 1208 685 1308
3 1209 644 1721
3 12 776 1234
3 1639 1462 2231
3 398 1156 1179
3 349 540 1093
3 13 282 2046
3 1798 523 1890
3 753 466 1344
3 891 1269 1529
3 508 1294 1068
3 1402 826 1472
3 1283 698 2173
3 458 819 1599
3 369 1158 1129
3 1400 1971 2155
3 1023 645 2015
3 388 1462 1639
3 791 972 2191
3 132 133 770
3 874 418 1858
3 1555 335 844
3 552 1024 1506
3 493 898 1146
3 566 883 1835
3 1674 447 1720
3 265 266 1071
3 1284 709 1496
3 548 961 1099
3 1217 706 648
3 1295 333 2201
3 649 1067 1558
3 1116 668 1934
3 1289 508 1518
3 642 1256 1950
3 646 454 1388
3 880 611 1251
3 558 996 1587
3 569 1045 1667
3 743 1554 876
3 893 631 1639
3 800 862 1844
3 238 239 1025
3 1324 448 1531
3 413 883 414
3 685 1208 2257
3 1173 840 1829
3 1427 684 651
3 1095 563 1516
3 960 352 1251
3 579 1261 1852
3 596 607 2188
3 1010 490 1788
3 848 515 1143
3 929 804 1070
3 690 1341 1793
3 450 1102 1853
3 984 1051 1027
3 1893 571 1206
3 310 872 997
3 1541 33 1043
3 515 848 2290
3 336 926 1894
3 813 724 1757
3 540 349 1779
3 1146 898 1505
3 992 944 1630
3 824 1237 1909
3 1293 480 1851
3 1348 615 1022
3 980 312 1657
3 715 699 2264
3 2015 645 2320
3 1375 328 2028
3 372 837 525
3 1181 1382 2021
3 23 864 1335
3 343 1375 2028
3 635 1212 2014
3 279 1509 1709
3 410 1369 1624
3 914 466 1900
3 1104 1222 1996
3 415 1555 844
3 1369 925 1624
3 1197 1174 1943
3 1258 522 1486
3 553 1424 1422
3 208 209 1631
3 709 1284 1805
3 1077 1593 1857
3 777 329 2165
3 317 1276 1748
3 1125 679 2262
3 1400 338 1971
3 375 960 731
3 329 777 1755
3 800 1160 1057
3 600 561 2216
3 477 1095 1516
3 1160 596 2188
3 1298 432 2159
3 32 33 1541
3 1084 431 1214
3 742 1306 1449
3 867 1204 2150
3 1067 1566 1359
3 350 1358 1249
3 978 1298 2159
3 694 1294 2190
3 571 1409 1881
3 1306 512 1449
3 805 577 1720
3 382 1734 1344
3 1047 391 2114
3 1182 1047 1938
3 1261 454 1852
3 1909 1237 1685
3 837 608 525
3 454 646 1572
3 520 1009 1011
3 1256 642 1312
3 932 376 1112
3 1135 967 1970
3 723 1233 2344
3 1552 1377 2125
3 1806 563 773
3 520 895 2268
3 889 273 2041
3 131 3 970
3 1236 565 852
3 1391 617 1252
3 284 670 2251
3 1259 539 2242
3 53 782 716
3 711 2050 931
3 162 163 1137
3 1470 378 2108
3 561 600 2219
3 527 972 2073
3 869 486 1863
3 920 331 1336
3 628 840 1611
3 2091 715 2313
3 542 1236 852
3 1635 572 1309
3 1565 523 1798
3 662 1377 908
3 972 791 1103
3 1106 586 1903
3 788 579 2018
3 638 819 768
3 1358 350 2322
3 482 1296 1573
3 1445 367 2080
3 1186 1269 2100
3 864 23 1191
3 352 960 1737
3 626 1079 1265
3 610 1452 1843
3 164 165 1188
3 360 782 1469
3 543 1475 1771
3 75 813 1757
3 325 1183 2127
3 972 934 2073
3 1289 402 1580
3 469 540 1779
3 813 75 1729
3 577 1674 1720
3 765 524 904
3 940 1271 1778
3 609 898 991
3 1003 863 1673
3 536 1219 2152
3 1854 936 1937
3 360 1348 716
3 333 910 2201
3 319 320 1041
3 770 133 1958
3 910 333 1432
3 666 1104 1996
3 819 638 1697
3 350 833 2322
3 1111 831 1961
3 1131 1349 1883
3 279 9 1509
3 1055 827 1070
3 1009 537 1011
3 1463 847 1792
3 892 534 1712
3 1066 1526 2110
3 1120 541 1987
3 898 493 991
3 623 1091 1308
3 1094 1443 1410
3 512 867 1725
3 538 1463 1792
3 258 259 1133
3 670 1271 2031
3 1261 534 1272
3 1265 1060 2211
3 1462 679 1125
3 685 623 1308
3 1443 383 1410
3 533 1339 1976
3 854 706 1384
3 1283 695 1708
3 586 776 1903
3 798 787 1566
3 1284 201 1805
3 1135 584 894
3 102 103 2276
3 173 174 1248
3 540 665 1478
3 201 1284 1338
3 539 1259 2261
3 618 765 904
3 378 797 2108
3 2020 1405 2270
3 782 578 1469
3 1349 677 1883
3 1749 789 1499
3 961 548 501
3 1047 1182 2317
3 1377 478 908
3 1041 320 1064
3 1443 102 2276
3 174 623 1248
3 1086 699 2091
3 55 56 820
3 272 273 889
3 819 458 768
3 673 892 1304
3 863 1631 1673
3 1232 567 1837
3 315 316 1322
3 1836 738 1250
3 883 566 1981
3 1219 536 2326
3 1280 618 904
3 267 268 1726
3 522 1111 1961
3 1391 1252 2008
3 668 1116 1607
3 998 1247 1946
3 550 864 1638
3 707 551 1663
3 442 1271 1220
3 849 1196 1795
3 325 2127 1929
3 1139 946 1912
3 1306 742 762
3 424 1182 1938
3 297 916 1828
3 113 114 956
3 543 1771 1700
3 840 628 1026
3 1196 763 1795
3 837 372 2137
3 267 1726 1550
3 154 155 1196
3 1102 401 1417
3 743 876 1905
3 23 292 1191
3 1084 1214 857
3 826 1402 1937
3 615 932 882
3 780 892 1712
3 121 122 1463
3 502 911 2066
3 1627 442 1220
3 33 34 1043
3 1286 327 1644
3 510 883 1981
3 776 619 1234
3 627 932 1112
3 1219 521 2152
3 106 107 1450
3 1031 939 2089
3 116 117 1173
3 126 127 1079
3 95 96 1107
3 311 312 1264
3 310 311 1264
3 180 181 1498
3 645 406 1926
3 452 1135 894
3 1623 220 1908
3 1502 969 1156
3 2087 937 1194
3 2080 367 1791
3 383 1365 1410
3 449 961 501
3 1491 1170 1600
3 1715 147 1262
3 479 1823 1373
3 1326 626 1265
3 443 758 710
3 1118 1086 2091
3 769 1206 1843
3 1150 1560 1098
3 2128 769 1843
3 1424 1030 1422
3 353 1369 1978
3 1209 448 1489
3 719 2117 1783
3 185 186 1086
3 669 979 1583
3 674 1102 1417
3 1232 488 1293
3 97 98 654
3 178 179 1538
3 1140 576 2104
3 1375 587 1301
3 520 1011 1761
3 567 1232 1293
3 486 1176 1863
3 693 346 1741
3 1290 665 1707
3 1788 490 1579
3 1560 772 1098
3 1236 544 1038
3 618 1280 1832
3 285 15 2075
3 474 713 1771
3 733 1172 750
3 327 1286 1279
3 495 1223 1428
3 1172 695 750
3 1516 563 1763
3 705 517 1990
3 695 1283 634
3 1102 450 2120
3 1065 588 1139
3 1102 674 1853
3 911 502 545
3 121 1463 1653
3 544 939 1031
3 900 403 1577
3 145 786 1596
3 224 225 901
3 1188 165 2238
3 664 590 1655
3 489 753 1495
3 1339 533 2333
3 1294 508 2190
3 90 91 1219
3 1329 741 1576
3 217 218 1244
3 1080 1864 1595
3 289 19 1230
3 272 889 781
3 403 842 1125
3 1226 813 436
3 1322 316 1748
3 162 1137 1662
3 929 1058 2070
3 1356 482 1573
3 486 1333 2249
3 558 1510 989
3 700 900 1577
3 274 1327 2041
3 466 914 2196
3 932 615 1535
3 617 1391 1368
3 567 678 1052
3 1298 978 2030
3 1514 457 2011
3 1016 1182 2320
3 1566 1067 1696
3 1259 1819 2230
3 778 1109 746
3 1333 1213 2249
3 678 470 1052
3 946 588 2244
3 665 540 2200
3 219 220 1623
3 757 846 701
3 1471 1283 1708
3 83 84 853
3 587 1375 1178
3 394 1313 2174
3 1313 759 2174
3 933 78 605
3 1296 482 1884
3 72 73 913
3 1870 1280 2183
3 147 148 1262
3 914 1690 2196
3 819 1697 1750
3 697 1296 1884
3 1128 454 1572
3 2015 728 1268
3 67 68 1448
3 1372 778 746
3 1405 412 2270
3 584 1135 2037
3 707 399 1742
3 508 1648 1518
3 1188 1150 1701
3 399 707 2005
3 1079 127 1906
3 764 996 2346
3 27 816 1064
3 1231 1409 1893
3 837 2137 1408
3 1078 1082 1688
3 1295 532 1975
3 1360 455 1789
3 203 204 856
3 869 25 1702
3 1135 322 2037
3 555 869 1702
3 1623 866 1780
3 81 82 456
3 1655 590 1449
3 948 389 918
3 198 1305 1661
3 334 941 2048
3 959 426 1275
3 975 728 2015
3 898 609 1501
3 883 413 1953
3 774 1623 1780
3 1424 329 1772
3 565 1236 1038
3 441 1353 1214
3 370 1797 1941
3 558 989 1872
3 1024 1074 2202
3 786 145 1281
3 788 242 1575
3 1284 1496 1564
3 699 1086 1682
3 1316 945 2036
3 551 707 2230
3 864 785 1335
3 1534 1120 1987
3 1793 1341 2132
3 1235 1433 1132
3 960 375 1351
3 654 98 1574
3 178 1538 1570
3 192 193 754
3 1514 1188 1701
3 69 70 829
3 1087 977 1484
3 1208 1308 2186
3 1061 357 1633
3 72 913 622
3 367 1445 746
3 194 195 1522
3 1300 130 1032
3 1859 506 2315
3 572 1629 1309
3 694 1289 1580
3 464 1316 2036
3 1690 417 2196
3 1274 1816 2277
3 1345 936 1762
3 921 472 1955
3 745 561 2219
3 466 693 1900
3 469 1340 1707
3 340 1502 1240
3 599 937 2087
3 569 1667 1246
3 706 1199 1384
3 1223 632 1428
3 363 768 1539
3 846 278 701
3 1934 668 1735
3 379 1502 1156
3 2079 729 2290
3 1029 1098 1089
3 1896 1134 1162
3 333 1295 2297
3 763 1530 2256
3 669 1583 1902
3 729 626 2290
3 601 829 1874
3 504 1870 2183
3 1171 538 1845
3 990 1129 1981
3 358 938 2060
3 753 560 1495
3 532 1295 2171
3 363 1539 2016
3 1814 652 1834
3 665 1290 1179
3 795 1536 1245
3 579 1692 2018
3 693 466 1254
3 675 1467 1133
3 1445 1200 746
3 995 31 1458
3 157 1239 1473
3 1681 230 2255
3 468 771 1659
3 494 2020 2270
3 1377 662 1711
3 1536 810 1245
3 155 156 1671
3 627 1814 1834
3 916 297 1455
3 723 342 2044
3 154 1196 1804
3 62 1224 2243
3 1713 527 2073
3 1030 1424 1772
3 1156 398 1643
3 637 1377 1711
3 1599 819 1940
3 1401 536 1945
3 903 938 358
3 902 160 1848
3 482 1356 2170
3 262 263 1082
3 669 389 1781
3 859 429 1817
3 1365 383 1606
3 842 403 2241
3 843 490 1288
3 1795 763 2256
3 315 1322 1004
3 858 728 1421
3 763 1196 1671
3 951 737 2084
3 1296 697 1754
3 537 1009 2337
3 434 887 1334
3 856 204 1157
3 2041 1327 2036
3 1526 1066 930
3 797 378 1669
3 1502 1222 1240
3 402 877 1580
3 1290 398 1179
3 721 838 1518
3 675 1133 2108
3 945 1316 1454
3 1182 424 2320
3 885 910 943
3 878 473 1323
3 433 1210 1001
3 977 496 1484
3 445 905 1851
3 1541 919 1458
3 980 1859 2315
3 831 948 2160
3 743 653 1901
3 945 2041 2036
3 965 951 1875
3 481 1471 1708
3 512 1306 867
3 1340 469 1103
3 968 801 2204
3 217 1244 1810
3 389 669 762
3 570 878 1323
3 718 337 2304
3 2259 516 2262
3 1363 466 2196
3 1244 774 2050
3 1985 678 2103
3 2122 552 2014
3 583 451 1965
3 1134 842 2241
3 979 583 1965
3 473 878 1809
3 1316 464 875
3 540 469 2200
3 898 227 1505
3 1681 1065 1929
3 645 1926 2320
3 1881 1409 1616
3 538 1792 1845
3 296 297 1828
3 1124 434 1334
3 516 1577 2262
3 1243 723 2344
3 1369 353 1185
3 432 1298 2212
3 560 753 1344
3 1362 655 1512
3 614 1367 2214
3 457 1514 2158
3 1065 1681 2255
3 455 1360 1951
3 536 1401 2326
3 1232 1837 1568
3 221 947 1908
3 1004 463 1310
3 77 933 950
3 106 1450 1768
3 785 864 1959
3 1129 510 1981
3 1498 181 1379
3 466 753 1254
3 446 996 1453
3 271 272 781
3 1475 474 1771
3 336 809 2101
3 95 1107 2157
3 827 1362 1512
3 845 569 1436
3 1010 992 1630
3 733 750 1841
3 1360 660 1951
3 816 475 787
3 1962 641 2302
3 910 381 943
3 1797 391 1941
3 25 307 841
3 83 853 2090
3 641 1367 2302
3 1113 1681 1929
3 699 730 2264
3 166 167 1560
3 1341 690 1994
3 93 94 1010
3 374 1202 1630
3 771 449 1049
3 706 854 648
3 779 1802 1611
3 400 1083 1325
3 157 158 1239
3 449 771 2350
3 874 741 1329
3 532 1166 1826
3 1374 973 2147
3 490 1010 1630
3 409 1618 1595
3 1166 981 1826
3 2244 588 2310
3 159 160 902
3 583 849 1795
3 993 390 1250
3 838 402 1518
3 913 434 622
3 738 1554 1250
3 1071 990 1981
3 772 1560 1320
3 1090 508 1068
3 759 1313 2105
3 1197 775 1864
3 189 190 730
3 747 797 1669
3 996 558 2069
3 1305 199 1537
3 829 70 2237
3 996 764 1453
3 804 421 1070
3 698 1391 1523
3 1583 513 1902
3 1629 356 1299
3 376 932 1731
3 1096 1798 1890
3 979 1111 1649
3 712 1839 1418
3 2214 1367 2296
3 1216 694 1337
3 381 723 943
3 30 995 1609
3 129 130 1300
3 86 87 1401
3 373 1210 2065
3 998 733 1841
3 490 843 1579
3 1086 186 2088
3 456 82 2090
3 182 183 1554
3 710 1189 1719
3 616 1675 1831
3 1424 553 1315
3 1197 792 927
3 1156 1643 1192
3 1554 743 1250
3 210 211 1536
3 1816 942 2277
3 646 673 1331
3 1382 974 2236
3 431 1084 1534
3 528 1124 2067
3 929 2070 2233
3 713 474 2244
3 566 1071 1981
3 1191 292 1144
3 1835 968 2204
3 426 959 2009
3 730 699 1682
3 897 541 2112
3 524 1163 904
3 1116 877 1607
3 877 402 1607
3 1405 144 2151
3 493 1183 1871
3 1266 791 2191
3 731 960 1584
3 1327 275 1027
3 853 84 1745
3 508 1289 2190
3 864 550 1959
3 305 306 1176
3 804 929 2233
3 1048 1018 1490
3 25 869 1863
3 364 519 1347
3 513 890 1636
3 422 1985 2103
3 1611 1802 2164
3 238 1025 1917
3 1209 810 1770
3 851 559 1809
3 945 889 2041
3 754 444 1722
3 758 443 2285
3 1712 659 1628
3 424 2015 2320
3 37 38 1547
3 1058 740 2070
3 323 1498 1836
3 1469 578 592
3 574 529 1008
3 967 682 1970
3 650 856 1157
3 947 866 1908
3 959 1275 1815
3 1304 892 2288
3 1046 601 1874
3 966 555 1672
3 10 279 1057
3 754 193 2254
3 530 754 1722
3 527 1713 1439
3 448 1209 1770
3 1058 929 2222
3 578 782 1888
3 211 1860 1536
3 389 817 918
3 1107 657 944
3 890 826 1636
3 805 1720 1465
3 448 1324 1489
3 1124 748 2067
3 1313 394 1845
3 1301 587 1578
3 194 1522 2254
3 1936 651 2076
3 169 170 1198
3 726 1541 1043
3 936 1345 2223
3 1463 538 1653
3 713 2244 2310
3 684 646 1331
3 356 1145 1299
3 923 535 1876
3 1397 1159 2263
3 961 449 1181
3 821 1999 1278
3 331 920 1960
3 1526 440 1524
3 467 400 1325
3 1230 19 2228
3 443 710 2334
3 771 1645 2350
3 385 1442 1857
3 653 743 1905
3 1391 698 1471
3 812 853 954
3 340 1691 1497
3 873 1552 2125
3 470 678 1985
3 1133 503 2108
3 932 627 2199
3 1391 1471 1368
3 1710 668 1444
3 505 651 1936
3 192 754 1063
3 889 756 781
3 881 1235 1549
3 956 698 1523
3 853 581 954
3 916 379 1828
3 1073 822 2172
3 1257 1724 2209
3 297 298 1455
3 716 1348 1891
3 490 1202 1288
3 1823 727 1373
3 886 1020 1021
3 1675 504 1831
3 1137 803 1662
3 650 1061 1633
3 1169 553 1422
3 971 1789 2195
3 615 882 1683
3 447 651 2154
3 1152 2098 2207
3 1926 1016 2320
3 1789 783 2195
3 1060 1079 1906
3 1566 460 1359
3 337 718 1123
3 1148 499 1464
3 109 110 1565
3 1082 1078 1625
3 1020 373 1021
3 443 1749 2285
3 397 1861 2136
3 1183 519 1871
3 419 1854 1937
3 307 26 1421
3 1082 529 1688
3 901 225 1501
3 869 555 2192
3 1526 683 2110
3 1835 883 1953
3 1345 473 2138
3 1150 1188 2238
3 514 1226 436
3 660 1483 1364
3 579 788 1519
3 951 1101 1875
3 891 860 1644
3 1348 360 1535
3 1525 652 1814
3 993 743 1901
3 2081 1710 1444
3 455 1058 2193
3 1955 472 1002
3 1490 1018 2311
3 288 18 1480
3 458 1076 1539
3 680 1514 2011
3 99 100 1193
3 176 177 1527
3 1174 1197 927
3 910 885 2201
3 120 121 1653
3 2049 906 1601
3 620 1382 2236
3 806 946 2055
3 1349 1131 1346
3 835 915 1960
3 1020 886 2284
3 516 817 1468
3 782 360 716
3 821 1040 1999
3 946 806 1912
3 1762 936 2234
3 926 336 1666
3 291 1427 2182
3 925 1148 1464
3 1055 1070 1850
3 1076 458 1765
3 1413 1020 2284
3 1214 431 1266
3 407 854 1677
3 517 1128 1634
3 790 463 1440
3 269 270 1215
3 693 248 1900
3 780 1712 1628
3 341 1120 1534
3 1095 477 2186
3 1990 517 1634
3 920 1336 2010
3 531 1648 931
3 27 321 384
3 242 788 2018
3 866 947 2124
3 1004 766 500
3 952 1603 1406
3 86 1401 1676
3 314 315 1004
3 1196 849 1804
3 384 321 1885
3 1724 952 1406
3 798 816 787
3 1839 752 1418
3 1410 1365 2337
3 1296 1754 2051
3 642 1659 1049
3 1754 629 2051
3 90 1219 365
3 652 1120 1834
3 690 1658 1994
3 882 630 1683
3 1136 1345 1762
3 754 530 1063
3 834 571 1881
3 766 1004 1310
3 581 853 1745
3 1937 1402 1897
3 1138 1431 1982
3 1270 483 1930
3 956 114 1437
3 583 979 1649
3 2257 1198 2314
3 615 1348 1535
3 906 752 1839
3 329 1424 2165
3 936 1854 2234
3 782 54 1888
3 730 190 2072
3 1210 373 2343
3 406 645 1784
3 1339 1311 1976
3 1289 694 2190
3 1633 357 2116
3 1120 341 1834
3 1496 598 1564
3 753 489 1254
3 131 970 1032
3 1761 1011 1485
3 864 1191 1638
3 655 1362 2176
3 765 618 1342
3 1459 1167 1972
3 289 1230 2096
3 282 12 1234
3 1475 543 2119
3 698 1617 2173
3 1001 1210 2343
3 1218 608 1984
3 702 1639 2231
3 1017 361 1119
3 1464 740 2283
3 608 808 2134
3 1224 911 2243
3 846 757 1733
3 934 972 1779
3 62 63 1224
3 686 623 2314
3 445 1356 2103
3 839 1198 2257
3 1022 615 1683
3 459 2061 1620
3 849 583 1115
3 298 299 1820
3 1293 488 2146
3 1668 323 1836
3 1547 336 2101
3 2065 1210 2187
3 1356 422 2103
3 1442 726 1857
3 623 685 2314
3 480 1293 2146
3 346 693 1254
3 1013 2185 2278
3 774 1228 2050
3 768 458 1539
3 1823 479 2194
3 451 583 2256
3 870 1756 1695
3 314 1004 500
3 483 1034 1930
3 1421 1275 1632
3 639 1975 1907
3 1817 498 1147
3 28 277 0
3 1753 929 1070
3 1061 650 1555
3 639 902 1848
3 810 1209 1245
3 1427 447 2182
3 677 1349 1988
3 838 721 1444
3 1360 354 2184
3 636 926 1666
3 866 1623 1908
3 1618 409 1396
3 941 1076 1765
3 1009 520 2268
3 563 1095 773
3 403 1125 2262
3 835 1123 1387
3 354 1360 1838
3 785 364 1335
3 671 1136 1350
3 854 17 1677
3 144 1405 2145
3 353 1978 2260
3 524 765 1651
3 833 1963 2322
3 1443 688 1899
3 772 1320 704
3 1724 460 2209
3 1141 1464 2283
3 519 364 1876
3 1215 270 2149
3 1608 1912 1979
3 1040 821 1904
3 383 1443 1899
3 325 1139 1912
3 1369 410 1978
3 1239 613 1473
3 215 216 1090
3 820 56 1452
3 823 657 1924
3 1662 639 1848
3 1421 26 1275
3 663 1760 436
3 422 1356 1573
3 1516 1763 2042
3 1659 771 1049
3 678 567 905
3 293 23 1335
3 1244 711 1810
3 796 1689 2311
3 1941 562 1144
3 322 1135 1970
3 1431 526 1982
3 673 646 1388
3 976 1526 1524
3 1718 660 1364
3 381 910 1487
3 456 812 1109
3 586 1189 710
3 541 1120 2112
3 1960 915 2221
3 917 568 2251
3 503 1470 2108
3 1666 1614 2245
3 497 881 1549
3 1463 122 2026
3 739 829 2237
3 732 654 1574
3 1538 621 1570
3 657 823 944
3 890 513 1583
3 323 1668 1664
3 384 683 1526
3 632 1279 1784
3 878 570 2003
3 1533 626 1326
3 328 1375 1301
3 320 27 1064
3 309 310 997
3 1468 491 2284
3 1397 2263 2352
3 1599 1048 1765
3 760 710 1719
3 1013 1533 1326
3 1025 239 1370
3 276 277 984
3 1019 874 1329
3 660 1360 1036
3 64 65 1227
3 463 790 2235
3 166 1560 2238
3 853 812 2090
3 695 1172 1708
3 1121 1468 2284
3 1356 445 2062
3 2300 1844 1974
3 277 28 984
3 936 1767 1937
3 1963 524 2322
3 363 1666 2245
3 1586 457 2158
3 1083 1300 1032
3 458 1599 1765
3 973 1880 2147
3 961 2021 1559
3 976 384 1526
3 408 1081 1317
3 1128 1572 1634
3 444 1522 1749
3 1081 629 1317
3 289 2096 2287
3 642 1415 1312
3 288 1480 2089
3 446 1835 1953
3 1438 957 1564
3 67 1448 2279
3 534 892 1272
3 1915 880 2271
3 1163 524 1963
3 1083 400 2001
3 1615 659 1723
3 549 958 1972
3 1190 624 1596
3 923 1876 1916
3 1869 570 1948
3 925 1369 1441
3 562 1182 1638
3 245 1615 1723
3 712 1184 896
3 1975 532 1907
3 456 778 439
3 594 1401 1945
3 16 1510 2113
3 664 1001 2343
3 1121 700 1992
3 312 313 1657
3 812 456 2090
3 962 2062 1851
3 318 649 1276
3 1637 938 903
3 475 816 1621
3 1353 441 1493
3 1298 2030 2189
3 1456 642 1950
3 1968 139 1576
3 1377 637 2125
3 654 732 1799
3 621 1538 1803
3 402 1289 1518
3 790 770 1958
3 797 747 1855
3 436 1760 2038
3 738 1498 1379
3 758 619 2340
3 401 1102 2009
3 242 243 1575
3 1784 1279 2258
3 1107 992 2157
3 245 246 1615
3 680 1137 1419
3 1274 1211 2078
3 499 740 1464
3 429 859 2086
3 1375 343 1314
3 805 1056 2218
3 492 1300 2001
3 942 1366 1936
3 495 906 1839
3 1123 718 1387
3 325 1912 1608
3 377 1679 1350
3 910 1432 1487
3 1424 747 2165
3 444 754 2254
3 234 921 1955
3 792 1197 2292
3 1110 2197 2330
3 1355 764 2346
3 633 1076 1923
3 1266 431 2167
3 1941 1047 2317
3 570 1869 1500
3 809 36 2101
3 1640 616 1943
3 1202 374 1889
3 1522 444 2254
3 1665 555 1702
3 862 1709 2142
3 1366 505 1936
3 55 820 1888
3 1531 448 1122
3 1999 983 1278
3 789 1522 2175
3 919 1442 875
3 800 1844 2300
3 1534 1084 2318
3 1448 855 2279
3 476 1433 1991
3 1885 24 1430
3 646 684 1821
3 1136 377 1350
3 680 1188 1514
3 1560 167 1320
3 1448 68 1911
3 1438 1564 1546
3 1409 571 1893
3 364 293 1335
3 1450 1096 1606
3 1409 380 1616
3 1128 517 1856
3 657 1799 1924
3 1201 26 1508
3 1542 1110 2330
3 1433 700 1991
3 1913 962 1851
3 697 1227 924
3 1166 885 1732
3 939 1371 2228
3 428 1637 903
3 411 809 1894
3 113 956 1523
3 84 85 1745
3 575 1202 1889
3 2052 761 2004
3 250 251 1690
3 348 906 2049
3 1401 691 2326
3 609 901 1501
3 907 1169 1751
3 1698 2104 2339
3 118 119 988
3 390 993 2057
3 1803 323 1664
3 1502 340 1497
3 778 456 1109
3 1679 343 1350
3 1176 306 1863
3 1184 547 2100
3 730 1187 2264
3 985 2046 1357
3 698 956 2321
3 892 673 1272
3 969 1502 1497
3 1235 881 1528
3 619 758 2012
3 408 1317 1046
3 687 1336 1054
3 1300 1083 2001
3 1706 983 1571
3 538 1171 1517
3 1010 94 2157
3 778 1229 439
3 645 1023 1989
3 364 785 1916
3 1317 601 1046
3 486 869 2192
3 1522 789 1749
3 403 900 2241
3 647 730 1682
3 482 561 2153
3 2142 353 2180
3 703 966 1672
3 708 1145 1772
3 1448 1911 2205
3 1136 671 2312
3 1074 1022 1683
3 970 467 1325
3 1548 542 392
3 786 1190 1596
3 1382 620 2060
3 386 1105 1873
3 1525 1814 1430
3 1911 601 2205
3 1176 486 2295
3 993 416 2057
3 1159 1397 1942
3 454 1128 2177
3 1188 680 1419
3 983 861 1571
3 93 1010 1788
3 191 192 1063
3 734 1318 1153
3 206 207 868
3 1255 172 1248
3 104 689 2276
3 1242 1633 2116
3 2003 570 1500
3 71 72 622
3 1267 484 1856
3 321 24 1885
3 1652 2080 2063
3 472 1771 1002
3 700 1121 1991
3 2030 1040 2189
3 182 1554 1379
3 1594 789 2175
3 452 894 1372
3 19 288 939
3 1076 334 1923
3 370 1941 1144
3 822 1725 2172
3 1707 665 2200
3 541 1290 1597
3 1167 1459 1439
3 824 1524 1287
3 952 1724 1408
3 724 1967 1757
3 1401 594 1676
3 1450 1606 1899
3 1442 385 1865
3 908 478 1499
3 1115 1258 1925
3 362 805 2218
3 750 695 2306
3 324 1936 2076
3 900 1134 2241
3 303 1358 1825
3 817 389 1740
3 1475 2119 2289
3 939 544 1371
3 231 232 1650
3 345 1245 1721
3 1200 1445 2300
3 1187 730 2072
3 1202 575 2239
3 36 809 2250
3 1433 476 1132
3 1771 713 1002
3 1158 369 1484
3 1618 1080 1595
3 338 1197 1864
3 1514 576 2158
3 885 2044 1732
3 1111 522 1649
3 1530 763 1292
3 129 1300 1544
3 972 527 2191
3 1561 2123 2329
3 2058 420 2064
3 1245 1209 1721
3 988 119 1914
3 400 467 2163
3 674 2049 1601
3 854 407 2023
3 416 993 2099
3 298 1820 1455
3 1467 611 1947
3 519 1183 1164
3 241 1692 1952
3 4 145 1596
3 747 1588 1855
3 1184 327 896
3 1554 183 876
3 1588 375 1855
3 1185 393 2032
3 1210 433 2187
3 570 1205 1948
3 498 1817 2161
3 517 705 1604
3 1318 485 1153
3 1275 1201 1815
3 561 745 2153
3 1726 990 1550
3 2021 344 1559
3 882 341 2318
3 1243 825 2025
3 992 1107 944
3 515 2105 2053
3 1203 709 1805
3 109 1565 1798
3 1881 824 1287
3 820 610 1466
3 770 526 2043
3 302 765 1342
3 1738 1316 1865
3 539 860 2242
3 913 73 1967
3 995 1458 2267
3 1146 1113 2127
3 278 846 2141
3 656 1665 1702
3 576 1140 2158
3 1114 1152 2207
3 510 1129 1277
3 1445 596 1764
3 1884 482 2153
3 630 882 2318
3 724 913 1967
3 616 1831 1943
3 561 482 2170
3 262 1082 1625
3 1456 397 2136
3 809 411 2250
3 484 1267 1830
3 1193 100 895
3 176 1527 1806
3 293 364 1347
3 1427 291 1376
3 224 901 818
3 877 479 1986
3 770 790 1440
3 1658 690 1351
3 399 999 2261
3 1450 107 1108
3 1034 483 2000
3 765 302 1825
3 578 1888 1466
3 1498 738 1836
3 496 1158 1484
3 623 686 1248
3 688 1443 2276
3 672 1627 1785
3 1300 492 1544
3 356 1169 1426
3 775 658 1595
3 610 820 1452
3 825 1243 2344
3 595 1619 1343
3 493 1146 2127
3 526 1168 2043
3 695 701 2306
3 884 1163 1963
3 240 241 1952
3 1169 356 1730
3 1817 1257 2161
3 859 462 2274
3 623 174 2129
3 102 1443 1092
3 1547 38 1697
3 1801 833 2266
3 970 3 1783
3 385 1738 1865
3 1525 24 2272
3 441 1459 1796
3 373 1020 2343
3 899 871 2341
3 1756 870 2059
3 1176 350 1249
3 204 205 1157
3 372 525 1654
3 1380 1884 2153
3 412 1405 2151
3 397 1456 1950
3 595 1034 2000
3 244 245 1723
3 1219 91 1931
3 222 223 2206
3 968 446 1453
3 1336 687 2010
3 1137 163 1419
3 396 1837 861
3 1652 596 2080
3 909 433 1479
3 817 516 918
3 1096 1450 1108
3 1105 792 1873
3 1837 625 861
3 428 1801 2266
3 1034 595 1343
3 801 968 1964
3 1560 1150 2238
3 657 654 1799
3 1538 323 1803
3 681 909 1479
3 138 139 1968
3 185 1086 1569
3 337 1617 2304
3 1756 481 1695
3 203 856 1203
3 517 1267 1856
3 1565 110 1252
3 435 1456 2136
3 856 709 1203
3 485 965 1875
3 1267 474 1830
3 1223 327 1279
3 798 1041 1064
3 306 25 1863
3 690 1737 1351
3 1415 642 1049
3 474 1475 1830
3 577 805 1773
3 476 1823 1132
3 1106 912 1504
3 967 452 2180
3 1547 638 1614
3 333 722 2011
3 1056 845 2218
3 892 780 2288
3 1405 751 2145
3 1443 1094 1092
3 1091 623 2129
3 667 897 2156
3 684 1427 1551
3 833 350 2266
3 544 1236 1371
3 1336 518 1054
3 968 529 1964
3 1178 1375 1314
3 657 1107 1973
3 1698 442 2104
3 1684 355 2085
3 1077 1684 2085
3 128 129 1544
3 504 1675 1870
3 420 2058 1867
3 353 967 2180
3 1498 323 1849
3 621 1527 1570
3 1193 732 1574
3 169 1198 2225
3 649 1558 1777
3 336 1547 1614
3 254 255 1361
3 28 29 2336
3 1182 562 2317
3 17 854 1384
3 1183 493 2127
3 1163 884 1396
3 611 1467 1584
3 984 28 2336
3 1000 2087 1194
3 521 1219 1931
3 632 1223 1279
3 172 173 1248
3 103 104 2276
3 164 1188 1419
3 1627 14 1785
3 1143 515 2053
3 1260 974 1747
3 747 1424 1315
3 1087 1215 2149
3 286 16 2113
3 126 1079 729
3 473 1136 2312
3 1483 660 1543
3 1152 1412 1425
3 689 105 1768
3 1086 1118 1569
3 1040 396 1999
3 1125 842 2111
3 1344 1363 2299
3 1467 675 1584
3 359 1635 1309
3 1227 65 924
3 359 1309 2017
3 1232 978 1739
3 701 278 2306
3 565 1713 2073
3 488 1232 1739
3 413 1587 1953
3 258 1467 1947
3 992 1010 2157
3 882 932 2199
3 1056 805 1465
3 375 731 1855
3 905 445 2103
3 1000 923 994
3 678 905 2103
3 775 1831 658
3 901 599 1656
3 696 1227 1927
3 1832 1280 1870
3 1499 478 1866
3 840 1173 1611
3 1131 1692 1346
3 881 1062 1528
3 1823 725 1132
3 722 333 2297
3 816 798 1064
3 1742 399 2261
3 1333 486 2192
3 904 1163 2265
3 24 294 2272
3 574 1008 1686
3 1871 519 1876
3 1168 526 1431
3 1183 325 1608
3 673 1304 1331
3 726 1684 1857
3 1090 216 1810
3 427 845 2013
3 1274 1273 1816
3 1480 636 1161
3 1442 919 1383
3 396 1040 2030
3 379 916 1996
3 440 1526 930
3 847 1463 2026
3 1032 970 1325
3 187 2039 2088
3 1554 738 1379
3 642 1456 1659
3 144 4 2151
3 1367 614 1928
3 446 968 1835
3 1606 383 1899
3 1675 616 1545
3 1111 669 1781
3 964 2094 1590
3 1198 839 2225
3 845 1056 2013
3 740 455 2283
3 1692 579 1346
3 1082 263 1028
3 404 1243 2025
3 1235 1132 1549
3 428 1602 1878
3 1817 429 1678
3 43 1018 2162
3 1019 142 1354
3 619 776 2340
3 916 666 1996
3 585 1185 2032
3 726 1442 1383
3 335 868 844
3 972 469 1779
3 323 1538 1849
3 638 1547 1697
3 667 1457 1643
3 654 657 1973
3 1182 1016 2215
3 448 1770 1122
3 14 283 1785
3 1041 649 2303
3 700 1433 2168
3 1770 1420 1122
3 1102 426 2009
3 1079 626 729
3 1655 512 1725
3 1063 530 2226
3 1107 96 1973
3 151 152 1492
3 519 1005 1347
3 991 493 1871
3 999 399 1727
3 1067 1041 1696
3 1408 1724 1678
3 822 1655 1725
3 1267 806 2055
3 728 858 1268
3 305 1176 1249
3 1355 734 1127
3 167 168 1320
3 450 858 2120
3 617 1565 1252
3 670 917 2251
3 1824 376 592
3 329 1355 1127
3 1709 393 2142
3 1178 593 2006
3 2185 714 2278
3 371 1435 1787
3 180 1498 1849
3 1428 450 1853
3 1558 471 1777
3 99 1193 1574
3 1527 177 1570
3 2104 1029 2339
3 1492 152 1195
3 1561 417 2123
3 1433 573 2168
3 1211 387 2078
3 863 1003 405
3 855 1448 2034
3 505 1366 1465
3 1227 696 1626
3 1099 961 1559
3 1142 619 2012
3 316 317 1748
3 774 1244 1429
3 1134 900 1162
3 956 1437 2321
3 660 1036 1543
3 655 1687 2189
3 1397 1513 1942
3 1432 333 1586
3 1069 1480 1161
3 1513 1397 2010
3 382 1344 2299
3 1969 89 365
3 1259 1742 2261
3 290 1918 1862
3 836 1826 1241
3 250 1690 1592
3 1533 1013 2278
3 901 609 1703
3 783 1175 1706
3 1918 705 1862
3 858 450 2092
3 1457 784 1643
3 465 1218 1984
3 1069 1031 2089
3 606 988 1914
3 608 837 2086
3 434 913 2115
3 341 1534 2318
3 1304 324 1331
3 651 684 2076
3 899 453 1478
3 1458 919 2267
3 1197 338 2292
3 1644 860 1716
3 1142 2012 1866
3 1361 255 2271
3 1589 425 2150
3 1263 2052 2004
3 69 829 1911
3 985 1178 2006
3 2152 843 1787
3 1870 1675 1693
3 1267 517 1604
3 829 601 1911
3 1831 504 658
3 613 1239 1886
3 561 962 2216
3 1076 633 1539
3 906 348 1892
3 1202 490 1630
3 1400 1042 1873
3 1432 767 1487
3 596 1160 1764
3 581 1745 2097
3 596 1445 2080
3 926 355 1894
3 963 1675 1545
3 974 1260 2236
3 1365 1482 2337
3 200 1338 1537
3 816 27 1503
3 644 2065 2187
3 683 384 1885
3 1918 806 1604
3 1119 361 2022
3 1033 330 2313
3 1517 606 2203
3 465 1984 2274
3 1320 839 704
3 1253 1885 1430
3 97 654 1973
3 1648 721 1518
3 841 728 1477
3 694 1580 2281
3 1729 76 950
3 526 1440 1982
3 1398 878 2116
3 1617 698 2321
3 1538 179 1849
3 426 1102 2120
3 354 887 2184
3 512 1655 1449
3 327 1223 896
3 233 234 1955
3 1687 1298 2189
3 390 1668 1836
3 1230 737 2096
3 755 1434 1270
3 1132 725 1549
3 1533 515 2290
3 1227 697 1927
3 1047 2114 1938
3 339 2102 1278
3 26 308 1508
3 685 2257 2314
3 1888 820 1466
3 856 650 2056
3 542 852 392
3 1349 1852 2177
3 350 1176 2295
3 1936 324 1037
3 889 945 1454
3 3 1168 1783
3 752 906 1892
3 2123 602 2329
3 1117 1233 1699
3 1828 379 1192
3 887 1059 2184
3 5 172 1255
3 104 2 689
3 1215 1087 1484
3 387 1099 2078
3 1366 1816 2013
3 1456 435 1416
3 477 1935 2186
3 805 362 2328
3 1917 1025 2119
3 2065 1324 1694
3 1482 537 2337
3 525 608 2134
3 610 1130 1466
3 105 106 1768
3 900 700 2168
3 1797 703 1672
3 781 756 1007
3 442 1140 2104
3 1886 836 1241
3 1120 652 2112
3 913 724 2115
3 1998 1812 1612
3 171 5 1255
3 2 105 689
3 1012 999 1727
3 1437 676 2321
3 1527 621 2071
3 732 1193 1766
3 711 1090 1810
3 705 1918 1604
3 1011 953 1485
3 1464 1141 1624
3 940 1516 2042
3 391 1797 1672
3 1041 798 1696
3 1236 542 1622
3 1971 338 1447
3 391 1665 2114
3 1428 632 1395
3 567 1052 1837
3 92 93 1788
3 1052 625 1837
3 1172 733 1015
3 648 854 2023
3 356 1629 1782
3 369 1215 1484
3 649 318 2303
3 1145 1030 1772
3 582 2033 2082
3 1462 388 1807
3 1048 1599 1556
3 743 993 1250
3 741 1968 1576
3 756 889 1454
3 823 374 944
3 728 975 1477
3 933 605 2037
3 679 1462 1807
3 1839 712 896
3 186 187 2088
3 1934 725 2194
3 740 499 2070
3 659 1712 1610
3 1951 660 1718
3 751 1405 2020
3 783 1706 2195
3 836 902 1907
3 1357 720 2130
3 1436 569 1980
3 1539 633 2016
3 484 1988 1856
3 1661 1305 1711
3 837 429 2086
3 618 1039 1342
3 1366 1056 1465
3 593 1178 1314
3 529 574 1688
3 450 1428 1395
3 1852 454 2177
3 1260 1971 1447
3 858 1421 1632
3 108 109 1798
3 1237 380 2143
3 813 1729 436
3 955 1647 1850
3 1198 170 1446
3 1643 784 1192
3 248 249 1900
3 976 1524 1909
3 862 1057 1709
3 925 1464 1624
3 1141 1951 1718
3 792 1400 1873
3 1431 1138 1777
3 1509 393 1709
3 1637 428 1878
3 183 184 876
3 1658 1155 1994
3 1367 641 2296
3 469 972 1103
3 1180 1860 1800
3 465 1842 1913
3 1823 476 1392
3 1702 25 2319
3 686 1198 1446
3 1316 1738 1454
3 1729 663 436
3 1184 2100 1582
3 661 1230 2228
3 452 1372 1974
3 453 899 2341
3 377 1136 1762
3 1623 774 1429
3 692 1786 793
3 1415 501 1511
3 15 284 2251
3 1116 1934 2194
3 2080 794 2063
3 808 2146 2139
3 862 2142 2180
3 653 2091 2313
3 607 596 1743
3 300 301 1039
3 664 1020 1413
3 709 856 2056
3 1984 859 2274
3 1711 1305 1769
3 993 1901 2099
3 50 1022 2148
3 1650 232 1461
3 942 1936 1037
3 48 1024 2220
3 1338 1284 1564
3 501 548 1511
3 727 1823 1392
3 1233 1117 2344
3 1247 998 1983
3 1244 218 1429
3 366 1715 1262
3 64 1227 1626
3 624 1017 2181
3 742 590 1154
3 1717 848 1143
3 957 1338 1564
3 590 491 1154
3 2084 1072 1932
3 1598 415 1451
3 429 837 1408
3 2015 424 1938
3 562 1191 1144
3 1171 955 2224
3 1780 866 1819
3 811 1339 2333
3 89 90 365
3 1180 1216 1337
3 1018 43 1790
3 1988 1128 1856
3 1629 572 1782
3 620 1618 358
3 278 8 2306
3 123 1717 2026
3 637 1711 1769
3 112 1523 2008
3 335 1157 1352
3 2137 952 1408
3 829 739 1874
3 1615 246 1741
3 1842 962 1913
3 213 1216 1800
3 1099 850 2078
3 1510 558 1404
3 757 634 1553
3 687 1513 2010
3 65 66 924
3 437 1529 1330
3 529 968 1008
3 76 77 950
3 2263 554 2352
3 719 1168 2093
3 187 6 2039
3 1165 880 1251
3 737 965 2096
3 590 664 1413
3 671 1350 2028
3 1205 570 1323
3 644 909 1721
3 437 1780 1819
3 206 868 1352
3 1258 1492 1195
3 737 1072 2084
3 843 1288 1787
3 1435 597 1787
3 286 1303 1677
3 199 200 1537
3 933 2037 1297
3 566 1225 1071
3 1288 1202 2239
3 1660 449 2350
3 474 1267 2055
3 1521 1000 994
3 586 1106 1993
3 437 1819 2242
3 975 656 1477
3 1062 881 1892
3 29 30 1609
3 1998 865 1812
3 1079 1060 1265
3 366 1462 1125
3 715 1033 2313
3 208 1631 640
3 868 335 1352
3 1158 496 2023
3 1901 653 2313
3 1935 1208 2186
3 100 101 895
3 175 176 1806
3 1562 236 2293
3 6 188 2039
3 468 1793 2132
3 546 1479 1920
3 1 89 1969
3 671 1205 1323
3 2127 1113 1929
3 1603 467 2117
3 1006 1921 1302
3 622 739 2237
3 393 1185 2142
3 1148 687 1054
3 1663 551 1488
3 463 1004 2305
3 664 1655 1001
3 1684 1077 1857
3 1655 822 1001
3 1187 1063 2226
3 1198 686 2314
3 11 280 2004
3 264 265 2269
3 1690 914 1592
3 921 235 1944
3 1171 394 1647
3 88 1 1969
3 1542 283 2325
3 380 1237 1616
3 593 1117 1699
3 748 1124 1334
3 1017 928 2181
3 666 916 1455
3 1350 343 2028
3 1303 413 414
3 726 1043 2229
3 2037 322 1297
3 591 1786 2208
3 1366 942 1816
3 401 2009 1887
3 751 1019 1354
3 1786 492 793
3 134 135 1840
3 1786 692 2208
3 556 1880 1507
3 132 770 2043
3 814 1650 1461
3 1880 973 1507
3 975 2015 1938
3 54 55 1888
3 824 1881 1616
3 349 1548 392
3 1468 817 1154
3 415 802 1451
3 1712 2126 1610
3 1083 1032 1325
3 1594 196 2273
3 112 113 1523
3 1759 735 1897
3 265 1225 2269
3 1022 50 2307
3 542 1548 1932
3 806 1267 1604
3 707 1742 2230
3 1307 1078 1470
3 887 354 1334
3 599 901 1703
3 589 1302 2316
3 80 1229 1744
3 1061 832 2217
3 1288 371 1787
3 955 1171 1647
3 761 823 1924
3 357 1061 2217
3 1480 1069 2089
3 1292 511 1833
3 611 1915 1947
3 651 505 2154
3 1239 836 1886
3 998 281 1983
3 420 1827 2064
3 1668 568 1664
3 636 1666 1161
3 487 1237 2143
3 751 1957 2246
3 330 1901 2313
3 539 999 1399
3 1420 430 1337
3 529 1082 1964
3 659 1615 2109
3 1646 604 1165
3 1168 3 2043
3 1745 594 2097
3 407 1158 2023
3 2098 368 2207
3 2119 677 2289
3 1572 646 1821
3 395 1104 922
3 344 1667 1704
3 464 2036 1520
3 219 1623 1429
3 1666 363 1161
3 1789 455 2193
3 868 863 844
3 1280 904 2265
3 1653 606 1914
3 988 606 949
3 1117 593 1314
3 1819 1259 2242
3 122 123 2026
3 275 276 1027
3 1618 884 358
3 1008 968 1453
3 452 1844 2180
3 1090 711 931
3 477 1516 2107
3 196 1594 2175
3 711 1244 2050
3 877 1149 1580
3 881 752 1892
3 346 1615 1741
3 1667 1045 1704
3 352 1165 1251
3 508 1090 931
3 317 318 1276
3 567 1293 905
3 1548 815 1932
3 1577 516 1992
3 161 162 1662
3 779 988 949
3 978 1232 1568
3 1229 80 439
3 926 636 1423
3 606 1653 2203
3 283 13 2325
3 41 1599 1940
3 75 76 1729
3 1341 1994 2335
3 1317 629 2034
3 1713 1167 1439
3 1117 825 2344
3 832 1061 1598
3 762 742 1740
3 555 1665 1672
3 1061 1555 1598
3 239 240 1370
3 1369 1185 1441
3 1157 205 1352
3 730 647 1847
3 71 622 2237
3 1184 712 2081
3 491 1468 1154
3 2146 488 2139
3 1513 585 1942
3 1074 1024 1775
3 197 198 1661
3 880 1361 2271
3 260 261 1307
3 212 213 1800
3 285 1106 1903
3 1333 555 966
3 1006 1302 2172
3 859 1984 2086
3 25 841 2319
3 357 1398 2116
3 394 1171 1845
3 543 1562 2293
3 1647 1055 1850
3 1650 814 2310
3 56 57 1452
3 352 1646 1165
3 437 860 1529
3 990 1726 1129
3 1710 712 1418
3 700 1577 1992
3 2045 761 1670
3 78 79 605
3 189 730 1847
3 1715 366 2111
3 714 1687 2332
3 1687 759 2332
3 1273 1274 2078
3 37 1547 2101
3 662 1594 2273
3 263 264 1028
3 825 1679 2025
3 114 115 1437
3 200 201 1338
3 42 43 2162
3 1994 386 2335
3 1826 836 1907
3 631 893 2133
3 351 1304 2288
3 81 456 439
3 451 1530 1759
3 558 1587 1404
3 636 1480 1282
3 1049 449 501
3 893 150 2133
3 662 1661 1711
3 1618 620 2253
3 1185 585 1441
3 1529 1269 1330
3 605 584 2037
3 717 1715 2111
3 1191 562 1638
3 588 1650 2310
3 1229 584 1744
3 741 874 2309
3 45 46 1212
3 1341 1042 2132
3 1080 1618 2253
3 776 586 2340
3 539 1399 1716
3 602 1044 1861
3 521 1788 1579
3 1690 251 1532
3 848 2079 2290
3 1717 123 2331
3 1522 195 2175
3 1104 395 1693
3 1523 1391 2008
3 547 1184 2081
3 1767 425 1589
3 1480 18 1282
3 1759 1530 1833
3 1859 461 2296
3 1234 720 1357
3 1959 1053 994
3 214 1068 509
3 720 1142 2166
3 691 1401 1752
3 1011 537 1642
3 1956 420 1867
3 413 2113 1404
3 2004 280 2342
3 413 1303 2113
3 470 1374 2147
3 1510 16 989
3 985 1357 2130
3 814 1955 1002
3 876 1118 1905
3 1024 48 1775
3 1399 1286 1716
3 543 1917 2119
3 1824 1253 1112
3 223 224 818
3 808 1218 2146
3 735 1759 1833
3 609 991 1705
3 355 926 1423
3 907 1751 1319
3 1401 87 1752
3 1039 807 2144
3 339 1753 2102
3 1091 1806 773
3 895 1094 2268
3 785 1959 994
3 1489 1324 2065
3 860 891 1529
3 487 1877 1581
3 1674 22 2182
3 1168 719 1783
3 1020 664 2343
3 1933 388 1639
3 1949 1657 500
3 818 901 1656
3 341 882 2199
3 589 1073 2172
3 682 967 2260
3 638 768 2245
3 1204 1589 2150
3 887 434 2115
3 228 1146 1505
3 1361 880 1165
3 1402 1759 1897
3 503 1307 1470
3 902 836 2040
3 757 701 332
3 60 61 1491
3 1685 487 1581
3 836 1239 2040
3 768 363 2245
3 902 639 1907
3 1042 1341 2335
3 701 695 332
3 835 1291 1123
3 150 893 2338
3 1530 451 2256
3 348 1119 2022
3 793 492 2001
3 1593 1077 1328
3 1982 1440 2305
3 511 1867 1833
3 2217 832 2316
3 125 126 729
3 915 628 2164
3 368 915 2164
3 1009 1410 2337
3 236 1562 1944
3 461 2214 2296
3 2102 821 1278
3 969 899 1394
3 9 278 2141
3 350 1602 2266
3 899 969 1497
3 26 1201 1275
3 997 418 2294
3 526 770 1440
3 1524 824 1909
3 641 1859 2296
3 967 353 2260
3 1516 940 2107
3 1271 442 1778
3 604 1361 1165
3 334 1038 1923
3 1495 582 2082
3 911 1224 2066
3 123 124 2331
3 1495 560 1378
3 932 1535 1731
3 629 1754 2034
3 1587 413 1404
3 1214 1353 857
3 1645 830 2350
3 1990 1126 1376
3 582 1495 1378
3 344 2021 2140
3 294 295 1457
3 1038 544 1813
3 1754 855 2034
3 1168 1431 2093
3 958 1493 1796
3 2084 815 2017
3 747 1669 2165
3 1290 1707 1597
3 374 823 2052
3 1585 834 1287
3 636 1282 1423
3 687 1148 1513
3 300 1039 2144
3 766 1949 500
3 844 863 405
3 215 1090 1068
3 928 1017 1119
3 1146 228 2198
3 706 1593 1328
3 373 2065 1694
3 430 1180 1337
3 1099 387 1474
3 790 1840 2235
3 1567 1152 1425
3 1668 390 1494
3 717 2111 2061
3 2111 842 2061
3 962 1842 2216
3 1004 1322 2305
3 1599 41 1556
3 548 1099 1474
3 852 565 2073
3 21 1990 1376
3 1295 1975 2297
3 919 1541 1383
3 1100 787 1581
3 447 1674 2182
3 987 1603 2117
3 2246 1957 2294
3 741 506 2210
3 1081 422 2051
3 1468 1121 1992
3 863 868 640
3 471 1898 2252
3 1417 928 2049
3 915 835 1387
3 1544 492 2211
3 1215 369 1389
3 629 1081 2051
3 1552 873 1578
3 868 207 640
3 499 1148 1054
3 1291 835 2131
3 1615 346 2109
3 1631 863 640
3 650 1633 2056
3 1792 847 2053
3 1602 350 2295
3 2085 982 1328
3 1313 1792 2053
3 2113 1510 1404
3 1338 957 1537
3 1308 1095 2186
3 569 1637 1980
3 1954 1306 1902
3 1565 617 2308
3 419 1937 1897
3 1816 427 2013
3 1602 428 2266
3 1161 363 2016
3 1561 397 1950
3 924 66 2279
3 1541 726 1383
3 634 757 332
3 1018 1048 2162
3 1588 747 1315
3 1552 587 2166
3 1101 1629 1299
3 163 164 1419
3 823 761 2052
3 17 286 1677
3 976 1909 1621
3 1185 353 2142
3 1648 531 1591
3 847 1717 1143
3 207 208 640
3 36 37 2101
3 1802 779 949
3 1126 1572 1821
3 379 1156 1192
3 953 1011 1642
3 568 1668 1494
3 663 1729 950
3 473 1809 2138
3 587 1552 1578
3 1149 877 1986
3 469 1707 2200
3 2058 735 1867
3 438 1802 949
3 860 437 2242
3 1247 2045 1670
3 1896 573 1528
3 1317 2034 2205
3 1587 446 1953
3 1303 407 1677
3 419 2058 2064
3 220 221 1908
3 894 778 1372
3 471 2252 2093
3 1114 955 1412
3 927 347 1619
3 1070 421 1850
3 52 53 716
3 679 2259 2262
3 362 1333 966
3 894 584 1085
3 568 1494 2075
3 256 257 1915
3 68 69 1911
3 214 215 1068
3 721 1648 1591
3 464 1097 2267
3 459 1190 2248
3 1044 604 1861
3 1767 826 1937
3 375 1658 1351
3 461 1657 1949
3 472 1562 1700
3 1726 369 1129
3 1348 1022 2307
3 1824 592 2110
3 1024 552 2220
3 2036 1327 1520
3 827 1753 1070
3 237 238 1917
3 1666 336 1614
3 1160 800 1764
3 1493 441 1796
3 587 1178 2130
3 1104 1693 1714
3 253 1044 2024
3 1877 1100 1581
3 1078 1307 1625
3 432 1339 2159
3 1193 520 1766
3 563 1527 2071
3 1971 830 2155
3 1229 778 1085
3 1339 811 2159
3 1256 1561 1950
3 855 924 2279
3 584 1229 1085
3 1635 755 1270
3 845 1436 2218
3 1494 912 2075
3 1412 421 1425
3 1679 825 1117
3 675 731 1584
3 1207 1663 1488
3 857 1353 1506
3 1751 1169 1730
3 951 2084 2017
3 24 1525 1430
3 96 97 1973
3 858 2092 1268
3 1127 734 1153
3 147 1715 2054
3 778 894 1085
3 1065 1139 1929
3 1152 1114 1412
3 1105 386 2135
3 22 1674 1680
3 1562 543 1700
3 733 998 1540
3 327 1184 1582
3 1003 681 405
3 1043 411 2229
3 736 1608 1979
3 179 180 1849
3 1069 1161 2016
3 523 1565 2308
3 982 1199 1328
3 784 1828 1192
3 366 1125 2111
3 1459 1972 1796
3 725 1823 2194
3 991 535 1705
3 496 648 2023
3 301 302 1342
3 1271 284 1220
3 1577 403 2262
3 1062 1896 1528
3 934 852 2073
3 281 998 1841
3 2134 808 2333
3 1827 420 612
3 895 101 1092
3 175 1806 2129
3 434 1124 1411
3 1963 833 1801
3 1157 335 1794
3 229 230 1681
3 375 1588 2301
3 135 136 1928
3 159 902 2040
3 49 50 2148
3 1239 158 2040
3 774 1780 1330
3 1687 655 2176
3 1213 1436 1980
3 831 1111 1781
3 1713 334 2048
3 422 1081 1985
3 590 742 1449
3 674 1417 2049
3 907 1105 2135
3 1286 1399 2258
3 1022 1074 2148
3 534 1519 2019
3 360 1469 1731
3 153 154 1804
3 1276 649 1777
3 893 702 2338
3 1434 483 1270
3 997 799 2324
3 702 893 1639
3 369 1726 1389
3 1068 1294 509
3 1629 1101 1309
3 230 231 2255
3 1178 985 2130
3 1158 407 1277
3 1371 661 2228
3 1173 117 2121
3 440 1585 1287
3 1298 1687 2212
3 342 1827 612
3 120 1653 1914
3 441 1214 1266
3 1837 396 1568
3 1174 927 1619
3 1679 377 2025
3 1692 241 2018
3 1282 982 1423
3 1127 708 1772
3 449 1660 1181
3 739 622 1411
3 74 75 1757
3 2009 959 1887
3 1479 433 1920
3 201 202 1805
3 1167 1713 2048
3 1130 610 1585
3 196 197 2273
3 1572 1126 1634
3 799 997 2294
3 1799 557 1924
3 79 80 1744
3 433 909 2187
3 884 903 358
3 1014 1760 1075
3 1760 322 1075
3 1415 1049 501
3 1438 1151 2002
3 108 1798 1108
3 1094 895 1092
3 1806 1091 2129
3 1257 1817 1678
3 637 1438 2002
3 708 1127 1153
3 1928 136 2302
3 506 741 2309
3 414 510 1277
3 1019 751 2246
3 302 303 1825
3 604 1044 2240
3 73 74 1967
3 999 539 2261
3 1059 887 1919
3 10 1160 2188
3 1548 349 1590
3 1646 352 1910
3 291 21 1376
3 1507 973 2067
3 748 1507 2067
3 1026 628 1387
3 522 1961 1486
3 562 1941 2317
3 860 539 1716
3 1044 253 2240
3 143 144 2145
3 1307 261 1625
3 491 590 1413
3 202 203 1203
3 718 1026 1387
3 1186 721 1591
3 417 1561 1386
3 236 237 2293
3 43 44 1790
3 1130 578 1466
3 218 219 1429
3 564 1803 1664
3 47 48 2220
3 1243 404 1827
3 145 146 1281
3 554 1291 2131
3 2033 780 2082
3 146 147 2054
3 1975 803 2297
3 1798 1096 1108
3 1726 268 1389
3 2162 1048 1556
3 518 1336 1567
3 227 228 1505
3 342 1243 1827
3 776 12 1903
3 431 1534 1987
3 396 861 1999
3 549 1490 2311
3 497 1710 1418
3 861 983 1999
3 2126 534 2019
3 1093 964 1590
3 1648 508 931
3 757 1291 1733
3 1336 331 1567
3 2119 1025 1883
3 257 258 1947
3 50 51 2307
3 1695 481 1708
3 1792 1313 1845
3 431 1987 2167
3 1617 337 2173
3 1987 1340 2167
3 349 1093 1590
3 1517 1171 2224
3 376 1824 1112
3 252 253 2024
3 634 337 1553
3 1819 866 2124
3 1291 554 1733
3 1638 1182 2215
3 161 1662 1848
3 547 1186 2100
3 2179 502 2348
3 1043 34 1922
3 471 1431 1777
3 987 1359 1406
3 1637 569 1246
3 195 196 2175
3 564 917 2031
3 1670 557 1946
3 1105 907 1319
3 876 184 1569
3 92 1788 1931
3 1840 614 2235
3 1399 406 2258
3 1218 480 2146
3 759 1687 2176
3 1154 817 1740
3 1149 1531 1122
3 573 1896 1162
3 2021 1382 2140
3 1141 1718 1624
3 779 1173 2121
3 1717 847 2026
3 742 1154 1740
3 80 81 439
3 124 125 2079
3 1452 57 2128
3 1303 286 2113
3 1809 559 2138
3 1144 292 1680
3 938 1637 1246
3 906 495 1601
3 1212 46 2122
3 1437 115 1829
3 1173 779 1611
3 884 1618 1396
3 491 1413 2284
3 516 1468 1992
3 915 368 2221
3 408 1046 1238
3 1435 371 2063
3 1660 974 1181
3 1046 528 1238
3 1269 1186 2095
3 851 2217 2316
3 965 828 2096
3 677 2119 1883
3 881 497 1418
3 988 779 2121
3 1097 995 2267
3 1133 259 1385
3 376 1469 592
3 1633 1242 2247
3 1718 410 1624
3 435 1646 1910
3 1042 1400 2155
3 1631 795 1673
3 1355 329 1755
3 319 1041 2303
3 45 1212 1476
3 1826 981 1241
3 555 1333 2192
3 981 1166 1732
3 269 1215 1389
3 1254 489 1774
3 528 1046 1874
3 1172 1695 1708
3 1230 661 2298
3 666 1820 922
3 1966 624 744
3 1126 1990 1634
3 1228 774 1330
3 712 1710 2081
3 58 59 1995
3 585 1513 2351
3 1998 745 2219
3 502 2066 2348
3 513 1954 1902
3 426 2120 1632
3 939 288 2089
3 228 229 2198
3 1396 409 2265
3 1721 909 1381
3 1860 810 1536
3 831 1933 1961
3 1153 485 1895
3 489 1628 1774
3 1652 371 2239
3 692 793 1654
3 1417 401 2181
3 1720 505 1465
3 622 434 1411
3 1561 1256 1386
3 783 1789 2193
3 1166 532 2171
3 282 1234 1357
3 1788 521 1931
3 345 1003 1673
3 515 2278 2332
3 40 41 1940
3 1152 1567 2098
3 789 908 1499
3 1118 876 1569
3 117 118 2121
3 1820 807 922
3 583 1795 2256
3 999 1012 2232
3 1031 1069 2016
3 1855 731 643
3 1081 408 2286
3 1163 1396 2265
3 1780 437 1330
3 14 1627 1220
3 355 1423 2085
3 1361 604 2240
3 1113 1146 2198
3 761 2045 2004
3 31 32 1458
3 19 939 2228
3 1665 656 2114
3 1665 391 1672
3 737 1230 2298
3 150 151 2133
3 475 1909 1685
3 1491 61 2243
3 1356 2062 2170
3 803 722 2297
3 635 1493 1689
3 1320 168 2225
3 1441 585 2351
3 828 965 1414
3 1319 1751 2347
3 1971 1260 1747
3 633 1031 2016
3 1664 568 917
3 191 1063 2072
3 752 881 1418
3 1671 156 1473
3 535 923 1194
3 1324 1373 1694
3 871 1434 1088
3 1567 331 2098
3 686 1255 1248
3 689 688 2276
3 35 36 2250
3 1469 376 1731
3 761 1924 1670
3 568 2075 2251
3 722 680 2011
3 731 675 643
3 2120 858 1632
3 1093 453 2118
3 268 269 1389
3 485 1875 1895
3 1745 85 1676
3 1063 1187 2072
3 1661 662 2273
3 251 252 1532
3 613 1671 1473
3 1956 981 612
3 60 1491 1600
3 29 1609 2336
3 1124 528 1811
3 420 1956 612
3 1104 666 922
3 1841 750 2306
3 937 599 1703
3 533 2134 2333
3 839 1320 2225
3 909 681 1381
3 330 1189 2099
3 338 1400 2292
3 292 22 1680
3 1853 674 1601
3 1492 631 2133
3 1205 671 2028
3 1264 980 2315
3 134 1840 1958
3 1340 1987 1597
3 428 903 1801
3 652 1525 2156
3 2105 515 2332
3 909 644 2187
3 903 884 1801
3 766 1310 2214
3 507 857 1506
3 594 1745 1676
3 253 254 2240
3 1760 663 1297
3 923 1000 1194
3 411 1043 1922
3 1646 435 2136
3 865 1998 2219
3 1423 982 2085
3 1014 1075 2083
3 965 485 1414
3 241 242 2018
3 981 1956 1241
3 584 605 1744
3 371 1652 2063
3 1395 1023 2092
3 328 1205 2028
3 142 143 1354
3 1884 1380 1927
3 1304 351 1037
3 118 988 2121
3 663 950 1297
3 1493 958 1689
3 149 150 2338
3 1763 564 2042
3 950 933 1297
3 2168 573 1162
3 1148 925 2351
3 273 274 2041
3 1933 631 1961
3 322 1760 1297
3 395 922 2280
3 523 1482 1890
3 1956 511 1241
3 1036 1360 2184
3 2042 564 2031
3 1075 682 2083
3 2216 1842 2282
3 158 159 2040
3 352 1737 1910
3 309 997 2324
3 1308 1091 773
3 1094 1410 2268
3 1658 375 2301
3 596 1652 1743
3 1482 1365 1890
3 324 1304 1037
3 330 1033 1719
3 1663 599 2087
3 591 1326 1265
3 624 1966 1596
3 399 1521 1727
3 793 372 1654
3 1737 960 1351
3 2249 1602 2295
3 370 1144 1680
3 650 1157 1794
3 231 1650 2255
3 16 289 2287
3 1109 812 1846
3 8 1841 2306
3 1224 63 1626
3 260 1307 1385
3 676 1026 2304
3 1360 1789 1838
3 153 1804 1195
3 1077 2085 1328
3 2197 1110 1699
3 792 1105 1868
3 1370 240 1952
3 575 1652 2239
3 511 1886 1241
3 256 1915 2271
3 63 64 1626
3 1057 279 1709
3 1155 326 1481
3 557 1485 1946
3 1420 1770 430
3 1026 718 2304
3 1073 546 1920
3 733 935 1015
3 1840 790 1958
3 1462 366 2231
3 1435 581 2097
3 1238 973 1374
3 225 226 1501
3 1684 726 2229
3 532 1826 1907
3 513 1636 1954
3 1657 313 500
3 408 1238 1374
3 1189 330 1719
3 597 1435 2097
3 1927 1380 2348
3 1324 1531 1373
3 361 1896 2022
3 486 2249 2295
3 557 1761 1485
3 1636 1204 1954
3 1935 772 704
3 3 132 2043
3 1008 764 1686
3 530 1033 2226
3 1095 1308 773
3 1410 1009 2268
3 2134 533 1605
3 1521 1053 1727
3 271 781 2149
3 1483 1014 1364
3 1033 715 2226
3 850 1099 1559
3 1753 827 2102
3 412 1966 744
3 1208 1935 704
3 688 689 1768
3 1245 345 1673
3 940 1698 2107
3 558 1318 2069
3 603 1034 1343
3 1189 586 1993
3 795 1245 1673
3 1224 696 2066
3 503 1133 1385
3 1784 645 1989
3 1720 447 2154
3 1216 213 509
3 1687 714 2212
3 1537 957 1769
3 1305 1537 1769
3 535 937 1705
3 1628 489 2082
3 429 1408 1678
3 525 2134 1605
3 395 1870 1693
3 1840 135 1928
3 957 1438 1769
3 1015 935 1613
3 826 1767 1589
3 707 1663 2087
3 1200 1372 746
3 52 716 1891
3 1738 756 1454
3 614 1840 1928
3 1935 477 2339
3 1145 708 1299
3 304 305 1249
3 1017 624 1190
3 751 1354 2145
3 1493 635 2014
3 1652 575 1743
3 1797 577 1773
3 1189 416 2099
3 1653 538 2203
3 1034 603 1930
3 763 1671 1758
3 34 35 1922
3 2002 1151 1177
3 1671 613 1758
3 58 1995 2128
3 1373 727 1694
3 572 1270 1930
3 780 1628 2082
3 395 1832 1870
3 542 1072 1622
3 546 802 1479
3 1318 734 2069
3 416 1189 1993
3 1155 1658 2301
3 444 1749 1403
3 1619 347 1343
3 802 681 1479
3 1438 637 1769
3 923 785 994
3 736 1005 1164
3 2039 647 2088
3 259 260 1385
3 1535 360 1731
3 1675 963 1693
3 1307 503 1385
3 460 1566 2209
3 435 1793 1416
3 1834 341 2199
3 1174 1640 1943
3 935 953 1642
3 1294 1216 509
3 781 1087 2149
3 835 1960 2131
3 1096 1890 1606
3 873 2002 1177
3 784 1457 1997
3 355 1684 1808
3 1987 541 1597
3 937 535 1194
3 382 1312 1511
3 900 2168 1162
3 1637 1878 1980
3 1199 982 749
3 1628 2109 1774
3 450 1395 2092
3 1691 1035 2074
3 1715 717 2054
3 1059 1226 1543
3 696 1224 1626
3 794 2080 1791
3 8 281 1841
3 791 2167 1103
3 849 1115 1925
3 1151 1869 1948
3 1820 666 1455
3 1216 1180 1800
3 1692 1131 1952
3 384 976 1503
3 438 1517 2224
3 634 1283 2173
3 505 1720 2154
3 1291 757 1553
3 672 1432 1586
3 1917 543 2293
3 1698 940 1778
3 442 1698 1778
3 815 2084 1932
3 1073 589 2077
3 337 634 2173
3 953 935 1540
3 1233 2197 1699
3 1400 792 2292
3 703 1797 1773
3 1226 514 1543
3 546 1073 2077
3 130 131 1032
3 625 1052 2147
3 468 1659 1416
3 1995 1170 1206
3 548 1734 1511
3 421 804 1425
3 1199 706 1328
3 691 1969 365
3 1052 470 2147
3 867 1306 1954
3 1959 550 2027
3 1890 1365 1606
3 1695 1172 1015
3 1712 534 2126
3 1525 667 2156
3 1723 659 1610
3 280 10 2188
3 1035 1545 2029
3 929 1753 2222
3 261 262 1625
3 1566 1100 2209
3 1200 2300 1974
3 1707 1340 1597
3 1228 531 2050
3 1710 497 1735
3 1231 545 1612
3 1659 1456 1416
3 964 1093 2118
3 767 1542 2330
3 1524 440 1287
3 46 47 2122
3 244 1723 1977
3 318 319 2303
3 174 175 2129
3 101 102 1092
3 57 58 2128
3 1545 1035 879
3 1261 1272 1388
3 1734 548 1474
3 12 285 1903
3 266 267 1550
3 20 293 1347
3 417 1690 2123
3 18 287 749
3 427 1273 1879
3 1353 1493 2014
3 628 915 1387
3 339 1393 2222
3 1312 1415 1511
3 2006 1110 2046
3 498 1877 1818
3 1273 850 1879
3 785 923 1916
3 287 1199 749
3 1555 415 1598
3 766 2214 1949
3 935 733 1540
3 243 244 1977
3 1995 59 1600
3 506 1858 2315
3 804 518 1425
3 681 802 405
3 1909 475 1621
3 802 415 405
3 1767 936 2223
3 1898 1067 1359
3 38 39 1697
3 1765 1048 1490
3 1316 875 1865
3 550 1638 2215
3 668 1710 1735
3 1585 610 1843
3 1724 1257 1678
3 1628 659 2109
3 235 236 1944
3 1393 1058 2222
3 1044 602 2024
3 1118 2091 1905
3 1457 295 1997
3 1459 2191 1439
3 1195 1804 1925
3 1345 1332 2223
3 791 1266 2167
3 1138 1982 1748
3 656 1702 2319
3 98 99 1574
3 177 178 1570
3 1809 878 1398
3 885 1166 2171
3 1797 370 1746
3 2179 1380 2153
3 270 271 2149
3 1483 514 2038
3 812 954 1846
3 184 185 1569
3 1793 468 1416
3 928 1417 2181
3 697 1884 1927
3 538 1517 2203
3 1771 472 1700
3 1756 617 1368
3 1432 672 2345
3 1492 1258 1486
3 1545 616 2029
3 631 1492 1486
3 769 1995 1206
3 2152 521 1579
3 1056 1366 2013
3 91 92 1931
3 2167 1340 1103
3 107 108 1108
3 1994 1155 1481
3 1190 786 2248
3 948 2259 1807
3 1072 661 1622
3 1001 822 1920
3 94 95 2157
3 579 1852 1346
3 1060 1544 2211
3 793 2001 1563
3 1367 1928 2302
3 1854 419 2064
3 1995 769 2128
3 433 1001 1920
3 1859 641 2210
3 658 504 2183
3 1802 438 2207
3 1018 1790 2311
3 151 1492 2133
3 1640 1174 1619
3 767 1432 2345
3 1723 888 1977
3 1170 1995 1600
3 1737 690 2178
3 2118 755 1460
3 595 1640 1619
3 696 1927 2348
3 675 2108 643
3 1014 1483 2038
3 1982 1322 1748
3 745 2179 2153
3 1793 435 2178
3 1272 673 1388
3 954 581 2323
3 2091 653 1905
3 811 1739 2159
3 1852 1349 1346
3 710 758 2340
3 954 367 1846
3 1739 978 2159
3 1066 1130 930
3 348 2049 1119
3 961 1181 2021
3 2148 1074 1775
3 181 182 1379
3 875 464 2267
3 1790 796 2311
3 875 1442 1865
3 964 2118 1460
3 577 1797 1746
3 1968 741 2210
3 834 1585 1843
3 22 291 2182
3 1722 444 1403
3 368 1802 2207
3 110 111 1252
3 963 1545 879
3 514 436 2038
3 404 1854 2064
3 481 1756 1368
3 2049 928 1119
3 156 157 1473
3 1877 487 1818
3 1603 987 1406
3 44 45 1476
3 1110 1542 2325
3 287 17 1384
3 644 1489 2065
3 1139 325 1929
3 843 2152 1579
3 1753 339 2222
3 1121 2284 1515
3 1918 290 1407
3 2191 527 1439
3 119 120 1914
3 1482 870 1613
3 586 710 2340
3 1318 558 1872
3 848 1717 2331
3 1332 425 2223
3 941 1765 1490
3 48 49 1775
3 1359 460 1406
3 367 954 1791
3 284 14 1220
3 1802 368 2164
3 489 1495 2082
3 547 2081 1444
3 128 1544 1906
3 530 1722 1939
3 1645 468 2132
3 1150 1098 1701
3 598 1869 1546
3 661 1072 2298
3 1238 528 2067
3 1544 1060 1906
3 710 760 2334
3 807 1820 2144
3 2108 797 643
3 140 141 1329
3 1072 542 1932
3 1869 598 1500
3 425 1767 2223
3 556 1706 1571
3 443 1722 1403
3 1039 618 2068
3 560 1734 2349
3 1237 487 1685
3 1159 1509 2141
3 1645 1042 2155
3 1667 344 2140
3 1028 264 2269
3 137 138 1962
3 870 1482 2059
3 2061 459 2248
3 401 744 2181
3 1734 382 1511
3 2253 1260 1447
3 1674 577 1746
3 1437 1829 2327
3 613 1886 1285
3 1275 426 1632
3 1035 2000 2074
3 871 1691 2074
3 1282 18 749
3 1072 737 2298
3 1869 1151 1546
3 2070 499 2233
3 1005 736 1407
3 1012 1727 2027
3 963 879 1240
3 415 844 405
3 1760 1014 2038
3 879 1035 1691
3 1722 443 2334
3 1080 2253 1447
3 246 247 1741
3 290 20 1407
3 1742 1259 2230
3 549 1972 1728
3 1262 702 2231
3 1013 2227 1390
3 366 1262 2231
3 810 1860 430
3 1564 598 1546
3 2062 445 1851
3 870 1015 1613
3 1900 249 1592
3 377 1762 2234
3 987 1898 1359
3 572 1635 1270
3 1860 1180 430
3 1412 955 1850
3 459 1017 1190
3 1315 553 1822
3 807 1039 2068
3 1588 1822 2301
3 1756 523 2308
3 1098 576 1701
3 628 1611 2164
3 281 11 1983
3 514 1483 1543
3 2100 891 1582
3 612 981 1732
3 871 1088 2341
3 1109 367 746
3 1087 781 1007
3 830 1645 2155
3 625 1880 1571
3 1761 732 1766
3 621 1763 2071
3 1039 301 1342
3 1880 556 1571
3 595 2000 2029
3 1491 2243 2047
3 1644 327 1582
3 520 1761 1766
3 1763 563 2071
3 1071 266 1550
3 254 1361 2240
3 387 1378 2349
3 2143 1050 1818
3 1237 824 1616
3 393 1509 2032
3 1471 481 1368
3 1509 1159 2032
3 326 2135 1481
3 1436 362 2218
3 1509 9 2141
3 213 214 509
3 2000 1035 2029
3 764 1355 1755
3 467 1603 2163
3 148 149 1557
3 764 1008 1453
3 1988 484 2289
3 748 1334 1321
3 1697 39 1750
3 1603 952 2163
3 2030 978 1568
3 786 1281 2248
3 1621 816 1503
3 595 2029 1640
3 27 384 1503
3 888 1723 1610
3 1042 1645 2132
3 1877 498 2161
3 1831 775 1943
3 1279 1286 2258
3 308 309 2324
3 617 1756 2308
3 1199 287 1384
3 411 1922 2250
3 20 1005 1407
3 1588 1315 1822
3 1023 1395 1989
3 787 475 1581
3 295 296 1997
3 1812 1231 1612
3 1889 374 2052
3 973 1238 2067
3 168 169 2225
3 618 1832 2068
3 1822 1155 2301
3 1820 299 2144
3 1496 1242 1500
3 1051 1609 1097
3 409 658 2183
3 460 1724 1406
3 485 1318 1414
3 985 2006 2046
3 1844 862 2180
3 518 804 2233
3 367 1109 1846
3 665 1179 1394
3 1880 625 2147
3 1339 432 1390
3 483 1434 2074
3 115 116 1829
3 170 171 1446
3 1749 443 1403
3 658 409 1595
3 1609 995 1097
3 346 1254 1774
3 70 71 2237
3 2105 1313 2053
3 977 1087 1007
3 1175 983 1706
3 340 879 1691
3 1531 479 1373
3 1252 111 2008
3 326 907 2135
3 598 1496 1500
3 165 166 2238
3 313 314 500
3 861 625 1571
3 878 2003 2116
3 1053 1959 2027
3 708 1153 1895
3 1482 523 2059
3 1663 1207 1656
3 359 2094 1460
3 983 1175 1278
3 1151 1438 1546
3 537 1482 1613
3 797 1855 643
3 190 191 2072
3 85 86 1676
3 627 1834 2199
3 1512 821 2102
3 523 1756 2059
3 914 1900 1592
3 1978 410 2083
3 1494 390 2057
3 2118 453 1088
3 1580 1149 2281
3 1828 784 1997
3 1984 608 2086
3 549 1728 1490
3 87 88 1752
3 1269 1228 1330
3 682 1978 2083
3 188 189 1847
3 61 62 2243
3 756 977 1007
3 299 300 2144
3 205 206 1352
3 827 1512 2102
3 328 1301 1177
3 1728 941 1490
3 744 401 1887
3 193 194 2254
3 1301 873 1177
3 1114 438 2224
3 1222 1104 1714
3 339 1175 1393
3 280 2188 2342
3 82 83 2090
3 599 1663 1656
3 506 1859 2210
3 1924 557 1670
3 2161 1257 2209
3 1098 772 1089
3 1972 1167 1728
3 1818 1050 1147
3 874 1858 2309
3 124 2079 2331
3 1123 1291 1553
3 1921 559 1302
3 1292 763 1758
3 1175 783 1393
3 515 1533 2278
3 1204 1636 1589
3 127 128 1906
3 1858 872 2315
3 1075 322 1970
3 1306 762 1902
3 564 1664 917
3 1263 1889 2052
3 160 161 1848
3 620 358 2060
3 554 2131 2352
3 152 153 1195
3 723 2044 943
3 735 2058 1897
3 389 762 1740
3 1175 339 1278
3 1636 826 1589
3 2094 964 1460
3 1097 464 1520
3 695 634 332
3 626 1533 2290
3 1854 404 2234
3 2000 483 2074
3 1642 537 1613
3 1530 1292 1833
3 2029 616 1640
3 832 2077 2316
3 41 42 1556
3 59 60 1600
3 423 1499 1866
3 66 67 2279
3 216 217 1810
3 1669 777 2165
3 576 1514 1701
3 672 1785 2345
3 1434 871 2074
3 667 1525 2272
3 255 256 2271
3 1608 736 1164
3 832 1598 1451
3 1921 1006 2150
3 1789 971 1838
3 884 1963 1801
3 1204 867 1954
3 209 210 2035
3 1005 20 1347
3 511 1292 1285
3 294 1457 2272
3 371 1288 2239
3 487 2143 1818
3 2188 607 2342
3 1693 963 1714
3 1474 387 2349
3 912 1494 2057
3 1785 767 2345
3 1725 1006 2172
3 637 2002 2125
3 566 1835 2204
3 1395 632 1989
3 1926 1012 1776
3 347 927 1868
3 851 1809 1398
3 1225 801 2269
3 935 1642 1613
3 1842 465 2274
3 1478 665 1394
3 559 1921 1332
3 1703 609 1705
3 425 1921 2150
3 2051 422 1573
3 1635 359 1460
3 479 1531 1986
3 2124 947 1488
3 1296 2051 1573
3 989 16 2287
3 21 290 1862
3 1531 1149 1986
3 690 1793 2178
3 840 1026 2327
3 531 1228 2095
3 1431 471 2093
3 232 233 1461
3 492 1786 2211
3 397 1561 2329
3 1051 984 2336
3 2044 885 943
3 1842 462 2282
3 755 1635 1460
3 4 1966 2151
3 632 1784 1989
3 1901 330 2099
3 1013 1326 2227
3 899 1478 1394
3 511 1956 1867
3 1660 830 1747
3 1286 1644 1716
3 2259 679 1807
3 794 1435 2063
3 388 1933 2160
3 1669 378 2275
3 1026 676 2327
3 326 1155 1822
3 1519 788 2019
3 1933 831 2160
3 296 1828 1997
3 368 2098 2221
3 51 52 1891
3 553 326 1822
3 1262 148 1557
3 587 2130 2166
3 937 1703 1705
3 2284 886 1515
3 111 112 2008
3 1372 1200 1974
3 725 1934 1549
3 762 669 1902
3 2174 759 2176
3 911 545 2047
3 39 40 1750
3 683 1824 2110
3 138 1968 1962
3 1362 2174 2176
3 780 2033 2288
3 1934 497 1549
3 815 2094 2017
3 522 1115 1649
3 681 1003 1381
3 1115 583 1649
3 1960 920 2131
3 478 1142 1866
3 249 250 1592
3 1082 1028 1964
3 1832 395 2280
3 1898 987 2252
3 801 1225 2204
3 133 134 1958
3 551 2124 1488
3 1033 760 1719
3 2130 720 2166
3 136 137 2302
3 137 1962 2302
3 1434 755 1088
3 1025 1370 1883
3 942 1037 2277
3 477 2107 2339
3 140 1329 1576
3 1029 1935 2339
3 1225 566 2204
3 432 2185 1390
3 331 1960 2221
3 1124 1811 1411
3 1858 506 2309
3 677 1988 2289
3 745 1998 2179
3 1228 1269 2095
3 1273 427 1816
3 1873 1042 2335
3 1100 1877 2161
3 734 1355 2346
3 1961 631 1486
3 1690 1532 2123
3 777 1669 2275
3 1370 1131 1883
3 830 1971 1747
3 919 875 2267
3 197 1661 2273
3 1334 354 1321
3 802 546 1451
3 1957 494 1221
3 233 1955 1461
3 545 580 2047
3 1016 1926 1776
3 1998 502 2179
3 891 1644 1582
3 1555 650 1794
3 605 79 1744
3 1667 938 1246
3 335 1555 1794
3 2107 1698 2339
3 1100 2161 2209
3 1476 1212 2007
3 372 793 1563
3 139 140 1576
3 1680 1674 1746
3 1213 1878 2249
3 1205 328 1948
3 1050 2143 2291
3 834 1881 1287
3 707 2087 2005
3 2196 417 1386
3 1159 2141 2263
3 1326 591 2227
3 1955 814 1461
3 852 934 392
3 462 1842 2274
3 1876 364 1916
3 402 838 1607
3 2087 1000 2005
3 2141 846 2263
3 979 1965 1583
3 438 1114 2207
3 125 729 2079
3 2131 920 2352
3 1921 425 1332
3 602 1861 2329
3 1031 633 1813
3 1844 452 1974
3 1378 387 1211
3 1878 1602 2249
3 1965 890 1583
3 1037 351 2277
3 345 1721 1381
3 927 792 1868
3 941 1728 2048
3 1354 143 2145
3 410 1718 1364
3 2227 1311 1390
3 591 2208 2227
3 1898 471 1558
3 2208 1311 2227
3 1875 1101 1895
3 1374 470 2286
3 2033 582 986
3 717 1281 2054
3 1991 1121 1515
3 702 1262 1557
3 822 1073 1920
3 1751 603 2347
3 682 1075 1970
3 518 1567 1425
3 1827 404 2064
3 1299 708 1895
3 2213 1050 2291
3 601 1317 2205
3 744 624 2181
3 714 2185 2212
3 838 668 1607
3 1814 1253 1430
3 989 828 1872
3 2185 432 2212
3 1302 589 2172
3 1957 751 2020
3 1878 1213 1980
3 1053 1521 994
3 1363 2196 1386
3 418 2246 2294
3 338 1864 1447
3 545 502 1612
3 982 1282 749
3 955 1114 2224
3 370 1680 1746
3 1864 1080 1447
3 1376 1126 1551
3 603 1751 1730
3 676 2304 2321
3 411 1894 1808
3 480 1913 1851
3 386 1873 2335
3 1521 399 2005
3 1727 1053 2027
3 1067 1898 1558
3 684 1331 2076
3 963 1240 1714
3 1966 412 2151
3 1281 717 2248
3 1138 1276 1777
3 498 1818 1147
3 1512 655 1904
3 1399 999 2232
3 821 1512 1904
3 1972 958 1796
3 897 2112 2156
3 1054 518 2233
3 1036 1059 1543
3 357 2217 1398
3 1023 2015 1268
3 329 1127 1772
3 2208 692 1976
3 2217 851 1398
3 600 2213 2219
3 2304 1617 2321
3 1058 1393 2193
3 1706 556 2195
3 229 1681 2198
3 351 2033 986
3 1681 1113 2198
3 1427 1376 1551
3 2044 342 1732
3 1226 1059 1919
3 724 1226 1919
3 857 507 1736
3 475 1685 1581
3 1782 572 1930
3 1331 324 2076
3 603 1782 1930
3 2137 400 2163
3 922 807 2280
3 1967 74 1757
3 1177 1151 1948
3 676 1437 2327
3 1003 345 1381
3 1310 614 2214
3 2012 423 1866
3 2197 381 2330
3 600 2169 2213
3 337 1123 1553
3 2046 1110 2325
3 406 1784 2258
3 736 1918 1407
3 1247 1670 1946
3 328 1177 1948
3 986 582 1211
3 1263 2004 2342
3 2213 865 2219
3 494 1957 2020
3 1978 682 2260
3 917 670 2031
3 202 1203 1805
3 641 1968 2210
3 592 1066 2110
3 404 2025 2234
3 476 1991 1515
3 528 1874 1811
3 755 2118 1088
3 2137 372 1563
3 1874 739 1811
3 2112 652 2156
3 412 744 1887
3 406 1399 2232
3 1886 511 1285
3 1005 519 1164
3 1033 530 1939
3 990 1071 1550
3 2002 873 2125
3 470 1985 2286
3 788 1575 2019
3 704 839 2257
3 474 2055 2244
3 2202 1074 1683
3 692 1605 1976
3 1212 635 2007
3 1457 667 2272
3 1575 888 2019
3 1770 810 430
3 2055 946 2244
3 1014 2083 1364
3 1179 969 1394
3 850 1273 2078
3 952 2137 2163
3 760 1033 1939
3 1988 1349 2177
3 1028 801 1964
3 1910 1737 2178
3 806 1918 1979
3 1207 818 1656
3 798 1566 1696
3 888 2126 2019
3 2083 410 1364
3 574 1686 2275
3 400 2137 1563
3 1208 704 2257
3 1575 243 1977
3 2138 559 1332
3 1894 355 1808
3 435 1910 2178
3 938 1667 2140
3 237 1917 2293
3 554 2263 1733
3 1084 857 1736
3 1101 1299 1895
3 1968 641 1962
3 1187 2226 2264
3 1918 736 1979
3 1686 777 2275
3 351 986 2277
3 1128 1988 2177
3 1470 1078 1641
3 614 1310 2235
3 497 1934 1735
3 1345 2138 1332
3 1951 1141 2283
3 1821 684 1551
3 582 1378 1211
3 499 1054 2233
3 830 1660 2350
3 455 1951 2283
3 2226 715 2264
3 394 2174 2106
3 2263 846 1733
3 1110 2006 1699
3 1896 1062 2022
3 2174 1362 2106
3 873 1301 1578
3 2169 1050 2213
3 633 1923 1813
3 546 2077 1451
3 1609 1051 2336
3 2077 832 1451
3 799 1957 1221
3 581 1435 2323
3 947 2206 1488
3 772 1935 1089
3 1242 2003 1500
3 1050 2169 1147
3 1966 4 1596
3 2206 1207 1488
3 879 340 1240
3 1319 347 1868
3 1614 638 2245
3 1912 806 1979
3 668 838 1444
3 1435 794 2323
3 580 1491 2047
3 1274 986 1211
3 671 1323 2312
3 1393 783 2193
3 210 1536 2035
3 2252 719 2093
3 1935 1029 1089
3 342 612 1732
3 2117 719 2252
3 2281 1420 1337
3 2025 377 2234
3 1310 463 2235
3 694 2281 1337
3 1392 886 1021
3 1915 257 1947
3 801 1028 2269
3 1965 451 1472
3 630 2202 1683
3 1242 1496 2247
3 1776 1012 2027
3 11 2045 1983
3 1496 709 2247
3 727 1392 1021
3 808 2139 2333
3 408 1374 2286
3 890 1965 1472
3 1145 356 1426
3 1739 811 2139
3 1130 1585 930
3 488 1739 2139
3 1647 394 2106
3 2001 400 1563
3 2097 594 1945
3 974 1660 1747
3 1532 602 2123
3 1122 1420 2281
3 2160 948 1807
3 1149 1122 2281
3 602 1532 2024
3 2094 359 2017
3 1055 1647 2106
3 2096 828 2287
3 451 1759 1472
3 1536 795 2035
3 1887 959 2270
3 597 2097 1945
3 365 1219 2326
3 1475 2289 1830
3 1477 656 2319
3 1323 473 2312
3 885 2171 2201
3 2032 1159 1942
3 1382 2060 2140
3 765 1825 1651
3 1759 1402 1472
3 1256 1312 2299
3 691 365 2326
3 396 2030 1568
3 987 2117 2252
3 1327 1027 1520
3 1027 1051 1520
3 2122 47 2220
3 688 1768 1899
3 2171 1295 2201
3 2289 484 1830
3 1086 2088 1682
3 1768 1450 1899
3 2060 938 2140
3 1078 1688 1641
3 1804 849 1925
3 1861 397 2329
3 940 2042 2031
3 1923 1038 1813
3 2098 331 2221
3 1281 146 2054
3 1832 2280 2068
3 2088 647 1682
3 2270 959 1815
3 1585 440 930
3 976 1621 1503
3 1532 252 2024
3 462 2169 2282
3 847 1143 2053
3 1743 575 1882
3 948 918 2259
3 1312 382 2299
3 2003 1242 2116
3 1000 1521 2005
3 1030 1145 1426
3 1322 1982 2305
3 2236 1260 2253
3 1059 1036 2184
3 1392 476 1515
3 1012 1926 2232
3 1641 574 2275
3 841 1477 2319
3 2057 416 1504
3 1485 953 1946
3 661 1371 1622
3 705 1990 1862
3 1126 1821 1551
3 409 2183 2265
3 2185 1013 1390
3 2045 11 2004
3 607 1743 1882
3 1311 1339 1390
3 585 2032 1942
3 1321 354 1838
3 971 1321 1838
3 1371 1236 1622
3 1487 767 2330
3 1440 463 2305
3 912 2057 1504
3 1513 1148 2351
3 1926 406 2232
3 1258 1195 1925
3 2075 15 2251
3 1990 21 1862
3 620 2236 2253
3 872 1264 2315
3 2033 351 2288
3 544 1031 1813
3 1812 865 2291
3 1221 494 1815
3 1782 603 1730
3 552 2122 2220
3 2169 462 1147
3 416 1993 1504
3 1131 1370 1952
3 378 1641 2275
3 2183 1280 2265
3 575 1889 1882
3 42 2162 1556
3 1922 35 2250
3 1758 613 1285
3 2006 593 1699
3 1867 735 1833
3 1088 453 2341
3 386 1994 1481
3 887 2115 1919
3 1292 1758 1285
3 44 1476 1790
3 502 1998 1612
3 1062 1892 2022
3 2092 1023 1268
3 1889 1263 1882
3 356 1782 1730
3 1993 1106 1504
3 2278 714 2332
3 1378 560 2349
3 380 1812 2291
3 1985 1081 2286
3 347 1319 2347
3 918 516 2259
3 1776 550 2215
3 1380 2179 2348
3 1728 1167 2048
3 1892 348 2022
3 727 1021 1694
3 2079 848 2331
3 171 1255 1446
3 49 2148 1775
3 2115 724 1919
3 2058 419 1897
3 603 1343 2347
3 1476 796 1790
3 388 2160 1807
3 2109 346 1774
3 828 989 2287
3 2077 589 2316
3 1957 799 2294
3 421 1412 1850
3 1684 2229 1808
3 966 703 2328
3 423 2012 2285
3 88 1969 1752
3 1016 1776 2215
3 412 1887 2270
3 2039 188 1847
3 2243 911 2047
3 2012 758 2285
3 2143 380 2291
3 2229 411 1808
3 1829 840 2327
3 362 966 2328
3 986 1274 2277
3 1201 1221 1815
3 702 1557 2338
3 13 2046 2325
3 925 1441 2351
3 2056 1633 2247
3 2066 696 2348
3 2045 1247 1983
3 1051 1097 1520
3 709 2056 2247
3 1969 691 1752
3 378 1470 1641
3 647 2039 1847
3 886 1392 1515
3 759 2105 2332
3 2135 386 1481
3 40 1940 1750
3 2310 814 1002
3 1755 777 1686
3 1825 1358 1651
3 1021 373 1694
3 2034 1448 2205
3 1255 686 1446
3 713 2310 1002
3 630 2318 1736
3 600 2216 2282
3 865 2213 2291
3 1183 1608 1164
3 1882 1263 2342
3 764 1755 1686
3 1940 819 1750
3 607 1882 2342
3 1872 828 1414
3 494 2270 1815
3 2014 552 1506
3 1318 1872 1414
3 1105 1319 1868
3 1688 574 1641
3 2169 600 2282
3 996 2069 2346
3 2318 1084 1736
3 1363 1386 2299
3 799 1221 1508
3 1734 1474 2349
3 717 2061 2248
3 1386 1256 2299
3 2126 888 1610
3 2069 734 2346
3 1221 1201 1508
3 870 1695 1015
3 1240 1222 1714
3 1422 1030 1426
3 796 1476 2007
3 692 1654 1605
3 507 2202 1736
3 1811 739 1411
3 1353 2014 1506
3 1654 525 1605
3 888 1575 1977
3 1764 800 2300
3 2214 461 1949
3 1559 344 1704
3 2202 630 1736
3 635 1689 2007
3 550 1776 2027
3 381 1487 2330
3 1343 347 2347
3 1311 2208 1976
3 1445 1764 2300
3 1879 850 1704
3 2139 811 2333
3 850 1559 1704
3 1773 805 2328
3 51 1891 2307
3 1904 655 2189
3 1040 1904 2189
3 799 1508 2324
3 703 1773 2328
3 1045 1879 1704
3 1169 1422 1426
3 1689 796 2007
3 1891 1348 2307
3 954 2323 1791
3 1939 1722 2334
3 1557 149 2338
3 1186 1591 2095
3 1591 531 2095
3 1605 533 1976
3 2280 807 2068
3 920 2010 2352
3 760 1939 2334
3 2323 794 1791
3 2322 524 1651
3 2010 1397 2352
3 1358 2322 1651
3 1508 308 2324
CELL_DATA 4392
SCALARS Von_Mises float 1
LOOKUP_TABLE default
16283468.293964189 21560298.732682344 12772627.433421789 32043645.310460445 34712047.37090786 14066210.41019565 22286860.363549747 26975177.998292558 6467150.516055784 47450419.74613418 35142033.02208398 11944179.5141093 21178502.23304557 62729189.10196323 20053877.952122178 18105745.349182364 44508738.238697425 44832615.130520925 22186619.99717607 2571712.410899527 20990211.17116099 21915425.628406055 32342432.072344564 22078540.2238819 28899702.846351776 9795968.338871835 32011600.686282393 31331810.24268975 13504039.014221713 33527259.06444892 779821.6631901388 29573996.87616805 22605068.704018347 636274.6914272608 36013619.88897572 19578473.717874523 8087686.978073452 27557086.181978345 25784885.94210784 35072261.72780247 29971847.97537438 31457389.517040014 30856508.4686272 31739043.550066974 42039830.71346194 34248030.713450454 1218716.3527500713 31746236.224231176 13229060.10276455 41054049.01278792 4764501.320852843 17417865.25954885 33801177.32565237 10241005.164833179 14665603.481218982 21835056.980319735 55691183.641734816 17217650.14635026 14842301.562357444 24310406.282536272 26293181.713119037 24040044.353950128 3752727.409005468 9956032.343428653 8680301.374954974 12067187.161802102 35703705.398196295 31010694.679108966 16003306.87178513 80808442.88842058 24308859.38366904 16909589.58465331 36000209.35047534 46127654.83027976 14891702.437728873 15676557.965511326 7282180.023646154 10931922.14347081 11030639.05540542 30148460.98338115 34701721.539278 8132231.562268838 3268431.583046631 28425550.759091537 31639858.919452246 29886535.080889445 16281623.080967022 12744142.089920714 29859264.161862068 30251735.344773445 33901784.25883538 26465854.658370975 32364948.06482928 30143374.06505732 22481169.39402826 24435729.86921339 37026171.58922689 13797065.121340316 20201529.494852595 21416266.10070494 31813032.887717664 5660837.99591333 33114788.473189637 16075435.088674683 29591659.270903733 40402571.064853765 12317992.045168431 4402912.079401193 34962606.65496853 22721405.51967839 32356550.29229593 16543669.188481322 33594832.366126895 33942159.38609835 29711422.090133764 21453236.95775033 23346605.915296447 2283201.6827470623 27459700.282547925 30061688.447124366 28714163.916135438 35077003.87510652 63561762.22087098 30796674.62358268 28736946.510773603 29292782.32936325 30617899.193343617 17907282.238815647 34301794.328708135 27624924.12152221 36472967.63217343 29460742.649094842 38201991.311635196 15277413.814536132 35905261.517804965 29961034.492230374 24853053.65078154 19893564.61003251 29163884.48611232 42303394.09684443 24535601.85847685 18397156.527602468 6094320.016283199 33405868.40760699 12495113.347061202 24917880.274903387 4841040.844977746 3751988.000247369 29697872.080046926 29010608.274555393 24198884.489886113 14945309.786139712 29603381.865919184 22133107.937763926 26879329.10869465 25394033.502173495 14989066.854655666 4219632.054427476 43265857.14753561 35858720.96078891 24222178.60991391 9953185.24039313 35531092.149563506 31121795.231754523 30374733.495744403 25311772.465836436 23142189.085565593 33756370.629882865 26203387.8778827 10029024.219573637 33194713.46528361 27294067.519778512 28902409.062115893 1626441.337556496 22955337.25817819 34525292.40816683 31114298.92556568 26689601.358731255 13308482.031849455 16076411.29238689 25936415.6451017 44147780.859829545 13116066.093158018 13273608.77047648 29653198.31642275 37355876.545826495 12653540.694634827 14315814.166754194 28971366.16489756 39366804.807007186 2037512.2869467023 8107004.033165972 8105662.058211007 18603867.445101824 29090277.5661685 29124000.07614497 4950227.601870107 325941.1861160234 2482122.265841588 40152502.26000504 28215937.50598652 3028820.385313879 42801872.753480665 28027732.87207442 15223927.048684783 8061930.639401821 29966695.681896746 27509261.86992638 24075952.627069317 19298753.111032523 31659412.546470884 469722.71824788966 23246255.65639515 1953620.9469954453 28327242.776530232 30391956.589015324 30534537.680462964 10300321.894476328 33424874.258627616 5923534.332476642 23856103.89526967 32927189.445965886 30674935.608728338 5113295.517219487 4806197.61719068 19861130.38205657 30846645.644919313 23929582.997338414 32452348.9754297 30868286.063234843 19720712.093446936 29392554.46361118 32132990.719654024 3379814.3875564407 26812548.8198238 29882029.47428623 57139007.98071647 15953002.288551765 3911867.968580382 6617009.634496845 4018046.493626767 28726713.31569804 34711939.56465061 33908190.85945849 28057225.416909717 33205310.200443394 56283082.23512499 7590165.238775921 30735896.74766292 22203592.64952995 32395645.237507954 31188602.062617995 18995490.911188517 15309645.097313017 4370888.7388536595 25284833.4174381 11063227.033841455 31875408.581598647 26894735.923932742 28504653.486154817 26219641.822258167 27962704.042775676 4098847.43028438 19872481.274517205 14988326.859978411 5058177.578460031 1855363.1882604584 24829223.266716566 26743962.4119836 13440040.540426925 24339237.37345595 32922739.121995375 27129218.02670176 29391965.852881216 33127578.67104742 9205635.38310383 32512071.907791242 21117246.45586978 39120510.24669864 8471321.84427478 33445077.97668885 24456556.827684175 2850335.8106881077 27913198.52487842 15653239.296305906 3296144.540127878 21316385.308748644 3881628.7901263237 1902003.2826980618 28286446.568868805 10935757.441429017 5730195.802189995 8508993.934800768 31068121.5797246 33874513.33837242 28059301.432818156 36950459.867811255 1260193.6462355482 23694422.717732176 8534446.095865 8258379.659750447 31636225.08007721 11984454.778209882 23360502.385889366 33325626.467046242 19410809.63513393 10342828.24233097 28356428.465831492 30389060.944462415 7560786.0244060615 9987712.409482261 3035161.6360465623 9281919.843768205 35710412.31005276 32268966.655434757 29162758.91599163 33920723.231980905 36174699.99448863 10469739.017642146 63636900.567934595 35431738.151440516 41881405.24526425 21480376.30202655 27783290.811384093 35940575.85498209 25104458.11830812 32375469.802716535 25109244.662308604 30098812.665790807 24103743.87368293 3915804.9515858046 22518194.355716612 16591555.195146319 30691558.328639094 26033736.418591063 28444616.707299553 22660072.03974322 21821671.77745964 29865618.031225096 4644333.3794035185 19861058.73413703 30662384.413157817 8074045.759675465 15466736.121531542 28579784.846994776 29867234.997394383 39137349.76893987 39772535.74786551 30781271.833334032 30422690.79974296 24118302.328429025 28471745.081949722 20448865.454971544 30661388.459273692 21837765.05060441 11449197.914407631 12986789.29708066 30041743.133411303 32387853.14148027 15743109.163323628 1951851.0975918293 29489969.041910462 7635182.128372955 23942497.86060393 40683803.69866738 24605357.723482944 3887851.192934666 3928285.9071845976 6835602.453277482 39363725.89033123 40673092.90879641 10714365.970058488 28079779.638935443 16548772.349176861 15808187.118552221 30290426.94761502 12024967.505612189 23840280.929635067 29134963.695491232 31884832.01158558 84906301.3472734 37239212.78140293 24712885.47872808 3863618.2190151094 40304857.16057563 30181079.818144783 6879320.449326809 17691446.937219452 28395676.11723671 3913779.5693607554 20352637.300461546 14584380.581144731 32443701.66040735 27875816.538519815 13156169.794607237 25307800.935037877 48960988.53304759 30631865.03281511 32165586.87555857 20681480.79308349 8427038.628838597 13118240.471271146 6174062.752155148 22649086.17758334 9087356.476649264 32473048.20807049 28720487.48944933 32132543.632342435 20912312.151300214 18734507.400098402 23460655.39598839 6488619.113374678 24044599.37953661 29034974.206665795 1605551.1686457973 33395803.768446423 11000912.477797829 26455144.564325415 32574811.14297575 21131502.57170338 28267685.937254164 20375666.082673877 14219736.409822976 33090163.65855668 30549779.064233962 8891848.247840557 56429047.229053356 32365652.335688304 4550315.341677449 30496741.489261843 18604291.55860916 15163731.613501528 22432373.53694944 17722651.414691187 2907224.3176854067 2926692.85659686 28997577.991312392 29552884.423066586 28809984.751264613 3138076.9728424754 12629152.196079347 32215022.584972635 30853976.95810317 1666839.424837609 1663846.8176082608 31062719.91184725 32150305.557463743 15287607.171807408 19089344.79963975 45821654.599802464 23503878.543832008 18269883.665910464 1558292.591436263 1561800.9466689357 31074245.93642997 21550891.849501517 10369041.052956054 22327671.67544255 23313808.559892252 58419705.593888365 15308703.680581035 9949218.112196965 12690452.33444551 30542868.28113152 11324989.467181731 20592986.282410786 42304954.87382078 1101085.138552391 1099346.1230255 1613251.6499581048 23724905.426319603 11334077.683863895 17656460.791463748 12805244.78556294 28904055.22199286 29870512.820167284 2843692.5230551744 10190413.864673803 10677680.877494358 2028557.8964083104 20987281.271969736 13465962.6576286 31325565.15265038 9161325.801436773 26984896.62471474 2175610.0182437645 25062937.079068154 21077490.837534405 4605081.182783703 30876789.550677776 9510318.955193339 10220631.020911558 28494547.088916093 7201791.923457971 19709328.61447888 11994598.741502898 7034106.974324987 23263383.901357353 29598603.059527375 32677513.136281334 7060082.150989905 30309195.02319842 56482674.721956834 3708462.248993264 35385516.91440606 14998835.009589197 31719395.427498944 461689.7984764096 19973593.04609956 30060409.735353522 25989901.58386565 19195349.70013085 10671237.113527523 15407230.750004252 10028909.448219351 21890399.33476641 1798093.798004043 3163900.7792133754 1155280.7548305173 50129099.427647576 20399341.247125845 34163694.01539809 24871219.184419263 10025872.088934671 10025872.088934671 24751899.308453325 6656603.659456116 20344457.45187689 32971350.80094621 26687533.20414029 15356422.00191098 11692710.99428204 4026156.770544412 27959304.969970472 24260066.352011904 38733145.78325459 27730220.902436346 32320052.876394115 13005906.343928441 3134221.221515131 21824754.065916978 9600843.531806273 22426837.335347027 22927706.508241065 35231789.94224191 28588310.33752132 33303849.53914972 1390427.6726203586 29965872.45042505 48800346.81928021 30242485.013146464 25028411.581576325 24984467.152492926 13442498.88071452 35691958.596482426 4530968.241505278 30088539.318655215 76262505.33694866 41421822.78825018 30427748.775166098 3728516.9069744954 8572419.765160473 43680716.076944426 21190961.55943927 28629326.6640674 7495517.038828325 11902269.89648933 18569918.53059067 27973634.421864137 19777294.129331186 4523564.190317096 38616990.41091626 22348024.26030821 42036096.807747886 5947393.488663998 42723465.28889737 25717048.15565845 28984851.06306826 46677809.05866137 28547305.03823094 42494785.40733696 37413141.844427295 8700042.924620926 28010692.22566771 30617789.528368022 31220872.225210197 30828229.28078127 1431363.495089653 51250918.663286805 37556132.989146695 25737383.440549724 62386209.29107487 10115876.49422904 31412462.36327893 23907805.96452906 8371897.255534236 16160778.832835646 34216087.56344308 27994459.627589546 71276681.79695913 22171905.616034497 28856839.85354085 4329835.252240967 35814930.17341753 6272163.231115533 10504405.631585224 29214872.81000539 30618482.333959926 15715180.895620199 5003807.582426542 41803987.85214341 17461507.814652532 12285815.938043341 53413135.21165167 29043154.19949956 9545532.192056542 31257550.050676703 37575821.06738948 38535831.93713933 17035133.337049447 5714361.493683308 37796839.57459522 30760418.73666966 30982306.397829514 16344965.840323104 27413661.203426007 24387435.96201064 22084038.36564321 43724061.23016981 42026444.73915582 13052145.683087772 27217058.714518454 16084634.72957965 17856673.66007781 26512404.623162586 14399176.765822234 78405338.75104935 18243495.666286573 11091917.36824123 29036860.491583906 9965193.114055725 6854066.294713554 33704123.7814709 22256371.53837259 66091951.24392046 25099164.158263046 33723536.83302184 20167484.65062809 25000452.7006157 30828797.903094705 25551016.944511723 157790417.53666797 21692521.093122642 75616753.10362323 28347694.07572152 7782504.815272329 27941495.521450743 28586203.993222535 16705793.540882735 25997769.672579814 77582781.19969966 12188853.96676966 23736567.161540825 17005219.738863833 29768410.529878344 23850026.98932749 38422530.69883258 16878681.60690454 22846286.121943004 22238456.23310853 624156.2865168032 43009366.70233773 26976634.855131324 24664460.677474722 1989874.200143063 5946192.999046765 14780359.313326389 49964405.28148339 21729535.71359781 26199069.339229863 28285091.926276147 26166950.66365711 16456651.940815656 16443143.325744966 5862217.446417526 11464787.728077324 26104339.427533906 11781272.454532761 4031464.394591458 27903753.422459766 25093780.6467633 13029155.073813174 7920891.202681996 33296035.119130243 21512699.222448565 27995152.26033776 29591189.27037847 3265722.668100411 36886183.11590085 24237778.77380714 33837935.904770635 1280446.3661530812 28879136.308691237 39833287.36327737 29422211.177989677 24326607.903986644 16518600.144215759 35532259.00733888 11192241.190877305 22374583.465089682 20612674.50293778 47635362.89990082 27777034.946258478 24439991.32210167 32471841.200451825 10007442.665004786 31693729.008256715 24097911.45347583 30157323.53028773 29892957.758474886 31878657.736790325 26573966.130644307 21443883.233491056 30269867.874801435 4563424.728075815 30730604.814037483 27143284.924769748 24846578.58198807 20888691.576305795 15149479.398350755 29565861.041194323 30120590.45699033 12081868.296658592 35991874.46773095 29132005.372414477 15980762.475239411 3463103.6035533524 26592135.004233252 4936564.443546261 28851697.95427598 70059510.40484749 18603713.8157629 29908966.14880333 28842576.73664112 12018878.953117749 19522599.054665036 35209792.00326832 31001499.16392166 25287818.531081688 30841095.441426586 23956153.203711517 29266272.500030756 22078025.535993233 15242567.12464475 3488803.472751661 37287143.5339167 19238010.82224869 28610238.082073104 15788168.359965282 29257503.27920383 34575895.85523207 3366592.325895007 31203317.031886924 3072175.7561010635 30115578.325827904 3434038.9934813986 43809403.99161801 29683910.736910317 38937559.22918124 26994998.497371398 5141901.100474121 26671418.981258813 26278914.138907913 5390610.347031406 17329242.012742706 23246019.701144107 22864261.21252574 27927518.994821157 30038497.284901988 27040328.77343316 24038666.609960422 6723589.270738994 7660331.290018602 32018436.046604965 31382466.845705148 27837905.372944422 17340120.079122048 29697162.256090842 5774296.50563374 14896526.841973653 30527043.7370393 3064977.6129206214 5860283.625496962 35561404.77122593 12958543.859618539 29066654.544443842 27759943.584121447 14186485.686857216 34760434.859468825 29240999.348130897 30476939.03528134 24284039.33685012 28960168.715742104 36240237.30567131 30246618.464929223 28776645.61605448 5533860.149743365 30413487.107477423 31054027.251102995 30439078.46519316 30898521.114728797 2874602.966634529 31329771.51414084 21274201.212107453 6164281.1123132855 5096981.550159583 24118057.274286028 30146713.989242572 20377568.172294788 26948346.82668755 28149027.858144652 38131866.3945404 37268877.9533559 30928062.59006415 31886502.284284104 31435903.742472947 20008227.417201705 16336774.13717882 5681637.144366793 31270531.239592075 1730675.4199350395 30275843.943511833 32822877.799174927 10953530.862709109 18667148.046996012 1479306.6911828977 22332743.94522591 4017787.065680007 16495570.98367806 35794257.04929618 21346143.48723886 16120300.720219946 12505365.314782515 11563842.30014145 16569210.14216595 31698077.366046555 40835944.61697452 12031872.63466242 15428865.383416062 30099679.514236502 49591920.39648783 32615314.192546327 35008557.71761446 24893111.081427205 461929.52757780167 7777551.510084319 26859478.061392464 10048966.741848884 3479487.141715501 6018352.800747384 25614499.913892843 14398230.917011132 5812890.170467814 29494794.184738696 17630520.895054333 25358425.10692444 31493714.9103435 25049126.050658036 26521512.648873113 42943487.9681867 26296417.996298384 28309868.184227422 6138702.132744844 25541624.736176204 28949762.597056005 5850997.013208418 20051462.496109504 30096598.493298873 5801542.9040810885 27892220.24927671 25137649.969009377 11789129.968670867 4440970.957704522 6947439.128262001 33676386.859512314 30803250.17681985 24524026.571410466 1223127.091143682 23924412.087863132 20512388.740386326 19182064.92651063 25854985.831671625 20117894.08152473 33435864.23270261 12334572.430318289 29800788.420666657 27568015.05370937 5267147.038865197 5064428.545051014 30460452.560582917 28692576.88612405 20705740.82147306 30629879.971931797 39820726.954715975 1439917.880307468 36655158.98026409 1210834.3617096115 27722949.941819247 6599340.090375787 4176585.2463060287 1078986.4604572009 8348401.9634065805 14316323.724644253 12427562.424150186 23287321.473719534 24000365.403635446 23761062.958687462 25263129.312204104 6058116.011233454 31880289.119076155 19660945.71805222 8524249.297941359 27395435.641934875 17767913.048656665 27072216.536531225 34585978.33914563 10538797.915384093 9210911.094243497 22392426.41762948 16356347.208635332 63852733.05702073 1721908.0155568516 26757496.284563176 25303785.22342367 27513873.54622086 27969078.08703612 77720876.86517732 14120939.740456909 25440321.28171927 25881188.39102452 2015430.3152761646 6290411.257200812 30963383.68598967 31374789.743798 54205464.93399816 34644342.799456805 15873201.278132105 130339697.9685687 14644502.620948587 30332668.835321765 28391381.50338125 27478694.713560093 3083666.507525395 29328968.11828721 30142496.17148061 9015347.534470908 9239865.416016812 15677225.384625982 25326704.470615096 6729097.107750431 10800223.665562732 33671017.48925705 15200475.688552763 14554624.865484307 19081856.239588782 27422656.57264172 26284535.40826066 30082615.7354154 88720011.17529988 17771566.552943997 26626662.981831927 51889543.057066984 58301177.290247284 7957823.473020124 8486056.245596187 29610446.63099989 29011356.503281508 33257801.007578343 17922734.779131193 31144297.30397997 28737737.528867796 15368977.990419973 30843263.24782361 24031284.535111677 28312088.706595853 27777891.33106755 30783923.754004326 33313513.584202647 8579471.923805824 10367747.609995129 1067035.914346798 8489805.734891055 32763671.39443249 29539422.877903152 6534892.49540544 8698289.093310574 24728231.72787588 7313242.550757381 46627573.110203445 28812813.088770427 31062094.782087833 35128507.42691769 19831206.04584128 32138942.50060194 59303484.52501505 11814596.36852895 28060317.111654714 3571781.555484189 4162568.758949373 15033653.711677969 9062555.24157276 25596958.45866562 27970367.728439976 28577043.78853368 25293838.69684763 4800077.734093577 12319918.068358814 27102859.145658813 12215455.553077985 6394663.648174149 13391172.770235578 29035166.214702718 13696200.421387397 8358391.110305924 21479033.276499122 28715383.1303931 38966447.84575271 18439148.667915348 14245765.871838197 1864769.8139606046 27301749.876415968 27438034.431290966 21527551.330840673 15350774.846038694 27320815.40094624 24904564.239581387 30049497.552330874 1880535.9712990802 1997493.7546566378 32083807.068134487 6747270.657932694 30305036.4790741 33340468.442819666 40123007.31124368 24251478.185088813 37350036.54287194 6121390.06191517 16746953.985655615 27216493.281268965 11187201.249742914 32333198.73696168 18556575.768636364 32953728.778707366 50065080.00796734 17147559.220969263 28406742.255719896 90975414.86039285 18840007.24225864 17127632.63021052 31888016.66468031 10487670.762853075 24825845.531294614 29620103.57182168 14160671.907112572 31925158.3943628 19916080.032026682 11483473.74704734 22710459.091417287 1846434.3865731368 24706259.52656631 32134004.324137732 3649210.2780158324 15315639.972552177 59743219.44855029 22966137.123234164 14458054.37226906 14260018.471730687 14266792.009710664 24058830.148088645 31410304.904710148 28777212.78017266 38329878.3799728 30595050.257306736 15301586.06807945 12005755.904332299 31128946.144116934 27101501.21166142 28119976.020104688 16720084.32347409 31085200.242552824 11554161.21312299 34192599.69358101 14122688.678291153 33695669.73155594 37061755.572671436 32350728.92796039 19423188.542228997 27421848.791730728 19821719.525095366 25649622.342144676 26564867.89969014 11186408.36796623 20600726.647610504 42322725.46313896 24184770.068044093 14795791.283078954 5255954.9243499525 39114171.67444796 38351074.94390254 28474042.927756116 14128179.259027459 18106992.880145255 28525020.521821506 5834209.046163107 36301620.46615147 3277828.2614737065 2862346.58502986 30306274.612045005 11982855.992312314 36251375.16715879 47409011.06300628 29374111.354092397 3978619.738154174 27404515.35276845 29800967.555815674 27179769.753838863 1109989.7497610303 19050415.349066786 28050183.616140086 4592221.828978976 33392508.84943006 6628305.520022478 22261095.979762986 6468703.710817518 6494332.178401369 31789203.074017003 21463626.097425614 27069413.873539004 16031409.340627387 30560439.581799418 2819386.919631692 5392058.217487095 33062819.64477329 22053543.357051935 34259496.075833336 18390413.875763882 3317001.452738884 27492999.644033246 10332115.480610585 31178195.762093224 30478656.808133338 28327352.66675868 15011196.88897915 25545907.92862224 29659260.654444817 32984464.85591243 2552275.2003037515 21299731.95858894 31181217.562382895 20337891.77694393 23752095.30947047 57476161.658498146 58738840.3726627 9887843.285229335 18529067.252666913 27796002.397680666 32048508.822268464 33817590.572007775 45110611.44445871 34913894.59798805 31604071.211446565 25463708.506547518 39829204.50942324 33385285.83048198 25477903.90491122 1900053.7044538343 28838077.754573293 3613409.942209807 1487325.524966566 38818233.81393529 31109267.72884201 17974757.727384567 30652047.06053346 19186850.68067387 12163033.025334079 27777640.986967806 28588233.303280205 5104638.269789561 1938290.4733385483 30422726.24709293 36059157.85980206 31228486.897340704 30611991.757757623 17853003.400351018 27022650.136896864 30653034.404440206 12308173.991658956 5667730.054320599 26924468.770483308 60075511.403793365 23371337.841909405 35315991.96050862 50098.34671884568 33194490.331577748 27559690.11130399 20933985.47945493 29599415.56641701 10330903.180610208 14999459.201143622 27430135.882380363 28412145.934943058 13406407.354889965 32784911.048254065 26278982.92573631 22991054.086490363 4539174.267057595 4518214.140198967 28888001.37967824 28185925.725990105 29293441.770991534 15737177.05094085 35017280.11085213 46192326.934937276 78933519.8519983 32670580.33552232 24622348.841616612 30468384.29714934 1885595.9939033852 7056436.796511283 38802770.34654896 33842283.013465814 19233828.278565142 15087936.942807829 12088030.679170195 31048141.291615736 2037338.0975993893 9656888.70569957 33028391.181909367 26161569.769878194 36462473.30287132 21547943.246308625 15822032.02577523 17911784.09089142 133856251.81818737 23530569.66148284 28273960.829394586 2359051.2558754287 28316289.931870367 29501332.45931855 57024709.00178437 33955145.70524044 14490615.895418985 13688253.502596805 21334924.032331698 16150890.13742449 11590596.326499226 20368771.82839603 30038178.370079946 36606548.055904895 9576647.073660528 11632331.607417231 26443562.292656716 32030638.421213925 33518904.96493594 21318767.4240239 15295363.50853677 29308544.05207467 30320065.55208701 26109371.440917045 17195395.973632727 17177058.800910097 19322301.95906941 30261067.773470446 15586492.005941138 17709586.099675808 15984897.74484979 29899151.960587915 31444552.882189725 33478850.708318986 42455447.64667394 2121016.505165072 27482641.02281336 44764871.89500926 16087002.121282764 11214396.146797482 31592628.4235349 7274224.005071507 252614.7045640564 58763725.65121885 29510130.088697277 26255776.09111635 16165567.742823431 8104422.811032002 7535513.562338359 16520713.503960134 27247065.474824555 29362252.709287908 19761767.84248144 40632.90920762946 32627810.672745675 29282957.16656994 15705346.665477395 16120463.967064517 33605570.90056399 18687861.070294246 28907318.3714264 28099698.321125276 27327042.83762163 27474998.781851005 27273077.57476452 9864641.609867003 27193657.79587558 52805875.74987857 31483600.716755442 43950340.62520275 18043609.97075524 24251538.356242884 26535058.474052623 15068839.238391122 34894623.47655109 26988224.337950658 32005998.533955723 33998662.46152483 17977081.92799349 63187217.40700269 10960512.49739927 30056630.114949703 38734955.82909115 11270344.127367985 35892033.833122365 25246570.714920606 22974811.677151706 10297102.184442623 3362579.2341281893 8901974.696872257 27685145.001404524 27450995.326799024 8485407.943814058 9536619.247834018 29857125.499067165 25229431.467565723 34241872.711144626 39709042.87110072 13966478.45837798 30803768.96807653 30697195.961962365 46758230.935689874 21739535.150462274 14886722.973324485 14893438.428347388 28664095.995355383 18456228.935301244 24395904.784589596 23890962.022202864 17104539.125899203 17043386.475750312 59925756.49863352 27057728.166355982 14941197.459803328 17194356.331511408 43180819.885433055 14470398.999541488 23526729.819098353 35234378.5673976 33615836.363910176 39226989.62049905 31168007.026876424 32237989.25978364 19182143.636587195 29825888.964668326 26516278.504825026 8982831.529171193 37110388.36467263 29016950.723495502 24526888.223272484 7677654.88670672 72284.3713695663 25787502.297894344 46373710.747877404 20784426.634937536 29737518.66995788 20443524.63868587 14367409.308397625 28251634.253665503 11929221.711718272 23858513.391892403 8213626.06819785 9810275.162284464 67985005.3335546 39476050.3614034 16452130.491543815 20365422.948773436 28711509.20918016 31052982.572878607 10463337.845866945 2155607.1933055846 21953785.57980296 12349387.079725465 26578837.0414578 27868693.85234542 8917315.373205844 8540806.018497987 35183147.41764512 13529139.17000879 6474675.395664997 26470528.769621536 24486441.0293592 23448825.294963207 49818733.42758638 3998915.297044613 26269176.45076208 30247281.305831537 19360655.847489532 114773068.45408899 54983422.85862789 27547973.640479192 30266692.304650933 26439221.920011945 31321338.372229565 51710316.19400998 42128037.28589983 11357552.734226013 12618416.818801055 4424319.109072271 1619477.4521563393 32463141.1278823 47302710.96462669 41166652.97924745 1556817.0763544096 28454709.185202975 25654394.75665153 12733964.353594229 25252645.98996574 8064741.869892237 19329730.72105771 26149924.522085477 12815820.590926055 37004228.44951609 75903306.77067053 24413463.13416999 3435306.1181771317 49446454.04488412 16907505.96103354 14354249.38057525 26250322.023519076 29498193.500867147 15742797.406243837 27070708.642055538 38656070.149059676 31824112.83737816 30149377.63375478 29399365.46900656 15150280.477652606 12938288.770272335 16110032.034044668 14156972.720906489 26992947.65938315 90898677.21531303 13038628.835312815 31375329.007167615 1562463.7280934672 28039847.000298657 33800302.91774558 39615584.15568965 23461117.8822958 26547245.58341431 33049952.505961623 3055066.5855169576 33561868.14207681 38688452.013308525 54946870.965852365 29485387.025530055 24039158.50608114 21590491.387761135 26663317.9369301 59918350.46856236 1697483.1351025852 48826676.58661878 17239203.801543687 11058961.962176116 30352280.386505682 8547608.440986348 4518244.609593533 23421725.872694064 28401914.14071519 397980.2468261584 416281.7106876283 27496776.66613332 29092499.879735555 25152879.71400897 20511702.512901437 4129519.548197902 11801850.722971397 3464517.4519030345 27931518.590132475 30738043.901426747 15155014.110231457 13457817.768140223 17077962.73514308 64714334.865229525 28821844.40457532 24126854.010492425 28750160.64605413 30136420.52777939 27519556.693852168 24310035.73340141 23979242.347143497 35772106.338182464 23397663.294183657 2824695.059831765 2724795.745314969 209774.2528088955 17184041.33939171 31982815.355182994 42450257.689670995 16541721.992414044 10694287.726914141 30272789.51852681 27751632.281397052 28233336.202254504 9622121.38952717 53335092.90035045 3068962.810411354 28962167.321497303 14394771.421328489 2854050.946192483 1780325.1215173132 11567506.223942574 27963225.326688543 7953046.547085081 13650985.605437877 24328526.622111764 25147584.3433534 12264820.768972715 31864925.865462754 30485205.80642892 29361649.605842978 33584612.3398005 28728816.312274385 36832330.2271553 32382565.809477694 28748500.531087376 26731590.543152418 32899025.181187943 42843335.56584609 21705568.208771296 1974355.4150342788 18492008.206876226 27738177.9677552 8585943.962201433 11920342.554824961 74970629.65458372 24052189.195019368 21609862.333857283 8525389.149882236 25455983.795741983 45870031.849793814 27973233.8698788 30455648.168677147 36713973.458002985 40305626.3794812 26953106.594748147 91024597.00932305 28077042.901487675 6611849.875316479 32313001.883476835 7826917.3713955125 38297348.99475241 15822961.689598557 31089785.892805114 24352673.277851768 6462181.1259270245 22119181.48907465 19096846.17121318 22619331.295272548 22604060.975862265 3727547.5970578827 15967910.199570216 23743052.069297336 2785685.516209328 13001262.454240363 63380338.88968733 33929212.54002335 15371333.14643767 31177065.91732076 3915160.369212409 14537787.173086185 27674344.19772783 4945821.159013329 24521158.396481358 22969505.053878702 28800712.92025936 16815380.231470004 33703328.787410736 11611515.641462881 21991060.45068573 8440040.156576192 8438560.41080781 20469432.678844154 16373125.025374044 30267419.620306272 27916524.16441374 18077406.70067981 25797611.737007484 7935817.636544056 3346041.8305390966 25916849.65725655 22385708.72102025 18682895.32660823 15838350.650332965 11289673.690403223 1308826.10802757 1352485.3061425798 18694624.831967432 33575434.43001601 25237139.501536895 24180072.732785255 21226469.282125235 39794549.385051206 24921964.245092217 13727334.632151589 19488482.208405178 35265488.90123274 29057208.526282504 14440358.097609498 25349125.230301034 37092424.80553884 32804152.089554925 3683463.450722213 3685462.218368873 12467895.95971007 34893542.60606737 34558320.911429234 3822336.6534753847 45784676.92237917 19095161.51909995 27591680.664163414 29294177.78226708 10535078.701080302 39525840.55724779 26625312.222221196 31893922.87540911 27219913.244472727 70506044.44784716 30718963.219267733 25659685.264840364 39624664.515748344 3764371.434992352 38876688.81851792 18618347.60286098 39940509.98978845 12614631.063121673 30013622.14889096 11557441.149429375 28161239.702664044 27943555.132367894 3086977.5220784633 26090560.381413624 29999810.937862314 41621792.899208575 25144739.780122794 16678835.354492316 7870636.834861379 15976086.633143999 15965276.179203296 28208459.512814958 45361494.99935008 3705422.632838563 20172132.76558352 12992047.84288638 24762931.291564252 25635828.349699393 8224923.621819694 29502995.12884183 25565001.045734458 30186485.81115483 17581542.981766347 18541360.429836795 44899147.359188944 79487423.28222795 28191229.43104171 28783966.572130974 11718617.52415208 31056924.76783209 27591118.50747865 1282152.6113708604 25637253.573721636 13354357.053886324 17434025.659172326 39410463.69580329 18197989.587853637 60254153.29752609 2082893.623142608 2101290.6901413198 29598061.955713198 3765441.16720514 42774433.37069538 46049822.0089427 36667285.63503338 16402153.99583179 41091003.91838087 19414100.566158663 11241591.552216412 12646102.549362611 8710721.849834593 35685194.72327742 22694014.092763413 31881725.706220996 30786252.010255437 19373404.818658695 12257934.480863195 12256592.514415754 3219784.476051644 31993863.626990754 12992386.20139458 39586285.21408681 320079.67154194735 10863464.705196865 33876604.4036982 13830794.032349255 27172263.858554803 30136056.04325217 325471.34972653957 11528535.162947565 2074165.0675872213 21341529.6891072 188625.49310877008 184257.99708757445 11695690.2550808 29763355.897870913 30778868.788291898 27034792.489181694 22791255.1088431 14937277.263176445 15924699.163482605 32813585.566500828 32766557.34169291 27792629.27788138 32758813.881248426 477008.42790865654 2053660.437439963 30552449.254271347 30884291.37713068 30914864.750445552 25987493.862486914 29796310.243503384 26464074.378730204 32146477.763346195 30592734.95845662 38284793.16272719 34723898.16855912 30426563.86627291 19529579.664913718 30416677.512454662 11919213.056828037 1514441.100955382 29609702.496072832 25350318.326079097 29352245.282780755 1880445.7396024086 29015866.84309348 23039866.527892463 27184631.74838475 26318966.31153557 20919514.555273652 20181370.487585638 22754045.151193634 8760180.46453413 32565181.868098833 27649555.27208496 19704504.892407294 50107150.930810735 6279718.676364279 74260896.00811616 23863567.64309579 31040560.381335314 20827365.57831851 11699771.841687787 27649280.28107954 9459249.202994449 12695566.816586563 7913606.67359757 34780007.108172126 29632175.785160165 23776059.007854976 16982689.37608597 5273330.076711856 30721035.24864934 21253904.37666866 20671919.821128044 29896978.605895996 30815792.990636602 370828.9760195356 11887425.953428961 30192579.017219927 122346425.77211417 23832135.29679249 18962325.325006317 3281146.949567705 22750198.16414069 29921167.899663687 34002294.79043173 2873699.171298906 29671317.444027226 33128336.085056484 12988696.954407975 11192063.3056606 36421354.77145487 29061360.01678852 49259443.03231697 35566542.88864777 13994590.586732948 73528379.52848312 18269827.696342405 20475269.277157553 45411846.228402995 6196872.2292654505 27720232.048242077 31514263.450845663 19366267.394961067 12340299.976071715 28199078.558119014 19371658.104620155 8079071.523547403 28840688.12339473 59722114.548555925 31349082.406004004 29150698.837085232 29545831.354723908 58675831.57278461 32933590.060836397 28489773.88309606 6893037.26019652 19042863.867297255 34465815.94464977 20225603.946769793 20639136.54832022 1174830.4090171212 39759106.48666672 35995478.59137971 28572005.87374532 20147750.485136714 26667167.425701268 49909184.075067684 21796400.56606024 4516134.413526446 36073093.9196058 7999625.773572694 19844384.943281583 11373563.525982829 23838461.53232705 48742539.28076568 45920676.360521354 30917792.14982422 6398944.221182476 18990416.787646223 33072670.25910553 29210244.56859008 14889886.66844206 14883051.083634276 11123075.142769832 32711544.767034274 36374504.212745555 29202647.526872985 27390977.742792994 28484010.699189235 26689185.082401983 22916444.505655542 26265913.635449838 31118877.960122615 22469994.97859704 8640983.636866005 33875234.26878155 31660425.627146676 15459502.257347751 28565817.686816636 30944579.40526607 44304939.95378213 20082964.508567445 30929052.399242733 43267163.68573955 32470122.04682452 378444.63615787437 12965368.41281209 75026869.29152924 27090155.358779904 43055789.973901615 31094443.352412134 24274782.73057773 30665148.376451276 39027807.60437746 32629550.95101771 26461579.68814745 31869012.903710127 37795519.36585069 26362335.089859717 32778849.43087912 25546995.11707874 13330702.093343925 12103152.890237853 8581004.957971543 30019498.156257126 3228296.153409478 24386248.393564988 15170524.65991529 18797093.01366143 35136112.83063999 30808340.63206844 19573105.537015926 26314372.266668346 46250475.90905736 4247577.038142946 20661431.016351003 30999834.783238787 26332423.87370395 23053855.973442893 27299293.635352 30004880.871098172 24019147.327505592 35986555.646700904 6487810.133416547 26133764.88867768 34233470.86676075 12331684.508881466 6825281.099108282 14058990.586767603 13171777.850228196 22508477.05342564 29004052.99556332 7045116.63069487 20727969.33937664 72632773.59818178 27881456.39241674 13520881.225638889 32016107.264228225 41207700.14124172 6329026.41295085 28711015.277173705 31988410.456001315 4785375.1295078965 5539590.582014535 19133286.52596683 28441488.81489529 16505634.853662675 29339448.51514011 20157149.675358757 18091386.36578048 29550050.292031292 16204310.922273813 19108682.66954733 45620966.96139881 27843737.66391765 28532915.348522652 24014885.308118455 3181285.680049339 30881362.69383772 12302761.809282059 46056065.71899521 28691412.051123094 27606647.058652446 31153906.612772286 26701253.056295954 11222407.647716103 31696035.551977266 46859133.6205345 3104316.816381532 20142835.30770027 26526444.43214516 38460478.68773791 13977751.947819436 58396095.14821849 15935192.246260088 8468950.187252644 27882425.940285526 33806506.14202165 38171041.11149724 44396247.32457485 23040685.992439743 26906009.82482599 326440.868510546 313699.9988274353 15450416.523013966 26243145.127585225 24578718.246775355 31506670.192608874 6640153.866006704 38986784.60854596 6206739.057881411 27907991.329831287 6603533.580681215 31867762.998288326 19703697.464725144 369394.1226751784 28648855.429694004 39979378.15691814 11544637.450978942 15926856.252414675 27058851.72851273 24652141.86778266 24548567.693517905 27272603.10387437 278163.44386032165 290570.7531253078 1183744.8392371645 18443689.503298897 11960290.377764162 11928377.247820988 33897879.81810049 32327702.30695465 2842578.64548677 34260518.40190161 2343139.9580129404 26755571.407278284 39969573.27667276 43980311.08677828 26181780.922017954 22224684.03396389 24919153.163831647 29730187.168089606 8628827.952852495 29434911.511870425 15429670.818688063 30217512.046293527 26174702.350149207 10314314.2126364 24956432.132590193 24741226.684453316 22144191.67448743 31910891.891286284 15619037.198031684 6460592.118159707 42296022.31276825 8730744.330812696 12206322.602559952 5796799.4187496845 16887440.39620083 30340588.790004034 25011061.350944422 512532.6382232977 27162772.787969783 35331909.29734103 27663161.67714333 31475610.604020208 69292663.8425378 30594914.688380107 24564144.767915424 40546426.018971324 44349104.42317345 28116549.728335764 21888837.456844322 17327966.395751234 33626026.39647659 19919439.94648676 23478657.25785712 41371407.28562057 20042102.962125394 27285652.541159827 11147277.308761396 25745585.78673834 52556786.515741825 4561248.84883521 29687739.00257243 22950551.90837711 31634712.848483972 922604.1089826155 26065308.64566092 48062152.271466196 27946515.014287658 41126582.122649446 36612122.67737463 32104069.5452132 24087726.68695089 20724676.710824434 49552637.92185948 40971268.75837251 8553883.556133904 24846179.01342701 27669244.07435005 28878014.646799553 31894253.124532267 31043680.274558824 27620839.1341321 87994783.56572439 1538261.6935903467 6704659.22247601 21652273.035636537 20854212.97188769 52594822.18126799 20093831.41441435 29765665.8295698 35009742.766258 32488997.665967274 31573026.02782121 30039487.301898543 27695188.41997212 27481145.01726055 11273125.31869936 31033092.29501059 35231122.682487585 4230501.207693955 10519406.632811148 18879929.47351967 27460033.015485965 25494388.598989483 33230195.128086794 20262987.792796854 4167825.8496159436 5648628.213993057 353500.61201142595 16038083.929768959 2497679.2451272625 23767635.34711526 27225948.805186592 26955730.633879527 42679868.1589228 15080533.554996312 33781560.64009937 38442448.73125312 26071037.1319495 62304659.34812202 27959545.33013222 31380007.610695243 22227052.66760047 27448678.78552771 40502427.93084194 27990496.443482574 34056570.51727372 6760253.189977292 14962881.715248855 30487983.930762816 25698784.944572568 30867737.36152341 516618.047316199 31782278.06280871 12654818.006289931 21230100.674961466 28429723.70770168 28687049.693834156 64154372.44633098 30712277.820753504 20076523.598058067 10208927.854250753 27001713.7208989 34201943.67883258 26141269.036995698 41184201.38731686 30875359.96782837 32721052.27214342 29743093.47734634 16423490.113672554 26897412.12399809 40210917.07329136 26439668.14623691 21967328.335744537 19046606.691377517 17907155.15566869 42162380.0705448 35086364.627520524 236543.2155102472 31526063.27366603 43545369.898037754 27555491.016504448 34518247.36594218 31830989.123539645 28224918.76074056 22465944.947312497 27649837.37240787 33149474.987485208 41781459.03673972 3566657.376620615 6763789.739172305 23054984.787798516 18434751.825140834 19656905.50235079 9313014.601576053 4135316.242576594 29741118.15743356 15500640.329336233 3424467.727330916 9998174.613585679 22198141.989212286 25185322.409441613 32631606.428193286 529717.6927961607 27463496.315396305 33029315.99854251 32365696.591539726 6741997.198632198 29112132.422368433 27991018.999565065 20070109.66547804 3522653.2113044187 7049186.786107243 8323578.641032895 8339233.53111551 2196788.852166406 243703.81714025282 27543483.34863814 28254774.793852236 242125.9250462126 32332772.338040743 8987536.219765643 34478284.679500006 30090067.04981598 25533012.370182566 43271410.833127156 38376876.450996324 21119942.314401742 6077447.5047328975 27827609.9706115 7830835.349044317 28168692.53439966 4724197.322125943 1169797.8961966254 29024978.6187669 5794570.926870084 42565128.7849239 355692.8939323837 31030353.89047276 244094.975939625 60510309.02120951 27261180.89604848 43982183.94556192 27246690.542624146 56529966.76756843 19215921.882864002 37009900.50199379 11871882.125967458 8663857.588211939 19438487.310506895 31781123.09625926 22595392.712084897 68577465.54787141 63036100.60452 31756043.308784924 27665561.013118777 31440768.82711292 29269167.56354662 16910433.344576016 1552714.114368306 28660479.902032975 7857665.687472932 22916791.434854224 25249890.394178495 35931853.598189 27511218.647040512 28280508.132976234 22215669.40789829 31615923.189596154 13409449.915426636 9813820.656245975 31158467.673643574 7463328.059515327 10719706.001100872 39239674.99427007 22379409.44113397 14427403.537255444 19983037.915841464 27407994.273355104 21317713.6567664 29251537.174480837 13206446.92371723 28516712.212990835 6397582.771826782 30972812.02399705 25445242.054300174 28182696.77128409 34498111.028196305 29260054.664459046 32985918.86076861 11012882.394110939 25725451.382276237 30527603.80438765 33728348.27137597 25054706.46147903 17398499.831559703 30639518.686671767 48519079.28124337 6253788.316113312 7451316.563624872 30447513.08412029 16787146.923293985 30341350.859708585 35347425.90542242 31698351.020820316 4635081.699331859 16043699.727735434 30188798.327921532 12413590.040785719 11161184.622515632 20210098.08370768 34836183.57728873 3798235.7791180843 33791623.05620114 16724576.701399598 31625415.25028733 28467955.16493215 23172416.6983666 28243548.592636086 27481844.21151051 43613536.759261005 16210064.75308379 31225699.370539412 921490.9887487924 31613006.961423073 20138823.671044573 24611746.94701893 33069937.27871863 5848276.872522712 11095186.731862854 32934984.580859285 28692372.131368477 32016338.251094382 36547514.34533997 32793629.886948086 33426168.343227383 30893718.332554452 17924082.071448065 29744827.70339221 38437263.36244077 28498464.024301447 14079944.052815711 25648170.71861465 30266342.685029402 10753558.647179317 14311397.25769595 27902906.03132773 57224317.72876661 13818437.727507882 20183375.25202744 27875190.744576313 27092640.36242656 27527710.00209005 40080084.2581698 27982815.437330008 28561597.438368734 43094725.60928371 27822560.080826838 7132060.640435474 40825073.25276339 27309860.78159817 1663559.742350243 25677102.088622045 24283764.659894023 27731832.73830766 30607704.390483316 44441479.8700932 1350819.3308650025 13417256.040767886 35533482.341258444 22988711.093343727 34096571.330462515 6633817.749336649 57870739.201941624 29379970.009857718 33025312.767657265 55159566.239037 28447389.919518597 30274092.548337076 1385979.4005831892 32030038.124757707 2156418.6001627585 23832993.793889694 30647179.619518995 21313023.281726666 2472402.5967962816 26250200.460497357 27872022.381153714 33140592.0464366 13116735.983830495 907304.2532836263 34421048.79109039 31059093.702461377 30915154.1596891 27516361.97882777 11969104.346913435 13638957.48518791 11583341.85265022 38074093.5676435 14375474.546049384 20851619.58663992 13316371.851757387 24512066.680060465 24444717.07935136 35142514.76806395 16617542.948233403 10930748.567002159 30681197.359784268 20624271.093968686 18168166.343963046 28322227.815798186 34981669.60721367 17688536.464837816 28238119.616607983 40972566.13963211 23983565.64635732 17441802.805681337 36153749.03446169 19850037.74968619 5412539.037972863 13687742.271628084 42351097.076085195 7882579.392776731 28192224.28864917 28617730.494386356 11325707.777254418 13031662.545617871 38110515.688903905 4151572.0790043 41766942.75689626 31422382.510944467 31747202.735704973 11044205.33638341 20068650.7315954 11612822.858483281 24052829.646944817 31502136.467487127 24504840.786704697 30231993.335860252 19963507.78037238 40610372.97749885 11028379.204930965 33704139.643754594 27639046.762856226 1659459.349048291 5660100.505698134 30905571.910920426 13144024.607598003 37534290.003625 10849217.664082203 28620593.881484956 19364500.41029247 49168534.54533335 1857528.8268472992 4119822.590802906 2192044.7726013423 11051617.431695754 3992177.0287005543 8576582.156519007 39396669.57430913 31065659.67996342 30975770.78304132 19956755.61992078 12978707.567299621 24099519.709352456 907403.4292921462 18301441.423549585 32291534.57034998 3936129.0671683415 3943038.467168533 21893558.606427543 27759449.003670733 18313483.826082252 37787130.834564745 6295875.878950966 34942713.05452436 27561492.777475063 31985066.15657313 7318833.780757337 28229924.27801904 7572786.9455158375 28860411.10878882 27553912.42842559 16399496.292027952 30584984.90854926 25940256.90452891 20767379.179600053 35034320.23673743 31478285.371197227 22488981.19739692 22688742.651970126 32757919.293853894 24469706.676076192 34620843.355628386 25211591.147797763 16079361.451491147 21333635.4349668 24919746.863676503 26686809.35019997 31049489.690192044 37092902.32807611 30135799.513777904 41153103.71416672 31868735.68701409 3787463.7365335743 8785918.04891477 30252524.344096128 28565640.62496591 33513564.547370236 27397388.477489885 29506023.19921949 4125152.7122875876 566495.933294399 16388629.994524926 31616200.72760631 28781992.142153785 58166615.68205082 43891583.49647954 27939996.477425974 172312298.7818417 28626396.30020284 12857756.211427214 23759914.042086188 20998434.239551667 30348875.982517455 4899322.647593954 11240461.521247515 34309938.38622092 33098571.517041493 26642236.71191769 25746087.740677163 32018338.632183302 28669527.962455064 8368809.903723751 27025508.4330942 18976942.4471255 12383090.407848569 28186618.04792575 23119457.31849147 24185988.882465586 30886641.463192366 24482086.019038763 38705813.97719162 26848955.145705346 26550981.699917983 16376382.25122656 37752692.52327473 22263645.30366687 29232148.331682257 19242045.752285082 20282698.344393633 14440207.084185196 40806040.471361816 18661986.74372191 8481843.725717999 28265637.177478455 33523560.594177388 48484056.97281603 13723086.5976321 2317053.284404077 27423534.340203557 30309361.550680682 27426450.22285813 17426946.19328228 34064579.662513964 19573864.762122676 34078834.906757295 33697062.520028956 30200382.064682543 6090567.880448384 14252940.31866121 29521329.30750021 35744522.57062222 50794762.49352914 21483176.637695983 4529135.597050513 43993098.083183624 14057023.148850992 36581073.701657705 42921127.09634178 31261309.44429804 27717844.92166909 27725988.44208257 28491331.643116985 33277374.586604863 50597450.14261869 29538626.752679296 32283444.74433752 14653171.931946587 27591732.539055288 28146571.44663933 28733804.921971112 37382569.56408424 34071380.109628156 36071986.71533655 29321583.463120695 26765213.699972674 30217252.83079616 47656991.92432939 7908799.210930437 30651015.42146195 20537074.585222375 20745113.75873074 4132214.717274099 43535352.41487358 29337015.73981549 9835434.344028952 32513614.903090183 26744190.121357292 41041099.9384361 22569635.477421064 34995210.096801616 26521104.01310776 5613485.508441111 28281425.757116385 14502931.976683594 25326286.448769372 31373019.246772144 27038525.121481683 9491511.145540891 18704116.535679143 23357624.315937854 27999478.031168018 40180251.27507646 28798177.82683907 30673323.202856883 29247560.763611805 11320596.748463215 27196645.189021617 20400557.51130167 25022804.288782384 4784842.854198918 18971160.11977619 20133795.02562422 31555467.643274914 31076123.506533932 27783841.40314463 30087940.600564197 31272246.850386493 27851710.621757593 18123572.851087175 19131672.641861144 32465792.29898901 26850085.00561288 19746575.90843521 20482808.940534674 33064079.917822562 38583065.41391854 16723723.254415667 33992676.56290529 31468762.13758687 24854929.45874674 32994586.98668062 20143869.049948473 28799447.61404331 49480611.25556318 15285751.908906005 33647704.95976108 34804542.577293985 26381992.430688404 35935565.25657335 27410981.9737516 2160317.765748913 43020412.91070891 37225061.725479856 31989082.484238982 28263807.859864276 10010815.214848936 1804135.2905943883 7488383.2480187705 7018363.764746162 12715114.722882275 3548861.9077818966 3236560.20646588 32645951.729322784 2757193.7237228127 12684576.35420539 21165694.562154274 17947073.792186935 41071224.1884551 21679090.436824523 40315135.19636127 38656243.20883229 21198506.125983533 30973614.59240712 7646460.445084558 7645393.257843116 27825352.506543536 14772961.152670389 30765757.82492918 31734863.079948507 26523830.81729222 15844353.98510137 29927097.516206652 37022076.18423523 18724381.612533096 33471363.59350627 40345904.33748173 28355535.66845951 26062933.622095812 12312960.9148119 23995746.788349815 34492455.35450916 45977599.56037971 27774791.944519874 28191984.810238615 24738533.265054066 42121021.82241481 14211296.58818892 8384979.431777948 32231398.8314864 26258991.889845647 12787818.595236236 4393450.921180728 9973531.052766228 22617731.178028572 28425054.96659803 10996471.573684096 13911945.622912671 27719488.254345596 23251198.92387978 9306194.436767045 11312529.140418075 23242672.447588336 33082030.1217973 20619248.58559175 27874400.28374142 21207227.13401289 17292755.960705403 20613076.964374445 4164719.3347199066 29718622.752626088 32304153.007514067 35619798.73172278 4196611.368808163 31348937.75165419 32543974.00473703 4885069.365222213 4894076.117341363 25972696.95681599 34879987.953625835 27470892.597842008 6076087.892757127 25063492.92492144 29330132.503444858 23007920.419838537 8990741.35484412 23938427.525008228 27370551.352505323 31161740.524742745 53917075.69049437 30485475.747366898 28696783.869363666 28173464.223783653 28097332.78763011 49114275.81839217 23756037.899511043 12994897.284290463 4903837.016571039 15333523.639229635 12198511.098925104 31687762.81312087 22628014.389649536 35168340.13622772 28123634.22848807 29339916.602709822 35586398.84864308 8122489.0968319895 33994927.52212515 30508222.031966083 1272541.446952501 43723150.986515924 11460673.024768101 54484349.7804109 23299161.4767818 20875797.59623224 30883602.216088515 34172090.66433125 27372959.90614338 17795499.820098225 30277339.58660513 24297402.92312129 37258003.370246306 19485190.30686946 11755474.681877615 24968066.407302324 27346147.401095927 25983854.74858277 21492526.805988543 67652281.62802583 28107910.73957344 22272406.781152938 26555029.92582359 18569984.248573262 10903198.10647004 20908125.358951934 21402712.86828488 12775878.532932654 10635784.236923968 27975197.767537624 29424091.767338198 25836165.06466899 23102800.9135361 28549073.28222966 26482624.41675044 4069121.68375865 5881443.108570738 5880526.189066376 37322126.964375 23674790.86052252 23645288.11837647 29128040.483532924 33324891.397155255 4669325.527663387 58148805.44323452 25240418.049609378 38150826.86061444 23154012.002912052 10915672.775125315 26716643.235246044 6344508.530555617 36227975.10223136 32766129.00108341 33400074.502360094 28450930.45467746 27932724.053853452 25029173.571718644 31320065.51373565 13963727.719351502 14290871.249054195 39268130.55673684 108632108.27369134 18191833.528126914 27736460.928258244 24110963.37137003 25131985.36665684 26045901.28585073 34704297.149254315 3118132.9414505404 12570201.476575203 16010807.882010583 38145730.395839676 13078164.017089004 557051.431330097 36303633.61879353 54258524.48390449 36327494.27776082 23570841.296522755 49657505.53981207 21667620.2526332 5360727.933295837 12737034.893240845 14471739.520959515 36524729.94282867 23611222.042888615 35002434.12388233 7981585.2647796 18544944.255805977 30534636.11769549 17605053.417255174 28374407.39813221 30417664.33018632 21430536.013676375 33714987.83325552 31150502.095278513 33473274.90061666 35194053.27367826 6405030.555039819 32042902.89653825 12315181.794879459 14191435.207536887 30380426.163929895 22735318.890266426 20103824.12534704 24136899.131337676 33928340.50783492 30177636.00489647 6358274.122533035 44984200.12465956 25608259.801146105 26416012.78067722 40127743.34891175 13530967.055049635 18122264.845636178 23019831.238539528 26482315.784226924 10875056.912461169 28471793.92689462 38648779.34817363 39641901.31677822 9257036.76781812 10576568.499699855 9410074.78755039 25339719.646743957 4774895.836705106 4820014.216129453 18463419.91687521 8963772.17365429 31110186.5722465 30998068.725614022 28254880.287248053 28543402.70891089 31508107.065748733 30854619.464824274 33917827.42333457 22943943.06875617 31081602.688129146 27963629.13745638 9063763.749787288 32845612.584692486 22436125.909601882 6650199.867190977 30895462.751489643 44453947.01259985 42289545.70292673 35673050.875240885 6405020.665599452 18084807.40666157 24946847.793903112 25610371.670938626 27105273.247826025 27352221.49226636 29807857.102901723 27526308.692938585 9078250.758804293 28683626.982695848 27065979.528578144 24311629.87882617 29241809.96419402 37483275.79598261 9670793.678067539 28190818.98720945 25388492.521941435 1320173.916676546 24452721.18088997 11669136.907264873 27398432.98934076 32649384.289858833 30355340.150417093 25650986.2724223 29791160.872405477 20793607.118938867 32341182.175655726 10217167.889369931 27834100.968174554 74269152.42801335 29552170.565201603 13483866.486972848 32759539.407862373 26997743.050571606 14396122.010391667 48814017.53882077 19076638.344867144 78652654.60936892 36500789.670474246 26687042.54918134 26654405.723926976 23691031.388653893 42192463.55667727 27974151.355425693 26484814.77227336 29829915.542945307 52695183.35691322 65130163.90351558 15557125.507373294 24748993.54608966 28544032.310734347 31181521.21832908 31797627.076277528 26306393.16867457 27565184.487313215 8375857.7528223805 31722091.20075346 59629850.403464474 15980191.219252456 26019843.700277083 34995705.57865723 31174347.850220304 28103579.459023226 48902056.65956593 5985089.389563648 28742908.429534517 31071740.428886853 12729911.155057017 32794737.514668223 16687119.261886247 5940930.265437329 22896815.686350513 18624295.94084112 30387022.693992194 1279296.0047840166 34695910.381609835 26788579.592224333 27634861.261343617 26411707.684996776 25089203.726857364 8297453.326421664 12500031.868634658 38381530.112376735 15069676.774574561 28718159.173436444 5096459.424793222 56918611.77961896 32423167.602917064 38410714.60777835 48324931.77848972 36370213.070417866 33470411.754294284 24812201.43205455 28800533.891401518 18587733.05045181 12992443.249256698 3897176.7763805203 41731574.43431995 33932392.86516827 25782127.500859708 28119322.44554519 29639628.446830817 19062022.94825745 4001151.493397911 31014449.502793223 27334427.65994255 13755224.137451902 27423108.428321447 28460638.035978504 34481672.1881452 1157532.6609570337 1021664.1477025016 12200248.913251411 11039455.913681827 18699568.9533265 29053189.89490719 17976768.626037236 24438523.246842705 41915696.28349402 31809070.607749175 19269508.06443405 30360643.619262062 3929674.6396282907 5137451.257994749 15241253.695575718 46748199.18308086 28256303.542599566 30274148.466498576 24100301.07487062 549120.792340406 26962469.08286248 31919445.721655097 19502339.605041016 21041974.806881618 21784386.27970924 31176221.260090362 5196125.2529312335 28346991.902203463 8027867.934330112 24561996.911569737 27243930.890416157 37443947.69506091 33944415.8456324 34283111.84363719 11095190.384973476 22542198.161811914 26039357.423704892 34484466.58435015 34459249.08702774 30833931.73539139 28183737.636853576 35351773.48181422 12680828.785814574 7198558.735213088 5067855.089113433 42309319.62340682 21082565.575186357 5321513.381834028 9782024.590590993 31952653.14241801 28543553.307777636 14225368.761089146 26883676.643049862 31692603.434686065 21478085.25465386 29670821.415875588 14956766.129295575 8837335.922447138 22768749.42924377 32965050.052738316 99014360.88252029 27087184.841310225 17870177.250145484 24200991.26604729 21155925.139488064 15471602.287143666 38198414.695755556 6329150.850417006 18348606.284074068 30181597.00793081 39769085.491016835 7055706.496859741 31751010.945501924 22907841.483458515 19251072.103434388 7554513.94238946 28936426.267847292 28371298.890575014 9173439.187729297 28471556.64986492 30944917.213025957 22724666.34284443 28252772.98104339 7215723.557484901 3145859.9551459234 3195963.099097277 24440774.890564803 14640419.272261715 6455618.753074646 14066609.239718704 8864231.806845631 21524953.859598674 31666619.805704005 74320535.42348994 315663.6922528189 31629164.93113842 27635603.152102116 58314548.22104629 23664764.48392458 27119454.996051904 3419794.534918015 61649814.94543315 11591313.23315812 16995738.8796473 25922607.957643926 21575465.162850156 21993193.746134833 29431067.806602098 31864793.917214215 9873346.415730227 51146625.649738066 23461849.61610254 10413926.297267757 7692369.773476536 28362844.173547197 32881112.047788292 25924647.363982797 49056161.77450371 23937359.703381445 8112991.651823549 29556455.279341266 21825348.004830085 28392289.352404326 10794354.048755214 22075067.30683253 33970764.270790555 6976501.348830137 28187256.111699227 36774019.76694998 8996003.552823508 26115065.25464127 30096322.960371573 8482334.499478396 27618413.251754027 8902766.422876699 6104587.926726841 26641577.395546168 28059316.080769297 37750466.17421614 56546320.62549837 6020981.09450622 30103341.23426556 7357756.823232309 31471998.854788274 21366326.569425505 7081438.107748649 1980260.4651852245 1980736.5918450987 31421508.17810817 6294533.360163095 13933873.54650685 27723677.256487828 6103073.8737390535 26649405.671521805 32186937.310509574 77247310.28719437 6465627.895332565 734082.9725034342 29313741.49712026 8050939.265572999 24217365.019035384 25632184.600440968 14110826.471442612 29217069.279007427 26115078.152927656 24509300.32690452 11171085.166063955 5507022.730579113 33381948.333772235 30817677.696862943 21730039.08679256 18838509.445078295 19215774.77917144 28206710.397784583 35393509.65797512 31727395.829810373 21327580.930487067 24712185.231262285 21639899.39093581 12225433.47372198 31394335.20287654 13413176.108162664 14883121.144832157 14061670.998878518 9400471.737396602 23562444.090684794 8759428.46581176 26598478.06123651 39639123.16759695 57111699.54307396 80963163.53793016 10614308.209431652 7952438.298441205 27479094.100274477 7321649.052419792 28595683.09920759 25835476.460570335 28582863.008548506 12351695.582512422 27370925.603428327 27919722.368407212 23053373.621610206 27672192.246068396 28255832.12456372 23243411.523700017 20038905.51525639 42421801.30242265 28278842.892930686 22724264.906822566 7433187.929762504 26505553.06601971 11951246.32068423 24629511.716697656 28203417.95802164 23574848.566043723 9604445.989336705 10945450.501859916 871656.7229896239 26934627.838734336 8056024.505697635 22302514.806650225 23632778.6572092 41643642.14516597 27965361.52525426 9656638.548154753 22905803.562773712 7472930.606976126 31903500.173746668 14401692.47567248 33877837.02534272 4799924.21212055 29066317.983900458 23322622.27954534 10196185.52895371 27157424.71777539 12437420.675903618 31074699.87723413 30189622.435862374 49722352.602085195 5151144.570284663 30814453.99445784 26766651.180501126 25953438.864551574 37448346.724696785 26763956.118687134 25832315.542907402 10360478.32505184 12887425.456804376 25318661.643914215 30598799.465412606 28158699.327406365 18857790.674280524 31946963.640730955 12575341.538307797 23871838.651385047 29193038.964430176 17826999.429609776 13442177.13480386 32968662.237708837 24269642.913133107 4682892.182931185 7292173.796307336 13068272.246476142 38167370.744549215 28802863.898313757 22641339.611927457 6322022.773219474 44133861.012041904 26012448.773204982 33750221.23072038 25703270.869390544 28497952.436109483 39013122.22474541 29343203.984030172 28339187.851277396 23600594.675606325 29900908.10020498 33690384.671310365 10242269.932059964 875511.6533524026 28797232.721904885 29302094.06083751 15501253.708963972 5458532.096739627 12704497.695427023 21308404.731314424 31551997.736198407 27324893.861805517 14507416.672947545 24001673.014700845 33429798.138879266 19842979.92101306 41000062.77035816 18882725.434298594 28309990.849421255 27728698.90635421 26600386.98270983 25738882.014064066 29364477.250697095 32904156.740588676 43708654.18918229 19885809.248233974 4368249.599916696 32122541.783998687 26118503.406173162 3883750.391960205 3879362.5240050857 23790808.028084304 24186443.446776044 13410266.032872334 26916700.339086898 14475019.853393007 7431435.430844675 38907931.54532764 40427569.33926293 7909763.229879803 27807366.759420335 13460786.809045441 27038174.416540526 32408420.13001615 27932671.996651452 52478812.35841742 36352475.16336483 30385990.509924807 6652885.56780352 7173406.5397245195 28103708.21616316 9482877.108859982 12850453.782464024 34703777.90574333 23768875.399690676 24172361.188649796 34962745.769619636 28301898.283097554 36744932.287799664 28098584.074118182 32881958.626123067 39557671.60021147 10850439.890492545 18346736.55638183 2094516.7601938804 13886909.381289031 26418388.476410408 20845930.36799597 36993034.469442 29072596.389967695 2708197.5604123715 32688557.673931353 39162395.25434726 2795053.0221090503 23878262.143130913 25936868.452066675 31839668.99315858 32253385.280082397 24521859.322845623 12334599.342174556 48992386.40696772 21219257.874811284 21193052.109164394 29745369.068666343 28500598.038073093 22763022.156046163 27210913.070479352 20195719.26699677 25654786.616466947 10379716.059700632 4275041.739751299 29413937.773363028 56803872.30633921 26741251.078872204 29478133.672162257 5234232.038187634 11890725.563259363 22613405.34612658 32196573.205802508 23801370.133998103 33134785.55923982 22525406.822367687 2806114.2126010894 30473660.30599646 4328683.5799375605 26915465.979105182 2682915.314510497 26723928.152619846 42597102.96165238 29378289.888713263 47029952.90805688 28148640.071108613 21282415.05660438 12085841.969344495 33259067.28814971 31798967.85038739 27201950.396036647 33281352.220129885 23218416.042255796 28089101.92068788 29620267.356980097 22545961.21262112 29007206.77763364 14366043.681106512 34261905.50297151 24575238.003521 32839963.416851394 32105459.766227536 23459479.29180061 28525504.5336947 31510621.015952904 24021027.21940297 26619954.0256496 26695288.24164116 27341013.742742255 10324328.537366576 27653075.456159044 30418407.87453179 9886319.000292609 9310808.809972275 1898293.5361473009 30840852.9687858 9736187.733478969 14108704.097692693 10204994.17472916 30525660.954434045 17451698.830977518 42549094.40854168 30625932.23543623 3745668.7275252636 21172902.594335023 1014984.0906911398 12689398.905668868 2493176.7482672473 32055370.356227558 29019758.968797296 37925962.6108604 20605432.978368774 17947688.83642215 10603355.13012095 29835439.473581865 6897813.191782226 23326608.541975982 25456639.274343997 34670517.88531696 11093715.631320069 48976017.1339956 27121907.22989774 34723540.59087226 36242981.247012004 10522461.068495642 52496863.06985413 32480622.754008763 28255856.356134485 7509935.802422148 1894264.42424335 32503193.028951984 27387009.01624453 29659025.092823867 27308430.38110684 27197089.816672664 11139009.181866715 14807516.713814085 20934854.677763395 31135223.28905651 31782571.51971178 19266969.946703557 3494949.634824872 38078084.462644465 12032719.37295744 13919723.625429636 27716913.00366085 25349461.60422438 26287411.918395918 33994336.7344223 9509599.671983937 28152711.96734506 11158353.700895593 26244178.936608955 46083100.44619946 27591998.967738647 33543274.508007515 10557624.675069544 18485997.422871497 24243653.194894653 69330021.73898457 42636432.28239928 27948381.39524408 31873112.072995428 30035798.91934472 10605162.498413803 19603914.683909614 28672366.84284097 33338431.415624898 51756304.943575084 27837615.52216516 32592474.548945785 7991870.247310776 38016585.93890066 9183594.344111927 38427203.05435797 69330065.16927977 27753302.60463231 27283526.76479071 21326705.224589374 17689937.84210978 27340665.382110547 61778385.8946643 25597543.26024125 26800679.001218658 2967961.1618467118 45892044.222921655 27802339.09415039 35519831.731234 12260532.16119907 6845497.817916845 23144900.257859424 28204327.76862306 25441815.882897682 24828129.583332643 12244584.370436037 26246678.758214753 47208613.033479206 50335143.86114235 13390260.366692595 21256770.014180597 36623034.696805194 31357468.717423886 34299166.1716952 30327584.234873354 26076350.61372562 29448924.793842584 10863387.407970473 44619893.88655171 35189818.33947123 36970953.269137144 28289404.65185053 31333833.046362355 32111734.75391613 49208766.39953049 24440457.289578367 19262018.15516624 25703197.20132343 8765679.07427804 10610876.161871655 25743888.683588527 26234696.669930365 27397869.17625732 22379798.184808113 31744689.756450284 29062645.474167094 12702811.505794484 13143518.955222646 25317149.94896417 29616384.728554092 10652477.112131437 10674617.22604781 20022223.504843272 29448364.31439672 24632222.787739918 24639050.991074443 20346464.561832026 5689202.144939449 5673979.997261115 5285618.784293043 36854228.83793158 27847358.438716672 31898318.613030203 25658892.458133034 51166461.15408895 14226403.589195253 52332218.899687745 25781512.95698495 41645055.43076976 58167726.038595274 35290142.14246539 25105469.093455546 22661995.19112552 34259797.78083303 41708483.63101458 20443060.550358713 17910230.69930243 28178270.706616823 12883863.812962405 34239151.12397464 30618736.3485565 39988263.54617309 41257189.44338375 24705065.885315172 47514054.91621728 26923273.132604916 25358851.871924657 36880587.85297671 23805732.584051017 11856749.671234194 18151639.862536225 9421355.174510917 37686313.499759935 11653323.357560871 31880630.609691788 24344484.804950006 19248719.91432441 40694581.99293121 21695818.00217362 26112576.624755528 9126516.11634018 27711470.013052944 2616020.5733015933 19263606.415936314 24590179.23236383 18070291.430941403 27405852.100768164 540255.390438947 23628856.382458 38700598.62639857 25898601.908269167 51176380.274325445 27634126.90604393 35070313.65393602 11265807.49403663 30104369.803150117 29011501.325635463 30836161.079752106 27138741.292045042 17247805.074765492 472785.30964858684 12060972.646956362 24169934.867028024 1768921.109076377 33223940.75229628 25685082.70444354 30649971.43348349 14808083.23849871 30921369.09035453 25182544.797469493 27444396.121907536 9427578.329400929 24319931.564714435 26329343.910498008 6675185.88819762 7050369.466077492 29684104.550110847 28914440.143890977 18033184.288946863 26763263.07304108 9908849.621344311 26478804.722868007 32404497.048671413 31004909.505698044 26052595.439994015 8476415.432971925 24627500.09505328 2584735.5661067306 2508872.916063058 5646243.011128619 31608058.43416138 11306935.704185141 41739659.4942262 32178497.54779348 9041190.854378432 31170015.409367446 28828008.790384315 23436685.500517886 32888143.2918068 18818246.640760247 404766.2581996589 26114930.031846777 29170441.045564875 402753.89573185024 24959921.212608557 12948368.475988166 18113556.660514597 27529656.443915434 31837143.975114632 32650530.783977725 21756181.22893075 70236660.29311402 6384276.66207829 29754773.627807233 30304876.60553927 21227264.056712493 31691039.439093567 9802070.962912519 6254334.008309718 20433420.906048916 24290572.534789387 20284509.16292728 38417411.224063724 10421949.878267054 21896932.19173833 33452250.82337161 35771534.28877244 31891561.93142466 28570911.088705335 30089148.141159926 29534629.87897445 31624335.08255146 31307600.525779586 30544499.744909704 35246378.86363501 15687096.522530444 24784624.572726563 29162321.538332943 20619123.17315565 15877537.925216468 16967042.684490062 32674600.911190417 39872885.72446631 33133869.434115052 35909171.223380834 31747693.019969314 28572370.111790784 31638485.561959174 30868832.708013356 33821938.99298934 1461980.8986286323 22028900.294514187 31924945.01303517 34763607.57267896 26542069.683646332 8349737.2189457575 30209916.40088957 23420449.44142496 28792670.05807282 13271787.145878753 24031653.63240179 16587105.203644814 26526648.543466877 37793698.62479852 23373269.25349542 13907274.81836231 29475202.002134435 27785993.5044946 35046865.37968202 37992399.800222605 10566862.143547872 28344638.62885187 30049042.283579648 29601139.203285445 29996856.173967224 29880863.268593498 31214611.252826203 15380010.093483461 29172454.438415248 29172735.270088248 5136924.414417046 33622623.33621533 7773390.635830806 21371283.472549718 26251975.204008866 16262184.10293605 40017788.85222899 29257641.60320089 25513907.354650613 14751460.119688282 19345196.634984076 6214621.444201432 24015480.319843117 29941411.25560071 8372251.688163624 8250888.9951607315 32013857.67761957 29960120.528195843 30954887.22646338 22843244.09911493 30797805.60750178 27944856.07548487 32018150.462378353 28164776.60850937 26304244.306334276 27587152.646241594 42619347.47088892 51345869.60373585 27983136.401437864 26810443.76349703 21723142.297213346 28095644.550250866 30278625.679959226 5229949.196192326 32344454.280634142 33518694.66047809 349907.6677281892 34393950.35024932 31685564.53378568 30394181.28814697 74256883.53624913 17627685.881346047 5036278.329662201 31205970.197340596 30078928.863770176 30197796.402136266 28593865.486914333 16617829.892175727 30170210.94824949 10147083.317196053 31849524.32266765 22443394.009040028 20146488.99298288 25829838.472524125 20773564.638199065 30607105.825099252 20834373.876741476 31969100.48629526 17312425.176451333 24117714.31220068 39039276.400139876 34493283.515418775 19738903.684707735 27249163.10832339 7856781.136317966 16715741.872352332 28224238.03979669 29135044.80841103 30990542.677167974 25393231.22153808 11520474.1885413 11419545.92173487 36064149.47921511 31214612.057492044 19693427.033292364 27843993.78609974 35070626.90475813 31381072.00720605 28436788.58976255 30409962.435942795 36331318.18884498 20168263.636803847 49464073.149566606 16447017.50067105 19977747.522191722 37961168.498708546 13458250.164453749 29180988.104692876 25776984.62302166 10224988.081448182 36135943.50468621 33122647.717102274 32614648.85926126 29625751.140579678 5826684.026188045 20623393.155877013 8406692.632259138 50988569.05506055 10658926.379073856 11122433.594891483 31096663.65049719 33651588.273218006 26531830.18302694 25942359.27399707 12777647.033503082 27597142.938157007 25622111.593073476 27678503.88154701 25825178.85789393 39126717.07720244 23241185.47459692 32774064.03405671 41857818.99309908 21646924.182935536 8769116.367271814 25462237.319949947 2801325.7427304247 14395612.509441482 27989009.9640206 28227289.059175614 69754244.01094171 933002.8343000524 24795304.822935823 3130194.360953127 27081878.64328877 19178286.378913723 26930806.207603537 14171745.874049267 37393122.416939795 27315926.40215562 8170561.286551298 40462783.43262634 9672368.886076594 31937281.69067993 56408088.254033715 24091492.99981428 59696218.87671286 32402571.19742175 31014107.992370717 22450596.97699791 14093895.089805301 37604843.017155975 54026561.277836315 31798262.830523666 480944.970100813 36390272.113229856 32341455.185624298 11026213.572792258 26854518.498320926 5869585.333223093 49166376.16113051 30299484.217043277 30193178.97558012 32329260.56752407 38082769.309711345 31075805.164481923 35698999.35311794 37746187.33199815 19554179.231473956 24473576.833076615 48306886.001060784 30363623.459039316 17527380.196989432 28499676.698810603 25591153.396800965 22722239.468574442 77673593.91460148 32066985.1311891 31078409.612653844 31357249.638925433 35096304.31544443 31435359.61479958 28955472.920837585 28111140.71779954 23794772.044328414 41430214.61186939 27287723.852423158 37387734.18679081 28400239.51554691 24230365.04432843 25134366.325986736 34531679.90766974 34210866.05830092 25501806.500901688 30213637.190157983 26719093.166009218 69907149.12576957 31036011.218518637 27623002.89455052 9641367.935154954 31541582.54921995 30817890.077991713 29387535.886551466 58729984.410933524 46084425.31725839 7967214.390931356 34443962.41954406 30694245.15069149 25172625.07004118 26232517.23092438 14111282.112664528 30862831.446071256 28895690.472196538 25706250.489253484 20615493.56632591 26168923.672284443 18532751.722169712 12010923.151323149 30695788.559089378 26724842.322968915 3762000.521038656 7644555.173282614 34246415.40077238 7633574.638433428 22536238.068649676 83062341.99807215 37024002.16960271 24101117.882440865 33925875.98702178 31304403.991107065 7546008.329835296 31413288.9749655 19468256.091511786 31060119.874504253 36325105.16070433 26973234.598486945 28927190.532150988 13113925.587124828 22514714.69628896 31417077.435078003 29123606.898812637 29895659.15608661 20211448.542458713 32504886.851543214 29748751.39166232 11103769.400855511 19706405.853025403 8967424.31611971 14465609.048322972 34335802.5473644 25498794.53848951 25277059.935275715 9746830.347360274 39345848.04612602 26750990.972774185 11686839.006106837 26934400.108147778 32614421.125233013 19281363.33958278 23312678.859865576 29853961.9210093 19701473.49955295 28776173.002419017 14203598.066795804 19041691.331586085 44856189.75185076 30340585.510173902 27198098.754835032 54117800.5525469 9874678.3118037 27283225.906624515 18313593.27523388 30359863.891363617 22239856.901182197 13509427.019364342 28872217.036965337 53328583.63192509 30893720.198782798 18741890.747062154 24215140.77024717 29735341.86160454 16330271.874790821 36078255.34847066 27464850.860223506 26611188.901356045 30417261.78823342 32310867.329014853 26546135.76280618 26642573.07181036 79490489.71360378 6336447.337751735 28133871.04391378 8386734.223878299 9324419.984882575 4007609.262537097 25896694.252156667 28383147.249630738 19639600.85556652 4588290.387531305 14249570.497160083 1575897.2872713993 31400683.791205462 11280697.132213982 30111490.529738225 25899263.792401534 30428776.809485268 10200346.568626286 29411760.528306533 28461723.485838518 25544313.256421126 34045932.91049714 8784048.002832059 12872747.070795 11989562.413036555 29978955.344519943 19193911.802302558 27297464.376728628 42275238.71196511 20686566.56828181 29906713.24146339 21074970.12819255 32563184.6834177 5162057.479593198 32006155.272289302 31072566.013403255 11866606.363390489 29129763.22072628 34274951.62563724 1056818.1719538395 41179410.84661268 10406390.430882964 28567085.088029362 36939235.11080769 5108511.381511742 16334107.873297956 21655303.72977524 21668559.90284097 18496819.193410162 21968426.52869087 15959597.80890562 28004714.300498407 32063145.99385438 33110203.936033834 10682571.600742178 26389838.201505024 36375351.71340647 26234709.914775763 32578494.164720353 4934413.556922863 31244784.53011824 47792513.879493475 47644997.43416334 35616412.64884509 31261540.607150093 31632468.42552188 31508294.82376052 32016602.32959632 28476893.0930811 1018973.0492150122 28357381.883402288 43909565.866007596 9231408.63535448 30952400.08402929 9557420.841743683 27499583.925036453 32089906.399607204 75042862.39229809 26806845.76351012 24207982.279647734 24735710.209726185 13832392.78344695 15818239.41416979 25546685.786751207 8663464.318695843 24887513.211078446 25197024.748995543 33240195.84953934 31411992.356442794 30611786.248108666 32686350.80225095 9122359.298581261 32288793.00022437 37120773.53638386 29732943.655352864 36115989.41469421 9893071.427118707 30401622.3196095 26994947.218363523 30430884.87647402 12175675.971664922 30723329.664107133 1805700.389874272 26233539.257236317 6995983.781382882 34439304.94376143 26055262.547618534 27495378.507547144 30972713.935531262 28001473.34928667 30590567.77786099 26385450.232687213 30698481.33318308 19800536.166360114 30731422.748472005 31143962.290548638 31539245.51357912 5073429.705519393 27240239.365137815 39198307.64128248 29470034.538774546 30395084.69617857 29046366.51617406 41838069.633687496 33913538.62031149 31676745.80943359 47710875.05424644 30645168.351958897 30468486.935243394 78863760.02582976 4932677.718972417 1991313.4951539969 15291837.301337725 29545114.046656463 32489742.472496346 28754778.115415458 47483994.7260202 31449170.893816393 25961879.053726166 31127984.10687042 33265479.22704082 495621.2968853919 30401602.48491588 35240451.2222756 3261415.6164370608 1389838.8700213844 4517545.555247183 902018.2467827472 27063642.491510198 15245599.373760274 1970492.0896189592 1831010.7116328853 34282482.85183192 18704453.328951214 31583200.73482825 36544493.840821095 760474.5421441116 37678553.522187226 32667285.210194208 41413590.41727077 19567032.04427503 488966.65303618996 77823619.15220407 17702838.995504823 37202958.20118879 40766464.535667695 31602001.125034507 30973632.84156452 6620411.804222712 29285696.769294444 29195346.25237954 28679514.307072777 4892516.546915275 23684666.21394659 9788743.596040409 27604352.735989835 28053369.916486237 27041877.7033287 2580223.7373116985 21042842.541331362 38929397.5761653 1671312.810865954 1273945.7402707161 47396024.08011915 63266998.41987675 11498054.10547085 24478448.130678568 30950092.34443354 55018462.937189184 4359585.172132098 31184935.500596646 46081134.47369704 28518032.533170916 29093203.787182663 46806403.78861514 38182888.85427988 13723330.49118331 4397741.589227544 39749297.3452717 4242024.083265238 31586043.7283871 54099188.39260009 41719061.76657959 27724852.07548734 11690356.72318217 20405143.79780307 40285140.55833672 28505998.87044224 68792580.1932294 25247175.121436905 4784873.312329871 33353041.91671768 6063247.543088173 7620093.476221265 22097761.126569357 22048500.010857962 3919518.724225111 14292434.12526209 11278432.55072877 28486353.40507556 47117935.56713606 30589808.775561884 29607688.25368764 25833848.83285692 25690722.28521807 28348396.636935517 11630799.581216268 26453578.771239683 34833382.87996621 20602408.58440447 4992629.261520759 26254802.46588119 2359464.720481958 30915216.291272618 25595592.147167213 28260353.18699756 28008659.451708127 24659864.89606578 28444344.37043432 12906039.917188825 27010101.48255223 25567168.802228626 37737796.936458655 27207423.88812376 32129152.459049314 348947.2437849117 3811618.615890456 25443360.795155082 32170050.597193573 25590013.343307596 12058272.375239413 30587468.059445888 31335263.206110593 32541820.426803347 28864183.64479633 45928958.42870633 32559361.873835966 11090062.763481097 39053669.43250875 14818540.632631242 420633.3383278999 9805671.503576357 69441298.00355768 420227.9199999944 25145809.773061186 16560610.869596189 29179485.471397236 9919713.87678071 20585346.44422541 50162485.8784057 20936186.978600994 99533711.68080056 37741486.35060065 58266927.653000765 39115804.43729721 26467487.487750728 26117447.423420765 30653751.483309936 2011395.9749529916 26296603.16475268 355844.8500230604 20803501.863132026 352910.5302037374 27345075.81491996 31056049.86787503 24212671.121978752 13096486.308315167 4506678.973882033 21949170.15893563 25581448.228395604 27570046.108759902 26729828.36511826 431627.78018149914 4456082.057230653 6938818.118102446 30327184.065481525 29506716.61280696 9537091.436585512 13586760.403015355 21024258.051566973 13310906.960854746 4757252.1221524095 28399902.49504096 76672599.57602946 9140555.963107504 28195085.86015257 24856261.49168706 20676311.9814043 31289328.971420314 20997908.567255158 11101920.85896145 34807920.03600304 60609001.67973166 29083715.660830088 37204837.76596262 31900235.83682208 26855649.55396317 21993914.48064741 69949303.22267503 13167314.920667997 22695328.18519357 25301855.863899555 11789204.932155423 31548554.479493767 6056209.394045261 26100487.825185537 9323107.923570806 31689607.60044958 26844601.282793004 18134701.433252305 14784500.883201743 29627689.00325515 6404210.132809822 11660030.952384757 15409161.127529908 38870293.99516938 25143875.035030667 31193048.352109235 17273291.623883 28121809.126871813 30922576.36133621 31983646.93872598 31702345.675326966 13229973.621540481 31080903.71660089 31015201.770187814 27014561.389126174 37216805.25094251 34510713.658518925 23554438.87185953 12054265.82355608 12328694.233473064 9721483.875407023 9995110.545299895 37783461.372113764 26929486.974060316 26349307.657407314 31446117.91163757 18942571.82141302 40478214.151066035 11289021.394920522 11134073.907427194 26901971.77163575 41314636.35503066 30539301.607063632 46244381.79310864