# vtk DataFile Version 2.0
Really cool data
ASCII
DATASET POLYDATA
POINTS 2197 float
10.0 25.0 0
10.25 2.5 0
14.75 2.5 0
15.0 12.5 0
20.0 12.5 0
20.25 2.5 0
24.75 2.5 0
25.0 20.0 0
13.21875 5.0 0
12.5 5.71875 0
11.78125 5.0 0
12.5 4.28125 0
23.21875 5.0 0
22.5 5.71875 0
21.78125 5.0 0
22.5 4.28125 0
13.21875 21.5 0
12.5 22.21875 0
11.78125 21.5 0
12.5 20.78125 0
23.21875 17.5 0
22.5 18.21875 0
21.78125 17.5 0
22.5 16.78125 0
12.5 15.5 0
20.0 15.5 0
20.0 14.5 0
12.5 14.5 0
10.00403225807093 24.63709677361622 0
10.0080645161563 24.27419354593253 0
10.01209677424696 23.91129031777318 0
10.01612903230577 23.54838709248107 0
10.02016129035602 23.18548386795797 0
10.02419354841103 22.82258064300752 0
10.02822580648097 22.4596774167125 0
10.03225806456681 22.09677418898731 0
10.03629032266798 21.73387095988129 0
10.04032258075012 21.37096773248903 0
10.04435483879861 21.00806450812494 0
10.04838709688005 20.64516128079578 0
10.05241935495465 20.28225805408125 0
10.05645161303756 19.91935482661994 0
10.06048387112473 19.55645159877427 0
10.0645161292065 19.19354837141498 0
10.06854838727757 18.83064514501887 0
10.07258064536606 18.46774191705492 0
10.0766129034346 18.10483869088549 0
10.08064516151669 17.74193546349787 0
10.0846774195907 17.37903223683728 0
10.08870967767305 17.01612900942542 0
10.09274193573161 16.65322578415481 0
10.09677419381719 16.29032255645265 0
10.10080645190677 15.92741932839017 0
10.10483870998482 15.56451610136578 0
10.10887096806891 15.20161287379791 0
10.11290322615036 14.83870964646787 0
10.11693548422069 14.47580642013797 0
10.12096774229187 14.11290319373216 0
10.12500000036691 13.74999996697819 0
10.12903225842383 13.3870967418552 0
10.13306451647886 13.02419351690233 0
10.13709677451437 12.6612902937063 0
10.14112903255518 12.29838707003324 0
10.14516129060447 11.93548384559769 0
10.14919354865313 11.57258062121796 0
10.15322580671374 11.20967739576328 0
10.15725806477384 10.84677417035441 0
10.16129032281338 10.48387094679534 0
10.16532258087472 10.12096772127496 0
10.16935483892187 9.758064497031445 0
10.1733870969857 9.395161271286613 0
10.17741935503843 9.032258046541457 0
10.18145161308684 8.669354822183982 0
10.18548387114214 8.306451597207326 0
10.18951612919923 7.943548372069355 0
10.19354838725904 7.58064514668658 0
10.19758064530033 7.217741922969729 0
10.20161290333043 6.854838700261147 0
10.20564516138313 6.491935475518151 0
10.20967741944725 6.129032249747367 0
10.21370967750003 5.766129024997362 0
10.21774193554038 5.403225801366053 0
10.221774193581 5.04032257770997 0
10.22580645163059 4.67741935324665 0
10.22983870969496 4.314516127453131 0
10.23387096776351 3.951612901284103 0
10.23790322580145 3.588709677869551 0
10.24193548386297 3.225806452332522 0
10.24596774192589 2.862903226669555 0
10.59615384879596 2.5 0
10.94230769598397 2.5 0
11.28846153932223 2.5 0
11.63461538477885 2.5 0
11.98076923215367 2.5 0
12.32692308114312 2.5 0
12.67307692536209 2.5 0
13.01923077070862 2.5 0
13.36538461224543 2.5 0
13.71153845566042 2.5 0
14.05769230141394 2.5 0
14.40384615085709 2.5 0
14.75892857144616 2.85714285784649 0
14.76785714288078 3.21428571523109 0
14.77678571432 3.571428572800198 0
14.7857142857668 3.928571430672074 0
14.79464285720148 4.28571428805915 0
14.80357142863987 4.642857145594823 0
14.81250000006625 5.000000002650031 0
14.82142857153606 5.357142861442594 0
14.83035714299431 5.714285719772646 0
14.83928571446538 6.071428578615361 0
14.84821428592949 6.428571437179454 0
14.85714285740048 6.785714296019075 0
14.86607142885319 7.142857154127467 0
14.87500000027791 7.500000011116425 0
14.88392857167472 7.857142866989042 0
14.89285714308988 8.214285723595362 0
14.90178571450818 8.57142858032706 0
14.91071428590076 8.928571436030644 0
14.91964285725977 9.285714290390665 0
14.92857142864635 9.642857145854018 0
14.93750000005199 10.00000000207956 0
14.94642857145045 10.3571428580178 0
14.95535714287157 10.71428571486281 0
14.96428571429883 11.07142857195331 0
14.97321428570877 11.42857142835066 0
14.98214285713628 11.78571428545122 0
14.99107142858074 12.1428571432296 0
15.3571428591223 12.5 0
15.71428571719138 12.5 0
16.07142857423201 12.5 0
16.42857142974857 12.5 0
16.7857142846084 12.5 0
17.14285714112862 12.5 0
17.49999999772317 12.5 0
17.85714285297952 12.5 0
18.21428571083795 12.5 0
18.57142855939082 12.5 0
18.92857141386655 12.5 0
19.28571427430228 12.5 0
19.64285713574168 12.5 0
20.00892857145444 12.14285714182253 0
20.01785714288121 11.78571428475149 0
20.02678571430391 11.42857142784392 0
20.03571428575173 11.07142856993083 0
20.04464285716307 10.71428571347709 0
20.05357142862058 10.35714285517672 0
20.06250000009985 9.999999996006125 0
20.07142857160473 9.642857135810823 0
20.08035714307449 9.285714277020388 0
20.0892857145293 8.92857141882806 0
20.09821428593644 8.571428562542428 0
20.10714285739586 8.214285704165588 0
20.11607142887573 7.857142844970847 0
20.12500000035236 7.499999985905506 0
20.13392857174129 7.142857130348313 0
20.14285714310267 6.785714275893214 0
20.15178571450528 6.428571419788685 0
20.16071428590087 6.071428563965252 0
20.16964285732718 5.714285706912793 0
20.17857142873676 5.357142850529643 0
20.18750000014888 4.999999994044952 0
20.1964285715605 4.642857137580068 0
20.20535714293256 4.285714282697754 0
20.21428571435444 3.928571425822371 0
20.22321428574628 3.571428570148774 0
20.23214285715693 3.214285713722903 0
20.24107142855655 2.857142857737868 0
20.596153845103 2.5 0
20.94230769181397 2.5 0
21.28846153698369 2.5 0
21.63461538161964 2.5 0
21.98076922946485 2.5 0
22.32692307653609 2.5 0
22.67307692028468 2.5 0
23.01923076562454 2.5 0
23.36538460449588 2.5 0
23.71153845024273 2.5 0
24.05769229413811 2.5 0
24.40384614838844 2.5 0
24.75520833333718 2.86458333360238 0
24.76041666667798 3.229166667458308 0
24.7656250000173 3.593750001211001 0
24.77083333335809 3.958333335066103 0
24.77604166670141 4.322916669098772 0
24.78125000004511 4.68750000315787 0
24.78645833337953 5.052083336566992 0
24.79166666671298 5.416666669908391 0
24.79687500005813 5.781250004069072 0
24.80208333339111 6.145833337377437 0
24.80729166673437 6.510416671405975 0
24.81250000007497 6.875000005247864 0
24.81770833342114 7.239583339479573 0
24.82291666677311 7.60416667411762 0
24.82812500011363 7.96875000795414 0
24.83333333345632 8.333333341942213 0
24.8385416667967 8.697916675769235 0
24.8437500001361 9.062500009526882 0
24.84895833347101 9.427083342970692 0
24.85416666683082 9.791666678157132 0
24.85937500017594 10.15625001231616 0
24.86458333353615 10.52083334753068 0
24.86979166687154 10.88541668100752 0
24.8750000002114 11.25000001479821 0
24.88020833353079 11.61458334715515 0
24.8854166668455 11.97916667918503 0
24.89062500018088 12.34375001266188 0
24.8958333334951 12.70833334465707 0
24.90104166681805 13.07291667726343 0
24.90625000014924 13.43750001044626 0
24.91145833347969 13.80208334357788 0
24.91666666677206 14.16666667404435 0
24.92187500007075 14.53125000495268 0
24.92708333337507 14.89583333625455 0
24.93229166665025 15.2604166655177 0
24.93749999993438 15.62499999540688 0
24.94270833326972 15.98958332888 0
24.9479166665939 16.35416666157307 0
24.95312499989663 16.71874999276385 0
24.95833333321826 17.08333332527833 0
24.96354166655782 17.44791665904754 0
24.9687499998933 17.81249999253098 0
24.97395833322337 18.17708332563618 0
24.97916666655323 18.54166665872609 0
24.98437499992156 18.90624999450882 0
24.98958333327948 19.27083332956353 0
24.9947916666537 19.63541666575921 0
24.65909090697006 20.11363636434331 0
24.31818181387862 20.22727272870713 0
23.97727272112545 20.34090909295818 0
23.63636362933978 20.45454545688674 0
23.29545454074166 20.56818181975278 0
22.95454545175678 20.68181818274774 0
22.61363635870555 20.79545454709815 0
22.27272726938004 20.90909091020665 0
21.93181817642107 21.02272727452631 0
21.59090908415283 21.13636363861572 0
21.24999999070893 21.25000000309703 0
20.909090898365 21.36363636721167 0
20.5681818062032 21.4772727312656 0
20.22727271532826 21.59090909489058 0
19.88636362288735 21.70454545903755 0
19.54545453222531 21.81818182259157 0
19.20454544067146 21.93181818644285 0
18.86363634917439 22.0454545502752 0
18.52272726008306 22.15909091330565 0
18.18181816691119 22.27272727769627 0
17.84090907624678 22.38636364125107 0
17.49999998161302 22.500000006129 0
17.15909089129634 22.61363636956789 0
16.81818180107666 22.72727273297446 0
16.47727271035784 22.84090909654739 0
16.13636362113641 22.9545454596212 0
15.79545453028867 23.06818182323711 0
15.4545454400335 23.18181818665549 0
15.11363634812483 23.29545455062506 0
14.77272725866684 23.40909091377772 0
14.43181816866006 23.52272727711332 0
14.09090907805834 23.63636364064723 0
13.74999998745307 23.75000000418231 0
13.40909089754563 23.86363636748479 0
13.06818180839043 23.97727273053652 0
12.72727271853859 24.09090909382047 0
12.38636362812021 24.20454545729326 0
12.04545453791708 24.31818182069431 0
11.70454544876188 24.43181818374604 0
11.36363635991656 24.54545454669448 0
11.02272727049761 24.65909090983413 0
10.68181818161208 24.77272727279597 0
10.34090909059876 24.88636363646708 0
13.12245575810983 5.359375001489979 0
12.85937500007252 5.622455758928196 0
12.14062499745613 5.622455757501361 0
11.87754424071326 5.359374999451498 0
11.87754424189017 4.640624998510021 0
12.14062499992748 4.377544241071804 0
12.85937500254387 4.377544242498639 0
13.12245575928674 4.640625000548502 0
23.12245575866386 5.359375000530365 0
22.85937499942928 5.622455759299569 0
22.14062499843458 5.622455758066268 0
21.87754423944776 5.35937499725959 0
21.87754424133614 4.640624999469635 0
22.14062500057072 4.377544240700431 0
22.85937500156542 4.377544241933732 0
23.12245576055224 4.64062500274041 0
13.12245575835722 21.85937500106149 0
12.8593749974183 22.12245576046061 0
12.14062499962912 22.12245575875594 0
11.87754424065191 21.85937499934525 0
11.87754424164278 21.14062499893851 0
12.1406250025817 20.87754423953939 0
12.85937500037088 20.87754424124406 0
13.12245575934809 21.14062500065475 0
23.1224557587305 17.85937500041494 0
22.85937499688295 18.1224557607697 0
22.14062499958506 18.1224557587305 0
21.8775442392303 17.85937499688295 0
21.8775442412695 17.14062499958506 0
22.14062500311705 16.8775442392303 0
22.85937500041494 16.8775442412695 0
23.1224557607697 17.14062500311705 0
13.0357142863834 15.5 0
13.57142857334916 15.5 0
14.10714285783675 15.5 0
14.64285714470339 15.5 0
15.17857143070267 15.5 0
15.71428571720997 15.5 0
16.25000000702564 15.5 0
16.78571428904744 15.5 0
17.32142857412979 15.5 0
17.8571428511085 15.5 0
18.39285713616606 15.5 0
18.92857142211578 15.5 0
19.46428571101452 15.5 0
20.0 14.99999999601014 0
19.46428571160309 14.5 0
18.92857142040583 14.5 0
18.39285713577575 14.5 0
17.85714284336419 14.5 0
17.32142855637984 14.5 0
16.7857142655791 14.5 0
16.2499999775787 14.5 0
15.71428569556309 14.5 0
15.17857141150299 14.5 0
14.64285712475407 14.5 0
14.10714284117721 14.5 0
13.57142856006613 14.5 0
13.03571428124737 14.5 0
12.5 14.99999999867727 0
16.4285714293708 13.87244898555862 0
21.24003361270459 15.99666734690503 0
13.49211346074348 20.26678114242025 0
11.5805861026285 7.819611262742614 0
10.56102342702613 16.16864275433164 0
15.22141425957822 19.61801928073029 0
22.28960791094218 8.83650835664221 0
16.41499003034087 17.60578806366772 0
22.99666726423611 13.39189921504798 0
20.75836935492118 13.94868969844024 0
14.46507057483428 23.11307885491538 0
22.24139357324855 14.8728448453788 0
20.8359898772813 17.38742708730769 0
11.32709984343337 19.96831484490967 0
10.55041413022931 21.8663037112436 0
10.97772388135628 12.69977818173314 0
16.64021905554112 19.63390663647461 0
13.63739059737297 4.904715567172842 0
12.78967615084758 20.23168473129169 0
23.9980063252289 7.551515113703746 0
10.78645159492505 8.28839384183973 0
24.29305566920285 19.49974938239425 0
21.01220757499025 5.33188996536156 0
21.84723155546424 9.047151498543023 0
10.60830955206783 18.54809133789874 0
21.00556142003267 7.450774534967636 0
13.60598431194471 22.25617585619701 0
10.46601297786507 11.35174547847942 0
20.52622035417856 7.659372173257534 0
17.30754842321189 19.6979082344824 0
23.98142662432061 5.313757478015936 0
22.02550816999798 3.541743677633294 0
12.91057774725963 7.225042051549441 0
22.53473050684993 2.99619976769093 0
10.61908928200103 13.10454322563533 0
23.13679575582844 10.1368782883478 0
17.86657712563237 19.78270079676858 0
22.9893895620002 18.50597806155556 0
23.01027670344532 8.111520512725013 0
14.15463606902771 11.13862269325086 0
13.67909176215466 16.27796147646124 0
13.31249323582102 9.408691164351419 0
22.24833778639721 20.22465987325865 0
12.15335897222459 5.963970463756866 0
10.87245017544077 19.02105140174132 0
19.35076282425567 17.54504449792012 0
17.9155471543508 20.95065949164543 0
16.77751054096151 22.02583579002131 0
21.93598052843735 16.19273889976037 0
24.20829762246375 12.20689761322199 0
24.11968835189598 19.85988012262604 0
11.05053159842261 5.242442383221735 0
11.75661143814548 24.05114857431133 0
23.59396196962473 7.711570136945749 0
12.43267046652449 23.68677794259949 0
23.04234843212272 12.33018012345659 0
18.02437701134244 17.01086641921398 0
23.44784703969102 11.60963170854888 0
22.99768292992437 12.77701920818341 0
11.24760511185772 14.78684898843399 0
17.91165159453423 17.45914559322698 0
10.4216611677407 21.33398109489491 0
22.94247461303527 18.90931432999067 0
24.30539210855777 14.12565481306793 0
15.76722747207844 20.88965203709075 0
11.29873222683415 21.81184977877543 0
18.57428853566901 20.40778015617957 0
12.23311810276473 10.58369424364857 0
14.69438682115803 21.95889318805153 0
20.59160954224656 9.341891626745092 0
17.88283261615295 13.34754481112353 0
11.50440401558374 10.27605744520358 0
17.85428750223512 21.62783975612884 0
17.44164963496836 13.89008620859283 0
11.25179000602855 15.25592385482711 0
21.78985915740956 11.16599417487194 0
23.80787730572473 7.08502773807419 0
12.04071104551964 13.02329140562952 0
11.99747912151409 10.07084738302747 0
10.78706220093779 3.861751651320239 0
20.92825955505007 18.85039637310046 0
23.36593574866979 15.5820844245916 0
23.01074352583661 3.237898972258151 0
21.88118715667116 18.51683860784624 0
23.53157855289799 13.22413393163955 0
15.51039259825886 21.47693368886765 0
23.39976776361812 16.9959517788736 0
24.30530458888325 9.428797653387347 0
11.9114830385469 9.085069124108431 0
24.01772713978876 13.80286047356849 0
17.01929223322536 21.51977232416287 0
21.2460476284593 4.342858435624704 0
11.99020673888267 3.236802570786378 0
24.43960982301704 15.00431085863274 0
23.11947972167425 3.86670021557835 0
21.96037023461275 3.818733935143102 0
16.52322805399818 17.04412775165233 0
12.10380265464022 9.811946512557215 0
12.21954264203257 19.93359318535973 0
10.62424528626704 20.86549012115243 0
20.50494896915084 15.23113820440737 0
13.88512437844412 13.7521911845102 0
23.01319170585846 8.643526167699063 0
11.59870301126097 22.50112288522931 0
15.27243078868326 13.81978136315705 0
11.4704952767559 2.754622567236258 0
21.43911717295432 5.483680886959708 0
22.39575778842005 7.07584835279936 0
22.62224405758118 10.12287016741458 0
10.78753273418703 19.70245893702885 0
21.84183811280549 6.330805676967468 0
21.38960680264534 18.19238726781525 0
11.24883588430534 8.412035284211383 0
12.47149453441391 17.36340526154697 0
10.857460694263 3.123327041797488 0
21.6582884894945 12.50442987515672 0
18.16096901938699 21.56947341561439 0
20.89894601152806 6.779437955614197 0
10.86854278577143 16.44785504667532 0
10.7662528554203 9.412850714569323 0
21.56417770494201 19.20847190379332 0
11.21622507924937 7.201089917799052 0
14.4440767126672 12.1375946341018 0
11.90685699072605 12.42277138961524 0
18.41243700662436 16.94762679871288 0
16.71458834159831 20.94352740524392 0
16.92384673024991 17.36055643408864 0
10.92648784563572 13.6749343035764 0
23.9651790295238 7.876147300113425 0
11.75435101828078 9.789111969303626 0
16.39561921990835 20.73044730046804 0
10.84936351644405 15.02412805246304 0
24.14429372365926 3.123869664771905 0
21.81512214736812 10.06657819987772 0
13.12744603133875 13.68258529039668 0
11.83311318641481 14.45215841869954 0
14.31746779955464 21.86699886984534 0
21.12136895311599 9.32948693451048 0
23.12106715205077 7.679733373114991 0
13.46783014136236 18.95611038285965 0
14.38726927397024 11.69378668337493 0
16.91423760448662 16.35383518392369 0
19.72307486767953 20.91502916643993 0
11.37565660980983 23.99009606055556 0
14.30499487437791 4.770300391590304 0
14.21093126203523 5.105225052798465 0
20.48096796581232 13.09825472224127 0
22.2210766960132 7.447673759398525 0
24.31424764955797 16.35160387422936 0
15.45744509838462 19.85329765731704 0
18.37936988303911 18.38178596928615 0
13.58726293699272 19.35378158487601 0
15.5036456602616 17.63870360245742 0
15.00785036613682 22.07861159089211 0
10.7062018912114 18.01528876579266 0
13.8967617480127 21.60084378807147 0
13.0986262225957 16.13328748927825 0
21.88172108728352 8.163946619192807 0
24.26254857938863 8.15022245171795 0
13.47982849812758 4.16443387909584 0
10.72191344532742 4.806160296440217 0
24.1943193351642 15.48702459887517 0
22.18670023682854 10.98603612852162 0
24.24191183786212 10.48529334668177 0
24.39495459662987 2.864067789207406 0
15.98849315605932 15.81257197709292 0
12.04479318463769 11.62670182137157 0
20.96731148419859 2.829154123895207 0
20.90989061180418 14.73458502129178 0
22.052605540052 2.923550067252135 0
24.63337200774675 14.24449713739913 0
13.18958096797114 22.42995189795015 0
10.66880252075601 10.78967217059108 0
11.31606752363761 12.19385175948872 0
10.40320272230068 17.19379254665519 0
22.25942284838242 14.36505344837654 0
23.12445505721501 11.20044997798448 0
12.43994286319028 6.215900469770046 0
14.21077282680211 9.159632677288405 0
11.81929039242303 23.66379042249908 0
12.44229261762915 16.49111114677093 0
20.50143305580856 4.616767626504982 0
17.31552993115297 21.97513604081482 0
21.30550413089089 10.04899060087119 0
14.4617049830326 8.745368928669526 0
13.7862886352653 22.64451670196609 0
11.14969937090506 19.44968165164983 0
13.51774206216809 20.7914842701894 0
13.15440699199252 11.56761394720304 0
13.41019894738639 8.094751284379276 0
14.23782432069118 10.42582427895632 0
15.02273815804066 17.08015268118885 0
19.59741134082341 16.50235497590464 0
11.16459903613313 22.70989822785531 0
20.69644843734434 8.056108440981454 0
15.95094934688609 21.45226638903305 0
13.03964579465962 3.818950199957238 0
13.13035285214109 12.89117048680195 0
20.31987886410835 18.95124249516768 0
12.301565343483 9.325861136563063 0
23.73406028196069 17.73640762790166 0
11.88062749457928 18.25596478530247 0
18.51912731287655 19.02986195289683 0
14.21512939172663 12.5084788608111 0
11.85121394766951 10.43590985703582 0
13.0924275266659 14.07001436761361 0
15.66335286151312 20.45190309971648 0
12.14996942966459 8.664030693199944 0
14.50022087731199 20.27601756989121 0
24.0839761570692 6.823986744752879 0
14.30280078546212 3.528385434554245 0
13.07176334286074 12.01389822049562 0
13.74591452729334 9.29787803392079 0
11.68091376403402 5.876354087369482 0
10.88851729135367 6.734213937204829 0
23.45275711474149 6.212432478973302 0
22.07619982445084 15.83964939435643 0
22.10446873440707 12.8757688809442 0
16.01455754445248 16.20945139204921 0
22.74559914172585 14.63809636193154 0
14.37972217872926 18.34033416413891 0
21.65107245350436 16.58598144534501 0
14.20744445313662 8.347894083330809 0
11.59193084850105 18.47347002034019 0
21.23402303880787 18.56355770118574 0
13.99054387944891 8.732381063624846 0
12.46555491030927 11.56024271744937 0
13.06629340797356 8.866466832124376 0
12.27279345185796 19.08089389892751 0
18.84601246545185 20.02795573383786 0
13.76173631572433 6.969706521439008 0
23.3299254357173 20.10415510423865 0
11.88259816667198 3.865472130273603 0
21.59660221720394 10.38188828006868 0
23.54775991781901 14.9556426940971 0
15.17731648742115 13.1239167898843 0
23.39227235672891 14.42554003652612 0
23.07082963110598 6.307248886592851 0
15.27745650667788 16.35920913467498 0
16.03513008804611 14.00395916413206 0
11.62973402043624 13.82438006131403 0
24.49636195248327 18.01228915162407 0
13.22659694873414 12.37483410040813 0
23.67950795430685 4.414287426836411 0
22.00965988394166 15.46245001817678 0
12.06982578484914 11.08141459808009 0
13.89206068699144 10.86016350961132 0
14.15459771139675 7.082761896479936 0
14.67368915942986 11.26260041230108 0
14.22110059120694 3.944587788710705 0
13.03513425300401 18.87384991667509 0
19.8214285678709 12.98405612181365 0
13.18667611195031 11.12374542862451 0
21.28933077028882 16.46200232526293 0
19.99692284917987 16.42425438675447 0
11.49559013758596 6.135576352406908 0
18.94081202759746 20.79508417920416 0
21.83195471393415 10.58724781650711 0
10.63158346279678 16.98834917216512 0
22.28899435120656 3.134085308204407 0
20.46737148874171 18.03296412747322 0
10.92636960361293 21.90869735834614 0
12.00942396837889 6.308541477572256 0
22.29961589798318 16.29395234829724 0
22.66934608325161 16.48817089547094 0
17.80322505676713 21.92359279310331 0
24.64144773335844 17.68257285079077 0
24.39155899444645 3.472937524054568 0
17.3448425454072 18.60015557519731 0
18.1950129187499 21.1714515094436 0
15.18335942462074 22.91590221776353 0
24.22806133494266 13.45343768683354 0
21.30189216043256 16.88836783768687 0
22.80198688180137 2.789255274234493 0
21.0729676361871 5.698904800747708 0
13.25123084906927 17.86028974923767 0
10.32985227505886 21.62098676892872 0
10.53815848825109 16.61775826420504 0
22.90212817827948 11.59988024134902 0
10.53976218196211 17.59481610622351 0
22.19763662513377 19.86074383714633 0
22.23423804103356 6.214733348315614 0
19.7190471765535 18.97291072193015 0
13.46935051898401 23.33329687631499 0
11.72045283608972 17.66080090248854 0
13.12744773807983 8.46399699518328 0
10.70715691807842 22.85740839852 0
23.76905388880029 9.377528932613334 0
24.25160932785253 5.756962150111373 0
13.65787938015012 5.29570437362492 0
13.83105531940785 23.37273747145079 0
23.02831180001185 16.19850335498547 0
12.84337771635101 22.7450058195952 0
16.3082445976239 21.81049207300287 0
13.75903219600513 10.41536780995839 0
24.28782385442155 17.55210735674163 0
24.14753796882626 12.59278481419425 0
21.86366060759445 20.55268489636335 0
15.24896018720291 18.30325697017069 0
20.35075434024106 9.830256909144182 0
22.12704737818422 11.95354813044147 0
10.52351559235748 22.425548675944 0
14.32875190668564 22.69151891791898 0
18.41916817833625 13.03664624275589 0
24.35056583481888 18.79808957409527 0
15.4048470824837 22.25164003101455 0
22.5206553148677 13.71302169827852 0
21.04204969218545 12.67660878132538 0
12.25707055990169 13.73537094244979 0
22.60527840900066 15.30148038950964 0
19.22819453193634 21.28992306048626 0
13.98664440110576 16.86574534988759 0
23.44547782057226 4.235725948860782 0
14.37332492724128 7.898980037471879 0
20.6204806113539 11.49303209374179 0
12.59932839683781 23.39011220424024 0
10.59982153133225 20.26703685662294 0
13.92784137534276 12.75842573872855 0
22.22327189525738 18.84214439881655 0
24.03201965345442 9.566615303259644 0
15.19358115327613 20.96691866171702 0
20.93969895433512 20.63352240035558 0
22.52598102966345 20.43742488035611 0
20.02315084604212 19.23778814324336 0
12.88000447706187 8.11553458095687 0
11.84144310736528 16.19071503582893 0
20.85099474023748 3.163164237087535 0
18.94115049770713 16.11403134629136 0
14.38266140900536 2.876150886475469 0
12.98904643923692 9.82441340949999 0
14.14900525968014 3.163164236837634 0
22.76182428408256 9.160835996616582 0
24.61985848560046 14.79758500711822 0
12.09430431697173 19.50404054782117 0
23.13029291843557 9.004230580872031 0
11.24078323939725 8.054263161404903 0
10.97646163652141 3.508662240254783 0
23.2639078173489 19.19826154228242 0
23.26282149523357 8.368468150243089 0
10.96565634393543 20.11504569917529 0
24.00355872458733 6.396208167052348 0
18.83110595044503 18.53766513767833 0
15.73135025319754 18.9414187796614 0
12.94238659905176 23.32700203973099 0
14.50572276669579 10.77405623389759 0
16.20190175956629 12.84061742325225 0
21.85383217948477 12.16795383062517 0
23.47629294795721 9.790228597238682 0
24.52303432100016 4.045220576397609 0
11.68239743352375 15.00640248472672 0
17.68523824193668 18.26659270913441 0
22.76368880472183 7.190471191648256 0
12.5437493108184 8.177655151158861 0
16.65432330929586 21.65002685651995 0
11.17638108150185 16.32283746208071 0
10.99230673140369 16.03512202186549 0
23.75357054750063 4.041378879123966 0
14.85418915749842 19.69660162439187 0
21.84308522334841 7.341731483261792 0
11.04935420283804 12.23380217920937 0
21.68350404994879 13.5167339734557 0
23.01353283007491 10.68222704493279 0
21.51774109692867 19.5269795036482 0
13.51043129608118 7.277798931342129 0
13.51495128829562 21.84104544469961 0
23.55727670921333 5.477060427470893 0
13.62363321857918 11.28387798276002 0
23.37385557741689 7.37708675109041 0
23.43453210526538 18.52480269528105 0
23.6549134858451 10.31845934705998 0
11.5061738303113 5.178524902283541 0
13.05691055622682 6.253095975358677 0
20.84869567180553 11.69071971352574 0
21.26563628806278 11.01642902051311 0
14.46042026884786 21.3009062516878 0
12.90512422047826 17.39468663144862 0
17.07559955132409 20.81895296333096 0
22.09161377144904 6.875320975445273 0
14.37943071518933 5.463504396740718 0
19.15921086845313 19.70997869434547 0
10.52899313512395 19.40310177834814 0
12.39578251806165 9.984559688086083 0
20.60734417883892 7.142288111182387 0
20.69175318798539 13.42848868866421 0
17.19471860438381 19.19438460318635 0
17.03692342868349 20.4727885978157 0
18.73440889431572 21.5435829385664 0
21.32857356549476 6.499508539649447 0
14.21183425810364 6.328766189724118 0
13.41308068442816 6.910787227966535 0
10.51643140726207 7.764394895351555 0
21.81808134932207 7.84206113045364 0
16.45365202888 19.97686112380871 0
11.53163049317519 16.43552701235655 0
14.06193146341883 22.95139352115411 0
23.42735843723444 14.10272535875999 0
14.40907280352491 7.416958059321426 0
11.46153846205056 3.045680949434446 0
19.26284482588011 13.12429435086306 0
24.48707333378834 13.75540094136687 0
11.96875812156603 22.43062392125609 0
21.60129035869168 7.606751617237539 0
17.55933127437605 21.74199814597545 0
10.60294779081286 9.0572968485248 0
12.77640414076313 23.71996026545228 0
11.36380397639684 5.493727285815222 0
13.86146126685164 20.34817666470679 0
20.80279433456837 15.6558460175285 0
22.63977061901427 12.81345821535489 0
11.68884967908188 12.15288645465366 0
14.74231297861799 16.10121881082965 0
23.76749135516362 19.73739874558122 0
24.4944320277624 17.10791432680512 0
10.42809560893529 18.26298212433346 0
18.28361507006959 20.73025279339664 0
13.46490494489984 19.73334511947882 0
22.60831087547572 3.372753417451403 0
24.34050970009549 7.753748612593486 0
23.80170749233775 14.22509790975393 0
19.67399451789073 16.86474255782726 0
19.07335151865676 18.15409879874296 0
18.75169086521104 14.05965114010291 0
22.7239261534681 12.03734994797587 0
19.8214285678709 12.70908998313476 0
21.68614585418165 8.706220773590559 0
11.41271784855884 23.57575589002628 0
11.70373165215176 20.81084535633544 0
10.71866941592772 6.253534745991394 0
16.47198805749247 22.06172136490676 0
21.08925679152541 11.84245797698797 0
14.5360030743493 3.744416360494749 0
23.53846152736919 3.046512449045154 0
24.11357529800802 19.13649756720034 0
13.10485308291916 22.98698527684021 0
12.77163247990227 5.996196523696767 0
20.65306682194881 10.78693249246883 0
24.5791763385609 15.41990682745474 0
12.50516040463364 7.255662855743354 0
11.57004065370605 4.558159611719647 0
24.36899204512369 12.86027313864766 0
19.784589724593 20.15593720761436 0
11.52390701874981 11.30457199022015 0
13.20885745262065 20.59043353927276 0
20.48148486142983 16.91728990697085 0
13.40674397548647 11.86428513758216 0
13.31579864648572 3.076851708627237 0
13.45942236277498 9.760612805985684 0
10.52404017574184 6.668685529495614 0
21.27626041507335 2.945421853821341 0
21.68439599408439 3.076927754058802 0
20.46552554685405 12.61316113934935 0
12.07785585739821 7.286147348100002 0
24.44370485101917 15.83374249748551 0
13.36321665003441 10.15117946587214 0
19.36448779436222 19.23435682983691 0
23.33653611739588 5.861374562164586 0
22.56843648242581 7.59290767369373 0
10.76315668556019 11.79581272223386 0
13.03708485767892 18.25903310056377 0
22.68974676314746 11.04203893994827 0
23.59136743139047 15.38028611160078 0
14.16791512634819 18.72081161904389 0
24.58777305242961 19.11528209755275 0
14.08481051474698 13.1196151056974 0
20.55480648784701 11.82841186932549 0
11.71717539497849 20.38854450896214 0
12.02001725412324 9.560882461989795 0
14.66711354780911 22.38238210368039 0
21.07265900507085 3.420801077182702 0
23.69895556757568 4.826714625776529 0
20.71378684189967 5.765087966544036 0
16.29911041505289 22.35269440445796 0
13.83264357239602 12.36270693246463 0
10.6974851504155 14.2986516434504 0
11.12016791599565 11.63387158577913 0
10.93939614935445 10.92228720315905 0
14.41785299761785 6.016647921559632 0
13.50261428682412 13.93903734397398 0
14.35492979337974 19.10698493689944 0
11.82916377867648 7.043447190233255 0
20.76936644462723 12.87762577904403 0
14.56869828390979 7.005458888510135 0
16.696480706014 18.253695154142 0
16.04603885334582 20.27045164893943 0
16.45144088254714 13.12429434978323 0
22.65213229862382 19.32132568759346 0
14.04587973895526 8.067990335114494 0
20.78151837542476 3.949652639344339 0
12.69234234076649 3.993547176176737 0
17.35356298944786 16.18273909575591 0
12.88234966986978 16.82551225907793 0
22.75371405352033 13.11846430842032 0
20.23668152491918 18.46470083028034 0
23.46395518718623 16.65200447488303 0
10.9273373791801 15.46795953588205 0
11.28706807069738 17.8187901802017 0
11.153197492538 11.04683960428559 0
11.24958679245129 4.03973161781552 0
13.90743174703756 17.57069448967126 0
10.80463364641885 7.575593784014553 0
10.37249505208667 15.81999305053052 0
20.5757446924517 8.934364763776609 0
18.85355422900525 12.96249039089721 0
14.62937633447891 12.90831642062323 0
21.19172845316437 19.838739478516 0
23.18307508846481 13.14715765810938 0
15.87935261475416 13.02855217373274 0
12.07114321254885 12.03362107773404 0
20.15079287991097 13.88228640118274 0
11.69361848151114 18.85566451142512 0
20.29740407965676 17.82424943233933 0
11.0374329695802 23.39860616475431 0
18.87427624443889 16.98754136095357 0
24.25819457652846 6.537974840281957 0
17.39990434070069 20.45565163741616 0
22.1555208320325 8.479896149340991 0
22.0592208545313 9.344998621526715 0
10.26883768010097 21.87682889393251 0
11.55750880127903 4.234321615372735 0
11.4844411460545 12.47829752105929 0
12.57862215878698 18.76684906408123 0
24.29140437779842 6.267338421939965 0
23.60275802943789 17.17636567660904 0
11.64531510852045 3.35520897421865 0
24.62570247404482 16.14013412920822 0
20.98251490394578 10.27565293707099 0
14.63528545906011 22.79533671256431 0
22.1430618111282 6.541446721957971 0
13.48286110285012 22.54692947379814 0
12.55952064327725 20.4574804487906 0
14.07545663276465 21.22305336483253 0
22.13896070103184 13.55529418128915 0
20.57377995920648 5.256192204094273 0
24.54332485524916 18.47652401928385 0
22.59694453467208 3.77169761005871 0
22.83264340178791 7.481270639502751 0
17.65774804073881 12.80089785230247 0
14.6049346530119 12.56628123775146 0
23.92026816990064 19.403705801856 0
14.55711103012859 9.47789535202418 0
11.07637488370922 24.21126154597355 0
24.21688109468594 3.863526531845634 0
10.59884881723838 3.464685940957575 0
17.64028761825359 19.41638430400115 0
10.62828432833192 13.94611891935662 0
21.52562095875848 4.188234659544031 0
13.80082447325401 3.97094573745199 0
24.35446689057119 7.14430874209673 0
14.80002214181549 20.81633657761751 0
13.72373958492222 2.945421853608491 0
13.71777739481845 6.14823339870651 0
21.6178009785046 14.82088441382968 0
15.35585693520327 21.83348075024972 0
10.76370617787877 7.288684435042712 0
20.85109937959798 20.02903058293897 0
22.54791025757763 19.80121989428363 0
14.30368477138975 12.85385651547533 0
22.95166222502156 9.690333361396203 0
23.31010844026241 3.670286434650779 0
14.33273161799 13.97754509742179 0
18.05868988451291 16.00145104269076 0
10.94220131036487 20.98967804912189 0
12.35086861162009 10.90974868171683 0
17.20813186611366 18.21616612857714 0
24.52850392489655 16.68924492904369 0
21.61194233631584 16.95957016894024 0
23.90875741721205 13.13269762642205 0
10.49352029541795 14.65164792665262 0
22.20465935889784 13.86866685620252 0
23.69832033140847 11.18167014989525 0
23.38627133658401 19.57747219840465 0
24.65981585850069 12.88369063032584 0
12.14933646570222 16.9254362657125 0
21.88329472609362 19.16642696901673 0
23.86333479005991 18.60609394659816 0
18.61189566220421 17.99977595099913 0
10.92087043205888 14.58107615399106 0
23.7067193385347 11.79466803324056 0
13.85736405037588 7.302969579523876 0
13.5887204904307 20.53572873252119 0
20.94867623770926 8.359150153012887 0
12.09974683763798 18.65965379599015 0
23.96337744191175 10.51902513098782 0
13.70065368780839 21.28351149983179 0
11.32683044028838 20.98925260709316 0
19.62357098107587 14.00240464183998 0
23.334260583327 10.45694133729188 0
11.11131977009574 6.409197241251365 0
23.31896162301001 13.53279417048837 0
12.18560573986934 8.198204850618149 0
20.55715131970607 3.196057528844035 0
11.18530872802254 10.78379220640664 0
24.40320096940435 19.92581694939993 0
20.01582311335668 21.22579042326943 0
10.68963227093665 15.75413850464637 0
12.46130686631505 22.86178196442987 0
13.99863187554296 6.66598243378094 0
20.4999592277932 14.48504074717781 0
14.40055015355443 9.827152868649133 0
12.77004024545116 17.91037446578609 0
13.85623177811746 13.3724099085573 0
10.36882469120066 23.07046602323697 0
24.33003961618631 11.03970296931245 0
12.47594589947544 19.64557843583566 0
12.86299402262686 9.237782657045505 0
13.69683548848847 8.286391392538789 0
11.47699571573416 8.532353012158984 0
23.77640410640907 3.243981388979324 0
15.52506209550996 22.84496406140331 0
18.13091617618241 19.44209942286839 0
10.64690248051802 12.30935202217973 0
18.4337645604321 16.27246559188459 0
20.38128272436771 11.26687972132508 0
20.58934493476749 8.536676694499587 0
23.16131907196208 2.886224654335579 0
11.43534742103378 9.981306914654267 0
15.6530052919348 22.55530037507178 0
23.50896606840295 18.05702703371946 0
20.64425941253809 6.275957204680085 0
20.27343465964859 19.90691400980727 0
14.8500050847028 23.04852987650366 0
22.97543011267566 3.613185944517841 0
19.55925971013016 18.57621462296932 0
23.05595843300104 15.59324258471914 0
10.62143344881875 12.69902873931892 0
20.609490080095 10.28126479459045 0
24.11280477008862 6.030218630389995 0
12.51456685851247 12.56186308745123 0
21.30195963596206 4.938972231215291 0
12.42404158124172 9.02311826131715 0
23.89597444684506 15.23029899103629 0
22.01397341002893 13.17771211877504 0
11.77437715178725 19.89409833774167 0
13.98244859826973 11.50427987142494 0
11.80307432282053 11.87017597538146 0
16.68708593236924 22.31323970961801 0
20.36755068586871 20.98973003275546 0
14.05439721896551 19.39186740351193 0
11.39397157155706 21.41572054845163 0
12.78609481920473 3.70359147385447 0
11.44902823591362 17.33583842799108 0
24.34632045406613 4.272811972037453 0
19.21289107405987 18.52954945975138 0
11.23129846988618 18.68476266787809 0
22.66711580636555 6.070386288832222 0
21.34053957129407 9.024019611181576 0
10.96155949083507 13.99506265863553 0
11.586840892953 21.16128613574678 0
23.77201710063997 9.039916606221796 0
21.30354505147647 17.7247380209996 0
13.1934975510973 19.22716752240516 0
20.31728331172103 11.62714480730192 0
14.85608266224215 19.27781452192457 0
13.40570866146244 3.831338109757871 0
19.48939342051255 16.10113422843682 0
22.77514672147524 20.1657906465033 0
21.23617693261402 15.61641845978616 0
23.21949720816598 13.91214985962392 0
24.10566406292654 14.47127068236177 0
21.07307012325101 20.27044429009301 0
13.07103788405952 6.893341224352518 0
14.42117306841247 20.99902491503656 0
10.75841764560499 5.736459980072317 0
19.28571427745273 13.87244897806815 0
10.37343680249156 24.47317045142254 0
23.6838177573184 11.50487187593798 0
12.74330241920427 19.13326512521323 0
11.71927848907013 7.34866637847255 0
11.59918970308685 18.07153324148024 0
12.14162274153476 22.6718171042019 0
12.9295017938713 10.76348626553009 0
11.32353475530236 7.795034985367334 0
16.15490390554319 21.08331693836763 0
17.28269021038439 13.02203855497643 0
14.5196267816591 17.24439787667343 0
10.51894108995481 5.578567264059839 0
11.33001239202773 13.50837178958555 0
14.13091937233464 11.87241011563416 0
24.51610942814514 6.672770238799007 0
20.45977537237472 6.596202093512077 0
10.53589344245449 23.39839523952158 0
18.91011561022834 19.26891883766943 0
20.33638040795043 9.195856832872908 0
12.40473544489631 3.772224583773019 0
14.35320324629145 6.671789005743584 0
20.85356720114255 7.730509415718894 0
19.96475862696978 20.53257650959185 0
13.4402872478304 5.84707461498074 0
10.57661543250012 7.037555748493036 0
19.52804209913815 19.62974030844657 0
22.03646201917802 16.565301793419 0
12.12270789447136 23.48121317625517 0
22.4182411140112 9.203858163193711 0
23.50687578710248 8.846825057553781 0
20.57828834551852 20.67548331195846 0
15.53646489697931 12.84648292508546 0
10.47682584463792 18.986716420013 0
15.60643645207286 18.07655862094028 0
15.388592190483 16.80789522966226 0
18.12013323449645 20.2161483238375 0
19.5969261529559 21.3384553711485 0
24.54153624255247 9.976199515120019 0
16.36314081992445 16.56759217526737 0
23.35596506224654 3.356454080305503 0
10.51732070815176 24.20085097287842 0
23.54688446033538 12.6268826063927 0
19.11696512066814 12.7822724410826 0
23.28294324301712 14.71380351333175 0
15.38088713436863 18.7053626177259 0
11.22471596964548 3.242859213584413 0
20.98209988391547 4.930544137741198 0
10.55777609165751 10.35190853536348 0
24.27337921860316 4.819884054110606 0
22.30274469125088 15.19695391856679 0
20.40931764485385 7.351121224425016 0
12.46655640462628 2.995567159541284 0
22.58769862466757 8.59913917800551 0
20.30265978480179 13.4758632442464 0
13.09921439631366 5.879197520600488 0
10.26898107837544 24.09561860333246 0
21.27623876609188 12.38222972479521 0
20.45804253419432 16.08744950812013 0
21.64079322038682 5.862928141413385 0
10.42967521667968 10.99425152237319 0
20.83445069363576 7.127989564960821 0
12.28578193735115 15.96873021038566 0
20.76706799043718 20.91863963173899 0
11.65833262557079 11.61038513128309 0
21.72973631680855 3.511036415287077 0
23.18048735070527 18.70467743342338 0
20.47349600518732 5.581590047710209 0
21.52432066775164 19.86732595318776 0
13.22062830398668 7.453917607046144 0
11.39417861189101 19.11256361417321 0
16.36684329563506 18.63057744561739 0
13.69342973154774 7.909096329499032 0
13.12110161724657 20.26139909135786 0
23.30150932822184 15.89894933860267 0
23.64250760997086 12.33048397106757 0
22.11501903160983 7.827636150184778 0
16.23480977416203 19.13885800090787 0
23.44089160702427 3.899740291294906 0
13.46276886828213 4.525065835825436 0
10.66512635157395 9.946686373432424 0
24.68791071762505 16.45874652276336 0
24.6023640982776 12.10875306564573 0
10.89784899568005 6.011405974559732 0
20.67961712977722 4.870574184289393 0
24.52368988242495 10.7323957850787 0
23.18396304260227 9.873212729529497 0
17.52207818863043 20.77031077392171 0
21.56234084895415 9.746575223862552 0
11.40336058948185 7.505249959739015 0
24.52143649475561 11.40839543062444 0
19.44034171280181 13.51890202301269 0
10.40443143094655 15.02240628720201 0
15.13904058480317 17.88172874685926 0
13.49185684905172 17.47154527948846 0
20.61733859129641 2.87615088653878 0
14.12408474890705 9.563238993091463 0
23.8766152033372 16.4626516225907 0
22.0295991920193 12.53716964968084 0
14.69089908485022 9.822865441476624 0
17.07467523553535 15.88837891839027 0
21.13639967116624 14.29178386317613 0
16.28140069587542 21.50489842850433 0
19.59192167239717 20.45691727583894 0
13.71365905098715 10.12083363260027 0
14.79967509327233 20.06184827452576 0
13.98416394814266 5.440611197714976 0
17.2138492829032 17.05662259342634 0
24.20026632752036 10.16533523434317 0
22.99608992961508 14.45997904474247 0
14.66774840481507 21.56611204535968 0
12.8877359512613 11.05150337830865 0
23.42290157797791 16.2739670254038 0
12.50827600732953 7.796698538535408 0
12.27935077986406 11.28216064600761 0
12.45309889634086 2.72006962394151 0
23.78143805868947 13.50846548727757 0
13.45526459304111 15.88599395747151 0
24.11993628899243 11.25544256379909 0
23.39157039817264 8.011066391202943 0
23.35555312252025 18.87861464686624 0
11.53628962379996 22.07132250580567 0
14.62123561651074 18.8086749014355 0
21.86226589343565 8.497831376241255 0
12.21702513538412 14.2301178198954 0
13.88714564217261 5.099976381654377 0
10.65705752247688 8.658834168914513 0
16.1420389313608 13.20028717804816 0
11.84301605229391 23.04088178681112 0
13.45569895441043 12.67091530824724 0
10.37016760275264 19.71967338859524 0
11.9130562883428 17.23931235458436 0
14.83073749963684 13.84472690632112 0
22.00064831039323 11.51398211202271 0
12.01759292232266 13.39280242176322 0
12.10005977712194 6.921922078261574 0
14.67000036834599 7.326441966277437 0
18.52858857181053 21.77873169381068 0
13.28205506948214 18.59298287855974 0
18.69650993660024 16.60948690379325 0
24.05766114750102 9.223524617968568 0
18.79433822444463 18.87433491506977 0
10.46921768772426 3.784212664933447 0
19.00083427542016 17.76428682345956 0
24.20054482616729 10.75355567019299 0
22.06404580096072 9.747281448773702 0
16.02216888673467 22.57963046352397 0
11.4061350881885 9.165076623999235 0
22.74000767115941 6.445003978864732 0
16.89968637066448 19.44651995656577 0
24.45616045402842 14.52592611036234 0
13.27026675144999 3.511068656496387 0
10.3735226712978 22.11826157379802 0
22.59012349191126 19.01115408917659 0
12.17766579522094 4.033428130041236 0
23.15522411308625 4.136317054322641 0
12.69224322203319 13.50719826332462 0
16.92649250947652 19.90288454359579 0
23.67125143598502 6.522613396139711 0
24.22697099053626 13.11851445842138 0
11.49965986551071 15.54313551397756 0
17.61537376686335 17.83694398153142 0
21.56977774401267 7.999530292440866 0
11.25734313173324 6.852385338764506 0
12.75853253215712 11.7327184375355 0
13.38880739555592 9.038647915451708 0
19.43153070014092 20.00861306181349 0
11.51231133962253 6.52450462969306 0
16.59715653545826 12.78281296517988 0
22.21018215618863 8.15195390256279 0
23.52956229398026 2.755006723594507 0
21.93049717706916 14.58848447035535 0
11.83137760241181 15.45123934110784 0
13.61780959227945 3.277186885042054 0
13.47691390697539 2.757823048759131 0
10.4701761823387 9.336556867809355 0
12.71189340450267 6.94983203425869 0
20.48062982170953 5.966257660883204 0
12.82205799202996 12.35013964775098 0
21.82388134607765 19.91614888078597 0
21.83198888616688 19.56652939507991 0
14.1877905678375 10.78416341437533 0
11.31125210728499 4.836979597843045 0
20.18749318917011 19.6202933625728 0
19.99130683733673 15.9621033733723 0
11.7331242498593 9.36786709916057 0
10.65852806659979 4.269685366260259 0
18.19374505052327 18.7405363838297 0
22.73631041911299 7.866472038077451 0
11.8736476847455 6.056152517458961 0
22.26734471700142 5.900034421526653 0
12.13412511567387 15.22354297019225 0
21.25362669826478 13.63857181235743 0
21.12936162905283 15.24784048072422 0
13.99909968936807 16.5214128281015 0
10.67332245581069 21.55452977420152 0
24.5913780343088 9.317644515360346 0
18.3201767006312 13.89343365893289 0
16.8607314769656 12.96249038891504 0
15.81678892730949 17.37148579186544 0
13.40309884748657 6.329021585472149 0
21.786046717396 6.720455736189084 0
22.89761081907709 10.06084409240271 0
23.94386849343306 17.27434310456241 0
22.18792219693567 10.2318662146178 0
12.83724918763555 11.37057283968851 0
20.85738376943119 9.185732519170624 0
13.81166688564805 8.990594310588278 0
12.64540041200663 7.536912216378448 0
15.62110262860953 19.61575420053326 0
21.25711779594144 19.19917888994621 0
13.00256881371298 3.266841242172005 0
11.13504361390768 23.76270959513761 0
13.49262325055009 12.17574627497929 0
24.40700826318616 11.79426195586554 0
23.94370535245133 10.9913611189042 0
23.90292917144241 10.18285556528774 0
13.57385069064842 18.23151358662156 0
11.57395080305932 4.838629709740179 0
23.87110781583145 2.842296514591805 0
20.27153618497697 11.91999992336446 0
20.57727469167796 19.75351521103222 0
10.39788442519612 20.55424115925129 0
18.17284213262582 19.88940513192971 0
16.30972753527233 22.62457504947848 0
24.7018063071237 15.08138044649883 0
16.33394047237724 18.02610294835853 0
12.396097403567 8.747433094286432 0
17.22243233441383 20.18901604407094 0
21.30431193408969 7.447423882042974 0
15.57401104656724 13.29531628295251 0
21.80155513696171 12.84838639757209 0
20.72922097934756 20.36514008615539 0
10.39750798243011 12.45326930915221 0
24.55818701196972 13.22803350166524 0
18.43929750690027 20.09534823296052 0
13.89384531470821 19.02484862615347 0
24.30135917523996 8.680960564147192 0
22.36147991666248 9.999888575060112 0
24.72861170437535 15.80797903282119 0
13.02860353252399 10.17079542242191 0
13.95272202756517 22.01769391135767 0
22.60305602127764 18.63761486012922 0
11.45701227194222 24.25275567220623 0
23.30475104365404 10.9323163549406 0
10.91036195885206 13.31681764877007 0
22.99805610964091 6.800152509884141 0
17.59804874175309 22.15476518668705 0
13.8757791641535 14.14263007187177 0
12.72363725577633 23.07662871287746 0
13.22376261566593 2.763893363233836 0
20.42962063803149 19.35441507657273 0
11.02004729318478 18.05632196016426 0
24.02416814126973 3.511038426511784 0
17.90145193281443 21.32316528456656 0
20.77930551415583 12.62052424036347 0
20.08174330525211 16.87383499637857 0
12.31093807028735 17.90264561506429 0
21.0419040592754 16.69729038924452 0
21.36131499456044 11.64445011836741 0
13.37751270524395 4.808233881276796 0
20.86329138557861 9.505289811701552 0
11.02947967152909 4.645908204302629 0
11.16996904651981 17.02428539168722 0
13.7565220978663 19.98083117869864 0
21.41974872298752 17.29495531573655 0
14.5493847512553 4.911794447457671 0
12.1985776429536 2.789258890014373 0
21.15900992990748 7.117146501813212 0
23.18294369825639 18.21392771034814 0
21.38220036586016 3.277191454922416 0
23.3402140027457 6.610297552920504 0
14.03268851540155 2.82915412392309 0
21.42510266227866 20.72730632580799 0
23.61112067186327 17.46467582304273 0
18.83689941368793 21.18161558416396 0
20.5726809274307 17.69973927675608 0
12.94802453093209 2.923324196330597 0
22.50397900767082 7.351015813678039 0
11.54039338653098 22.88444837335722 0
21.99771493554152 3.266830916717703 0
23.76339806265743 9.700536909463006 0
23.63555613918088 6.853622811705615 0
14.97794423168971 13.48164704151286 0
13.96986086145509 10.30805643515305 0
24.39168649219194 5.185555008625881 0
11.21384999845295 13.16704960094677 0
13.46965509405044 10.48252767949286 0
11.86320785077483 6.667274310044393 0
14.50913505571106 19.4706922337096 0
15.58509542488154 15.98188604106199 0
14.57180022909679 10.14573647185281 0
14.21536625237146 5.741349554352598 0
20.94775391034021 10.85151639115896 0
21.72809609122185 20.77671433482897 0
17.97081578299499 20.60415711588445 0
14.78189479230608 21.17069510251574 0
18.10049080725655 17.96012528906495 0
24.54340459149971 10.34096771756201 0
23.62135947150046 12.94432447858044 0
23.62100498437756 15.73509967411411 0
12.11707690880847 22.97168735141366 0
13.95560880374738 18.03124256834824 0
12.77930090462236 12.71692913237334 0
11.56153876752824 3.898405808582108 0
11.28854093712749 13.90222329886815 0
12.14089348552674 17.62928963392282 0
21.86352921067695 16.82580452930392 0
14.05145942246999 4.245459646930062 0
23.71245595485041 16.88172765746063 0
17.58922688651032 20.03690608190453 0
21.90555192823087 15.08872326130228 0
13.44085971257059 7.697501176038628 0
21.99132291400417 8.772163409312498 0
20.82618850066258 13.17088947717946 0
20.62382822703655 17.17790840181182 0
13.91580491164576 22.34343071282073 0
10.40018552055919 10.66799935109449 0
20.66536569513552 19.09672392289023 0
21.85197935406612 13.86947404262563 0
10.3550392901834 13.19702227130737 0
12.35138336122135 9.654331060379102 0
21.48896899081277 4.560325506800219 0
21.06668098134526 12.11200148972409 0
23.70394363229946 9.997653520292477 0
23.6535792844952 18.80447427980008 0
10.88924199243704 18.36711923286968 0
24.63641223348491 17.30800194261478 0
11.42582881401012 20.25077059184553 0
20.37791083872538 15.66805508325546 0
11.83863442327716 22.75696814085491 0
22.660972963517 14.95715804595134 0
15.19149125220358 12.74795393642009 0
10.36626354941202 17.9439722301466 0
22.92672555389877 13.7129889624118 0
10.31985738808491 22.68191949955693 0
23.8035323574659 18.02842949912798 0
15.51360972263271 14.12942508677684 0
14.17778733580018 20.11653793904053 0
20.46533648210971 3.74754521747284 0
20.69739010053715 3.528754591341726 0
16.90954238525582 22.48734540431533 0
20.84123983496931 16.03872092889887 0
13.92737280977808 3.420739550772427 0
15.33132561297417 19.29896049033572 0
16.72708567401207 20.60855496355001 0
18.57679473570184 15.87757518735374 0
20.48939630338487 20.11031356259359 0
22.4343484971928 12.15573693318791 0
22.36335709129424 15.52839553965534 0
10.94270586794817 17.78078329721787 0
14.89544213141166 12.81595694403414 0
21.25468228607196 8.69511589337188 0
14.67148592157316 11.58189311416369 0
17.0564441684025 22.23062789316485 0
18.93571840500332 20.44019729689496 0
11.710355273246 10.08515820721478 0
21.25839676204934 18.88976588331011 0
21.36065688072652 9.426672209488482 0
12.11921379124542 14.74689406292171 0
20.66532976394735 4.316203695177379 0
11.18575445719241 10.19646652609005 0
22.70777131029345 13.43718090373728 0
14.17615692087587 23.31926015305616 0
16.67196806831304 13.42979870806984 0
13.32617664641102 13.15886114426907 0
20.71563800327609 16.70922997656787 0
16.57607853438372 19.31463769834737 0
24.74971439864542 17.9606396156532 0
11.57713363954498 23.79928987402657 0
15.78437107145402 16.56563252147482 0
14.00568223254909 18.39274981851101 0
20.76518336399151 5.503062332430471 0
11.51893066538461 14.54570354387511 0
11.65806085190551 5.584027469581105 0
20.45827369835721 14.12833859582281 0
23.3832101437107 12.31052415899656 0
12.55093334731169 17.01033166459658 0
23.94958217550758 8.521082585757716 0
12.19220140266389 18.20348491113638 0
14.10549466914504 7.453422346349847 0
23.7227972084401 7.361644593610348 0
23.42620594503151 17.72671721529711 0
15.16643901879652 19.96256542094401 0
12.16432443071743 12.64231019672084 0
17.40916235589373 17.41374329816879 0
13.47355299214337 13.46461478272517 0
13.86342820976962 20.68176804601674 0
20.12944221789261 20.16333759693262 0
10.89485312370971 9.157386358448994 0
12.24341000896144 20.49957796896845 0
22.9981188458022 19.42565201608193 0
11.01279283713747 9.613391087688072 0
21.44201577058123 13.9103297632208 0
21.21406853286816 3.975565201514285 0
17.26595624091134 21.21588297394655 0
13.18177101323873 10.48349802895083 0
12.15071431295285 23.90837652120376 0
20.65883763919109 6.87060856633722 0
11.95152078054632 20.60264680617015 0
23.68012104856406 14.61146171911637 0
11.74353998244826 15.83296862967125 0
10.25966767266006 23.38602242111713 0
23.25983856635805 15.3028444139213 0
20.85482024535452 6.044447928538847 0
21.31971509044613 14.90988293440984 0
11.8387882201597 2.885900226351366 0
21.16300235068666 19.50252744880533 0
22.74795529112971 10.41933017332459 0
10.50251687720241 8.113965809439906 0
13.02004077775662 13.28647805702231 0
11.06130101123136 9.91542502219479 0
14.64342660616115 10.48340911151747 0
17.05874442239199 13.26169686509717 0
21.56956340955438 13.11528896284703 0
15.30448488538638 22.59917275516074 0
10.81873088456203 4.465584146096481 0
19.60273433569444 13.22896289779326 0
10.49052592660546 15.39426674754777 0
11.91615521573498 8.819882734156218 0
11.88569939098774 11.32656582654628 0
14.21045531939507 16.05821762715872 0
10.45108125572933 6.322261374250338 0
21.59507715168187 6.488767237535238 0
10.42283259320854 23.80684380571645 0
20.35470292837832 8.70842638083463 0
19.44942770219854 18.00235425254719 0
16.01591137296629 18.718471411741 0
15.73272900476823 18.56118445125787 0
14.37557041817145 4.294696171125817 0
19.33097674723874 21.59650548128531 0
17.63375821426051 21.13847262739747 0
24.01416935826662 18.84271928182908 0
11.72886832689382 13.52755972950777 0
13.78665626591873 20.99981670235897 0
10.90398939273029 18.69319806734209 0
23.10126330294839 16.5685961535361 0
14.55007645195619 8.434110820801838 0
11.65308069352071 8.688755710521383 0
12.515156598805 22.55338335324905 0
12.21248052971654 3.072685764236478 0
23.78230931792284 8.776119716723882 0
19.97883202273949 19.88496011548208 0
18.96010717759069 17.36694282496383 0
21.59897022187173 3.85972698230314 0
12.69393958693119 8.897251164279288 0
20.3449049474501 9.488742077994393 0
11.30907962271666 22.34640237842931 0
21.21744768269465 7.786789817953088 0
20.3960124487495 10.53360587295637 0
19.89368807497927 18.6070442890726 0
23.08648820460724 20.33001650571544 0
21.90775744066148 20.25450645192874 0
19.74330285005973 17.7228956677854 0
18.29227483760141 13.4282846813149 0
22.82376118009876 4.033209912281519 0
14.47393151506732 20.66045180500615 0
18.53158901856942 18.71563655146505 0
23.72788486735373 18.32200061645559 0
23.49512652857569 5.117466232499033 0
15.72479649924511 19.31976077956264 0
24.48750298387181 4.583621559327117 0
14.57554531202885 9.034604242851259 0
24.53354614558116 12.52880252535859 0
15.61375088238571 22.00920654247907 0
20.60480441950053 18.65694452603451 0
24.49101079864855 5.584206926896287 0
20.86317399718933 17.83326079353111 0
17.98006384517334 12.97713982583744 0
20.44173633637167 2.682849519675087 0
21.58971019425433 20.49559550874174 0
24.66956240579631 13.97568705960964 0
10.50001656018641 13.53621105054202 0
16.0424388324084 20.65611082247077 0
10.35087925735064 16.89385095532111 0
16.58669439826712 22.59222078774513 0
13.98219954280031 9.309674354390962 0
21.91273356736897 10.85465016675874 0
16.21073361018604 17.28014584423174 0
12.61237749637051 10.60770767466996 0
10.60868639577578 5.167304771370582 0
14.50783339524737 4.567054261285151 0
22.32349316376545 16.58159653839022 0
11.05843801215661 8.253230433255252 0
21.73295045970967 6.092882482037882 0
24.39843141690561 9.056226801154901 0
13.22515118316304 7.152177408451355 0
13.12004676949506 7.865051563098548 0
19.38672490371593 20.74233110542808 0
22.29612300251616 19.20735523516654 0
10.54314463475979 3.164766330543438 0
21.04943341217039 18.14066718093578 0
12.70064952705622 14.02430129913878 0
21.22777331979604 20.54029905056136 0
11.21781631619241 11.32485729739271 0
20.42780326484294 12.19870762018262 0
19.67406658956289 15.79232948843623 0
22.67611366688409 6.89545750619475 0
23.93469877372222 5.712988253622124 0
13.91065057410151 6.386704305763399 0
15.78199385478439 19.97709458189883 0
24.52227997577715 3.7869654659604 0
12.50149608762861 17.67638258247494 0
24.2748753492954 17.25495108405365 0
14.63612151221235 6.64533722053261 0
10.85218390098214 2.757712029205039 0
10.49537111409277 9.638025693238312 0
10.88903568979812 17.09611946802152 0
23.87894514855837 12.44972049794748 0
20.46636549575376 4.045537452102935 0
20.90846999503454 18.50844985424023 0
22.52998827214687 8.95271108764088 0
17.8571428503134 14.06498105623528 0
11.73025864473818 23.29166714116199 0
20.26805094548001 20.69703407687551 0
20.43561233123466 17.41090295813163 0
14.13050152268721 10.05214410902044 0
23.41593272463318 19.8666488938074 0
22.07217270014431 7.161357304397706 0
11.75572475536403 12.77183559669165 0
23.25398615793904 12.58773132975688 0
23.753054644479 5.146049088384269 0
11.12907277746816 2.841531660395483 0
22.7992835861061 11.35679080116331 0
10.92590030970877 4.144028673811877 0
24.63095790649809 11.07115746114629 0
11.84676899523534 4.135442714507721 0
11.06773976829968 3.785763319998783 0
12.89942744726577 6.5923656567737 0
23.41766933015589 10.0948066909181 0
16.46875206304835 15.98051508482754 0
20.64901579514597 21.19203435271546 0
20.33095752888741 10.17515328830427 0
24.06043374348006 15.83112951910817 0
12.63935921839085 19.91313934430179 0
14.61383387594116 8.086042237992075 0
18.74999998662868 12.70836442437949 0
18.15913248381753 16.55523839783388 0
18.02508194854506 18.40031502013694 0
24.21008640334717 5.510693963454321 0
24.67731030192424 19.76897470357752 0
12.33906629756643 12.25232427644912 0
10.45316192613141 8.446406481409134 0
22.79110971046281 19.89866477416929 0
22.71258841516614 15.5627321955893 0
20.95897153774901 21.11243338394786 0
12.39242294776736 3.371399979970116 0
12.0029750104296 18.94465094233589 0
12.11879188185468 15.61183301781587 0
11.212283870585 22.07930764278817 0
23.07008861338358 20.00965019561858 0
12.32918144408746 8.450498631489115 0
10.82404664532915 20.57452433516491 0
12.67066699611922 10.8977091462371 0
20.79438842068007 14.26287342591641 0
13.73327909258647 23.01869774480506 0
21.00162112229144 8.03612191181348 0
21.57996466703281 10.82468642636116 0
21.80933002149087 7.066211951083581 0
11.18425954232088 16.64476198781007 0
12.9744485646562 3.54185181361913 0
12.8640189984902 20.54778591500668 0
11.12283557421805 20.72501547203202 0
23.21243525509867 9.581247861333154 0
24.7150357617347 19.43582092723053 0
13.38603620253285 11.33757795150647 0
21.04677413236114 13.95823662724898 0
10.59944616375893 2.858752008752201 0
21.53512983830711 15.10515244149359 0
21.41716001354358 12.77118991717472 0
10.28814352606021 16.11097486690138 0
20.98351416747547 4.193925570744088 0
13.62748873048397 16.71037926544362 0
14.9157622555376 22.66163796817398 0
24.20446142688609 8.415894288566678 0
15.81277468689268 22.7869197251388 0
14.07941022143788 12.15661052717371 0
22.21338600685515 3.703309625551587 0
14.16697360542187 20.48996620099844 0
17.2928454682542 21.62049723091675 0
16.78169201495655 17.83157214894704 0
16.96627131093165 14.04672706222913 0
22.54749004561281 2.720153727683833 0
10.34209009354173 16.38032537376528 0
10.51763930192169 5.968014333547332 0
14.70942541209125 8.751578181526341 0
13.31671665368029 5.551499154258826 0
11.44944007499649 10.59492094321809 0
13.43764457527114 21.16223785195415 0
18.61354047232388 20.758323300278 0
10.41315639845815 8.83994103697073 0
22.35437532481653 12.68202614617972 0
24.64177580656987 13.52407927546458 0
16.44726540967673 21.00842191794062 0
18.82136538680186 19.62686262801705 0
20.79700946162805 10.53750151012342 0
22.19106725649206 20.56629202251725 0
24.04103155254171 16.15051975145615 0
10.51051941960061 7.403796018947136 0
15.01738622633652 21.73833030691698 0
16.00041873833266 17.75415957363595 0
20.05526204238302 13.21333280207345 0
22.60889692586205 14.37802658750129 0
12.86052483729033 18.57657454097077 0
11.32375497514865 4.413076931773182 0
14.88879440435519 18.50779331610343 0
23.01126083110239 5.916266871258515 0
23.66619397938396 20.12517895032106 0
21.9732493042516 5.975111663196105 0
19.15101042648041 20.1017190737675 0
17.48237805321141 18.97097294871035 0
14.37913404419412 11.37275073300986 0
14.6906476594927 11.00418192825946 0
13.12352614630698 9.139114574800047 0
24.19396417790145 18.50979104946079 0
20.97211902414273 6.43056714996993 0
11.84766943542703 19.18692291347132 0
23.71191473214814 7.991216247681259 0
21.89809002419281 18.84158136657069 0
10.51467529395764 4.574339917210732 0
20.67410419031364 7.393889615340175 0
20.8801430347306 16.99378574087248 0
10.59357013077243 19.97557119560745 0
11.57693667507593 14.17613469494917 0
12.22791461066358 6.610047337972546 0
23.037184116906 10.38598171875192 0
15.45075038364852 17.2248781719885 0
10.95936385633537 7.059997990784527 0
11.10847646773932 9.34949673134123 0
13.95192506441567 10.57589509701089 0
14.52057951214118 5.181401238165965 0
11.07983949076177 5.684108605274992 0
10.80958536876118 12.10071327324393 0
23.62566618696063 5.85317401968803 0
13.21990293099515 16.57255990616751 0
17.60042048401072 19.73690784156273 0
11.89547030530898 14.06270646203354 0
23.16239616981636 16.85144896339985 0
18.98305049501403 13.77892239413263 0
19.51045473097216 12.83426084360491 0
21.56233937097204 4.828537916702264 0
21.81345053626641 9.564204411692284 0
17.71398036522967 16.33057029618427 0
21.5072356868822 6.196544366723857 0
11.65533848343319 8.998442774780324 0
21.32949429620315 12.01600881209309 0
20.40626566735942 6.940807678508591 0
10.91964424082957 10.63778371043781 0
13.19651074120086 22.71596643660961 0
22.25317039237738 18.47426535563028 0
17.33171379890823 22.28551144354458 0
23.94535091259116 17.57683388630857 0
22.64735909478691 12.45905086873834 0
23.47442501875453 9.138291437881673 0
21.59962395394031 17.89775888070679 0
11.30877800821633 8.784672882261638 0
10.37636557355086 14.27499416286081 0
14.70607859936155 11.93247165391959 0
16.10541069832311 19.87483932123769 0
11.88165752804927 8.004452640662006 0
13.56971469201858 11.59293811567646 0
12.25967070766388 22.3969211284764 0
21.33730237266596 10.30968707395793 0
23.58132459382486 12.0983397873965 0
21.59661877967641 8.366929929769409 0
13.20065673503382 23.5807733654027 0
16.28464225422471 13.50797194154149 0
22.00734293658892 14.17809100887257 0
12.47793158561654 19.32224998720607 0
14.71188679732851 16.90953752298878 0
13.97692500488711 8.453674381310822 0
10.31884243243661 18.65195217454932 0
17.4652194713664 13.4212983432154 0
19.04340929555124 13.43091402604189 0
21.73235006681158 18.18565817300885 0
22.30833183336982 3.992753402203387 0
11.39045171652602 11.54652601806794 0
22.84027391512395 15.88468714222306 0
20.44906911702664 16.51763574629097 0
24.08366151504109 11.85597533735687 0
21.16488035130027 9.701610655325288 0
14.75242137159029 12.27078525983361 0
21.49969242187315 6.694081100827194 0
20.15593581051603 12.81048745975306 0
20.34588427231187 10.90538552379679 0
24.06153187516945 17.87020216138125 0
13.51765994874594 9.268644615985126 0
13.6754621147843 10.68052559684778 0
12.18836862003868 10.2759014096856 0
21.10157679126775 11.57707567267826 0
23.43548146416343 4.559543681967809 0
22.32991169323564 9.447837370717588 0
19.07976307840471 21.6041489657574 0
10.99275229640462 23.06245020489626 0
22.94834325843458 10.98523396269074 0
23.29922942598989 8.649994163081068 0
22.78932439945793 3.07281652582096 0
21.64840495630425 15.81789424533962 0
20.77015707380584 4.644732789179906 0
13.70078301799678 7.528250699670126 0
18.03571428190875 12.69818993561667 0
19.8483199778306 21.4490316758354 0
21.55411086096436 10.0329630373894 0
24.68904108179449 18.76756246883335 0
21.99510592021042 20.75873817495045 0
13.06246326633652 19.90165564871544 0
16.39514919434787 20.40753807599541 0
21.77661743572502 2.763975509283825 0
12.4642494101834 10.30449587663007 0
24.67398266687294 11.790145979068 0
11.90574722697268 13.70856392341367 0
14.1732606340026 7.726489323765406 0
22.75777810438595 8.851704788493882 0
12.0244579372251 9.302324543213398 0
10.83182196700631 22.54435143318537 0
13.65857156594526 5.621096975835139 0
10.478869956701 12.05694138935644 0
19.30027649623055 17.10484459465711 0
23.40845311951391 20.3389957417396 0
19.24612599458117 15.80851779250995 0
10.78872619891186 9.704580102834353 0
15.30581970402876 13.49494158684666 0
12.02608226429306 3.612340926321293 0
24.53244877562574 8.445986052747436 0
21.15315992772763 20.92402038959374 0
13.89012315241229 3.12713333003674 0
22.75305465491726 19.61423962689909 0
14.80346861295235 20.46349318178627 0
16.875618308002 21.23742642514785 0
22.46578998174088 10.8778365165934 0
14.07361746039856 22.57331454168614 0
14.55334888753055 6.335152475210813 0
21.24771996297798 5.164319639072169 0
24.48201413991423 5.984415211929588 0
13.98686062045863 4.774848683452134 0
24.56044583214805 9.613614769761918 0
19.6904722876515 19.30979447852074 0
11.40445358156166 20.61225351774902 0
11.95968940770485 16.55916357505756 0
23.09069122949919 7.21355944805394 0
12.79095060545092 7.853471402371951 0
10.66888377645012 21.17252208044832 0
11.40917910816377 5.808548265510879 0
14.90226715951435 16.63403176680087 0
17.35021599441618 16.6466523725647 0
12.38480356241659 6.974979588618766 0
14.73985746256967 18.12204003741306 0
13.22419583580753 9.911112627693429 0
24.5402413989078 7.470596584302137 0
14.43193671111295 11.05606256918237 0
13.75244026064796 5.880763614116915 0
18.43960654227699 21.40254655308134 0
20.4104643495591 7.943491594907226 0
11.30322208819255 12.8347084651326 0
23.96596235175001 20.08507224912224 0
14.44284868040149 3.196057528832887 0
20.42626403121368 3.423119599957828 0
14.33226662948454 17.75319172303623 0
12.49262632815151 23.94494399855239 0
10.42307692439798 2.683397091706271 0
23.5756240061378 8.568134211763873 0
23.87261998825147 15.5327677789469 0
15.70981555664589 21.75365529532914 0
20.41191304720224 8.281896610319533 0
22.99486425453185 9.372767647617529 0
10.98505148661366 8.553100914441936 0
17.9368453092881 22.14128074868341 0
13.15173213216127 4.193072063408608 0
21.86992264462532 4.149064621736109 0
19.14564453108792 20.63183451329422 0
16.73158273287403 13.77789910870201 0
18.8716698399752 21.77581273496456 0
10.90720561981066 7.93442284732854 0
13.39237733929497 8.403444151894202 0
11.59995528671066 21.74116625357044 0
14.01311292114045 6.039065945160983 0
10.8675345843946 10.11211028964054 0
21.68963780036998 11.57062392311189 0
18.14312708631345 21.9253903607709 0
12.83313825787924 8.368216743331763 0
15.42157923506095 19.02313603862762 0
22.4077971049675 14.63327729324914 0
11.15286446703462 21.23044979058353 0
23.22258561513633 4.397313078220495 0
22.43741325784631 11.86473137720154 0
22.91335376542679 8.397809634702016 0
20.94789532175861 19.19751516530662 0
12.71873362397359 15.93785473808134 0
11.98938573241862 10.7891445470607 0
19.4108269209426 18.3014886456487 0
18.27290684602236 17.32352226773876 0
23.60161298697189 19.38659489486714 0
21.55171671164192 18.49801174008561 0
24.20885487969775 16.63630841889423 0
20.71008301271222 11.11809256557041 0
10.45832210297363 11.69087330428489 0
22.18362034970969 10.60398518528616 0
16.90268262576789 18.59966383069103 0
19.69719184992863 19.87444899319707 0
19.42098918525441 21.05243506179984 0
10.45133168371378 4.859220355934661 0
21.48886025614061 11.24659483195844 0
11.44378591666039 10.98887120847195 0
21.4092807500769 14.54036984780896 0
21.538250279122 7.275656938243398 0
13.28250672576143 22.11406348185591 0
15.77715985250307 21.20767225939857 0
13.68525811441338 9.554828892697747 0
18.28074437448996 20.43266777412791 0
12.74663097063046 6.337696530711252 0
24.4581862561451 3.165688474193788 0
11.48900765297528 8.142526472057211 0
21.87875642811489 11.82638235742281 0
14.57120302585837 7.687436357561955 0
12.35676490270826 13.25760335593058 0
20.06646832245777 17.62562196397448 0
17.92057795891658 13.7108277940428 0
11.07080404185758 11.95554333494981 0
22.22496301170714 11.31727061563782 0
21.36789835226173 13.35759726006295 0
24.57791279855217 8.094480342587344 0
10.91505252056277 12.98574805414132 0
10.75513765033951 24.41644708418028 0
20.69159225544304 10.00001187137026 0
10.69067149528862 22.15591949375569 0
14.20417007412278 13.49149515134698 0
14.54551595946165 4.051264588061239 0
10.33594265160835 20.11511553285664 0
17.7665657599697 18.65253474936952 0
16.33070416118176 19.58415371150102 0
13.52741939264937 23.59030781026712 0
24.68969374488384 18.20675905137951 0
21.92259852501266 7.612440973212208 0
24.18222887249527 4.472176446721128 0
11.41393807228045 16.09593801938734 0
10.35012684094559 13.92404545869396 0
11.89735841851317 5.743722549186544 0
18.30506930128262 17.66174366932016 0
20.45821721785178 5.011127154619979 0
22.65902509632601 9.486110908149042 0
11.511875541516 7.137784379055557 0
22.98266130772669 14.73896333436408 0
21.26728684095038 4.681802088378374 0
22.57937095456266 16.11385561811971 0
15.09792659626211 20.67414677148815 0
22.72054138559392 10.76444458354729 0
11.0434573907596 7.400844592243954 0
22.40416174435252 7.829076600330054 0
12.33976242527292 11.84502232977001 0
20.31854976565643 21.29655842775 0
15.0215450797876 17.48593252912735 0
14.13193987368476 9.810075753434315 0
24.28150215787681 14.76672570052219 0
13.1320176594992 8.188573009268913 0
21.1218785620376 17.19628611935168 0
19.17002546998433 20.97643660549643 0
12.04938360342442 20.25633206606742 0
21.09153696293616 9.093014373495905 0
17.03320557526395 21.8378492876937 0
11.96770580066039 8.45371172989552 0
10.79957682417245 5.449040419286192 0
24.27406996995549 9.775972732433509 0
23.2666222968536 3.131772538986097 0
14.47628316065839 22.13646463459187 0
13.38663047769089 5.174004296718864 0
15.84744350249236 22.25397525038453 0
21.55361352379549 12.19840674295027 0
19.61257835364975 17.30711791817145 0
22.90673702034936 15.29080878426898 0
10.35179217136258 21.00792267974846 0
15.08764130944197 14.158786671251 0
15.50232593974877 21.13619224363374 0
22.14683739092716 12.23704871409907 0
14.21582346093942 8.878176406580351 0
21.5032155470678 5.136510974083092 0
23.96716129714768 4.653386063633462 0
22.88935141334429 19.17314153302501 0
14.52407121955317 19.86745456123454 0
21.23543942271149 6.762014977775034 0
13.64455090902565 17.82830401028173 0
20.80370766280291 12.00872692630111 0
23.21985499785465 6.083669634383111 0
12.73680936652995 10.03094084813164 0
10.38639573928331 12.9345787704985 0
21.52330842088726 2.757958468034758 0
12.97194127051229 9.498503665873708 0
12.91804028904855 10.50019332462917 0
11.78769179622955 4.393294557798801 0
22.66603297354952 9.840748681962276 0
23.95717771333126 8.1930754667241 0
18.53718802127589 19.36699861849537 0
20.05775826722629 20.85373033123973 0
24.33108148056258 17.80984647110713 0
15.14428284155596 15.93400847782852 0
20.34252094186327 14.79869360510649 0
13.8666944138263 11.12921665700938 0
10.84217564140377 11.47451523118295 0
23.85961905164982 12.12620476336804 0
11.12974880063483 19.76932049152589 0
20.5429489640883 13.76013963812321 0
12.87603436292087 22.43597519309703 0
17.3095162205687 12.70626016574501 0
19.18782265946508 14.19398612364232 0
13.74339921861657 4.315477694064538 0
22.32490962742105 2.789821161139499 0
13.75621907550061 4.599906586474129 0
10.80195027794564 19.32098450801874 0
12.67602953698071 2.789578825785892 0
13.28455235326269 8.692691693199594 0
22.49269917322739 20.0781811214098 0
14.57381564561302 3.422937489185641 0
13.80036169428513 19.62129775745254 0
22.42793594817733 3.565120309323061 0
11.17092136587217 12.48363698139555 0
18.34684734363694 12.7390344914999 0
12.41681537782235 20.21530129079662 0
10.96541108202701 15.75732474189662 0
22.11308401459625 9.06185870281954 0
22.97791542589967 11.86682486824161 0
22.40060337649621 14.09861026537421 0
15.45375008635892 20.1372293089041 0
21.35056935473147 5.83922710228313 0
22.47288523701076 6.409013085214973 0
24.0782213047017 4.146792568131297 0
24.25608230134305 11.55198803575399 0
24.67753426536053 16.94574545403529 0
12.90943576829483 8.629450278033383 0
21.12522923559433 17.47914356975831 0
17.60869129398442 17.04498373618226 0
12.2292305981124 7.89106867749079 0
11.80404203344322 7.628189815308347 0
10.69734971519572 17.25700532632003 0
12.86699328530398 16.39947460932603 0
13.24779044923023 6.591581616506183 0
22.69278029792903 8.266394164837402 0
10.72929882688631 23.19101730864059 0
21.93833531465185 10.32317225071344 0
14.79091833475405 13.16108202409409 0
24.55067302332075 4.870393756862849 0
16.13532770898781 22.03964309959112 0
14.13401150959312 17.20735276756997 0
13.57353699305123 11.02625012000307 0
17.64072423634525 13.13902318219908 0
22.42530448638881 8.318651993202215 0
20.09236361915163 17.98462190430259 0
20.85648575838552 8.634993524059304 0
12.7120070774222 3.133892771521381 0
16.52176725775945 14.20574886185605 0
12.34551290686627 7.522454854112263 0
24.06226649283206 7.200955701575449 0
24.56719082569176 6.336989790731138 0
10.8970523754901 16.79536029934471 0
20.03848929732048 18.84673729593883 0
23.93578346662124 3.787395257115427 0
14.28303967754699 21.52435682292333 0
18.14358486931599 13.19740389025794 0
14.444888471097 13.17363328237551 0
10.39474080927546 9.952712013754079 0
12.15798942919556 8.996231174733998 0
13.19141982883055 9.680666734680845 0
24.03248779270967 4.995246678158952 0
14.21883604183826 4.496963123883146 0
11.06483864104452 21.63161530503895 0
15.63838646586774 13.75958299662952 0
22.74517963352514 18.38076434270631 0
24.12060461661018 12.86492976966533 0
13.82947965137359 15.83235211494949 0
10.76844213364803 24.11223270236533 0
22.80218114702523 20.45409674869015 0
23.4901299278079 9.47980243672153 0
20.36797183184784 6.255293037668102 0
24.58267827062686 8.80198888743484 0
24.20244954445912 15.16859912304452 0
17.58346481203798 15.85819058881236 0
21.83448976155637 5.652742928338731 0
11.9514574853305 17.94378399257578 0
12.57990534836992 9.221242645920714 0
10.74754035700665 23.58059706621776 0
20.91422146232333 19.72812107665064 0
13.97981273889954 3.715107066991488 0
21.02272078655762 3.716552066887326 0
19.42500804169352 18.85801954095929 0
15.40325146635595 20.74730707454768 0
21.01033208764442 11.13120815381953 0
23.15488097462998 5.643920931978476 0
24.14794872083372 2.75839432875187 0
16.88141974766309 16.83823108515385 0
11.69185131238271 3.669110617571603 0
22.37368956757255 12.99649944214003 0
10.47933201235439 4.041483573960388 0
12.1419815950059 16.29657440788241 0
13.52763995279822 21.50146145842287 0
15.2516486070387 21.60813630665348 0
13.34345768853518 6.091324619023712 0
10.72095714308653 11.12447695196389 0
12.71718275916919 9.737103651995936 0
11.82692938413836 22.17911672720407 0
13.2216221235357 20.89283886546039 0
11.51609572480277 19.76219477617491 0
11.75047372170058 11.04536397821339 0
24.33602639128651 16.90423395700068 0
24.28592066114351 16.06035727277512 0
24.55307206980155 6.957931518122167 0
21.03719116605065 9.99868630021877 0
21.19167768395204 11.33506192324277 0
20.24988967356273 12.43655060936889 0
11.73396213240335 3.13089818019771 0
21.55296446424788 16.21105685252259 0
24.30284962744997 18.18607944682015 0
21.10988520208808 3.127146549381841 0
18.66009455967322 13.26494105716619 0
23.55615407935906 7.162471521270757 0
16.04183357489503 21.75534981296275 0
22.4430629227726 19.54444246879315 0
10.94190392689615 4.953161341571202 0
14.56518475863325 5.73992072903808 0
23.16548981454702 14.20027379098907 0
15.8841639791638 12.7334046418381 0
22.22282460217778 11.68597128489024 0
16.96428571286854 12.70836442144616 0
13.22329203544118 23.22838998478217 0
20.26831533028098 17.14641764302064 0
18.60609162880307 17.23379042722163 0
11.1431746385116 9.072236035207869 0
13.75241487224985 17.16503994162348 0
20.62307549363833 9.661257200511365 0
21.7633971624012 4.393688829950738 0
12.42660319532276 12.87786314267225 0
23.38288641725121 17.25933020356712 0
10.88410083534049 12.44518200640133 0
24.26718413197918 7.407641804787004 0
14.35838841956015 8.152006145083874 0
21.59705164922236 8.966234088080995 0
10.75503368598529 6.519795471757205 0
17.86672122047521 20.12358565258192 0
13.16236155469326 10.85203289830355 0
11.20335846868404 10.47452656613292 0
21.04037263988206 13.39519867661831 0
22.44901738417711 10.33101627782459 0
23.13315439412875 11.52109281652894 0
12.02744034359018 23.19508448955577 0
24.02512588654078 19.62518351311438 0
12.57194501314235 3.564905853739446 0
10.96362958419343 14.28672996698025 0
18.21976508158339 19.08983272849076 0
20.72953534947393 6.557483472267044 0
14.5582636616583 2.682849519561391 0
10.27010857726419 22.3589908503699 0
11.71591914979445 6.30987255286695 0
22.28701929861284 16.02178168008905 0
24.57692307419418 2.684801396693715 0
14.24470687867598 8.60647721645979 0
23.43984209621245 4.852854273501329 0
13.07585605857829 12.61144446981955 0
17.13438331076365 18.86883330343025 0
10.2689122480119 19.37520061378666 0
20.76923076845843 2.678674331093283 0
14.23076922613552 2.678674327375046 0
13.23210514951299 19.52856282514518 0
13.32768651328354 20.02972789065467 0
22.47897180484645 11.21310028117701 0
24.63622176700085 7.786294491160636 0
23.339773599727 12.88725839724698 0
22.67069599459073 11.70818311940146 0
20.88897416291714 13.68822085690873 0
23.38706871791856 11.31015854475941 0
22.07162656420605 10.06072832709186 0
13.91249197219685 7.702745746897182 0
23.79838295968903 6.095123204170826 0
12.61929223451325 8.545173336156271 0
13.43171552124144 10.76790247581862 0
21.27968917696181 8.197468225658584 0
19.26085121128385 20.38701660414596 0
15.96828850385868 19.60941102428791 0
23.71184747749584 19.08377334968737 0
11.43203470612148 11.85894408566462 0
19.11509669356569 18.87901705575765 0
13.63350093113004 13.03413331850676 0
21.17744298265294 6.096117818759674 0
21.14848226500591 13.05487951932946 0
17.19418677996958 17.73507757574841 0
11.1166458935462 20.4593688510311 0
11.62087111358515 13.18987433615643 0
11.60529434139004 6.859423804938904 0
21.60950755209764 11.91160216738594 0
23.63395975693068 10.71804661833697 0
14.18954560804286 19.74962605635129 0
13.35962814761416 17.01950151501548 0
21.56335321721513 15.42261503120178 0
23.31456682525822 11.92981801030976 0
13.87262306959033 9.79776704297622 0
15.12295866835616 21.38380048057956 0
23.59779549933723 13.81140440777226 0
21.32711751105385 3.638035060498382 0
13.67613959061739 8.68091219679622 0
23.65877569769136 3.615351641557297 0
12.62942596407646 12.02845723457041 0
21.61670795380851 14.21669644648059 0
20.73107129709958 18.2663425166221 0
20.32742955082077 20.42387068848247 0
22.40514272199944 13.30283194538955 0
20.87064049180606 16.43703361908815 0
11.6065179845784 16.86354021250562 0
12.94045952581399 7.58418998569278 0
20.78376792797115 19.46002647811569 0
11.25951834513655 15.74806023745257 0
13.73699092043588 18.65214266027484 0
16.01382453706858 18.32031838126051 0
14.7105727817619 17.74661420913058 0
11.3437222548998 3.614125248462359 0
19.99455507981207 17.29806227266736 0
22.48034052112634 8.095876571264382 0
11.57033573817589 19.47729853887361 0
15.95119228600874 16.96509919762969 0
11.35885550737128 9.628739901655972 0
13.64318727591453 6.57087802911352 0
23.35213049515388 6.977765255471456 0
12.58864887500894 9.491579281820957 0
22.1686193236403 19.5005848131575 0
11.66955374378658 8.36071632112627 0
23.11765767368195 15.00399978184926 0
17.89535117486464 19.04397933926163 0
21.5533252520816 6.999659012987173 0
11.69311543758284 10.76992264565667 0
16.52395017165706 21.27639602768289 0
11.32608358690804 23.16833115634719 0
22.51086637110647 10.58929745263032 0
13.78717206080162 11.93394532361837 0
17.74243510065077 20.38639625696166 0
12.5361515198555 18.31452845778889 0
23.72796284739234 16.05108469784622 0
21.2447935747471 10.56560644512322 0
21.6141546789681 9.331668622562512 0
14.22616447411178 22.33758437679024 0
23.64707612297839 8.243557909595088 0
23.26996394477202 9.320717929826134 0
11.25460092005084 14.30697313256612 0
12.89825170941258 19.54679247540583 0
11.27501864362991 18.29962832473938 0
13.6728824894282 3.638035060104441 0
18.62840159639578 17.56614924557098 0
23.86882417810417 12.81506921944035 0
14.12501242773048 20.85684518132922 0
18.50797772009852 21.0774244107338 0
17.56375755459553 21.43234461290711 0
12.56524150656713 6.63092402795707 0
12.32414221763899 23.18997299213693 0
22.47367132395529 15.80710732173306 0
15.19509477525714 20.36502963363998 0
15.08549590914261 18.93952951531664 0
11.20120834976839 6.017120941221 0
10.99094827596129 22.2582661925843 0
22.33136474109912 12.41020982022002 0
15.86526354335107 21.97114359231602 0
16.7472947250479 18.97898955936618 0
22.43174898707435 6.698351509615412 0
19.84264627688106 19.58416761929915 0
12.5728511274729 11.15609973095997 0
21.46690504700079 20.19616970671211 0
23.95825537523544 14.84106778308793 0
23.99798702704204 18.24296508349707 0
23.99214496963538 9.913804593755271 0
22.44904409943795 11.53514901691835 0
22.42313185568437 9.692277280622509 0
12.70395102985641 13.06518167792801 0
13.4334268711332 22.92240684568683 0
22.22633335617194 3.408807495466996 0
16.74463430821035 20.27807543844604 0
12.7736666442537 3.408807495615546 0
24.04208230370723 16.9140937570616 0
18.51840717592713 19.72388333905368 0
21.56567821552625 18.83549236733974 0
19.83813197145028 13.51708767571274 0
10.97968035246022 11.21439010599762 0
17.7731922763582 16.70896044095188 0
13.93245217350524 5.7483471359012 0
11.08648186320141 7.661419915173417 0
23.06811832167007 19.71030553775958 0
22.83913653020629 14.0673803243408 0
20.9223456860362 11.39461374211985 0
14.61022508723733 13.51116161876792 0
18.69220024875284 13.58837935758356 0
15.89285714571172 13.50000000193109 0
10.97559929547951 10.35813856544134 0
17.02208545153933 13.58837935629738 0
10.91434644417305 21.38744960719264 0
23.99590188003431 11.51580036126141 0
21.02230553558063 4.489574302186573 0
13.95067607277276 4.479425151855692 0
19.22933457571051 16.61928873060002 0
20.89630049087065 9.801350906112724 0
15.07687325945061 22.40325703526472 0
10.96975261774184 8.876080292566947 0
14.40291509009994 16.67956776729197 0
12.09123347803057 7.631340397081208 0
23.94078797658119 4.356562463086834 0
11.06188852024947 4.35338241855318 0
10.84515870491247 23.84225061624733 0
19.75920459966771 18.24522609423263 0
20.84028037295655 12.31470126173513 0
10.99710518925359 17.40830152647902 0
20.90735322651704 8.905286089887166 0
24.05643803078357 8.880593086200706 0
12.76272579579383 10.30754474439486 0
POLYGONS 4072 16288
3 405 492 1811
3 853 422 1715
3 1230 2195 1371
3 440 611 857
3 1668 864 1448
3 341 1324 1043
3 55 56 897
3 407 2075 1512
3 1164 341 1304
3 1521 990 1169
3 2078 899 1237
3 564 790 1396
3 53 54 1411
3 22 979 1258
3 1013 818 1147
3 412 1033 951
3 1512 453 1377
3 2074 669 1321
3 381 735 1624
3 74 75 720
3 1018 544 1620
3 663 428 962
3 384 1021 645
3 381 1175 700
3 790 564 960
3 853 1715 1980
3 2179 899 1111
3 2160 722 1150
3 759 1252 1638
3 2130 1698 1527
3 2113 564 1396
3 1266 236 1717
3 979 22 1647
3 393 748 419
3 2195 1230 1478
3 516 374 1063
3 1431 2112 1852
3 2107 1140 1178
3 1021 2139 645
3 15 1668 1448
3 1252 2077 1638
3 1431 1852 1412
3 951 1033 888
3 2105 663 962
3 943 524 910
3 748 988 1393
3 143 144 942
3 877 539 1995
3 818 11 1147
3 383 468 697
3 47 48 609
3 613 2158 1548
3 453 849 739
3 841 2118 755
3 979 441 1484
3 539 1008 1995
3 1050 445 1562
3 463 1081 1634
3 782 491 766
3 748 2085 419
3 2192 1050 637
3 383 349 458
3 667 392 1113
3 593 378 2042
3 1138 463 1634
3 320 403 1505
3 1190 318 1505
3 2076 1160 1281
3 706 1080 1388
3 1256 2095 970
3 2147 714 1142
3 697 468 1732
3 407 1512 1377
3 2192 780 1488
3 849 453 1512
3 470 452 1007
3 846 2125 353
3 1324 341 1774
3 1388 1080 1424
3 2126 1234 466
3 1151 539 1275
3 1732 468 865
3 2071 717 1608
3 679 1165 1153
3 1026 354 1428
3 879 98 1265
3 170 778 497
3 853 2102 1039
3 305 740 1414
3 729 393 419
3 9 507 373
3 933 2130 1527
3 822 528 1945
3 224 225 792
3 601 729 419
3 2122 1250 929
3 468 368 1181
3 2088 1033 937
3 722 346 1150
3 368 468 1112
3 907 2082 387
3 2084 650 1864
3 611 440 1601
3 899 2179 995
3 1119 2185 733
3 1208 2078 912
3 890 312 1339
3 1126 405 1811
3 2081 574 1690
3 2094 331 583
3 564 2152 960
3 2123 1090 1105
3 1891 516 1991
3 703 2124 1550
3 388 738 1645
3 897 56 1649
3 631 616 1328
3 524 943 1756
3 891 429 1545
3 507 2138 1617
3 1208 912 1137
3 26 316 915
3 477 786 1840
3 1319 973 1428
3 899 2078 1208
3 862 1077 1040
3 592 507 1617
3 441 979 1647
3 1090 823 1105
3 988 2152 1393
3 747 488 458
3 1090 2162 1302
3 717 2071 1636
3 1159 770 1096
3 53 1411 830
3 349 747 458
3 891 1545 1555
3 777 544 1018
3 352 862 1040
3 2147 1142 1360
3 708 108 2008
3 1046 336 845
3 1837 2141 1975
3 881 1164 1304
3 1345 754 2025
3 975 1345 2025
3 808 1115 982
3 1417 31 1395
3 2122 929 788
3 430 498 1186
3 650 2084 1289
3 374 973 1063
3 735 381 700
3 415 2084 1864
3 674 520 1405
3 212 1143 500
3 2125 846 1634
3 423 766 1965
3 2174 1190 1447
3 403 2177 1665
3 374 1026 1428
3 669 343 1321
3 2126 466 1856
3 928 1284 1509
3 637 1050 1562
3 385 388 1645
3 2141 536 1975
3 1048 271 1579
3 550 1295 1750
3 812 1064 1219
3 825 2193 970
3 2151 1172 1445
3 2061 1151 545
3 2131 973 1319
3 300 594 1429
3 1190 2174 751
3 2177 403 1574
3 516 2105 1991
3 902 443 1124
3 480 1290 905
3 30 31 1417
3 108 708 1623
3 1284 520 1509
3 792 351 762
3 838 26 915
3 2095 723 1731
3 491 782 1526
3 699 2078 916
3 1215 40 1820
3 1282 808 982
3 1140 2107 1621
3 634 792 762
3 605 929 705
3 797 398 483
3 486 370 1627
3 2075 1279 1746
3 831 943 1938
3 86 87 872
3 538 1331 1870
3 878 650 1289
3 1067 621 1670
3 598 680 1821
3 707 2148 437
3 1443 822 1945
3 271 270 1579
3 473 870 1205
3 151 1756 1418
3 737 430 1186
3 325 889 1125
3 882 415 1755
3 1160 2076 1156
3 2124 703 1286
3 882 1755 1457
3 2162 1196 1302
3 870 2190 1205
3 404 679 1153
3 962 795 1321
3 2067 667 1113
3 468 383 1112
3 1080 706 844
3 953 1067 1670
3 499 172 1897
3 2118 1272 1506
3 1151 2061 670
3 539 1151 670
3 1050 2192 1316
3 1196 852 1302
3 735 700 1367
3 780 2192 1248
3 574 546 1690
3 2138 507 1802
3 58 1465 1828
3 96 1270 1900
3 802 2120 1569
3 507 9 764
3 813 536 1493
3 1064 2100 1219
3 475 708 1099
3 1668 283 1761
3 2147 1070 1064
3 1272 1121 1506
3 700 273 1367
3 181 182 597
3 39 1215 1862
3 616 631 1707
3 428 663 933
3 453 837 1534
3 64 65 357
3 533 802 1569
3 359 714 873
3 199 200 1031
3 727 853 1039
3 690 1185 1812
3 569 2175 1659
3 311 312 890
3 276 818 1760
3 1033 761 937
3 347 619 1857
3 356 694 1234
3 1324 639 1043
3 838 2165 1047
3 834 2151 989
3 378 593 1020
3 706 715 844
3 2194 831 1938
3 723 655 1731
3 266 267 870
3 929 605 788
3 1175 381 2007
3 2193 1256 970
3 2065 1159 1096
3 153 154 358
3 1103 466 1947
3 708 475 1623
3 680 598 893
3 837 453 739
3 119 120 869
3 1016 472 1096
3 25 315 430
3 740 2186 1414
3 2194 1345 1850
3 507 592 373
3 286 16 694
3 1034 1417 1960
3 884 834 989
3 254 255 600
3 1185 690 1386
3 2089 1171 1534
3 2093 636 861
3 680 893 1154
3 1069 477 1840
3 472 1481 1096
3 926 577 560
3 398 466 1103
3 572 541 1206
3 750 671 905
3 582 518 1198
3 1172 2151 1061
3 1072 277 1760
3 2158 613 2013
3 970 2095 1124
3 498 430 1887
3 442 1804 936
3 586 1268 1582
3 352 436 604
3 911 2122 850
3 391 37 1862
3 1052 436 1967
3 236 237 1717
3 694 485 1234
3 927 498 1887
3 318 1190 751
3 403 320 1574
3 2163 559 1228
3 242 1030 1694
3 224 792 1696
3 559 2163 1587
3 614 825 970
3 298 22 1258
3 550 1750 1739
3 496 1413 1107
3 425 1668 1761
3 349 383 1374
3 175 176 944
3 710 1026 1899
3 92 93 1399
3 408 711 1681
3 911 839 553
3 671 480 905
3 872 87 1483
3 325 1125 1863
3 1345 975 1850
3 268 994 1815
3 556 2150 1198
3 556 496 1107
3 541 774 1206
3 917 757 1076
3 2148 707 857
3 447 1261 1054
3 837 496 1841
3 1252 759 1682
3 2124 1286 1588
3 736 332 1257
3 436 281 1967
3 300 23 594
3 818 526 1760
3 375 1419 1136
3 2186 1004 1933
3 709 1011 784
3 496 556 1841
3 241 242 1694
3 7 227 1533
3 2180 1040 1691
3 893 2073 1154
3 523 2144 1440
3 913 485 1984
3 2118 523 1272
3 681 1239 1732
3 2090 1094 1386
3 1890 379 1501
3 1256 2193 1500
3 652 233 1589
3 378 546 2042
3 1652 2187 1922
3 2144 523 1707
3 2187 1652 1923
3 1239 2109 1732
3 304 305 1414
3 786 477 1271
3 1267 1196 1644
3 13 279 974
3 1345 2064 1657
3 452 1569 1007
3 226 7 1533
3 754 1345 1657
3 710 439 1123
3 465 679 1366
3 233 234 1589
3 488 747 1813
3 1011 2069 784
3 523 433 1272
3 25 430 1322
3 2152 1845 1965
3 667 2067 1784
3 1484 554 1503
3 1460 2091 590
3 347 1857 1253
3 916 2078 1237
3 404 461 389
3 441 554 1484
3 1040 2180 1835
3 695 360 1491
3 1089 1800 1469
3 379 626 1501
3 2138 1521 1169
3 1030 472 923
3 1014 577 926
3 718 1014 926
3 1413 575 1107
3 1244 2097 1214
3 484 609 1343
3 1026 374 1899
3 694 16 1984
3 974 611 1183
3 528 1458 1311
3 2162 1090 1786
3 442 665 1804
3 392 1235 367
3 492 405 1470
3 960 2152 1965
3 620 259 1823
3 485 694 1984
3 1789 492 1470
3 904 2153 1607
3 587 1789 1470
3 641 2186 1933
3 636 898 861
3 869 120 1092
3 1465 874 1828
3 2150 556 1107
3 379 1207 1075
3 1070 2066 1453
3 147 148 629
3 1493 536 1913
3 899 1208 1111
3 793 2070 647
3 181 597 1803
3 1268 2136 1582
3 451 1156 1833
3 616 523 1686
3 124 125 578
3 1089 2083 1800
3 13 974 1183
3 531 911 553
3 990 362 1169
3 523 2118 1686
3 577 908 560
3 766 423 1218
3 1458 410 1311
3 420 683 1721
3 461 1411 1085
3 439 710 1899
3 819 471 1093
3 266 870 1236
3 1098 538 1870
3 897 461 1085
3 1460 590 1269
3 447 1054 1391
3 1804 2112 936
3 67 68 1041
3 330 569 1659
3 752 385 1645
3 1312 690 861
3 331 2094 1335
3 1171 957 1534
3 502 1041 1640
3 1004 2101 1750
3 172 173 1897
3 98 99 1265
3 169 170 497
3 539 877 1942
3 605 705 1087
3 1750 828 1933
3 2120 802 1206
3 855 2124 1588
3 1352 465 1117
3 1164 505 1774
3 683 2117 1721
3 343 962 1321
3 2089 541 1171
3 1512 2075 1746
3 1214 949 1176
3 2153 904 1451
3 95 96 1900
3 74 720 1402
3 496 837 964
3 2184 797 483
3 2101 1004 1843
3 1221 2160 1150
3 852 1196 1267
3 695 278 1452
3 258 259 620
3 206 207 1456
3 577 726 1373
3 405 1126 1770
3 726 577 811
3 1244 1214 1176
3 2075 407 1127
3 984 2182 657
3 319 320 1505
3 318 319 1505
3 674 123 1605
3 123 674 1405
3 1521 701 1926
3 1390 509 1021
3 453 1534 1377
3 672 1070 1453
3 551 602 583
3 539 406 1275
3 387 2082 2032
3 1010 1417 1395
3 381 1624 1853
3 679 465 1352
3 354 743 1319
3 433 523 1440
3 523 616 1707
3 2064 1345 910
3 2082 1911 2032
3 296 413 1667
3 2157 527 1403
3 939 366 873
3 341 1164 1774
3 471 819 1737
3 1221 359 1303
3 2082 385 1911
3 62 1709 1226
3 2122 911 1372
3 16 1581 1984
3 2095 1256 1552
3 1279 2075 1006
3 1004 1750 1933
3 452 533 1569
3 385 752 1911
3 167 1088 920
3 658 101 1748
3 902 510 1370
3 939 2163 1216
3 37 38 1862
3 401 534 1580
3 43 44 1026
3 2114 939 873
3 685 1827 684
3 366 939 1216
3 375 1446 1419
3 646 1215 1820
3 359 1221 1150
3 520 674 1174
3 2143 917 1076
3 823 1090 1302
3 392 667 1869
3 1207 379 1672
3 942 144 1677
3 1144 775 1166
3 779 1058 1263
3 1868 799 573
3 738 388 821
3 398 797 1856
3 1417 1034 1049
3 291 290 756
3 476 713 1047
3 1756 943 1418
3 574 2081 1304
3 58 59 1465
3 1907 1461 1693
3 797 856 632
3 2068 1057 964
3 743 484 1319
3 19 291 1383
3 691 916 1237
3 1086 628 1739
3 739 2068 964
3 944 176 1163
3 2191 1446 1937
3 92 1399 435
3 1156 2076 1833
3 510 820 1370
3 1165 679 1184
3 609 2193 1343
3 1041 68 1950
3 820 2080 705
3 475 474 1259
3 528 822 1458
3 378 551 2000
3 869 928 1089
3 802 533 647
3 685 2098 1827
3 541 518 774
3 1279 1006 1238
3 766 491 1965
3 1244 528 1311
3 211 212 500
3 2082 907 1656
3 567 1239 1141
3 1004 521 1843
3 415 882 1985
3 2132 1144 1166
3 1058 2086 1263
3 2126 797 632
3 2097 1244 1311
3 76 1018 1591
3 695 785 1977
3 1006 457 1238
3 298 1258 895
3 1124 443 1299
3 520 1284 1405
3 628 1598 1739
3 362 2096 1201
3 795 962 1849
3 492 1789 1722
3 151 152 1756
3 166 167 920
3 101 102 1748
3 163 1353 511
3 620 613 1548
3 1017 880 1986
3 2109 1239 1264
3 278 695 1977
3 1014 718 1724
3 2152 564 1393
3 43 1026 2048
3 340 724 632
3 994 1034 1815
3 893 812 1573
3 331 737 986
3 617 1962 1646
3 767 362 1201
3 994 29 1049
3 941 890 1339
3 281 436 1867
3 767 781 1738
3 501 287 1798
3 856 340 632
3 38 39 1862
3 584 984 1177
3 534 2116 1580
3 541 572 1171
3 2160 1221 715
3 822 2091 1458
3 244 245 1130
3 1239 681 1490
3 723 2095 1552
3 580 996 850
3 720 75 1591
3 452 470 1650
3 162 511 1831
3 1665 400 1809
3 690 1407 961
3 2085 987 918
3 2106 1192 1619
3 527 2157 1296
3 112 811 1497
3 388 385 1513
3 2130 996 980
3 558 663 1609
3 877 192 1741
3 740 305 1886
3 1456 207 901
3 192 877 1995
3 1417 2190 1960
3 705 443 1370
3 1937 1446 1808
3 711 1701 1681
3 737 331 1335
3 1261 2115 1797
3 832 728 1666
3 1044 155 1639
3 1056 966 1024
3 1041 2176 1640
3 621 594 1836
3 549 1324 1774
3 436 352 1725
3 143 942 981
3 355 1261 1222
3 774 518 1653
3 564 2113 1037
3 485 913 860
3 1250 2122 1372
3 476 780 810
3 2104 1181 1927
3 510 902 1731
3 533 452 867
3 1239 567 1264
3 776 371 1800
3 486 302 1110
3 610 1172 1173
3 384 1390 1021
3 2095 902 1124
3 405 1770 1794
3 528 1244 653
3 879 775 1167
3 2111 610 1173
3 779 778 1877
3 2192 1488 1873
3 2078 699 912
3 409 872 666
3 1460 979 1484
3 108 109 2008
3 679 404 389
3 445 1050 1859
3 821 2093 1981
3 903 2111 1173
3 597 871 1246
3 978 617 1646
3 582 1934 1558
3 873 714 1603
3 1456 769 626
3 2111 903 1482
3 403 1665 1809
3 987 2171 1327
3 874 803 1649
3 783 1097 1280
3 256 340 950
3 2115 1261 1871
3 817 1333 1973
3 540 579 1972
3 413 296 1642
3 1653 518 1558
3 336 1046 1504
3 974 279 1599
3 1030 242 1423
3 47 609 1326
3 39 40 1215
3 518 541 1157
3 663 2105 1609
3 1257 332 2052
3 917 2143 585
3 1485 638 1149
3 648 413 1642
3 1160 917 585
3 172 499 1700
3 1021 509 1506
3 26 838 1368
3 1550 405 1794
3 516 439 1899
3 841 755 1205
3 925 999 1432
3 613 620 1823
3 2165 838 915
3 2087 935 1663
3 1270 96 1243
3 915 316 1895
3 903 648 1482
3 508 869 1089
3 566 748 1393
3 337 426 456
3 1175 1255 1597
3 811 1014 1497
3 984 584 522
3 1290 480 1531
3 1249 584 1671
3 1028 2106 1619
3 27 1352 1117
3 609 484 1326
3 614 970 1124
3 2130 933 1661
3 406 539 1942
3 186 187 1278
3 1130 245 1771
3 924 334 830
3 2103 749 1249
3 636 2093 1355
3 582 2063 1934
3 2191 822 1443
3 803 897 1649
3 121 122 1284
3 1097 624 1280
3 1170 159 1060
3 351 792 1557
3 814 1191 1357
3 745 1257 2052
3 832 633 1529
3 1031 200 1291
3 609 48 504
3 436 1052 1914
3 1021 1506 2033
3 832 1666 2003
3 762 351 868
3 928 869 1092
3 1051 2094 1671
3 443 902 1370
3 694 356 1798
3 426 2106 1032
3 712 1044 1639
3 1305 519 1480
3 2121 1029 1288
3 633 1907 1529
3 582 1198 1104
3 394 536 1466
3 646 669 1545
3 380 351 922
3 2073 456 1378
3 1800 371 1679
3 1894 1003 2012
3 1857 8 1253
3 1402 720 1765
3 286 694 1798
3 474 475 1727
3 153 358 1745
3 2110 934 1878
3 874 1649 1828
3 551 378 1020
3 1003 1191 2012
3 433 1114 1989
3 2147 1064 1790
3 489 1072 1760
3 704 860 991
3 598 1821 1603
3 637 2072 810
3 508 1200 1866
3 749 2103 1860
3 555 2087 1663
3 510 1055 1780
3 594 621 1429
3 393 729 1464
3 880 1017 1743
3 633 1461 1907
3 870 473 1236
3 918 987 1327
3 334 448 607
3 128 129 1025
3 1042 1278 1953
3 711 408 427
3 1411 924 830
3 244 1130 1764
3 963 696 1888
3 2182 842 1132
3 996 580 980
3 669 2074 1545
3 698 904 1318
3 874 457 976
3 376 744 599
3 1685 716 1268
3 498 1094 1796
3 820 705 1370
3 1581 913 1984
3 1473 490 2007
3 98 879 1167
3 778 170 1877
3 696 963 1653
3 803 874 976
3 551 583 2000
3 640 1685 1268
3 1064 812 1790
3 1143 212 662
3 1357 1191 1406
3 530 1267 1644
3 1083 204 1702
3 775 879 1166
3 778 779 1263
3 1094 498 1547
3 188 1726 1459
3 2064 1441 1155
3 842 2182 1710
3 1670 621 1836
3 935 519 1065
3 773 1249 1671
3 904 698 1451
3 1290 680 1154
3 1627 370 1565
3 457 874 1465
3 1305 1480 1062
3 1113 392 1059
3 2084 415 1985
3 256 257 340
3 1813 747 2054
3 2094 1051 1335
3 996 2130 1661
3 942 1677 1787
3 2105 516 1063
3 2171 636 1327
3 16 293 1581
3 619 347 1118
3 37 391 606
3 748 393 988
3 2063 582 2028
3 1441 731 1155
3 413 648 1611
3 883 1018 1620
3 749 584 1249
3 2155 1516 2056
3 236 1266 1287
3 1432 999 1654
3 569 330 1940
3 744 2136 599
3 1386 1094 1559
3 1143 393 500
3 328 27 1485
3 823 1429 1105
3 807 327 535
3 370 486 1110
3 1200 555 1866
3 2073 893 1573
3 1210 1295 1364
3 1488 794 1873
3 1063 839 1609
3 1526 2123 1293
3 929 1250 1495
3 499 779 1700
3 730 433 1989
3 1230 1371 1567
3 1523 471 1032
3 802 1122 1206
3 510 1780 1925
3 2091 822 590
3 338 918 1327
3 1046 432 1705
3 1056 651 1717
3 680 1290 1531
3 898 1312 861
3 584 1051 1671
3 1858 635 1457
3 337 1593 1471
3 2163 939 1883
3 775 1270 1243
3 2077 1252 1770
3 81 82 1473
3 830 334 1563
3 2182 749 1710
3 792 634 1696
3 2164 413 1611
3 119 869 1455
3 2066 1070 1822
3 203 204 1083
3 2105 1063 1609
3 648 903 1611
3 600 255 950
3 1122 572 1206
3 703 1550 1794
3 1055 655 1394
3 1543 2170 1510
3 1419 750 1136
3 2142 1598 1038
3 993 915 1895
3 2100 1064 1420
3 1073 1041 1950
3 776 2083 1097
3 783 776 1097
3 2124 563 1550
3 1181 2104 1840
3 1429 621 1105
3 568 1283 1363
3 726 1806 1704
3 464 1485 1149
3 393 1143 988
3 430 737 1322
3 350 1402 1765
3 1441 355 1222
3 780 476 1676
3 456 1100 1378
3 1156 451 1620
3 1295 550 1364
3 291 756 1392
3 536 813 1466
3 903 2164 1611
3 1261 355 1054
3 10 273 700
3 88 1560 1483
3 880 2108 1193
3 498 927 1547
3 459 2107 1178
3 399 831 1199
3 748 566 725
3 2164 903 450
3 2085 748 725
3 563 587 1550
3 831 2194 1199
3 302 486 1780
3 161 162 1831
3 2171 987 2009
3 1157 2089 1841
3 907 2179 1672
3 556 1157 1841
3 862 160 1831
3 2142 1337 982
3 729 601 1585
3 332 736 909
3 836 2175 1223
3 869 508 1455
3 432 1046 1778
3 800 604 1397
3 1593 1192 1471
3 351 1533 922
3 426 337 1471
3 976 457 1298
3 548 1523 1032
3 457 1006 1298
3 413 2164 1785
3 1437 425 1761
3 526 983 1760
3 2099 1210 1364
3 799 1683 573
3 500 393 1464
3 376 1080 1288
3 62 63 1709
3 223 863 1824
3 1146 815 1482
3 2139 925 1242
3 1789 2119 1722
3 591 1188 1955
3 1278 360 1953
3 790 960 1754
3 261 262 734
3 738 821 1981
3 683 420 1851
3 1677 765 1787
3 578 1346 1604
3 1070 672 1420
3 604 2071 1397
3 1806 643 1704
3 2186 740 1736
3 558 911 850
3 660 540 1336
3 1333 656 798
3 334 924 685
3 22 297 1647
3 650 878 1837
3 1589 627 1445
3 527 1122 1358
3 1414 2186 1187
3 372 1589 1445
3 245 246 1771
3 962 343 1991
3 1379 1403 1358
3 664 661 1705
3 1399 727 435
3 494 180 1803
3 2070 793 930
3 927 26 1368
3 761 944 1163
3 2092 1016 1381
3 432 664 1705
3 705 929 1495
3 1934 696 1558
3 1026 710 2048
3 779 499 1273
3 64 357 1788
3 663 558 1661
3 657 2182 1132
3 490 1473 1793
3 2151 1445 1463
3 612 952 1443
3 2108 926 560
3 1018 883 1591
3 1034 994 1049
3 1141 1239 1490
3 610 372 1445
3 1320 625 1496
3 390 1290 1154
3 979 1460 1920
3 1270 775 1204
3 1051 584 1177
3 1070 2147 1360
3 357 65 1053
3 199 1031 1728
3 541 2089 1157
3 709 559 1587
3 305 306 1886
3 860 704 1947
3 769 1456 901
3 443 705 1495
3 1149 638 1807
3 740 568 1736
3 396 559 1348
3 1004 2186 1662
3 1172 610 1445
3 1056 1717 1538
3 559 396 1228
3 382 509 1390
3 636 2171 1912
3 350 1119 1535
3 278 12 1452
3 1399 93 1260
3 842 454 1132
3 1235 392 1146
3 1598 628 1038
3 175 944 603
3 638 1485 1117
3 2108 880 1492
3 781 767 1941
3 731 1441 1222
3 448 334 685
3 557 934 1438
3 987 2085 725
3 254 600 938
3 714 2147 2047
3 1222 1261 1797
3 2195 1478 1133
3 325 326 889
3 110 806 2008
3 785 695 1626
3 1041 502 1310
3 1016 770 1381
3 1478 417 1133
3 796 459 1178
3 2140 546 1342
3 2148 1141 1490
3 668 368 1112
3 822 2191 1937
3 369 576 1174
3 147 629 1525
3 1080 2121 1288
3 87 88 1483
3 577 1014 811
3 2179 907 995
3 567 545 1264
3 1617 2138 1738
3 545 1151 1264
3 1709 940 1226
3 1754 1526 1293
3 908 577 1373
3 1067 2123 1105
3 327 328 535
3 973 839 1063
3 880 1193 1986
3 578 125 1346
3 1013 1147 1715
3 360 695 1514
3 705 2080 1087
3 1541 1055 1394
3 954 345 1814
3 2196 1701 1875
3 1147 562 1715
3 2105 962 1991
3 1701 711 1875
3 982 1337 335
3 1421 2100 1420
3 206 1456 1075
3 946 635 1858
3 924 1411 824
3 322 569 1940
3 817 1353 1502
3 71 733 1168
3 868 351 2034
3 2173 889 1818
3 756 914 1730
3 2182 984 522
3 645 2139 1242
3 1235 648 1642
3 364 954 1814
3 1482 815 2006
3 580 850 1596
3 160 161 1831
3 1448 864 951
3 272 9 373
3 1028 521 1736
3 1051 737 1335
3 519 1305 1065
3 898 636 1912
3 424 1448 951
3 973 2131 553
3 21 1235 1642
3 377 683 1851
3 602 551 895
3 1158 1200 1679
3 162 163 511
3 903 1173 450
3 1516 608 2056
3 1234 485 466
3 900 2170 1384
3 561 1543 1510
3 801 1139 1858
3 346 722 1822
3 333 1082 1923
3 616 931 1328
3 1288 1029 1801
3 591 344 1188
3 2086 798 1263
3 1336 2132 1166
3 467 975 1351
3 1081 513 1673
3 404 2098 824
3 1608 717 1871
3 747 349 2023
3 2092 1340 1225
3 1207 1083 1702
3 665 442 1476
3 1010 931 1928
3 667 900 1384
3 863 223 1696
3 601 1227 1585
3 156 157 1009
3 2096 362 1062
3 112 113 811
3 975 2125 1351
3 596 625 1320
3 1525 629 1816
3 787 1788 1889
3 621 1067 1105
3 180 181 1803
3 648 1235 1146
3 496 1057 1413
3 1346 470 1604
3 1788 357 1889
3 839 973 553
3 1282 2079 967
3 713 476 1307
3 952 2191 1443
3 1534 957 1377
3 1122 2070 1358
3 2193 609 1924
3 1460 342 1920
3 1305 693 1692
3 1057 771 1413
3 277 276 1760
3 1333 798 1973
3 1336 540 1972
3 374 516 1899
3 1516 2155 2053
3 1411 461 824
3 492 1722 2053
3 1331 2079 1870
3 2127 668 1112
3 426 1032 1979
3 1268 716 1744
3 939 2114 2037
3 439 516 1891
3 447 1608 1871
3 941 657 1132
3 990 1521 1926
3 983 489 1760
3 875 1437 1761
3 2175 836 1120
3 971 184 1454
3 461 404 824
3 595 1240 732
3 1030 923 1694
3 2106 426 1471
3 1173 1172 1061
3 907 387 995
3 1149 2157 1403
3 1068 1035 1369
3 124 578 1605
3 121 1284 1092
3 2118 841 1686
3 1240 512 732
3 461 897 906
3 1025 129 2010
3 841 1205 1970
3 177 178 1212
3 559 709 1602
3 540 660 1748
3 656 1333 920
3 1388 2137 1572
3 902 2095 1731
3 1515 727 1039
3 905 1290 1830
3 377 1347 965
3 1478 1230 1964
3 1623 475 1259
3 1768 880 1743
3 431 889 1241
3 692 1173 1061
3 761 1212 937
3 446 1247 599
3 693 1305 1062
3 1800 542 1469
3 317 318 751
3 320 321 1574
3 889 2173 1125
3 90 91 1515
3 481 745 2051
3 1024 2092 1225
3 872 444 666
3 687 982 335
3 462 597 1246
3 866 135 1693
3 1491 360 1532
3 1106 682 1922
3 960 491 1754
3 1205 2190 1970
3 733 2185 1382
3 745 481 1904
3 1533 351 1557
3 510 1731 1983
3 825 614 998
3 1480 2096 1062
3 28 269 0
3 1387 2086 1437
3 2132 876 983
3 1082 997 1923
3 880 1768 1492
3 996 558 850
3 628 1027 1421
3 775 1144 1204
3 1058 779 1273
3 709 784 1019
3 422 1399 1433
3 2188 1868 573
3 1345 2194 1938
3 601 419 1109
3 626 769 1958
3 890 941 1530
3 519 935 1766
3 1379 464 1403
3 471 1523 1093
3 464 1379 807
3 2136 1268 1744
3 264 382 1390
3 385 2082 1369
3 2083 1509 1097
3 1128 1617 1738
3 415 525 1755
3 568 1028 1736
3 944 412 1689
3 1099 708 1285
3 908 693 560
3 770 1016 1096
3 340 856 950
3 955 1525 1816
3 1278 1042 1931
3 45 743 1664
3 546 574 1342
3 287 286 1798
3 1181 368 1927
3 2151 834 1061
3 1032 471 1979
3 2114 873 1603
3 2081 1186 1561
3 943 831 1418
3 526 1144 983
3 1058 425 1437
3 1446 2191 1419
3 379 1456 626
3 1290 390 1830
3 835 414 918
3 1379 431 807
3 1726 618 1459
3 781 1128 1738
3 875 1387 1437
3 876 489 983
3 287 501 1893
3 1090 478 1786
3 834 692 1061
3 381 1473 2007
3 640 1030 1423
3 584 749 522
3 525 415 1799
3 904 1607 1425
3 501 356 858
3 1283 548 1363
3 2090 1164 1796
3 825 2131 1245
3 1255 2189 1597
3 1295 828 1750
3 2110 1878 1988
3 816 552 1663
3 806 110 1724
3 889 431 1818
3 567 974 1599
3 1094 2090 1796
3 749 2182 522
3 1158 2087 1200
3 1744 446 599
3 2067 762 868
3 1261 447 1871
3 808 1282 967
3 1353 817 1564
3 897 803 906
3 84 1179 1612
3 41 42 1123
3 935 2087 1766
3 498 1796 1398
3 15 283 1668
3 356 501 1798
3 1883 939 2037
3 1119 350 1758
3 935 816 1663
3 208 209 1227
3 338 835 918
3 635 2184 483
3 974 567 1141
3 682 919 1922
3 579 540 760
3 1333 817 1332
3 600 950 1566
3 222 223 1824
3 676 445 1859
3 2185 1119 1758
3 306 307 1283
3 276 11 818
3 1295 1210 1872
3 264 265 382
3 828 1295 1872
3 308 309 1523
3 683 377 758
3 1422 579 1819
3 472 1030 1792
3 487 1069 1162
3 752 1645 1341
3 28 29 994
3 737 1051 1322
3 755 2118 1506
3 692 834 1400
3 1173 692 450
3 962 428 1849
3 734 262 1751
3 812 893 1790
3 629 148 1439
3 2180 1353 1564
3 947 698 1262
3 515 724 1548
3 2080 820 1627
3 1648 2185 1758
3 686 2188 573
3 442 1648 1758
3 534 401 1349
3 1035 1068 1501
3 834 884 1971
3 724 515 1723
3 2134 1035 1501
3 536 394 1975
3 1456 379 1075
3 2189 827 1597
3 1698 348 1527
3 2158 515 1548
3 2093 821 1355
3 1198 518 1157
3 1263 798 2002
3 1336 1166 1718
3 1822 722 1651
3 268 269 994
3 801 1858 1932
3 623 683 758
3 1521 2138 1802
3 322 323 569
3 933 663 1661
3 1268 586 1848
3 800 1170 1060
3 524 358 1015
3 1023 664 1688
3 2069 1011 1134
3 1002 394 1466
3 1284 928 1092
3 1164 881 1796
3 882 635 483
3 2131 825 998
3 1030 640 1792
3 714 359 1142
3 757 917 2026
3 792 225 1557
3 2193 825 1343
3 782 766 1232
3 966 923 1884
3 525 1002 1095
3 1002 2117 1095
3 741 380 1747
3 294 947 1262
3 931 1010 1395
3 389 461 906
3 355 1441 1015
3 840 1937 1808
3 2129 389 906
3 45 46 743
3 517 772 909
3 961 1407 1224
3 952 612 1974
3 477 1069 1825
3 1024 966 1507
3 932 1083 1111
3 1353 163 1502
3 1411 54 1085
3 698 947 1451
3 1325 565 1344
3 634 863 1696
3 734 384 645
3 1404 1073 1713
3 358 154 1044
3 1811 492 2053
3 894 478 1074
3 793 647 886
3 55 897 1085
3 701 1193 1926
3 1073 1404 1769
3 158 159 1170
3 480 1180 1531
3 369 963 1888
3 2190 1417 1970
3 923 472 1884
3 358 524 1745
3 651 1056 1024
3 444 1515 1039
3 1407 2072 1562
3 2087 555 1200
3 1212 462 937
3 676 2077 1805
3 109 110 2008
3 1417 1010 1970
3 1707 631 1817
3 896 601 1109
3 706 455 1338
3 424 1071 1148
3 774 2120 1206
3 2162 1993 1496
3 1052 1636 1914
3 630 676 1805
3 186 1278 1931
3 1583 72 1535
3 2127 1371 1753
3 611 974 1915
3 781 2187 1923
3 1031 1291 1101
3 2144 1707 1817
3 1215 429 1862
3 954 940 2022
3 768 1175 1597
3 1485 27 1117
3 214 215 766
3 889 326 1241
3 890 1530 1635
3 1607 634 1425
3 997 781 1923
3 521 1004 1662
3 1297 562 1519
3 1618 1401 1195
3 297 296 1667
3 682 1106 1733
3 134 135 866
3 1690 331 986
3 145 146 1442
3 1071 642 1148
3 150 831 1012
3 911 531 1372
3 2168 1768 1743
3 816 643 2024
3 409 1179 1982
3 857 611 1915
3 863 634 1607
3 478 1090 1590
3 454 842 2015
3 1069 487 721
3 1281 1160 2041
3 613 1658 2013
3 263 264 1390
3 1014 1724 1497
3 1237 899 2058
3 1186 1398 1561
3 848 1297 1519
3 1025 836 1223
3 579 1422 1301
3 19 1383 859
3 2115 1871 1675
3 727 1399 1999
3 971 871 678
3 269 28 994
3 827 848 1597
3 1715 562 1980
3 772 332 909
3 1101 2154 1854
3 342 1460 1269
3 354 1026 1664
3 424 951 888
3 827 2102 1297
3 2103 1446 1860
3 2190 870 1960
3 1031 1101 1854
3 642 686 573
3 550 1115 791
3 2088 686 1071
3 643 816 1704
3 14 281 1867
3 1090 2123 1590
3 1203 692 1400
3 345 954 2022
3 116 117 1430
3 944 761 1855
3 893 598 1790
3 1009 157 1963
3 868 741 1784
3 17 287 1893
3 856 797 1566
3 184 971 678
3 788 605 1210
3 420 1388 1572
3 1353 2180 1691
3 2165 915 1084
3 728 832 1036
3 1750 2101 1739
3 77 78 777
3 718 806 1724
3 1144 2132 983
3 2086 1058 1437
3 820 510 1925
3 690 961 861
3 292 19 1554
3 201 202 1078
3 2112 1431 936
3 81 1473 1005
3 1806 115 1528
3 1179 84 1982
3 1011 532 1134
3 2169 665 1765
3 942 1787 644
3 1200 508 1469
3 190 191 1008
3 118 119 1455
3 1119 1583 1535
3 210 729 1585
3 1404 2107 945
3 715 706 1338
3 1962 2128 1646
3 729 210 1464
3 1196 2162 1496
3 1046 1705 1504
3 849 1512 1746
3 797 2184 1566
3 1046 845 1936
3 848 827 1297
3 1446 375 1860
3 532 1883 2037
3 686 642 1071
3 692 1203 450
3 2072 637 1562
3 934 2110 1969
3 2069 972 1974
3 1257 745 1904
3 860 2135 991
3 1015 358 1613
3 870 267 1815
3 384 734 1751
3 438 1231 1881
3 565 1930 1344
3 69 70 1499
3 604 436 1914
3 690 1312 1386
3 2176 1041 1769
3 533 867 886
3 201 1078 1291
3 1473 82 1793
3 518 582 1558
3 70 71 1168
3 1041 1073 1769
3 1093 310 1966
3 934 557 1606
3 950 856 1566
3 1246 871 1946
3 1337 2142 1773
3 261 734 1658
3 1660 898 1912
3 515 2158 858
3 1852 537 1412
3 1787 2172 644
3 704 1103 1947
3 980 580 469
3 409 666 1520
3 819 1093 1966
3 1032 2106 1363
3 352 604 1365
3 654 682 1733
3 628 1086 1027
3 855 955 1816
3 1016 2092 1507
3 1730 914 1555
3 343 669 1891
3 1200 542 1679
3 1383 291 1392
3 871 971 1916
3 405 1550 1470
3 544 1156 1620
3 1029 2121 2027
3 1371 2127 1882
3 698 367 1262
3 2107 1404 1385
3 460 1002 1466
3 786 1181 1840
3 1371 2195 1434
3 395 968 1767
3 9 271 764
3 1179 409 1517
3 727 1515 435
3 1140 1648 1637
3 408 534 1349
3 1191 814 1161
3 638 1127 1807
3 1131 580 1596
3 1086 482 1027
3 1011 709 1587
3 1212 761 1163
3 665 2169 1001
3 816 935 1065
3 972 952 1974
3 1180 1821 1531
3 1156 544 917
3 2109 1264 1275
3 32 33 931
3 329 24 1184
3 2068 804 1669
3 205 206 1075
3 356 515 858
3 568 740 1886
3 1292 414 2055
3 1017 1048 1579
3 963 2120 1653
3 355 1015 1613
3 1508 342 1269
3 968 18 1767
3 1438 934 1969
3 444 872 1483
3 1432 17 1893
3 2164 450 1350
3 1114 395 1767
3 1115 2142 982
3 597 462 1803
3 460 1466 1699
3 668 2127 1753
3 1523 548 495
3 1160 1156 917
3 2067 1318 1425
3 655 723 1827
3 2079 1257 1904
3 218 894 1074
3 1491 618 956
3 1407 690 1812
3 2157 1149 1807
3 1478 197 1189
3 1102 566 1037
3 576 369 1888
3 741 900 1784
3 414 835 2055
3 750 905 1136
3 1648 1431 1637
3 363 746 589
3 2061 1491 956
3 1138 846 1684
3 2151 1463 1486
3 1951 529 1706
3 351 380 2034
3 2001 1678 1885
3 306 1283 1886
3 763 2158 2013
3 2156 1138 1684
3 445 676 1091
3 1162 1069 1840
3 308 1523 495
3 289 1114 1767
3 806 718 1768
3 1539 1045 1939
3 160 862 1060
3 2102 666 1039
3 30 1417 1049
3 530 947 1375
3 457 1465 1238
3 989 2151 1486
3 618 1491 1532
3 493 912 1101
3 947 530 1329
3 604 800 1365
3 284 15 1448
3 664 432 1688
3 762 2067 1425
3 1246 2088 937
3 367 1235 1957
3 1047 2165 1594
3 1231 438 2031
3 581 1594 1410
3 152 153 1745
3 947 294 1375
3 273 272 1829
3 302 303 1110
3 396 1348 1582
3 11 275 1147
3 1441 2064 1549
3 328 1485 535
3 1111 1083 1917
3 1291 493 1101
3 1264 1151 1275
3 673 734 645
3 734 673 1658
3 923 240 1694
3 86 872 1135
3 450 1203 1350
3 1442 955 1588
3 968 1955 1775
3 957 1171 1296
3 362 767 1169
3 19 859 1554
3 362 990 1479
3 509 755 1506
3 588 607 1944
3 765 1442 1588
3 67 1041 1310
3 931 616 1928
3 1114 433 1440
3 1399 1260 1433
3 746 2159 589
3 1446 2103 1808
3 788 1131 1596
3 380 228 1747
3 2178 1188 1734
3 1078 493 1291
3 948 1009 1963
3 896 2134 1958
3 612 784 1974
3 515 356 1309
3 845 336 1306
3 292 772 1990
3 367 295 1262
3 2161 1539 1939
3 141 1488 1998
3 1367 273 1829
3 968 395 1955
3 18 968 977
3 513 1081 1695
3 597 182 1494
3 1422 105 1474
3 93 94 1260
3 2186 641 1187
3 1097 1509 1277
3 1539 1013 1715
3 1442 146 1525
3 1081 463 1695
3 414 1109 918
3 871 597 1494
3 1109 2085 918
3 581 1676 1594
3 2188 686 1916
3 821 388 835
3 872 409 1135
3 550 1598 1115
3 772 292 1554
3 1481 2065 1096
3 1123 42 2048
3 2192 637 1248
3 1068 1890 1501
3 1445 627 1463
3 620 724 1356
3 174 175 603
3 371 776 1952
3 478 894 1786
3 1845 423 1965
3 2146 1858 1457
3 1466 813 1699
3 1821 2114 1603
3 603 944 1689
3 783 1389 1233
3 1399 422 1999
3 428 933 1527
3 867 833 886
3 1188 391 1734
3 380 741 2034
3 804 2068 1810
3 36 37 606
3 105 1422 1819
3 488 1716 1567
3 973 374 1428
3 412 944 1855
3 864 746 951
3 1770 1252 1794
3 1658 613 1823
3 827 2189 1517
3 512 1347 1851
3 784 2069 1974
3 1332 165 1749
3 103 760 1903
3 787 804 1810
3 1278 187 1459
3 348 859 1908
3 252 1139 1217
3 1515 444 1498
3 2072 1407 1812
3 242 243 1423
3 707 1194 857
3 367 698 1059
3 1624 992 1853
3 887 1079 1195
3 2104 1162 1840
3 622 1893 1641
3 338 821 835
3 462 1212 1978
3 1465 364 1238
3 2191 952 1782
3 1481 472 1792
3 743 354 1664
3 1488 141 1213
3 1284 122 1405
3 846 1138 1634
3 61 954 1876
3 1194 440 857
3 1347 377 1851
3 679 389 1366
3 733 449 1168
3 505 1660 1912
3 669 439 1891
3 219 1320 1918
3 772 517 1990
3 894 218 1918
3 1304 2081 1561
3 910 1345 1938
3 1203 1779 1350
3 2153 1678 2001
3 2080 1565 2017
3 885 610 2006
3 2171 1102 1595
3 1461 866 1693
3 177 1212 1163
3 519 1766 1846
3 1102 2171 2009
3 1235 21 1957
3 1348 586 1582
3 2122 788 1596
3 1527 348 1908
3 670 2061 956
3 1106 1922 1941
3 2133 905 1830
3 1515 91 435
3 831 150 1418
3 633 832 2003
3 2125 975 2025
3 1401 438 1195
3 693 908 1692
3 1545 2074 1555
3 449 733 1382
3 1779 410 1350
3 369 1174 1742
3 1408 600 1566
3 1652 333 1923
3 223 224 1696
3 610 2111 2006
3 1101 912 1209
3 1152 896 1958
3 1768 718 1492
3 487 845 1116
3 975 467 1850
3 656 1088 497
3 658 660 1265
3 1901 557 1919
3 776 783 1740
3 1115 808 791
3 220 221 596
3 1197 1231 2031
3 1119 733 1583
3 349 1374 1942
3 615 1901 1919
3 607 448 1944
3 2109 697 1732
3 1191 1003 1406
3 142 143 981
3 1766 615 1846
3 2145 1645 1584
3 197 1478 1964
3 755 473 1205
3 1374 406 1942
3 2107 459 945
3 797 2126 1856
3 845 487 1162
3 231 232 1444
3 1303 2121 844
3 744 396 1582
3 664 1023 1646
3 1102 549 1595
3 444 1560 1498
3 392 367 1059
3 691 1237 1687
3 711 1314 1988
3 905 2133 1136
3 733 71 1583
3 804 787 1889
3 1080 376 1424
3 1600 741 1747
3 1128 1281 1617
3 2168 1099 1285
3 1154 2073 1378
3 1645 738 1584
3 2123 1067 1293
3 536 2141 1913
3 961 547 1981
3 2065 1481 1762
3 594 23 1475
3 775 1243 1167
3 1139 252 1568
3 736 1257 1331
3 643 1806 1528
3 473 755 1362
3 1474 106 1259
3 2064 1155 1657
3 425 1058 361
3 1144 526 1553
3 473 382 1236
3 383 697 1374
3 784 612 1729
3 2108 560 719
3 1237 506 1687
3 1286 765 1588
3 1700 779 1877
3 494 462 1978
3 716 1130 1744
3 481 980 469
3 2083 776 1800
3 1038 628 1421
3 1756 152 1745
3 1281 592 1617
3 755 509 1362
3 1430 117 1578
3 243 1685 1423
3 915 993 1084
3 1673 2183 1254
3 1155 487 1657
3 1035 2134 1292
3 746 412 951
3 467 1673 1254
3 75 76 1591
3 954 61 1226
3 283 282 2019
3 851 670 956
3 1893 501 1641
3 1019 784 1729
3 1130 446 1744
3 1100 456 1979
3 801 965 1468
3 422 1539 1715
3 2184 1408 1566
3 2091 1460 1484
3 488 1813 1716
3 2093 961 1981
3 1053 66 1310
3 331 1690 2000
3 653 1244 1176
3 228 380 922
3 48 49 504
3 360 1278 1532
3 538 1098 1720
3 855 1816 1996
3 966 1056 1524
3 63 64 1788
3 1636 1052 1477
3 184 185 1454
3 1771 595 402
3 472 1016 1884
3 2149 653 1176
3 765 1286 1787
3 313 657 1339
3 1221 1303 844
3 1730 2074 1321
3 955 1442 1525
3 1026 44 1664
3 198 199 1728
3 334 607 1576
3 1022 661 1832
3 253 254 938
3 836 1025 2010
3 532 1011 1883
3 139 140 1632
3 1676 476 1594
3 1565 641 2017
3 1231 2156 1881
3 2060 1065 1692
3 2170 900 1510
3 233 652 1961
3 491 960 1965
3 556 1198 1157
3 107 108 1623
3 2069 671 972
3 419 2085 1109
3 1636 2071 1914
3 382 265 1236
3 2125 1081 1351
3 1233 1389 1879
3 1064 1070 1420
3 724 340 1356
3 919 1652 1922
3 1508 840 1808
3 1065 1305 1692
3 710 1123 2048
3 1402 350 1535
3 838 1047 1892
3 446 1771 402
3 208 1227 901
3 737 1186 986
3 701 764 1048
3 485 860 1947
3 724 620 1548
3 695 1491 1626
3 1113 698 1318
3 2077 676 1859
3 372 652 1589
3 130 131 675
3 456 426 1979
3 1040 1077 1691
3 65 66 1053
3 1594 2165 1410
3 397 1472 892
3 216 217 854
3 430 315 1887
3 2136 744 1582
3 1348 559 1602
3 1098 2141 1720
3 2102 827 1520
3 2196 1472 1701
3 722 2160 1699
3 26 927 1887
3 1227 769 901
3 1429 823 1630
3 238 1524 1538
3 925 2139 1294
3 1781 575 1992
3 1472 397 1701
3 2127 1112 1610
3 698 1113 1059
3 686 2088 1946
3 296 21 1642
3 1089 928 1844
3 260 261 1658
3 164 165 1332
3 103 104 760
3 661 664 1757
3 1455 508 1866
3 1722 789 2053
3 914 756 977
3 232 233 1961
3 916 365 1522
3 1081 2125 1634
3 1223 1956 1714
3 1673 513 1996
3 664 2128 1757
3 2137 1388 1424
3 688 477 1825
3 145 1442 1677
3 699 916 1522
3 476 810 1307
3 2061 545 1626
3 802 647 1122
3 756 290 977
3 831 399 1012
3 1761 283 2019
3 813 722 1699
3 688 731 1797
3 593 594 1475
3 926 2108 1492
3 999 925 1294
3 395 1114 1542
3 514 1430 1578
3 911 558 1540
3 974 1141 1915
3 959 529 1951
3 1022 1832 1684
3 709 1159 1602
3 534 397 1781
3 1333 1332 1749
3 760 540 1903
3 356 1234 1309
3 1765 720 829
3 1077 862 1831
3 676 630 1865
3 1114 289 1989
3 1258 602 895
3 1257 2079 1331
3 1562 445 1224
3 1234 2126 1309
3 2169 1765 829
3 2116 534 1781
3 2068 739 503
3 545 785 1626
3 1368 838 1892
3 940 954 1226
3 1695 563 1655
3 546 378 1690
3 2116 1795 1580
3 96 97 1243
3 280 1601 1967
3 171 172 1700
3 1795 921 1580
3 1214 884 1340
3 251 252 1217
3 742 1320 1496
3 795 756 1730
3 240 241 1694
3 1442 765 1677
3 506 1237 2058
3 332 772 1066
3 79 80 1577
3 149 150 1012
3 511 1077 1831
3 667 1384 1869
3 1795 771 1487
3 73 74 1402
3 1393 564 1037
3 110 111 1724
3 1057 2068 1669
3 967 2079 1904
3 474 1727 1954
3 1027 2100 1421
3 1795 1487 826
3 1560 89 1498
3 417 1478 1189
3 871 1916 1946
3 476 1047 1594
3 1916 686 1946
3 810 2072 1307
3 794 1488 1213
3 566 1393 1037
3 214 766 1218
3 1223 2175 1956
3 1632 581 1410
3 1517 409 1520
3 2114 1180 2037
3 1210 605 1872
3 179 494 1978
3 123 124 1605
3 229 230 1600
3 1138 2156 1231
3 548 1032 1363
3 148 149 1439
3 827 1517 1520
3 2098 404 1153
3 1067 953 411
3 1824 863 2001
3 959 1438 1969
3 910 524 1549
3 766 215 1232
3 2065 1348 1602
3 2134 896 1292
3 630 1341 1865
3 2064 910 1549
3 258 620 1356
3 739 849 503
3 491 1526 1754
3 804 1889 1487
3 394 1002 1799
3 1889 2166 1487
3 463 1138 2059
3 188 189 1726
3 632 724 1723
3 2081 1690 986
3 1407 1562 1224
3 892 1472 1546
3 949 1214 1340
3 1099 2168 1708
3 2129 976 1298
3 46 47 1326
3 41 1123 1820
3 1332 817 1502
3 390 1154 1378
3 383 458 1610
3 445 1091 1224
3 1577 80 1005
3 630 1777 1341
3 565 1025 1223
3 590 840 1269
3 2103 1508 1808
3 1709 63 1788
3 463 563 1695
3 1186 2081 986
3 722 813 1651
3 878 1289 991
3 1473 381 1853
3 1461 633 1948
3 980 481 2051
3 464 1149 1403
3 1550 587 1470
3 896 414 1292
3 777 78 1415
3 1889 357 1987
3 1658 673 2013
3 2098 1153 1394
3 458 488 1882
3 619 1099 1708
3 2174 1447 2003
3 478 854 1074
3 190 1008 1943
3 1827 2098 1394
3 954 364 1876
3 1608 948 1397
3 76 77 1018
3 446 1130 1771
3 1665 2177 1406
3 187 188 1459
3 668 432 1778
3 647 533 886
3 1188 2178 1955
3 368 668 1778
3 469 2099 1229
3 925 622 1242
3 290 18 977
3 839 911 1540
3 1573 812 1219
3 2060 908 1373
3 1488 780 1998
3 50 607 1467
3 249 1347 1643
3 144 145 1677
3 751 1631 1895
3 1354 401 2029
3 502 1053 1310
3 1028 568 1363
3 875 1315 421
3 579 760 1819
3 226 1533 1557
3 370 1414 1187
3 27 329 1352
3 640 1268 1848
3 1227 601 1152
3 408 459 427
3 1013 1539 2035
3 1780 486 1925
3 459 796 427
3 83 84 1612
3 862 352 1365
3 1928 841 1970
3 1430 514 2044
3 769 1227 1152
3 1922 2187 1941
3 1112 383 1610
3 1666 2174 2003
3 2091 1484 1503
3 596 571 1885
3 552 1430 2044
3 2071 1608 1397
3 992 1624 1076
3 743 46 1326
3 200 201 1291
3 2121 1080 844
3 1763 1574 1940
3 359 1150 1142
3 1122 527 2046
3 2089 1534 1841
3 697 2109 2004
3 1631 993 1895
3 32 931 1395
3 1320 742 1918
3 1088 656 920
3 660 658 1748
3 958 1040 1835
3 252 253 1568
3 744 376 1288
3 1624 2143 1076
3 353 2125 2025
3 763 673 1242
3 583 331 2000
3 295 367 1957
3 1524 1056 1538
3 563 463 1929
3 33 34 1328
3 1057 496 964
3 1807 407 2020
3 671 2069 1134
3 482 1086 1843
3 1150 346 1142
3 2177 1357 1406
3 607 50 1576
3 1229 2099 791
3 77 777 1018
3 240 923 1842
3 587 563 1929
3 493 1078 1137
3 622 763 1242
3 1447 633 2003
3 1598 2142 1115
3 777 1415 2026
3 1130 716 1764
3 1003 1665 1406
3 1314 2110 1988
3 561 1600 1711
3 1078 932 1137
3 1051 1177 1322
3 2100 1593 1219
3 1369 1035 1513
3 908 2060 1692
3 1389 2063 2028
3 558 996 1661
3 128 1025 1325
3 746 864 1905
3 396 744 1801
3 401 1580 2029
3 923 966 1842
3 1000 1389 2028
3 418 1178 1637
3 295 294 1262
3 196 1964 1716
3 330 1763 1940
3 965 801 758
3 1178 1140 1637
3 997 1833 809
3 707 437 1511
3 1217 801 1468
3 1676 4 1998
3 731 688 1825
3 1499 70 1168
3 1534 837 1841
3 547 961 1224
3 1943 1008 843
3 836 675 1120
3 353 754 1306
3 142 981 1213
3 324 325 1863
3 963 369 1604
3 2076 1281 809
3 2124 855 1655
3 855 513 1655
3 1281 1128 809
3 2148 857 1915
3 414 896 1109
3 437 477 1511
3 1805 1126 2011
3 1560 444 1483
3 571 1824 2001
3 122 123 1405
3 967 481 1229
3 864 1668 1570
3 1461 400 1935
3 657 313 1712
3 309 310 1093
3 592 1281 2041
3 1318 904 1425
3 477 688 1511
3 377 965 758
3 1002 525 1799
3 513 1695 1655
3 1247 2137 1424
3 955 855 1588
3 197 198 1189
3 1955 2178 1775
3 718 926 1492
3 337 1573 1219
3 963 470 1007
3 345 1746 1814
3 823 416 1630
3 462 494 1803
3 1720 878 1449
3 746 363 1689
3 1485 464 535
3 471 1737 1979
3 912 493 1137
3 1315 282 1633
3 456 2073 1573
3 992 1577 1005
3 1355 338 1327
3 470 963 1604
3 2123 1526 1590
3 818 1013 969
3 1385 1404 1713
3 1006 2075 1426
3 1142 346 1360
3 2175 569 1956
3 4 141 1998
3 648 1146 1482
3 1962 677 1556
3 1045 1539 1433
3 638 1629 1703
3 344 591 1817
3 647 2070 1122
3 514 1455 1866
3 571 596 1361
3 1523 309 1093
3 209 210 1585
3 1159 709 1019
3 591 2144 1817
3 695 1452 1514
3 1600 561 1510
3 482 1593 1027
3 1392 795 1849
3 412 746 1689
3 159 160 1060
3 731 1222 1797
3 751 2174 1631
3 2166 1889 1987
3 89 90 1498
3 1132 454 1530
3 376 1247 1424
3 178 179 1978
3 1593 337 1219
3 481 469 1229
3 2196 1233 1879
3 342 1508 1308
3 154 155 1044
3 418 1951 1706
3 2128 664 1646
3 1102 1037 1834
3 1062 362 1479
3 1078 202 1518
3 216 854 1232
3 634 762 1425
3 2177 1574 1763
3 932 1078 1518
3 1010 1928 1970
3 2137 1247 402
3 337 456 1573
3 203 1083 1518
3 474 1474 1259
3 482 1843 1619
3 1539 422 1433
3 538 1720 1449
3 1083 932 1518
3 497 778 2002
3 879 1265 1718
3 340 257 1356
3 263 1390 1751
3 219 220 1320
3 1098 687 1376
3 191 192 1995
3 2060 816 1065
3 1735 735 1367
3 1601 1052 1967
3 212 213 662
3 837 739 964
3 741 868 2034
3 687 1098 1870
3 1186 498 1398
3 808 967 1229
3 2135 860 1427
3 1005 1473 1853
3 24 302 1780
3 422 853 1999
3 650 1837 1975
3 1383 1392 1849
3 1389 783 1280
3 2120 774 1653
3 681 1732 865
3 656 497 2002
3 1265 660 1718
3 726 811 1129
3 572 1122 2046
3 1331 538 1571
3 1390 384 1751
3 1033 412 1855
3 594 593 1836
3 1533 227 922
3 1303 359 1628
3 1727 2181 1954
3 1506 1121 2033
3 138 139 1036
3 968 914 977
3 2102 853 1980
3 2101 1086 1739
3 1593 2100 1027
3 1810 2068 503
3 840 1508 1269
3 1033 2088 888
3 552 816 2024
3 948 1170 1397
3 1184 24 1541
3 1414 370 1959
3 1746 1279 1814
3 115 116 1528
3 780 1676 1998
3 728 1632 1410
3 131 132 1161
3 470 1346 1650
3 126 127 1650
3 2164 554 1785
3 1170 800 1397
3 914 968 1775
3 558 1609 1540
3 1174 674 1742
3 756 795 1392
3 72 73 1535
3 1726 851 956
3 931 33 1328
3 1103 704 1289
3 1171 572 2046
3 529 2110 1314
3 1282 687 1870
3 1054 712 1391
3 618 1726 956
3 2150 1107 892
3 796 529 1314
3 985 652 1902
3 455 706 1721
3 1107 575 892
3 2084 1103 1289
3 638 1117 1629
3 106 107 1259
3 2120 963 1007
3 1075 1207 1702
3 854 782 1232
3 652 372 1902
3 1601 280 1183
3 2108 719 1926
3 687 1282 982
3 673 645 1242
3 371 1878 1606
3 1593 482 1192
3 2071 604 1914
3 138 1036 1529
3 1352 329 1184
3 2111 1482 2006
3 2183 1816 2018
3 192 193 1741
3 1228 396 1801
3 1878 934 1606
3 1312 898 1660
3 382 473 1362
3 669 646 1615
3 480 671 1450
3 821 338 1355
3 198 1728 1189
3 689 1810 503
3 247 248 1240
3 228 229 1747
3 459 408 1349
3 1091 547 1224
3 583 602 1251
3 816 2060 1704
3 668 1753 1688
3 745 1698 2051
3 679 1352 1184
3 1204 1144 1553
3 504 49 1467
3 155 156 1639
3 1161 132 2012
3 917 544 2026
3 1787 1286 1976
3 400 1461 1948
3 1058 1273 361
3 796 1178 1706
3 1441 1549 1015
3 1698 2130 2051
3 622 925 1432
3 1439 149 1012
3 429 1215 1545
3 671 750 972
3 267 268 1815
3 563 2124 1655
3 1911 608 2032
3 2131 998 553
3 466 398 1856
3 1667 413 1785
3 141 142 1213
3 1215 646 1545
3 554 441 1785
3 1212 178 1978
3 883 1620 1839
3 2117 455 1721
3 849 1746 1906
3 1690 378 2000
3 195 196 1716
3 736 1331 1571
3 808 1229 791
3 585 543 1182
3 90 1515 1498
3 439 669 1615
3 655 1055 1983
3 965 1347 1334
3 1347 512 1643
3 1301 1422 1954
3 397 534 1681
3 513 855 1996
3 1180 2114 1821
3 235 236 1287
3 156 1009 1639
3 567 1599 1874
3 1055 24 1780
3 248 249 1643
3 1029 1228 1801
3 389 2129 1366
3 706 1388 1721
3 183 184 678
3 998 614 1968
3 238 239 1524
3 217 218 1074
3 60 61 1876
3 255 256 950
3 1139 946 1858
3 585 1182 2041
3 957 1296 2020
3 681 437 1490
3 1645 2145 1341
3 941 1132 1530
3 865 786 1271
3 2067 1113 1318
3 2086 1387 1973
3 876 2132 1972
3 432 668 1688
3 2141 1098 1376
3 1266 1717 1486
3 225 226 1557
3 437 2148 1490
3 636 1355 1327
3 764 271 1048
3 817 1387 1564
3 876 579 1301
3 525 1095 2005
3 1198 2150 1104
3 853 727 1999
3 932 1208 1137
3 989 651 1225
3 681 865 1271
3 1072 489 1896
3 761 1033 1855
3 285 284 1776
3 943 910 1938
3 675 814 1120
3 1600 230 1711
3 196 197 1964
3 1526 782 1994
3 1916 971 1826
3 125 126 1346
3 170 171 1877
3 1177 25 1322
3 434 1125 1276
3 1717 651 1486
3 757 1577 1076
3 1796 881 1398
3 867 3 1344
3 433 730 1323
3 730 999 1323
3 534 408 1681
3 1025 565 1325
3 365 916 1618
3 97 98 1167
3 1178 418 1706
3 1650 127 1674
3 1577 992 1076
3 441 1667 1785
3 243 244 1764
3 1667 441 1647
3 1315 875 2019
3 1911 752 2056
3 462 1246 937
3 477 437 1271
3 1314 711 427
3 532 1180 1450
3 1084 993 1666
3 2079 1282 1870
3 916 691 1618
3 84 85 1982
3 12 285 2045
3 657 941 1339
3 666 444 1039
3 1126 1811 2011
3 49 50 1467
3 1811 2155 2011
3 1289 704 991
3 2149 1019 1729
3 2116 1781 1992
3 1347 249 1334
3 2187 781 1941
3 1621 2107 1385
3 1181 786 865
3 489 876 1896
3 1387 875 421
3 275 274 1880
3 437 681 1271
3 85 86 1135
3 323 324 1330
3 312 313 1339
3 468 1181 865
3 1373 726 1704
3 509 382 1362
3 469 580 1131
3 2129 906 2036
3 884 989 1225
3 1009 948 2038
3 1164 2090 1660
3 2098 685 1909
3 2188 1916 1826
3 365 1618 1195
3 824 2098 1909
3 1884 1016 1507
3 1079 365 1195
3 1451 947 1329
3 677 1079 1556
3 2087 1158 1901
3 1258 979 1920
3 630 1805 2011
3 1180 532 2037
3 715 1221 844
3 864 1570 1905
3 2183 1673 1996
3 946 1139 1568
3 1158 557 1901
3 508 1089 1469
3 150 151 1418
3 894 1918 1993
3 2157 1807 2020
3 1179 1517 1409
3 3 128 1325
3 570 1006 1426
3 1227 209 1585
3 1685 640 1423
3 182 183 1494
3 50 51 1576
3 614 1124 1299
3 1993 742 1496
3 114 115 1806
3 1632 140 753
3 1833 2076 809
3 998 531 553
3 1517 2189 1409
3 1247 376 599
3 772 1554 1066
3 282 1315 2019
3 1207 1672 1917
3 619 1708 1579
3 2129 1298 1616
3 116 1430 1528
3 560 693 719
3 1672 2179 1917
3 607 588 1467
3 354 1319 1428
3 54 55 1085
3 1139 801 1217
3 1216 1029 2027
3 581 1632 753
3 505 1164 1660
3 1255 1175 2007
3 260 1658 1823
3 546 2140 2042
3 2117 1002 1586
3 484 743 1326
3 1165 1541 1394
3 1918 742 1993
3 282 14 1633
3 2112 1652 1852
3 366 1216 2027
3 2083 1089 1844
3 1100 1737 1921
3 984 657 1712
3 1444 232 1961
3 1624 735 1735
3 1652 919 1852
3 1006 570 1298
3 1047 713 1892
3 635 946 1408
3 969 1013 2035
3 683 623 1095
3 1208 932 1111
3 1508 2103 2014
3 899 995 2058
3 2094 583 1251
3 454 386 1530
3 1881 887 1195
3 788 1210 1131
3 1554 348 1066
3 1180 480 1450
3 89 1560 1752
3 846 353 1910
3 1340 884 1225
3 1505 403 1809
3 953 1670 1537
3 130 675 2010
3 2184 635 1408
3 754 353 2025
3 330 1659 1357
3 1380 2135 1427
3 873 366 1628
3 2159 746 1905
3 1737 1100 1979
3 653 2149 1729
3 995 387 2058
3 1192 482 1619
3 173 174 1575
3 1685 243 1764
3 543 1735 1367
3 94 95 1108
3 981 794 1213
3 257 258 1356
3 1127 407 1807
3 602 1258 1847
3 494 179 2043
3 1210 2099 1131
3 1083 1207 1917
3 390 1378 1921
3 285 1683 2045
3 1146 392 1869
3 1539 2161 2035
3 554 410 1503
3 1055 510 1983
3 850 2122 1596
3 335 1337 1202
3 315 26 1887
3 1816 629 2018
3 770 1159 1791
3 1530 2167 1635
3 1465 59 1313
3 1569 2120 1007
3 1087 828 1872
3 537 1852 1544
3 343 1891 1991
3 479 1493 1913
3 1299 443 1495
3 741 1600 1510
3 1627 820 1925
3 1852 919 1544
3 1737 2167 1921
3 2117 683 1095
3 1159 2065 1602
3 1765 665 1476
3 1632 728 1036
3 961 2093 861
3 1082 333 1001
3 1598 550 1739
3 608 1911 2056
3 431 1379 930
3 782 854 1994
3 781 997 809
3 1104 1000 2028
3 1387 817 1973
3 579 876 1972
3 637 810 1248
3 854 478 1994
3 625 596 1885
3 1400 2097 1779
3 294 20 1375
3 764 701 1802
3 1088 167 1462
3 101 658 2039
3 771 1057 1669
3 29 30 1049
3 1670 2140 1537
3 1135 409 1982
3 732 2137 402
3 359 873 1628
3 2099 469 1131
3 1383 1849 1908
3 253 938 1568
3 1419 2191 1782
3 2063 1389 1280
3 194 195 1813
3 1002 460 1586
3 612 653 1729
3 317 751 1895
3 410 554 1350
3 1203 1400 1779
3 4 1676 753
3 61 62 1226
3 675 836 2010
3 139 1632 1036
3 582 1104 2028
3 1574 321 1940
3 1676 581 753
3 410 1458 1503
3 205 1075 1702
3 1625 689 2022
3 40 41 1820
3 34 35 2040
3 2070 1379 1358
3 1095 623 2005
3 813 1493 1651
3 747 1741 2054
3 871 1494 678
3 1741 193 2054
3 372 610 1902
3 284 1148 1776
3 542 1200 1469
3 79 1577 1415
3 2150 892 1546
3 2090 1312 1660
3 274 10 1211
3 348 1698 1066
3 619 1579 1857
3 80 81 1005
3 421 1315 1835
3 176 177 1163
3 118 1455 1578
3 1415 757 2026
3 1648 1140 2016
3 610 885 1902
3 91 92 435
3 1818 431 930
3 675 131 1161
3 105 106 1474
3 1455 514 1578
3 1577 757 1415
3 3 867 1674
3 1438 959 1220
3 814 675 1161
3 2106 1028 1363
3 1000 1472 1879
3 1849 428 1908
3 1472 2196 1879
3 571 2001 1885
3 1491 2061 1626
3 2062 1438 1220
3 2144 591 1542
3 293 292 1990
3 247 1240 1759
3 1312 2090 1386
3 1449 878 991
3 1125 2173 1276
3 364 1465 1313
3 1430 552 2024
3 1560 88 1752
3 284 1448 1148
3 1389 1000 1879
3 2115 1194 1551
3 449 1621 1385
3 803 976 2036
3 1147 275 1519
3 1519 275 1880
3 1081 1673 1351
3 1448 424 1148
3 1177 984 1489
3 591 395 1542
3 763 622 1641
3 1194 707 1551
3 2156 1832 1881
3 815 1146 1869
3 227 228 922
3 466 485 1947
3 1832 2156 1684
3 239 240 1842
3 1123 439 1615
3 1832 887 1881
3 627 1287 1463
3 386 390 1921
3 562 1147 1519
3 1287 1266 1463
3 617 978 1133
3 1710 375 1436
3 1686 841 1928
3 978 2195 1133
3 1240 595 1759
3 23 299 1475
3 554 2164 1350
3 2067 868 1784
3 1666 993 1631
3 180 494 2043
3 1196 625 1644
3 851 1943 843
3 624 1097 1277
3 521 1028 1619
3 460 1699 1338
3 1319 484 1245
3 605 1087 1872
3 2130 980 2051
3 2074 1730 1555
3 940 1625 2022
3 507 764 1802
3 1379 2070 930
3 1008 191 1995
3 2153 1451 1329
3 976 2129 2036
3 311 890 1966
3 810 780 1248
3 1155 731 721
3 1652 2112 1804
3 798 656 2002
3 660 1336 1718
3 2181 1727 1898
3 601 896 1152
3 566 1102 2009
3 314 25 1489
3 544 777 2026
3 304 1414 1959
3 1458 2091 1503
3 1964 1230 1716
3 545 567 1874
3 1827 723 684
3 218 219 1918
3 1008 539 843
3 333 1652 1804
3 787 1709 1788
3 625 1196 1496
3 2092 1381 1340
3 398 1103 1592
3 1311 410 1779
3 163 164 1502
3 1304 341 1043
3 146 147 1525
3 863 1607 2001
3 2080 1627 1565
3 1727 347 1898
3 35 36 847
3 651 1024 1225
3 1818 793 1949
3 833 867 1344
3 483 398 1592
3 2132 1336 1972
3 798 2086 1973
3 326 327 1241
3 701 1048 1986
3 330 1357 1763
3 1699 2160 1338
3 44 45 1664
3 400 1447 1809
3 386 2167 1530
3 297 1667 1647
3 891 2178 1734
3 696 1653 1558
3 220 596 1320
3 104 105 1819
3 449 1499 1168
3 24 1055 1541
3 1621 449 1382
3 390 1783 1830
3 1620 451 1839
3 1509 2083 1844
3 1297 2102 1980
3 1283 568 1886
3 52 53 830
3 1036 832 1529
3 1728 417 1189
3 611 1601 1183
3 1201 1106 1941
3 574 1304 1043
3 350 1765 1476
3 1381 949 1340
3 66 67 1310
3 339 1368 1892
3 2088 1071 888
3 807 431 1241
3 1103 2084 1592
3 1247 446 402
3 1609 839 1540
3 202 203 1518
3 1009 2038 1391
3 1087 2080 2017
3 1302 852 416
3 662 423 1845
3 1143 662 1845
3 928 1509 1844
3 981 942 644
3 1328 34 2040
3 1330 324 1863
3 819 1966 1635
3 1121 1272 1323
3 2133 2015 1436
3 612 1443 1945
3 1726 189 1943
3 194 1813 2054
3 575 1413 1992
3 1082 2169 1839
3 1966 890 1635
3 569 323 1330
3 391 1862 1734
3 900 667 1784
3 1388 420 1721
3 851 1726 1943
3 1191 1161 2012
3 1665 1003 1935
3 397 892 1781
3 1770 1126 1805
3 234 235 1697
3 892 575 1781
3 451 1082 1839
3 127 3 1674
3 475 1099 1118
3 1272 433 1323
3 353 1306 1910
3 785 545 1874
3 56 57 1649
3 1509 520 1277
3 1020 299 1300
3 1400 834 1971
3 1862 429 1734
3 1022 846 1910
3 1753 1023 1688
3 336 1022 1910
3 415 1864 1799
3 860 913 1427
3 842 1710 1436
3 682 2062 1544
3 1296 2157 2020
3 631 1145 1817
3 919 682 1544
3 1614 602 1847
3 1145 344 1817
3 300 1429 1630
3 35 1145 2040
3 2097 1400 1971
3 2119 1401 1838
3 945 459 1349
3 866 1461 1935
3 210 211 1464
3 2140 1670 1836
3 685 924 1909
3 71 72 1583
3 1046 1927 1778
3 615 1772 1846
3 811 113 1129
3 1657 487 1116
3 992 1005 1853
3 2088 1246 1946
3 120 121 1092
3 1601 440 1477
3 1099 619 1118
3 666 2102 1520
3 237 238 1538
3 661 1022 1504
3 596 221 1361
3 1401 691 1838
3 549 1102 1834
3 18 289 1767
3 2154 1274 649
3 2038 447 1391
3 1724 111 1497
3 59 60 1313
3 1019 2149 1791
3 1165 1184 1541
3 265 266 1236
3 221 222 1361
3 2097 1311 1779
3 924 824 1909
3 2181 1301 1954
3 280 13 1183
3 999 730 1654
3 768 274 1211
3 17 1432 1654
3 1052 1601 1477
3 2066 1822 1651
3 1746 345 1906
3 136 137 1907
3 464 807 535
3 1306 336 1910
3 2173 1818 1949
3 652 985 1961
3 288 17 1654
3 1158 371 1606
3 455 460 1338
3 481 967 1904
3 499 1897 589
3 588 504 1467
3 1900 1270 1939
3 133 134 1894
3 1086 2101 1843
3 806 1285 2008
3 557 1158 1606
3 1710 749 1860
3 1897 363 589
3 1045 1900 1939
3 6 180 2043
3 342 1614 1847
3 730 288 1654
3 754 1657 1116
3 914 891 1555
3 347 1727 1118
3 793 1818 930
3 1716 1230 1567
3 31 32 1395
3 185 186 1931
3 867 452 1674
3 606 391 1188
3 988 1143 1845
3 21 295 1957
3 938 600 1408
3 1672 379 1890
3 114 1806 1129
3 794 981 644
3 2075 1127 1426
3 88 1 1752
3 2143 1624 1735
3 213 214 1218
3 528 653 1945
3 1858 2146 1932
3 1741 747 2023
3 1250 1299 1495
3 303 304 1959
3 1821 680 1531
3 452 1650 1674
3 448 685 684
3 1930 833 1344
3 823 1302 416
3 651 989 1486
3 2152 988 1845
3 1589 234 1697
3 2137 732 1572
3 1806 726 1129
3 1121 1323 1294
3 1404 1354 1769
3 1354 2176 1769
3 2172 1682 702
3 313 314 1712
3 672 1038 1421
3 357 1053 1987
3 2136 1744 599
3 1755 2146 1457
3 82 83 1793
3 602 1614 1251
3 948 1608 2038
3 2142 1038 1773
3 1499 1073 1950
3 1608 447 2038
3 289 288 1989
3 2113 1396 1861
3 69 1499 1950
3 878 1720 1837
3 949 1381 1435
3 1323 999 1294
3 1381 770 1435
3 1480 654 1733
3 907 1672 1890
3 189 190 1943
3 1816 2183 1996
3 78 79 1415
3 1864 650 1975
3 310 311 1966
3 171 1700 1877
3 394 1864 1975
3 2096 1480 1733
3 1820 1123 1615
3 2149 1435 1791
3 1875 711 1988
3 1243 97 1167
3 1614 342 1308
3 1832 661 1757
3 978 1023 1434
3 887 1832 1757
3 1854 2154 649
3 327 807 1241
3 1720 2141 1837
3 1678 2153 1329
3 2195 978 1434
3 1758 350 1476
3 891 914 1775
3 884 1214 1971
3 551 1020 1300
3 693 1062 1479
3 644 2172 702
3 790 1754 1293
3 2062 682 1772
3 371 1158 1679
3 1136 2133 1436
3 1337 1453 1202
3 1396 953 1861
3 682 654 1772
3 316 317 1895
3 530 1678 1329
3 578 1604 1742
3 167 5 1462
3 2 101 2039
3 2092 1024 1507
3 1728 1031 1854
3 882 483 1592
3 321 322 1940
3 299 1020 1475
3 561 1444 1543
3 207 208 901
3 454 1783 386
3 487 1155 721
3 1145 35 847
3 417 1728 1854
3 272 373 1829
3 2178 891 1775
3 1444 985 1543
3 307 308 495
3 1804 665 1001
3 8 277 1253
3 281 280 1967
3 333 1804 1001
3 2167 1737 1635
3 1114 1440 1542
3 524 1756 1745
3 1185 1386 1559
3 157 158 1963
3 531 998 1968
3 1878 659 1988
3 1298 570 1616
3 1709 787 1625
3 1453 1337 1773
3 913 1581 1427
3 484 1343 1245
3 270 8 1857
3 1604 369 1742
3 1705 661 1504
3 1296 1171 2046
3 344 606 1188
3 458 1882 1610
3 68 69 1950
3 1668 425 1570
3 400 1665 1935
3 659 1233 1875
3 370 1110 1959
3 1233 2196 1875
3 526 818 969
3 633 1447 1948
3 670 851 843
3 672 1421 1420
3 539 670 843
3 789 1687 1516
3 1897 173 1575
3 1447 1190 1809
3 907 1890 1656
3 279 278 1977
3 52 830 1563
3 1072 1896 1898
3 626 2134 1501
3 95 1900 1108
3 373 592 1182
3 1687 506 1516
3 653 612 1945
3 2180 421 1835
3 1890 1068 1656
3 1106 1201 1733
3 434 1276 1714
3 107 1623 1259
3 1285 708 2008
3 1201 2096 1733
3 946 938 1408
3 1649 57 1828
3 395 591 1955
3 1581 517 1427
3 1193 2108 1926
3 1401 2119 2031
3 438 1401 2031
3 799 1868 1953
3 512 1240 1643
3 401 945 1349
3 429 891 1734
3 859 348 1554
3 940 1709 1625
3 641 1565 1187
3 262 263 1751
3 1082 451 1833
3 720 1591 829
3 997 1082 1833
3 479 335 1202
3 301 300 1630
3 1472 1000 1546
3 2158 763 1641
3 1591 883 829
3 73 1402 1535
3 497 1088 2049
3 658 1265 2050
3 938 946 1568
3 701 1521 1802
3 113 114 1129
3 1053 502 1987
3 231 1444 1711
3 215 216 1232
3 259 260 1823
3 165 166 1749
3 102 103 1903
3 2134 626 1958
3 1753 1371 1434
3 672 1453 1773
3 2160 715 1338
3 1444 561 1711
3 20 301 2021
3 440 1194 1416
3 1493 479 1202
3 1194 2115 1675
3 1633 958 1835
3 1701 397 1681
3 548 1283 495
3 1286 703 1976
3 1315 1633 1835
3 1549 524 1015
3 204 205 1702
3 249 250 1334
3 1737 819 1635
3 117 118 1578
3 614 1299 1968
3 1772 654 1846
3 193 194 2054
3 1842 966 1524
3 1141 2148 1915
3 1843 521 1619
3 246 247 1759
3 2113 1861 1324
3 365 1079 1522
3 945 401 1354
3 557 1438 1919
3 731 1825 721
3 2110 529 1969
3 111 112 1497
3 609 504 1924
3 1516 506 2032
3 230 231 1711
3 1404 945 1354
3 1079 677 1522
3 616 1686 1928
3 773 1614 1308
3 1838 691 1687
3 140 4 753
3 250 251 1468
3 1717 237 1538
3 542 1800 1679
3 1346 126 1650
3 529 959 1969
3 99 100 2050
3 168 169 2049
3 789 1838 1687
3 1140 1621 2016
3 1438 2062 1919
3 906 803 2036
3 42 43 2048
3 2126 632 1723
3 517 1581 1990
3 1783 390 386
3 1463 1266 1486
3 1060 862 1365
3 211 500 1464
3 134 866 1894
3 1403 527 1358
3 1334 250 1468
3 399 1439 1012
3 608 1516 2032
3 800 1060 1365
3 442 1758 1476
3 870 1815 1960
3 673 763 2013
3 854 217 1074
3 606 344 847
3 2066 1493 1202
3 100 2 2039
3 5 168 1462
3 1907 137 1529
3 1815 1034 1960
3 344 1145 847
3 137 138 1529
3 565 1223 1714
3 744 1288 1801
3 1861 953 1537
3 129 130 2010
3 550 791 1364
3 2185 1648 2016
3 1565 370 1187
3 132 133 2012
3 133 1894 2012
3 1127 638 1703
3 1011 1587 1883
3 136 1907 1693
3 2039 658 2050
3 1088 1462 2049
3 1 89 1752
3 57 58 1828
3 1249 773 2014
3 277 1072 1253
3 1587 2163 1883
3 299 298 1300
3 717 1636 1416
3 179 6 2043
3 1447 400 1948
3 100 2039 2050
3 1462 168 2049
3 1273 499 589
3 828 1087 2017
3 1128 781 809
3 1091 676 1865
3 2141 1376 1913
3 25 1177 1489
3 2138 1169 1738
3 51 52 1563
3 1270 1204 1939
3 455 2117 1586
3 2145 1091 1865
3 1636 440 1416
3 965 1334 1468
3 1376 687 335
3 615 1766 1901
3 375 1710 1860
3 795 1730 1321
3 1299 1250 1968
3 1882 2127 1610
3 1440 2144 1542
3 773 1671 1359
3 625 1678 1644
3 719 990 1926
3 1671 2094 1359
3 2103 1249 2014
3 1481 1848 1762
3 2179 1111 1917
3 1727 475 1118
3 135 136 1693
3 1283 307 495
3 688 1797 1551
3 1797 2115 1551
3 912 699 1209
3 1614 773 1359
3 953 1396 411
3 627 1589 1697
3 635 882 1457
3 750 1419 1782
3 1260 1045 1433
3 2159 1273 589
3 363 603 1689
3 985 1902 1536
3 434 1330 1863
3 1848 586 1762
3 622 1432 1893
3 1260 94 1108
3 1902 885 1536
3 1306 754 1116
3 1204 2161 1939
3 2131 1319 1245
3 288 730 1989
3 174 603 1575
3 846 1022 1684
3 1045 1260 1108
3 639 1861 1537
3 2169 1082 1001
3 1861 639 1324
3 603 363 1575
3 440 1636 1477
3 858 2158 1641
3 1276 2173 1930
3 728 1084 1666
3 511 1353 1691
3 1192 2106 1471
3 1022 336 1504
3 1376 479 1913
3 1072 347 1253
3 1454 185 1931
3 2139 1021 2033
3 2015 842 1436
3 2135 1449 991
3 585 2143 1735
3 642 1683 1776
3 876 1301 1896
3 1564 1387 421
3 691 1401 1618
3 985 1444 1961
3 501 858 1641
3 1042 1454 1931
3 504 588 1924
3 1166 879 1718
3 778 1263 2002
3 460 455 1586
3 835 388 2055
3 631 1328 2040
3 2161 1204 1553
3 758 801 1932
3 1375 20 1267
3 543 585 1735
3 347 1072 1898
3 1193 701 1986
3 671 1134 1450
3 1273 2159 361
3 900 741 1510
3 700 1175 1211
3 1789 1197 2031
3 725 566 2009
3 2119 1789 2031
3 1956 434 1714
3 1683 285 1776
3 1125 434 1863
3 990 719 1479
3 229 1600 1747
3 1214 2097 1971
3 1372 531 1968
3 83 1612 1793
3 1091 2145 1584
3 416 852 2021
3 1117 465 1629
3 10 700 1211
3 875 1761 2019
3 2170 1543 1536
3 1766 2087 1901
3 829 883 1839
3 1673 467 1351
3 385 1369 1513
3 2128 1962 1556
3 164 1332 1502
3 1275 406 2004
3 1023 1753 1434
3 1612 490 1793
3 562 1297 1980
3 2109 1275 2004
3 1084 728 1410
3 623 758 1932
3 1683 642 573
3 1071 424 888
3 1678 530 1644
3 2165 1084 1410
3 1499 449 1713
3 547 1091 1584
3 1073 1499 1713
3 716 1685 1764
3 1303 366 2027
3 1454 1042 1826
3 1254 2183 2018
3 1341 2145 1865
3 1276 565 1714
3 736 1380 909
3 799 1953 1514
3 565 1276 1930
3 1480 519 1846
3 1659 814 1357
3 1871 717 1675
3 806 1768 1285
3 1378 1100 1921
3 654 1480 1846
3 1174 576 1622
3 352 1040 1725
3 517 1380 1427
3 1930 2173 1949
3 1755 525 2005
3 845 1306 1116
3 595 732 402
3 1003 866 1935
3 1719 885 2006
3 1678 625 1885
3 783 1233 1740
3 2113 1324 1834
3 1396 790 411
3 2121 1303 2027
3 662 213 1218
3 771 1795 1992
3 1233 659 1740
3 1912 2171 1595
3 1040 958 1725
3 1825 1069 721
3 1683 799 2045
3 1822 1070 1360
3 1413 771 1992
3 158 1170 1963
3 815 1719 2006
3 1810 689 1625
3 1622 576 1680
3 423 662 1218
3 1250 1372 1968
3 1934 2063 1680
3 1528 1430 2024
3 752 1777 2056
3 1170 948 1963
3 1023 978 1646
3 1038 672 1773
3 36 606 847
3 576 1934 1680
3 1278 1459 1532
3 1592 2084 1985
3 375 1136 1436
3 833 1930 1949
3 407 1377 2020
3 1459 618 1532
3 785 1599 1977
3 971 1454 1826
3 1559 1094 1547
3 1719 2170 1536
3 399 1199 1254
3 1293 1067 411
3 1599 279 1977
3 789 1516 2053
3 2186 1736 1662
3 346 1822 1360
3 428 1527 1908
3 617 1133 649
3 1228 1029 1216
3 790 1293 411
3 1199 467 1254
3 301 416 2021
3 921 805 1640
3 538 1449 1571
3 866 1003 1894
3 366 1303 1628
3 1324 549 1834
3 1133 417 649
3 1371 1882 1567
3 1867 436 1725
3 1882 488 1567
3 814 1659 1120
3 1607 2153 2001
3 646 1820 1615
3 768 848 1880
3 1590 1526 1994
3 586 1348 1762
3 540 1748 1903
3 920 1333 1749
3 1422 1474 1954
3 1736 521 1662
3 949 1435 1176
3 1301 2181 1896
3 2180 1564 421
3 1708 1017 1579
3 760 104 1819
3 1698 745 2052
3 169 497 2049
3 1265 99 2050
3 848 768 1597
3 1220 959 1951
3 1570 425 361
3 505 1912 1595
3 1474 474 1954
3 526 969 1553
3 1777 752 1341
3 537 1220 1951
3 1348 2065 1762
3 590 822 1937
3 2163 1228 1216
3 1731 655 1983
3 339 1559 1547
3 1043 639 1342
3 358 1044 1613
3 2135 1380 1571
3 1384 2170 1719
3 1240 248 1643
3 274 768 1880
3 520 1174 1622
3 1929 463 2059
3 1197 1929 2059
3 815 1384 1719
3 1343 825 1245
3 486 1627 1925
3 1017 1708 1743
3 881 1304 1561
3 1145 631 2040
3 3 1325 1344
3 1435 2149 1176
3 1522 677 1317
3 699 1522 1317
3 1042 1868 1826
3 1929 1197 1789
3 1659 2175 1120
3 587 1929 1789
3 1380 736 1571
3 615 1919 1772
3 1037 2113 1834
3 2147 1790 2047
3 1867 958 1633
3 502 805 1987
3 1066 1698 2052
3 1790 598 2047
3 791 2099 1364
3 1792 640 1848
3 1612 1179 1409
3 2176 1354 2029
3 490 1612 1409
3 530 1375 1267
3 1308 1508 2014
3 166 920 1749
3 1748 102 1903
3 877 1741 2023
3 769 1152 1958
3 479 1376 335
3 1786 894 1993
3 1175 768 1211
3 2072 1812 2030
3 1481 1792 1848
3 2189 1255 1409
3 886 833 1949
3 14 1867 1633
3 537 1544 1220
3 1255 490 1409
3 1544 2062 1220
3 1431 1648 936
3 1648 442 936
3 574 1043 1342
3 529 796 1706
3 2129 1616 1366
3 2193 1924 1500
3 2167 386 1921
3 1159 1019 1791
3 767 1201 1941
3 1682 759 702
3 1020 593 1475
3 2104 1927 1936
3 1927 1046 1936
3 2119 1838 1722
3 2155 1777 2011
3 1048 1017 1986
3 1110 303 1959
3 1493 2066 1651
3 85 1135 1982
3 773 1308 2014
3 2077 1770 1805
3 719 693 1479
3 2172 1787 1976
3 624 1622 1680
3 1768 2168 1285
3 1494 183 678
3 1398 881 1561
3 799 1452 2045
3 1077 511 1691
3 921 1640 2029
3 235 1287 1697
3 1838 789 1722
3 1777 630 2011
3 859 1383 1908
3 1369 2082 1656
3 987 725 2009
3 1452 12 2045
3 364 1313 1876
3 1134 532 1450
3 1412 418 1637
3 512 1851 1572
3 416 301 1630
3 1868 1042 1953
3 1169 767 1738
3 1771 246 1759
3 1431 1412 1637
3 794 644 702
3 1287 627 1697
3 1873 759 1316
3 1068 1369 1656
3 732 512 1572
3 1873 794 702
3 2133 1783 2015
3 527 1296 2046
3 787 1810 1625
3 1783 2133 1830
3 1449 2135 1571
3 1050 1638 1859
3 1537 2140 1342
3 1552 448 684
3 1374 697 2004
3 406 1374 2004
3 1274 617 649
3 1603 714 2047
3 595 1771 1759
3 759 1873 702
3 1906 689 503
3 1267 20 2021
3 2162 1786 1993
3 2192 1873 1316
3 222 1824 1361
3 1934 576 1888
3 1274 677 1962
3 1851 420 1572
3 617 1274 1962
3 1795 2116 1992
3 1513 1035 2055
3 639 1537 1342
3 793 886 1949
3 543 1367 1829
3 1868 2188 1826
3 1190 1505 1809
3 840 590 1937
3 849 1906 503
3 388 1513 2055
3 1812 1185 2030
3 1638 2077 1859
3 984 1712 1489
3 805 502 1640
3 1599 785 1874
3 1153 1165 1394
3 1813 195 1716
3 1944 448 1552
3 1708 2168 1743
3 598 1603 2047
3 1783 454 2015
3 1616 465 1366
3 1579 270 1857
3 1639 1009 1391
3 1148 642 1776
3 1044 712 1613
3 515 1309 1723
3 1682 2172 1997
3 882 1592 1985
3 1426 1127 1703
3 1138 1231 2059
3 848 1519 1880
3 1777 2155 2056
3 1330 434 1956
3 2154 1101 1209
3 696 1934 1888
3 1452 799 1514
3 921 1795 826
3 1309 2126 1723
3 1000 1104 1546
3 478 1590 1994
3 1616 570 1629
3 1104 2150 1546
3 966 1884 1507
3 2140 1836 2042
3 1035 1292 2055
3 2146 1755 2005
3 239 1842 1524
3 629 1439 2018
3 1435 770 1791
3 1439 399 2018
3 703 1794 1997
3 1836 593 2042
3 1864 394 1799
3 1580 921 2029
3 887 1757 1556
3 417 1854 649
3 1757 2128 1556
3 659 1878 1952
3 958 1867 1725
3 659 1875 1988
3 2172 1976 1997
3 1050 1316 1638
3 1794 1252 1997
3 2032 506 2058
3 1453 2066 1202
3 972 750 1782
3 1380 517 909
3 1487 2166 826
3 569 1330 1956
3 449 1385 1713
3 387 2032 2058
3 1932 2146 2005
3 490 1255 2007
3 738 1981 1584
3 643 1528 2024
3 623 1932 2005
3 1896 2181 1898
3 1160 585 2041
3 1621 1382 2016
3 1981 547 1584
3 1382 2185 2016
3 1878 371 1952
3 1487 771 1669
3 2155 1811 2053
3 2060 1373 1704
3 1712 314 1489
3 1316 759 1638
3 1543 985 1536
3 364 1814 1238
3 1313 60 1876
3 1251 1614 1359
3 1256 1944 1552
3 1274 2154 1317
3 805 2166 1987
3 723 1552 684
3 674 1605 1742
3 465 1616 1629
3 1605 578 1742
3 1581 293 1990
3 1231 1197 2059
3 1951 418 1412
3 805 921 826
3 2166 805 826
3 1294 2139 2033
3 537 1951 1412
3 845 1162 1936
3 349 1942 2023
3 1640 2176 2029
3 1942 877 2023
3 1384 815 1869
3 1162 2104 1936
3 1182 592 2041
3 1814 1279 1238
3 298 895 1300
3 2094 1251 1359
3 438 1881 1195
3 588 1944 1500
3 399 1254 2018
3 1079 887 1556
3 363 1897 1575
3 467 1199 1850
3 677 1274 1317
3 655 1827 1394
3 1663 552 2044
3 1900 1045 1108
3 555 1663 2044
3 1368 339 1547
3 251 1217 1468
3 1377 957 2020
3 2169 829 1839
3 373 1182 1829
3 1121 1294 2033
3 505 1595 1774
3 1185 1559 2057
3 796 1314 427
3 969 2161 1553
3 1252 1682 1997
3 2159 1570 361
3 852 1267 2021
3 952 972 1782
3 1919 2062 1772
3 1199 2194 1850
3 1740 659 1952
3 2161 969 2035
3 1570 2159 1905
3 332 1066 2052
3 2072 2030 1307
3 712 1639 1391
3 1277 520 1622
3 885 1719 1536
3 713 2030 2057
3 1924 588 1500
3 895 551 1300
3 712 1054 1613
3 1317 2154 1209
3 2063 1280 1680
3 2174 1666 1631
3 1280 624 1680
3 1054 355 1613
3 2030 1185 2057
3 1944 1256 1500
3 1976 703 1997
3 927 1368 1547
3 1357 2177 1763
3 1847 1258 1920
3 1953 360 1514
3 804 1487 1669
3 717 1416 1675
3 1595 549 1774
3 1416 1194 1675
3 2044 514 1866
3 1927 368 1778
3 555 2044 1866
3 1559 339 2057
3 1629 570 1703
3 699 1317 1209
3 2030 713 1307
3 342 1847 1920
3 828 2017 1933
3 776 1740 1952
3 570 1426 1703
3 624 1277 1622
3 2022 689 1906
3 1892 713 2057
3 1576 51 1563
3 2017 641 1933
3 345 2022 1906
3 688 1551 1511
3 1182 543 1829
3 1551 707 1511
3 1824 571 1361
3 334 1576 1563
3 339 1892 2057
CELL_DATA 4072
SCALARS Von_Mises float 1
LOOKUP_TABLE default
46184879.05923747 16115903.083278477 52231940.2058088 63001963.06698233 26666880.10948054 8828033.907031741 39522467.94977495 53438027.74889652 20456000.127431415 59274448.73417252 50976818.95168233 14072142.576168893 34200108.76216074 13384575.311432205 26925857.801151283 16081572.282998813 55326345.44453291 44202591.58567708 41034609.12025899 53236310.60983427 50996974.16655347 54958320.69065963 17623858.201928142 33967382.07420485 12567097.822339239 6000052.641163974 52653690.32435937 34993774.74751332 52269790.71738647 55059377.86346522 5548117.280290983 57118925.72346572 17676726.220123496 43235239.61902105 52963066.40100498 38189214.69836631 52410463.56527567 52052945.50334811 27454992.33985363 57844588.91629526 52608989.754079916 51885260.40316516 5983379.831605469 53902302.71855077 49338521.343136 33890538.32207893 61600499.95806738 50608084.96500818 58028889.78513097 53764637.42668186 9601433.723095063 11057210.13431466 53555214.423588105 4299761.663180016 9430720.209318664 47652925.37161418 64077705.89831351 46814902.37732653 41529457.65375063 38238164.187393405 71608036.38589498 52283823.245777555 37128256.80573569 14463443.300881973 46823903.70188333 15712257.179869026 14115678.307884209 58946018.467124306 39607231.5083263 21087863.652227294 36691045.34433598 54803414.44415479 57204507.73105336 76998484.96640068 53560975.896259405 45032338.37790943 48334974.07223214 18602265.502800997 45785856.66543799 24804984.74645189 54998626.5897091 55008632.405710526 53071916.985810556 17701123.803258047 27567110.93223389 6440226.410216007 6468403.843861448 5358653.357074454 29265458.258490708 48206832.68999172 63530828.49365027 55338495.407398865 34472810.670113534 12761724.86730602 50260842.696160495 41975317.24972385 53009465.20886629 5353795.321670832 39118916.88167609 52870524.79747474 49354849.287305996 35875649.83726873 68597297.91360156 51166778.95656463 53333829.81854764 52526140.86250397 52929352.62274267 45517603.07354483 8941586.998092787 32962224.986750122 25588180.015991684 14158318.439889463 42625242.34422355 45957434.773333006 46980796.11382722 37636943.326068565 15080235.29236267 49394329.61656341 30900979.326174837 60868159.0972734 52373200.72705155 73061768.4700859 53835203.355996326 28512037.320854224 50588477.53247154 24458052.200762164 62451929.67057954 28517912.795151435 16558536.318576066 32935334.760595515 52241442.22224341 32718579.25676603 55815085.06701767 41796224.98625393 24062186.597589046 51796191.45463615 31087017.012331218 49304686.03030028 30796364.903730463 38031267.03679498 30084304.17797884 49934255.22845618 37362657.97285437 26105178.07959834 49097693.37494759 48902721.47524451 42866654.385928966 6423263.157063269 43630349.87219786 12063547.813499503 30690637.389307085 34236112.393685535 51540471.669520415 31276644.60080164 47266401.35486859 54284162.12547427 47605199.18428012 46492969.34522456 35319120.90714559 23308917.14744924 30604978.368624758 46810275.64805831 30384450.533667002 48240229.48775827 76434943.19593827 47687550.24638425 36343273.317904584 72586691.9314245 40760791.756391935 34941337.75079582 22515876.58177776 28363946.10474174 57182752.24666283 30770704.28471646 83689164.81482223 20868736.297566656 15739496.979356863 45859149.32449271 34887278.444385245 43888569.55532644 3922325.101493258 26536182.53967328 47815282.51950371 3915016.5935854246 217735933.08248413 16651643.28571404 31707276.744852625 50777504.10001936 27271135.58583627 43813515.11669561 51925920.297420114 6080758.551136931 43486116.887377456 29245205.247974373 40769693.8315417 48611572.93851477 49611642.13486467 7830694.543292819 44656754.2696666 36731135.79129966 41664343.28066177 41093283.73920156 58311575.769995 32902037.83683285 95427669.92486192 9603186.636644766 49566782.5001874 34661479.76051985 22645666.16741441 33643855.222635455 58257397.00249824 45818650.39081718 29362343.969744574 33361298.561041806 4754044.470593769 13132418.70783402 60290233.45688314 41967953.37465563 53046906.291685626 42862587.58477365 15899800.736101182 28759571.39428356 7162903.614463977 54545793.69014866 51847405.340125054 69358465.85234775 28685499.61437363 61254209.85702686 98274356.16677786 5795786.965144097 61667752.83647252 41368493.325653635 28798777.848667324 51518094.69385544 61991920.970426925 38557653.81705664 34845325.769855544 29755568.53347063 45315922.65174621 37669233.62823084 7634120.725341865 66607095.31256535 7870165.293189323 22947996.555640046 14276634.998539709 57144042.95767128 55763292.81199912 53486344.37831846 50695347.94382642 38041874.207578 56260583.04515249 3700738.357988105 63198753.63567366 15938902.122390842 45132429.14516603 46506141.16595069 3721546.7690597847 38859209.134297505 25430644.93973507 5861502.049938163 138692343.73728463 33756632.43010054 2436812.6497886847 38954746.85133395 49317746.80618562 18154473.36769135 5512211.268047722 43619511.37703342 36186571.29791775 15086166.475536458 46266295.765321136 48573694.29723973 29536887.533818975 31079009.3388531 36975074.49146232 54603039.60081669 48675932.96746935 47421861.80548281 15572409.36594445 31569935.732244067 49032896.81610802 65560074.12061024 51303814.7535329 2816559.6393131604 31653851.716549687 25381051.818899803 57982821.158359416 57409300.012814686 45259226.58491092 41735649.77817974 53559062.49165446 51046989.16999422 49901612.87711121 27877104.55519167 57466556.048600234 46684547.03262474 51688077.15416161 22589572.831834853 9029766.629447734 6261812.899345703 22108957.867683917 43762787.38404158 52370187.43977203 47951016.66045862 42586357.39606799 44178335.742603526 20183249.38729387 64431983.49275144 61568586.41088513 25862417.278644808 74192951.50483213 12979525.38535534 15773846.752749112 44291260.72710576 66992973.136555076 3219517.460113744 40211505.78672502 23400725.150831934 24545845.317650262 40428530.49772998 52993487.49960239 12511771.515605355 52724313.82278099 27331108.596380714 30869402.19795879 27389788.05285992 50790635.545585215 39585046.519331224 50902200.836300716 5940463.422346568 21951139.312358707 48958662.28832775 1119308.0074519007 53063873.52442777 53445887.71802042 54003402.61883643 48325150.15408867 59907858.70991249 49120534.275648385 54499726.39497422 48890056.95126753 47040019.88652196 55022646.82056065 80416736.87951292 59335402.037942775 11737816.274303515 62951533.27359171 36570943.23954585 37408699.414088935 54349373.69315813 73760699.39307185 1746309.5831857857 27260268.197601315 36823505.14530202 15795959.827430999 35913815.232643485 5389555.744243707 57406933.423118696 51693167.04535339 51278780.398213424 14594139.08353281 30865811.278943326 3925258.0434189015 54016631.65180889 16849545.923505258 54110185.60728592 57158274.71266421 30021956.33542397 55068620.04647457 19362879.783186585 71415122.95451783 49700464.56022369 48310174.059853666 3112563.000672021 49572011.30095646 31473155.74919284 27264963.91398988 33991136.75763627 51861406.82624891 43321353.88677208 4676795.641558932 126277946.10709354 36245011.94753909 23254101.445501603 13409306.24001807 23883527.726159424 51708468.49532956 49075060.206078924 23682531.418542266 12359597.35628073 25502742.443093937 43019852.92181934 48738283.40263822 54179612.26638365 59385463.14403103 62797976.99334306 48793183.24062532 46303680.26320527 52641336.90048817 26800501.511342242 18343997.125151955 32171099.68661541 31553155.464778095 63885837.95303141 26251297.354316957 27459995.430521145 52821146.07958285 60640006.127199225 45804936.21055986 28120499.857931983 11643401.262163835 34691756.339843616 45797512.35168752 15541110.237913497 45054980.9346518 36320615.577040605 38882634.42774128 48388444.45152961 42045699.96813883 52870104.60262827 56111144.79702312 35195563.45916302 51989509.132264815 35124557.28943423 52960806.277846925 54773412.93854012 5882105.268442766 52474192.902837485 54292901.367368415 8235561.674471123 47868442.72586611 48489804.32984596 62045231.83052809 37724836.89132944 57054861.637616836 6150723.765920619 51066718.44216716 47343823.742221 20186249.854397237 43267828.31019196 28644287.978917904 34274737.30703297 32315663.311237052 8655559.16253604 44945827.00450335 34125654.250661425 35689825.89235386 48723379.477328256 52569437.43018975 54524943.769164056 10784817.083596842 47502570.819624364 46653240.85835361 48207573.41939122 59784362.22718057 53177081.31405272 38047215.06479859 34864466.70220254 8843145.46498824 8863257.013643546 50616393.3502495 42486653.27543887 39905699.01430337 52103029.128218435 47866982.89303658 42023742.38343995 28667508.920535803 37760709.64947718 53387188.293506265 58161617.73132553 51034214.70097675 33055252.171201088 21758503.084955506 34956495.97249181 52700490.909403674 53936871.549215995 26813931.130716626 35955330.18751432 40569807.19869981 23294793.1606615 60596217.4746659 8549073.20239419 62752147.44484266 48680147.50359987 47354216.35889937 47734588.942777544 33901577.709858455 56165638.279004015 91671941.31354696 16251527.551488608 16251527.551488608 47205924.15679651 47723284.27768916 62513501.292999074 19258668.13775156 57179733.06679384 37816027.57889878 41641153.09910023 53666958.51677483 48421160.29252599 4261975.871785932 40675142.52184581 42010669.342339516 24992202.737286583 18251064.658247035 16652139.975409549 49602048.8914496 49129576.9283087 41247055.59746277 67287866.89099899 37957048.62956888 19519433.78239991 35304758.738800555 41125471.18439679 47168714.07165 49857409.018067814 40977055.03464443 50922768.846987896 10792874.24584241 45315178.34758831 37200866.73249892 47170368.98537058 48788974.492054045 3837869.7664418444 3829607.1736632646 40574579.53213454 41450379.85257395 15695452.965913342 51948519.93487211 29004635.686323658 41961429.712960675 4558749.193414208 41024557.25197107 58875655.73112142 26667983.341583062 36073041.78645597 47568415.01597377 52837164.746275365 29366334.7972245 47579823.28549634 54719097.55899381 53396507.1382465 6593998.467619367 6720912.934660356 27511163.661686774 44675729.60286731 25522313.85887106 2200961.007666231 92247440.25759968 101235644.78406367 49526676.25834281 11459918.69698049 43477473.121764675 81064519.20626114 22112329.205853976 52896643.19376302 20703507.938261114 76597044.56318133 49123234.355336085 37257812.85069384 53070423.94991774 14773382.076658932 51649102.38766777 14780178.501842286 56338498.72623214 40112752.962324694 10452520.03202745 17436252.173777565 53814557.53694175 42620424.306437716 24950742.841376375 26791070.196560435 5657316.371448583 48382813.05974038 54852174.31826285 7525804.457592462 54181841.37846504 46023042.92512608 33861597.818576485 25379682.51335985 60334115.82507547 50270508.30755615 62002362.68415188 33995011.793942876 29084177.68987458 4036202.007327709 4041860.2801292865 26537223.087785076 28821511.32572544 50688652.19774089 66127978.5170257 42437454.34629145 55995640.59406452 34974596.034313776 48003953.50452904 38264436.68715147 54778268.00686426 61918789.53448427 45756340.72712746 49686834.65484093 2602544.509860414 2587567.731195619 20307186.665481955 8839862.80762558 66390561.394402735 58409674.43454804 81615149.29569674 44928402.650513306 25738268.286068514 29578098.172361903 18970320.260639653 1493755.569779416 37030846.50870725 14282766.573427998 50723344.38615962 55629315.23869373 810688.8677092405 55837280.81471071 60240080.73750002 56982834.65077585 497861.75453777955 21845920.011274997 17635473.559232224 147470484.83630085 51574377.36392344 57476723.72572638 36518302.80503946 24596614.01776983 65297415.909439445 57844099.748327434 14346947.51827677 48501358.02547354 51863975.554017656 43028588.78750506 21751412.881984796 33383325.98876279 56068970.15963463 38153412.046080045 31117809.345707856 64865792.054599725 44022919.64416806 46692070.73397524 51410293.03281988 50215430.325404204 50803689.91601153 28917838.712862637 58723783.23207203 48096306.807115786 1698640.605923949 40748814.54925765 56578249.34240668 50695916.03837986 49014267.45550026 53758200.07220628 89227714.60025032 46472792.82489225 57305415.837720625 52575305.95812724 53287640.66708246 13382379.539077437 44251773.33293657 54451803.777373396 50994875.70049056 51955254.98865255 16483627.91679231 33260800.92347319 39875513.19542063 104973278.24458024 52187689.688652396 33000518.15345802 49031909.37027959 61962283.12307018 49034677.85913296 42635037.69279786 17664279.333749976 23185202.4620125 28454058.596909307 45716090.244302854 32746877.072226766 8746123.598421896 17110228.149015967 8795617.409323918 67285191.41804013 50734160.55705112 12332558.129114877 12260468.312205128 24726199.236112636 26838785.204548758 63031960.09979171 45329368.740562536 12138973.72319505 12248228.724909429 51565571.2843091 49637551.81942102 39012948.89635857 55496651.67683096 14507713.60775472 23231933.18189875 33976390.89726441 38400465.50132803 48705997.583696865 14284684.27946636 52808713.963274136 14211714.646144694 14013351.141051637 12975155.474768851 51256543.35846736 49877840.23900368 69229698.39519724 63669838.07242467 16342565.869112423 21410374.92208736 54200520.543844886 47246156.017347984 57959649.13123952 55230769.610658884 81221703.80058238 22965985.859872166 59550509.678060375 20904270.241526905 16620219.862089356 183336920.67795733 45995106.33416205 35401960.31969041 5701055.120104505 30706468.092008576 4596310.181076257 123442802.70097226 49728106.96795939 20910579.60163666 68788120.39223605 16583309.180290796 48586890.002914734 30322288.298895318 33037546.473082643 27387952.751367833 45141815.13062491 119885740.72058739 46458507.39644338 102312683.84911467 30663709.020604204 71125548.86079867 13764014.821151834 28683601.523626465 53508156.043022744 51224823.57116428 21920867.64111023 57149519.02488381 14632325.912312152 87869276.25027326 39578505.33464872 49655709.59016249 36970877.63966167 35601787.36240431 48283563.7565375 48561786.58744983 33630309.32252265 1256168.4617838108 30988317.5501347 55103694.8286009 81730932.63329859 55177580.298555516 6762884.732224153 59907358.14313485 19414043.10185222 61429871.687730476 10602178.154968245 48487022.11499302 90479621.49130239 38369111.02429193 28956628.572801795 31324592.865301255 46710071.03649575 51635928.56822264 39723019.76867194 95470658.90138648 51651207.07833291 36864768.1818254 35184741.76310577 3387756.608421186 35096296.77247277 49170664.52436426 49629851.595308 50697248.58000755 52805781.36347158 6166846.522663705 27173589.11412415 48856831.34567338 50078949.22161389 39708444.67456151 16445005.449892024 41184929.09446407 11735780.112001222 34059785.45160764 19139718.77322341 33829781.33941073 37214320.39592357 88330096.12833092 48842522.73685719 87876854.35186733 49238250.447045825 45259042.99359608 41381834.35493304 52139684.55079583 55197654.73235333 67234207.7778832 8670517.377278795 37487084.50297965 8972428.26792368 42821136.833584 24606224.616781563 51044353.755876325 26136380.613767926 60503228.669127956 47998266.88676607 70104623.13271144 48925665.40865004 37288046.06919847 27477032.932670966 39659671.01605219 44951209.31982981 60374380.04455744 50206005.26986656 43077445.777493455 47548133.30365355 24696397.17715633 14752034.886878813 14771695.380942065 49436079.39881903 37269300.878710635 22569482.435217578 56917297.36332491 37731918.773808435 52184885.271394 31984093.425662767 17862959.16470755 58651026.98178501 9883421.533484135 9939731.293349788 58559032.98112262 35858825.69449022 50345733.741897106 87981801.720778 26164653.232835177 50343283.76034489 85553461.74855433 25258953.787752874 40785078.76177939 39319199.43853951 40439580.265565805 52865776.52792701 56532914.00333582 32444953.229650576 12525908.882326309 52371052.57188888 48952424.06374321 50295204.56080893 53631783.18907626 40983748.26851034 34158352.35011269 91191357.58450878 40320114.16846123 18824026.511448164 41074167.802503735 49930559.732104205 51416784.00123662 7298857.0570867425 51613603.83692339 113897267.95285156 47357110.204463124 46918547.29615149 46291031.665553 9170450.257310709 51277217.32458266 57834910.30771464 48134061.69128945 78810104.1174584 17876806.499714054 50756183.75198795 39059540.00317451 49031483.61801374 36117253.98008997 43396914.69463635 59331770.115091905 41402713.214064606 3360343.057711108 41021515.12275409 19615405.95479654 14896531.870823218 52441028.472324066 29212612.422380514 57188830.0416582 53199643.37142523 32551696.763747245 38306217.617624 50277104.61124526 55426524.270196274 43085970.22568427 44272450.884103246 93606695.43516538 31594052.42801731 33281716.177824598 39321399.11134254 19601059.18887424 48447991.64375642 21921711.89735358 20182507.10230212 87593428.15703593 4633682.087079517 6973308.112141011 48642774.04416611 38144412.21098201 60424065.67590857 45995336.50494684 6943718.050603389 17990114.006225187 57009600.855134815 44818666.529452756 14763993.110780781 17563060.250273556 53387031.375058874 38695134.35865921 44848307.68152081 36585180.03446579 53513857.96943222 48451389.9901661 48967602.004221216 45221630.23473567 52580062.58073346 51261621.146423236 28510811.296954844 48066023.29883835 80899350.95397802 47169318.75720797 56529679.945821166 52661267.89787531 50943207.7154207 132409726.29569963 37916759.11886389 53753737.21648752 43106261.325548574 68394713.90666841 34799082.25294519 6586264.976513949 50239165.01285974 98145603.36572228 3659509.518682529 56949934.09249985 88250431.38388519 51415496.51223488 49680064.37128056 29972850.557310946 14502182.350048894 38536769.52602459 45473382.47881993 49341432.44571179 43646223.66797291 17787287.605088416 31925300.456598233 55747492.47940657 53222917.69774382 54510443.157022886 23626741.648763385 40815153.56254867 52854618.091409266 60483424.57527449 16619595.330915924 48660118.79711982 51075493.557753466 43299088.02946856 31250887.80264029 1192439.4116616957 31674932.440368537 38804582.99726243 28738954.08946807 41093584.13590788 5194192.602077017 12865230.498332439 11613982.777994754 44560778.45805562 26296471.372698754 54646449.62593252 41773822.521959245 51251036.22122578 3011808.125714719 34149619.360710025 32384618.53363197 45979937.88628172 18770405.912958603 31666679.652505826 20917902.65174089 34059320.66169778 48504202.66643815 39411891.08148684 49264373.22687629 45985741.8316916 37152346.12128381 47587698.34974297 48799081.38724385 31356048.44336289 46331721.28691281 5710882.857179866 5695013.602101968 16269301.606037108 44269773.72849232 35227598.63070355 32808108.73407909 61529375.52231953 33958772.56174266 23884834.069035012 61895759.867662355 49567581.11479103 62617476.383816235 49637237.059135586 16392319.834158707 3703249.873556203 56129358.383252874 146614473.37544045 16386310.51902373 46522765.40951234 50549373.50520561 42439017.74829854 49489374.261968955 29576120.454734527 17785647.23567778 52133111.6861311 49655401.200619645 85138654.96642151 27485764.708576612 28409746.71589402 37050257.87574807 53248501.70458506 50392480.15023188 1430804.5360416519 59522378.07235443 23335386.94048616 24609207.820631787 46522036.15407619 20779396.755984183 17728327.88465422 143977718.20724332 34517809.46069773 52950687.97098173 54718476.89134223 55926862.9188548 40709534.74529223 27324229.226449624 32204259.570917208 58079583.97634217 39941290.26605571 66663945.99774573 30197975.204733327 45990006.275582634 34632235.02472424 19318415.405231014 54652227.0579665 40765678.7868342 22282408.05086053 34736367.63098154 53085603.06813724 99179367.22812362 24324230.400604147 71741645.46975243 46751474.08802585 38181415.67286767 24288098.45551211 72383474.85670035 55689647.1876862 55836989.18807172 51246004.16216393 4666923.100333064 50333564.85436922 34434558.37096162 23829111.636089936 37048038.689881966 51965515.82056137 52390262.77952886 27780265.48177113 33428885.225575134 60699750.420130946 53263123.21364137 40748689.96474667 53330195.79192114 51504643.72201631 6811355.628786176 59734309.47168048 52163486.9657651 43578378.399996184 47159948.82698938 51389720.0053033 45417750.132502586 2337115.2879688567 46337691.51600847 50743172.32881042 62100457.00681626 59575704.84259003 61032278.39333984 50475155.27338841 19631839.38650993 49364212.780187145 19926355.437911734 59529999.12916038 39021942.927583985 61798238.86753491 45820308.11201745 37403897.18201207 44673861.25475439 43681467.740845926 19162663.584820837 47075944.60583368 50239926.24311131 20017003.595232487 47704509.69159296 50480846.286352016 38785858.10394539 35819038.83837086 58309420.60166767 29303769.75181701 21040083.445168324 9370038.548977276 18993481.375168554 53903361.4134808 8945223.369734155 40379021.88660254 48807329.389125325 126982260.1318422 16477962.730546024 18317950.108792543 47003245.334152035 20743641.039442737 46402755.27244492 19861773.586199306 37292239.84312175 75231557.90774016 31101511.825169977 49798503.95897582 51364286.92972321 35970912.919336036 19898407.629876014 31621708.03886037 55040639.45630946 42902805.9953305 38274047.99276035 49310043.08054862 16789155.787740394 13892899.001577538 47846481.86103843 29131884.03621926 24494410.3097652 9562517.002080962 35170990.80346696 35346255.229312174 53942924.47084701 13516840.340428606 45588227.71914964 21947862.752720445 4188618.3361194227 4253604.646467838 48425268.55333041 47270863.37212571 14283680.918400735 53164485.31359675 51423318.441169634 43572458.950670935 57609489.949892074 52540696.897659235 7314002.166757289 32426268.36051732 3511350.013422984 56850079.92070809 41705986.28271229 54650728.302996136 45139007.4451323 48368514.51605977 21610358.304462727 51216909.82410373 51294001.32305586 14547793.582578324 2345047.540801545 44663427.70862367 52990010.46972075 45221048.17671913 52338301.29556238 36340865.29059728 46882363.34217868 100249633.56763816 44863783.70284006 58157817.12370346 61393038.577806145 9793931.78134154 34293332.96001032 52376160.87263001 52378735.4082422 9156658.095874095 9569458.504665665 9670259.870560607 33047777.9914754 46618020.521131694 24823479.29079136 46207795.27506907 48487873.703316115 51944797.82111598 29996745.373649042 52939043.99892397 38059350.339536205 40831744.75391783 49833903.74561754 65521780.82681156 59277873.24626169 8513498.410842564 7883930.229153126 25102868.540530927 20648135.654919464 24134300.880639113 52509426.412382886 60788676.306863494 29899152.31154361 22519167.743303522 51131947.49757585 71434265.07937752 48329854.51231909 46753334.3237979 48285156.83386295 3611173.3358832113 47208029.441001244 28863857.005630463 32793378.347070783 2611318.923025742 8505627.734352024 41962194.66005223 7580520.080406557 7587635.667757217 46340061.94752065 28058301.92973923 8210479.779971466 52010372.60393862 45061574.20557878 53203008.42730426 23473730.139538042 53962033.08401454 45166850.01828792 18654402.47445595 8213089.644787481 47770051.82232599 52749542.0379296 48937372.03482316 770772.73788843 13421388.019508485 31409478.6948161 8499691.771844279 51420169.93527017 42381338.824083745 5940315.2256523995 42140142.729278065 5932796.98905089 72573314.19145806 42262384.77298336 53219186.42248607 22139799.18591459 4433552.306750717 52782652.52945834 51565684.24386914 3464229.0978100435 35408196.35760859 30142481.097944632 53202671.81051923 66098.75582220165 11413845.013164109 11388043.011102853 54728120.21276416 50487933.42817266 47124331.77080922 36201014.28403032 12727092.040262774 12851128.414691633 42287058.92366613 22234107.114258967 24583697.376836292 49351799.017156936 45738274.61011939 52615629.677255444 46644526.63413768 50586697.62622232 70320578.60450342 30909614.0455639 56599913.730027944 54561720.92453842 16717320.279883899 48966927.56262417 48490206.29426681 59277485.74132521 31655670.914374374 30256141.54324173 22182646.924450934 37011158.95273147 51791171.49332029 47849814.953116305 20299617.63651034 49981738.41736196 27415713.423377164 24310974.45250348 5191884.653083205 3339408.5909875864 52231563.906066805 24470688.393950894 31904486.4325206 36872094.17979201 12093067.752120502 49604058.975523904 2713801.5329912533 2717756.6599747366 53356912.24809633 54144202.350067474 43768450.21082374 40676200.0533957 56779858.388395876 35598520.06647081 57708480.24060556 10947320.75567176 11245329.940343108 26197787.06622424 38027684.07288464 25012906.632078167 30221800.83692886 61472173.30622229 103182537.06989884 34676754.43887775 15104457.727787374 21927166.5428344 27812356.440988857 38829738.84053672 26962865.024095375 24437292.25815085 40852307.67118918 50052314.288873635 49277393.87553635 40012124.663764596 39867068.4684546 70565388.93057527 41859473.96679523 107992510.06621175 49445518.1393389 54904287.69366617 13474763.002932435 51807392.5278279 45587815.537870295 17041569.56674466 35885075.93892182 20751880.086857077 29186937.231402386 49880188.24876898 38866441.09968115 30629563.20160288 15769726.615693595 42493275.76928446 52935149.52092051 49517280.09115888 62442523.72217192 43725554.18731065 29993507.766627412 62815777.40837174 53067780.94588926 11920861.79357424 12056699.00580441 24988321.133373518 11700343.125298267 56427071.785379864 52627693.35258749 26792802.41850459 30521556.425245296 43518837.99050956 19523327.23405398 41830186.93506406 28393663.608149856 41367360.31698935 18627144.986919913 54243926.10193632 51934328.53494443 48082072.25038775 573796.1348986384 84697339.82539806 6197112.344666107 21590729.145722903 19242655.29620777 63427993.34775508 25992016.477107815 33862891.8560374 50870162.38326962 21166332.552992918 41524497.4966985 18872189.596179016 44661799.4054106 52732103.522928216 18706599.623627707 52324962.26932017 51452863.953727014 48870485.26406832 29755344.535056602 23707879.33520971 50633369.0260346 35033249.50653398 58228296.64883157 18758091.257322535 57291626.45579363 17453822.646575563 44639401.6964587 53585288.55819057 4738080.104217733 4732233.782580472 37094233.55382654 269066.4990142815 34512161.14317894 35468458.57643218 61457593.52692185 5913838.78032359 52426758.56020426 54686843.49948249 33418574.622545917 49175309.01702753 50794543.250321455 38875607.85307805 34934454.238040805 48107745.59927318 28722603.06579854 27586997.9477083 27921156.394941792 61000266.919437684 37967337.79135132 48265296.512870185 3023348.489388157 17280800.956640612 47781005.75105407 58601481.06708101 35959869.20392044 37649399.05590478 4343454.310367968 79440122.50808693 9389586.464130001 31985953.558597475 49815165.63910089 51265045.28499515 30762207.93391412 21746282.71270374 66611319.99792899 60843273.40611356 42904524.82755996 53427690.30492615 49339975.17588346 55736719.12325904 16092664.080975825 30850836.7374395 35859949.624887586 29016525.836709335 2940793.6592258983 26402653.518710606 53063130.26802154 47620241.51628134 45738980.79323381 38779096.0864195 54206585.811722614 32413649.215834077 61464257.3924915 52744026.830653444 30997293.550839636 40448355.95547721 46870075.09216675 2359358.9134380757 53265820.683469184 48546663.42675483 47394396.64881915 2402020.973756405 73337169.37112623 49212962.73916076 2417892.06787229 51318166.32876299 30156779.044805914 4664017.947483737 17775350.654651705 47319105.41487309 40659344.863480486 7003596.936452886 53526394.42732054 34170442.21534441 60754714.61497519 50502403.17431828 23383792.05363379 53677384.11545908 51749738.034705624 62524249.6656587 55046722.682771645 55193343.68063007 18000558.900079895 23087435.41250223 48826623.70439318 26673252.38674648 129356965.6932073 61974128.513766065 33626998.52744136 47643704.9881478 10765461.844692802 55139665.79477435 34621800.13145948 7147265.089613703 47937795.06135567 51957900.89948039 53217268.43261908 69169904.55538462 14238730.655271333 55282808.38436962 12266173.959868757 50237620.65433835 40491883.06282264 46558301.55072644 48921937.77411488 18546045.84222295 62950662.67025219 7281908.675234047 25429111.531420525 58938265.18134473 51778563.97750937 61826995.42692744 4836985.0390608655 27763261.475380626 42054859.84452176 49083414.50223806 16176592.33576022 12410076.26407444 27966915.765928842 16725181.400638461 64862106.49503606 55864570.77288496 12845200.989700835 18463489.35741693 168200.80318135902 22994797.694385603 13176929.859137401 62595683.06358389 53581517.7473718 35116907.3700635 27915507.45262949 13031423.807280658 12315770.90618086 68660802.36641744 3840097.7731305202 53555900.792832755 22849489.870120868 42921735.93145058 12229005.258269805 48989362.97502308 98285665.59162669 11797787.60259514 22802791.359486233 48844476.25604508 49000919.48657804 12843112.283980154 39668186.134103015 40234523.78244807 12953613.004536338 33318065.153770342 27277110.484141003 16356003.784274299 44740796.168484055 42612415.991874665 22678333.913337287 120641128.6762033 87333275.10954675 37448720.653500915 46257180.99811739 39648637.231576726 997776.3692070588 1089271.7848693805 46549034.050302446 53081258.61281236 81116842.96346563 58175246.28132464 52185310.760544255 31023228.62772868 48393355.87145083 16418840.308103386 42147272.33146241 52403205.30992827 48224648.27416236 48805836.653912045 45785643.85165676 48860204.95854379 53772118.56795479 57779443.20080621 51964145.82296876 37566816.58316848 50742081.707384795 55811417.60844543 27856917.53738271 50033305.88959231 51745198.6638409 24720018.291556012 50815577.277797975 11183770.393132983 72969389.47794549 40130612.327778466 11084049.569109976 16715282.732453356 75863694.92162889 50470222.0974405 45319502.427245274 51926025.295253366 41664006.02049095 48444783.563118 3199706.244353968 23215455.006385136 47329379.95896384 34347349.2403604 54714811.78372477 56264222.18496143 53155898.53848347 52820541.95173093 50743125.91575842 55791539.286859736 23405191.85443289 51559230.143733926 54622988.047352284 53499268.26724295 34442443.35685337 50118402.22122737 19873431.68688391 11141332.24696643 37850781.22299073 20277474.728067588 37505253.99829735 19242091.197386403 52027581.92134045 49532865.43049474 31601620.13521213 48905365.40597347 11156584.818709424 34643441.1680147 28659274.697736084 41141372.447070524 52648674.177140534 35882612.52817218 49519226.458693765 45819927.78615063 47287371.86924471 41689340.34134153 49026768.906577386 80183546.54428647 17370302.47652454 44630386.44721004 52459668.02896481 43311372.27385174 52146349.11592215 73951294.38844422 52485463.33650674 35878471.669935815 53647283.06017401 52062368.026495576 31939120.060031142 74923565.76718362 17467531.29734504 9008202.19420153 52207518.85358491 51291448.57174897 36604012.06697872 65009219.54022767 46895320.512990616 34938810.162999496 43219717.80742477 9017604.61620259 53001878.52768632 50122973.72441247 40617118.4733151 43705598.65654974 53334131.44398643 57559118.25934606 13741834.191452635 6324065.620940214 52015680.54769837 62547284.03516987 26427850.2242315 28421543.226962205 44915064.04038321 77778682.63689041 48862725.43114059 49437354.70449247 48422532.021121636 24449041.12461824 50569583.92316452 7087126.1101607755 43647734.854305364 11800077.244900793 11037051.01448724 40555650.60694239 7215150.441050023 35787395.624476336 51889132.86388992 27425709.634565856 55742994.03098673 23381698.28820319 8864257.436731244 51559485.90600893 51331132.43481503 44788995.63760192 65320305.84740293 70726874.70873186 54191825.82226883 21272122.609866783 47865380.7177738 19156091.478628807 45738435.062085494 55654327.83850255 51922565.60530764 23093783.910562083 48566621.51862445 47533230.33590155 39564424.758741304 51128065.18341277 3089670.800397909 11976927.138864977 27495653.081582557 5172934.767201884 47793579.11159949 57288221.057070896 52328860.26970813 28039489.48525692 17786681.136211004 44498217.25683615 23117088.568674706 29691209.971028272 4517023.229331086 1644207.687395961 37014159.23346745 42628965.61200854 34078361.76736531 38454972.1681489 53647113.61540639 25678699.637757484 36911000.10973163 33174866.304076675 50647718.373859175 15211090.621463878 4489942.746440391 72409861.78195445 101489696.97239263 46528894.317148596 90367475.20295312 49294165.25763628 38959901.43906144 88288563.45492414 35334752.36921304 45244137.98701502 33282757.082235005 50083695.05686662 66912783.181681395 54633242.22304669 53845503.866883814 56410522.57406706 14985439.164828934 20937421.406239152 69391005.39876471 12109942.848123753 19460651.82425514 50068034.90796461 26149624.82089528 61352289.73225836 57060638.97567275 70367101.38699377 56733683.03262204 14394213.367900414 647668.0779641017 49659997.898892604 53564761.465733886 9443794.850048447 12960237.078124484 21948501.75855294 21388336.197779905 68925848.1894132 45639315.08646674 6273309.253357224 21181677.732971527 55871050.195281856 42222076.54790683 48812171.546104886 39779707.25664637 25642484.66507548 49908694.736214526 79769435.58135289 65089661.36355576 21474406.27686857 53873995.897732645 89555992.80323958 25076976.365948454 60648432.56720367 46814684.25232371 12087527.56423732 19776718.597419802 36581344.61887633 36530929.96705153 48059413.17068221 26139243.41998127 52086661.6696823 46841806.22760389 43941844.44169947 10265534.582135828 39508820.36139182 123935305.00136241 21994152.579057604 45916339.58746045 10270731.569126237 40571516.51413165 70871118.3312179 45628810.78820276 29927905.45613608 90839457.94779675 51887838.54155202 35985434.12819221 11014029.214188522 36494192.750783354 49331879.68445554 38226347.10265624 38311747.419616826 31029358.6267691 37703758.01800851 41411837.87451394 21917010.881975185 49262359.13742594 13060341.200372087 56284707.618352145 48250995.6131385 21922503.59461319 7467614.258454909 51864997.772245124 15906256.946223011 15873074.863469893 52275909.182557255 30400322.25974731 13069326.988522638 26077976.203473978 48086052.86595978 13771665.53326734 22058072.490832765 46876811.67225196 38160707.53559136 9736787.977518301 9683174.880178778 51261902.20329778 31222104.294679865 62028098.13815803 35381314.09202927 6311970.886853748 69557592.16821435 73235922.78015219 59426801.35126202 50506229.091205835 37936006.58598852 48443362.43251995 52343122.95459943 21743208.92439783 41550631.60013915 6322486.949558137 44478510.61119694 43131248.61111385 54820497.84691634 22893123.39672344 57885362.389088005 47822784.61955632 47500896.27897876 46909272.077714905 61894131.244846106 41207156.05302332 30259847.86265957 53472318.371922016 32238694.77394238 39739717.433259115 35238216.544610456 72360102.8041875 41437909.13358707 14449757.914355895 49266583.0603026 20305806.420998856 12586028.580642415 41024154.9523801 18736031.188179713 28606268.588334396 65272325.19603273 11929488.811881308 50811326.675371744 23647185.500909425 48349025.64243172 48388882.68285161 44774789.765885726 59055911.08785329 49610345.12492299 54200477.56757111 51728820.3540389 11921467.196702663 49770419.34236742 79903139.87567104 48438246.06582552 47213719.45081988 51777045.72008149 40333994.717904285 53232735.93923686 17044408.766187817 47086473.11606538 23532586.15388502 53775287.69890629 16530403.304945441 13837458.422766507 52480895.77749711 51817747.238634005 48220291.33682262 50403555.40972413 48785561.249020495 3510335.4272389673 3505161.075444651 50420114.64629597 48953611.53049899 43191950.236243226 15258526.921583299 46749807.156186596 53260831.27648082 52244995.94438665 50687347.77183261 832524.4942048584 55750098.79832924 42372606.9745432 67294244.78491198 51069215.14371983 48613313.711350404 53635726.35348522 7287379.9816807145 52746926.03884052 51931389.82513799 27279595.10386323 51028155.64781338 10128130.078879084 42770876.44789649 46866637.6347448 50940016.57171198 18224713.431089777 2033831.2249155825 65759912.542201266 48050837.9646153 50515752.86895955 54411756.17712039 53843660.96409654 51978412.63879367 45154586.471033074 9894557.493326548 59742673.10959662 42632197.555716425 40962206.37683646 49051974.10116216 5843895.374733415 37619476.593177445 51191341.74748347 48914189.437730245 63636411.614704795 18675180.40581157 31811464.615663603 53475476.07047836 48394904.19122988 12514233.37233401 21141735.09953236 50473192.429974064 15616664.383021036 15359469.289463995 14064777.870434735 53452499.12328953 37507848.211441256 54527794.91213841 48063981.66138842 48516203.731217876 18704417.670215666 2021532.797812349 57501219.38453083 48932462.999867775 48893037.56103064 36934846.410700455 49185347.07062421 62853185.393680155 13307505.919977857 48850117.57408946 62957654.33250131 66924780.88806471 48897413.68384993 50607339.61861231 46984320.2584636 21080765.758837175 48393219.40312244 51936183.37750288 49067588.46822309 9396202.941757068 47399465.74210383 7652981.051949531 35778172.53056199 53627001.162154004 33020089.886933364 38197542.20738245 21143777.00883184 27951742.166018926 20566986.057967167 52881956.69318042 49828154.24653327 53453883.95031998 7425490.217422552 29790413.88658423 2289310.354870695 1325797.708572496 33664971.2937922 40464935.36286659 48060621.32184976 56570920.28466923 52589714.63747602 68517354.15826201 17422693.45834484 54950467.48230058 54986760.93435649 37312999.6509722 48967845.91303622 73504889.29093409 36903640.22129403 51634652.3500761 52109230.21053169 26062346.059577804 55532403.93621384 7620095.483625372 48681509.11681428 30593212.133464813 29122938.28177419 41342573.75639221 166443546.46819726 103144190.26445259 38938731.02570262 47361165.90706315 50838410.17196961 18659020.737048283 19384117.199649367 33289954.619957425 53517353.22456875 19522444.60841991 42498059.13334309 43730037.06213547 58223053.85453513 11450199.863766713 47577740.36450426 49886977.683297604 34361866.69158821 16972749.618473385 53049451.728981905 52143782.679783046 51186965.91399526 30435555.900625933 53281669.06880964 106139772.37995107 51126732.00499012 58396717.599560216 6729098.633983324 69429459.99139658 34527779.31113093 14577328.581610702 57705529.31115749 44430323.55147599 55052082.68333242 22941506.659765884 41310273.80546088 33340951.162904147 22838558.580197282 54192671.83474499 114732877.6840676 51243000.64489232 65971925.29483219 15015249.459214129 46281527.78899971 41986487.4478512 41205030.70897322 13383552.448774295 50468817.38645075 39326220.73453386 118916436.36951175 57097334.56623517 53046979.93610336 64490069.1302367 21714601.436700255 51990025.96996796 50936581.94228182 52286906.692530215 40296977.385585845 13335442.29259899 40279577.815290906 48408085.33826513 30293022.4791223 12601687.905398428 12514472.654218739 49674313.4801449 48780613.45332554 46096788.0431305 61968163.000057235 22413452.918126535 49334061.324489415 47651829.33054881 13099959.786041254 47844873.59713974 49953874.076732814 42124417.68424461 53881116.39196481 53112584.65338305 49689265.779832125 106214063.11773747 59775696.94754159 55289320.093418725 64201046.93301086 49708565.556629635 10607276.725913882 35573011.2368004 53295799.38478268 24278603.46084972 51782731.12230516 28963714.738446046 26463656.7676013 48810797.47842858 43594569.55455498 62038440.60437151 50984420.67738798 48460190.849032305 43146772.330434926 51560306.51874197 10581906.459619187 10496409.903572898 27451462.79020479 52002642.027394764 28216132.00714192 52280536.64840855 19199030.66152208 56653058.88089648 49228857.058993354 65192798.91358915 30182322.765771635 52685327.39933838 51741322.50354206 52434820.21710329 62264183.09598953 99632304.32882553 48382983.890843816 46290407.38234133 5767402.613944551 52107997.16236012 29009346.91532553 73521000.39740175 28986376.657117013 51890257.15704787 36631061.981426686 39417193.839870945 32743495.044229005 66926303.22035452 73418806.51469322 52644353.48524659 49551895.92632562 64721755.570412405 34127908.766408205 50400980.51017005 20890487.576880623 32587614.40045447 52193007.29398432 53956727.16087856 19836579.71023211 36437147.4683066 52273100.954156354 48355432.6904432 21929925.688803766 35098769.73108425 51946735.62672028 3400194.9500126215 53278564.09169849 17680425.997480255 124450217.42264806 16681017.111211963 88410061.61994031 47747674.32070687 25009052.12226418 51422613.25480156 19930721.86315972 106562677.2211054 17742143.295585245 41899354.19645472 43293414.51829892 3460051.569908688 48082055.69991091 7544927.660691625 47077255.108374275 29163279.96218217 51068713.41823113 16764330.353315102 17335221.96660111 15323299.809519224 4048133.4385777726 50642756.65888872 49585479.140547365 51797329.243315406 46510486.45793401 49547885.08330978 50131236.310371764 49650962.79123476 4089847.2760805557 51934908.41526384 22432025.53800703 51622319.22822924 37061172.52291323 52334661.41476419 46699914.44798962 34169812.90000993 25490797.599517845 5868988.546878739 62423080.900483266 51210609.390049376 33989811.92281519 43945792.57755228 36109340.14458202 15586901.405787945 29042277.083626725 14656604.355305454 38483644.4176403 52345599.086505115 56282073.087823406 36159758.313069865 48816975.57214408 19189295.926686518 37416394.525969155 63699645.32521985 51311002.0070016 46044135.95376015 11095224.481416803 37956786.818669334 33887124.662944004 33227057.177093353 67248395.22907446 51322953.54095008 69024299.75205635 45714999.81249684 45969409.794225894 44358717.26126212 52268753.20118732 8875535.85893572 7988517.01889102 51928229.91646719 51399696.98738809 45485821.73453038 51320645.21921592 43874670.34725865 5798829.532211518 46799856.23924603 45792985.81685039 49646172.41201173 58662053.86108972 30875171.729146622 26401269.898547184 51140702.46221598 52030578.8783924 25062612.824964195 51738148.302719474 46788774.71747138 15661049.443850536 86931463.73578417 42992509.92761604 34139532.526099205 50239259.0305096 100268757.78058818 3292624.1983473687 47497814.70106803 58518181.09255213 24142790.08894384 52205438.8308996 53507535.06155959 29232917.701574128 21875021.440225042 14442448.94227671 2859583.0932010296 34042081.06335806 15251999.440177888 54787677.01554723 51141229.92579091 51024937.46358078 27780317.191886887 46226242.1674923 51089229.478552744 17513349.766060464 33083144.643479854 4535728.619887051 48869480.347602636 55400937.02940034 54259665.63500225 52443248.22547347 57466432.745369926 14840354.611081725 10426341.00288534 48940198.146172255 48175915.05636743 45120824.24486007 18418631.08853084 57174822.615817755 38603067.99261431 11602737.641919348 38892740.486856736 63254081.003600314 56532232.012630306 55446589.12649506 49008958.865117595 8531743.687418308 34710340.09309703 2796449.3620120212 2792777.1507997913 27403220.963636946 34918102.21268838 46900404.13446575 49095736.46710198 48424530.10288466 7983600.661296726 27564573.547985196 83794876.7888246 63769765.98982075 46184244.77868812 17614407.554036006 53082273.07845027 62473448.77043984 44987972.60393309 34380504.12379058 36509453.71903727 25449089.89625397 12636709.16559741 45536735.59271793 48049409.414677046 64432688.53654647 45168304.09594737 54194909.29472965 21949839.074732814 54591712.56675936 40817388.35639817 46125592.72788307 61539649.58368171 32421995.926447786 50352135.982125916 4707584.334624055 55085424.854482666 104497997.50840108 34266408.55276044 48586384.22432104 50608547.27763345 49823010.55835135 50372408.27804745 27161132.506416105 27648039.287641875 43839647.279438004 51754880.927226804 62492333.558751404 49838950.931307964 51656123.29850738 97586420.15323195 53324714.00302123 13534040.605381735 40681731.16029458 51597203.008382685 56057914.009621605 56972367.387765795 39700036.312088355 113229280.1497142 53709709.12251826 53839751.714043505 55845856.80112508 52873672.90720222 45052722.73795424 26524383.580070283 49106675.53877833 55085068.92251873 10274427.566868465 46956361.65974892 58470628.07588719 46080468.26926374 46799302.031968124 58909285.60202435 60895749.15488236 45394523.52937348 55738628.89855905 48329243.42485228 2662849.305162896 8813326.543915376 48134677.96951292 47984294.367723115 44673471.320259675 48194346.34401854 71811466.2558155 31998448.367949657 62763447.27042428 20836385.467452023 55475498.16023589 38451449.440006614 32420317.681153916 46577334.608656354 48889767.63086356 48551434.01768414 54878933.51487148 24153123.099817365 49894083.225182496 34220343.419343606 45820123.13077204 48196607.25757935 36915599.526539035 2603953.079136028 37889595.304269604 26600725.56940954 67181670.67114975 32298306.836801797 54086160.73383891 32135323.206077263 36813450.401219144 35640638.95001239 38671314.15248354 45800969.458661996 23822438.523874618 45042304.781324044 52470278.633079 49585627.13358539 37279659.96438943 7668018.710644515 95068758.780556 18878182.697352815 50420768.45005524 26685585.322430834 53126899.23854111 18591201.73309421 59345820.38194708 48819417.95594751 13211997.620574564 30137420.151403394 62201392.98432558 38076248.17416608 21325327.386589345 55067773.48762707 13232100.766638994 33459906.75353515 70386915.10745654 17824054.488956414 23837242.425122015 52862355.13958138 30060629.379900552 52011417.89922779 2127776.882272399 54493375.78296297 44682516.51101824 2118564.993867692 32654925.343718532 48476386.051162556 49895171.22050736 58454700.24836173 47399753.03768387 51249352.1774899 50180086.66684255 19096942.567362715 54860954.56154713 57122073.708384275 53022451.10430453 10502611.478733564 15720535.644570308 56401976.66326684 4920105.619000116 46596752.284399 33446425.345938597 57305968.77369934 20251990.33272069 33450809.448889397 17867155.698691085 43452631.58185417 56918862.845508315 8626062.210074253 8595643.538710624 5921331.88946825 23159317.779658623 36078765.16780748 42311814.946232826 49410982.66231786 49936925.643388905 58102429.91026638 81382504.06566647 60403715.210592754 54008500.217529446 14189942.318047542 41612624.79422761 21807200.100023523 46475199.380996734 39822164.66519534 28225292.07705789 50721091.32284113 13401193.928952813 35780105.0593507 71059176.50527234 49170646.5016792 51740591.77049661 55879607.266102396 3374317.4947984773 3341792.67876842 46404627.12273496 59618426.30192824 48208369.29961911 23616236.325099386 13395931.591546306 39246690.208016545 2123283.4990244284 37370842.40505135 26442544.412088953 17067991.35853851 151726178.70905662 35079077.24384012 1719517.082906021 37376474.03019823 34212078.1940043 51462563.34012509 52458031.67330903 1726479.9651501942 49120736.23379184 41827807.8068035 7427199.2008827925 34708338.655251965 47115943.40156768 48837058.993956126 100249509.24684253 91910527.14608449 43997778.17710673 44982713.88286007 47468229.42620474 6367984.641512956 39190758.74799314 37180790.19286398 45910963.71134071 46865592.60890561 69369814.64877369 54430360.64982975 44578895.202619925 13505883.740745883 29442102.658437204 60457476.127587214 50735192.96342588 44677833.38376262 47175837.139900506 40919807.448553 52396266.203020774 50754548.7749937 13671136.732897295 36878030.61988447 52141585.078313656 34181450.57590797 69118665.04803222 17301193.21106039 48673180.95559825 58658957.72670308 50031961.4069162 21839496.983669348 73327845.36824973 56891778.6506261 41765734.44224263 23621775.294123035 49805982.245165326 33578190.855837815 50320675.79772274 110163265.64694871 15847210.491145568 18745957.757306527 49738678.63656168 50850842.09873342 46108757.33390136 49845100.92847102 37972803.88620669 13605546.696881434 32831132.37601014 43100972.05401924 42927559.03694187 54322786.85979714 51061036.13925787 55502616.43565621 8313199.758716608 51480813.33139506 56478303.36157867 38099125.663119674 49569284.1814956 51221952.77281301 54200121.68652284 16257713.621465988 13753333.758779624 140861.60320785886 45228203.99705605 44277905.00597506 51295204.67316693 47271405.67438644 51401715.095208585 13904498.589774964 51110370.50060317 49904790.86397512 53852417.014471136 37931356.18587 50468738.635384865 26626633.271714456 50354695.74698878 1733339.9393609816 46590595.26183689 47693449.06770489 32813191.7269539 28827411.671019033 9392290.034626532 69290583.25158451 29947064.131131634 7691681.794526793 4310323.199972923 51868861.40793486 40773800.8858297 49975614.75619015 6964445.753224982 53891029.7196533 48863203.27143966 45243093.579295754 70219948.07855326 4283114.837198695 35441960.93075015 33105285.828612152 41877125.25290786 45982718.392824106 22156392.92904539 51054135.01393304 48112226.41164672 39101466.873697616 57467578.29830988 44711473.33779245 67755934.23197433 76183690.67473114 52064019.72968758 40344032.93712429 32832565.060297724 42988928.094444215 16535962.924218012 30791260.182222962 73225864.79672624 63205894.17094748 47803455.00018345 20077807.336563304 33499596.1601504 64908425.373924986 61798673.31935481 57667045.77484794 50140253.97314893 61475910.33982998 54647685.12639632 28049795.699170783 13608595.47267766 13813086.124268178 51197607.91037609 38425092.922592275 47533842.36359293 9759269.067950202 58394685.865032494 40181715.04981227 73315506.98481639 20493484.232917298 20254688.967516247 35677383.11668247 51707969.01295901 13134586.51998881 54151533.98931189 39327745.14024124 55765469.2653974 17425096.808707945 13119384.52534839 11284503.41179033 49375154.145611584 28698184.052508485 2806435.965937469 54483158.95934804 32093252.174931314 21785352.899224803 47661362.54334072 17869424.732862845 251370165.40397906 20372780.790654365 45430218.90857513 44909567.856730394 34721210.3521088 37607952.85198769 13375412.013622662 22953456.62841301 51350854.71138536 33001727.443131056 48806287.03464753 17855555.676787455 51425174.15884745 40292071.60253156 40717664.06341156 20527970.991283074 69170193.5891641 21294645.776112046 18174747.95549844 47092662.76056163 6887514.62018669 55937188.100720614 50553108.125237815 41062145.9099688 75327873.00425601 44957577.9388849 47950775.49564967 16613633.002745258 56744372.89505043 60502655.80284657 6949245.315773075 47336962.39855263 8417586.22772409 46783389.97746287 35838798.32883211 39536845.71848719 51946350.10518128 45420191.47182238 55245757.05196036 52443067.61313412 53956324.73120959 20751953.833873976 21322232.944396876 11629597.579345701 56062236.720136546 13073877.063346377 1432540.9960803175 57941010.90338994 53906731.738239564 49117541.31634894 14376828.903340306 47246801.22469008 34021603.21779386 39173546.23796126 43695971.268400736 34574410.58238341 11804778.740465915 20080582.10343037 48091516.97946527 16562785.627910255 49912789.801035255 48882475.61168841 30755551.702282153 49462705.14026685 49821206.70783979 24331876.277292635 48762394.81921829 42265592.46619953 41886260.336181715 26008940.58463968 48063152.67857915 32202090.53490571 50010851.75568471 48552125.25647954 50174531.71458203 43990525.318351954 63642911.624916814 21892971.984833293 49622760.4769322 45823208.362207904 56242677.65683103 64322073.27313578 13042694.304195052 14673083.788750848 31359542.28456145 31584763.36525814 48293716.19014443 127404405.39969718 57025562.33930667 33988722.78699164 20123188.74362303 50669117.99872452 66853269.66932772 5257097.5186088765 54682104.16707242 53123641.108375505 37368770.89433427 48689249.91248676 54036132.570593305 53295652.732200354 3295153.8142718608 27097771.62619629 38314683.79570389 34617039.23570644 40659638.91665731 120213225.81766823 31049690.255174298 24522898.685076367 13764175.213240564 13190047.134636765 35133016.6847896 20285112.569148682 7766789.671908023 33744482.40555811 54325898.47496341 52586357.401229955 41222136.739852116 48453811.01438408 38306954.002497084 103850327.78626974 16392264.677349512 57576652.422187194 52735633.65783308 42343549.722637415 102051113.6424039 30465710.156941235 26147033.66789852 39655426.88522462 53644523.587091886 74688836.29252753 51190055.48191859 44702652.99291523 53101127.94168204 48265615.925608374 45063873.94797187 60833236.48036974 46534715.420038864 487305.93691116583 48297039.1632424 35726357.01392912 17510034.19187794 23862358.27681175 34576958.996310204 25320449.759079006 49101670.95586025 19816706.002413083 50997439.13247732 41187179.61520556 29035515.16269744 35101063.051258504 33649937.51977453 49430012.279823385 32337563.78201938 41649716.30515731 64170774.06681165 71010884.40888178 41767209.69489868 58235186.541195184 4932804.996884492 58216082.93339789 45254813.32723623 468584.2785015891 45652488.29398516 56964635.13413327 43054985.85527846 26903174.420919474 42286561.88899073 29193877.716790278 12533954.537588954 41697898.910465635 45062989.88218154 40170952.9759129 53330682.44111309 49829186.06339705 41541732.84158178 41711659.22737683 44564360.574274085 47748155.78853801 41873534.28373211 51956897.869122304 49876270.776342526 38948097.77080152 39524391.26976551 6696873.639698598 44727704.53008522 52415191.88948351 38540017.320976995 37271299.77169886 40518804.32554373 52837818.97089112 121260891.00634778 45614090.70698233 53390663.82403251 40120650.89747122 48529688.15450596 51887597.888044074 43860359.8658408 56472590.90984644 50736091.49637927 13453454.71331669 13375089.698250137 86758357.34276536 34572950.06090844 14521516.29101887 26474118.502486937 73669009.27975054 64257093.55725379 297337.58271158795 297169.71142266196 52348834.65212668 1132096.9077824594 15225256.94274165 14655445.091963727 50012098.24879661 38726094.86209834 46713543.99054678 69341975.84334546 28032490.889997683 51849311.23519931 48915737.26460247 53379126.830450214 38172783.632806845 37492873.843501166 11952127.91034393 17086384.801786236 18592361.414615326 127217802.80302633 49308762.987524286 33565143.92238782 114961643.9219515 50364647.35954283 13503129.936205115 101995307.11513174 19403086.271152105 59043119.599404946 49862317.08635863 25514366.616424702 19435705.19677792 61834412.55929625 35510847.60859884 34898273.63229498 51526960.464189395 14512673.624270111 51850580.982971184 15089418.898836223 9672621.84755432 49048531.31115099 41511263.43549416 51566993.39257014 41866793.431938216 55994227.110108584 59074395.9244745 68965151.22136813 26424560.836581707 25219362.334977616 18633932.689493235 48843570.78882743 46825351.391608626 52141001.63359806 16550112.556191046 18652189.879334502 53034510.94145757 37647124.58145714 16712689.336857313 48771436.79956256 40626868.37789493 52198693.671133704 51113509.04036217 35859770.87545389 30260003.07747811 50249899.00918958 61637308.81176575 50447686.515951484 10187432.197137108 52106187.764821716 51128460.71326694 20958941.899319764 86530480.82529184 52177406.877578534 45298597.98522789 40416801.88522367 26940082.136719167 43413822.690160826 48802435.15457686 394448.37794540724 38083997.320203826 50146038.163106576 57132476.58073903 52534542.52751135 36394537.7320946 38210889.765391305 9711606.930416623 47878503.98401726 8033089.721212948 173074651.2048535 19153391.93900315 1749664.2830489802 57532446.538494214 48060427.26527471 32313819.816908732 5891794.5919369 26436213.66800867 47687168.61213004 74406917.44847175 32236088.362056185 48060240.66964039 35950860.09369761 43432573.70878126 8146245.412465167 47633663.70367127 51547362.61627231 73774671.60220033 4027727.099610001 52405985.84937041 53824357.16562384 53638200.78274513 13897857.397330401 25461556.436056677 41941656.06637145 403887.6893310545 17946299.169871666 46041397.24781177 48319057.637620844 31615339.689162206 38693466.39848253 25102074.931353386 43753092.52333738 51619867.974667564 41180634.837963484 49957264.843356825 64052609.35726309 58423499.09705541 47992097.8564148 18401427.56319192 36731032.2878871 42721443.01340857 97199735.85225753 51669465.82484339 52677840.47586753 4825849.34903616 4852653.709096361 24716765.02170386 51686736.52706287 27374447.93632852 138170190.6372931 47853501.43429281 30676879.11588862 23346516.680578273 53259596.02629503 66430478.5116967 4387005.148223351 55279476.29693994 47994227.68209483 53237245.36675522 51323240.19759884 27474937.772173572 38387935.751324035 31273319.48668754 23068243.961290874 16152535.600299792 15842694.946244862 53561769.84440804 8620992.960544176 40957884.50225946 25890750.544226497 18011090.291665714 48304225.56198099 49627243.43075761 51558389.12806748 26542191.70874394 9081073.962124022 9000002.179651467 38344879.20341272 68550943.44815367 14792790.167563526 36199427.51767803 26125239.66284178 39366193.47013977 47170233.670090616 29657368.219187766 26611299.911584232 49468105.4883774 21765841.98030851 16041232.271690706 53872588.28746184 41398013.64893797 52881028.59847192 51024999.407378964 52851419.15239635 48205863.654028155 4632587.82711498 27907898.06116322 30574102.365851715 113960147.62287368 54395098.903612375 65228988.32631318 54409437.29061003 9317204.39328498 52481963.534151204 40260064.58343106 54605572.98458905 89169636.01023778 4619077.268795741 44684183.81796156 27842723.95650591 53108533.98181178 45257040.42937772 59761700.948975734 46190292.083928816 41247877.04393989 41160196.36794573 44709603.51930028 49100733.87072724 48182246.31409911 55181800.558816105 16191516.625363637 10221404.425546953 38749291.965141624 13351682.087362364 58783465.31225857 38640362.60025533 41391356.53661759 52145543.904956356 52333710.12762694 53066514.4340085 38423688.25512276 4882146.119311894 19465638.91391039 25215150.23792096 40476080.34050592 40372907.937347576 41338639.68070917 45487572.33838003 51445458.96095846 47309708.85505144 46801482.38962312 52023766.792383574 53356463.072236486 45023745.14893193 35988373.82938219 3762844.9872215525 49051299.99912242 68747281.38757612 41515929.59032736 48165037.59980597 62143511.43916767 27515573.290536687 25104224.251857366 48420983.69928072 51400202.16384553 49052192.12991039 34389654.521003425 44677358.77207614 69962687.20875077 51913331.81161339 65578132.14781758 17614190.73229113 52381231.42682117 50967885.43026339 20172258.18186844 54093288.02316931 17667364.527053334 23939399.21827043 46959043.37740333 51401916.66861035 57861535.148471564 62154778.78171916 31212931.126121942 11627527.267031359 54733873.41761803 51122609.413026854 51173036.942107975 46740646.146110125 50375697.30095827 38667528.65141458 11640517.080388872 48535687.60134689 65837705.65014829 34160957.616911605 11682447.060465975 69869662.43321449 49201373.725641005 7991294.198961457 47120702.71982392 20447610.851842944 36605597.569280595 52429949.59630422 46497134.02362653 42346268.08468281 45589054.54924788 36334564.71502163 9244007.23302042 12159869.420390798 4743303.640201208 22189895.04411825 17019173.76195146 20350810.694586284 75535399.59593162 26945397.056371454 27970596.99892975 46141597.397888586 69354306.60373837 35493212.54513107 49759834.352602385 104445431.8088424 65767165.662745014 49022398.60331872 40945211.838981494 20847909.133402944 46185138.849003844 49526487.30485865 36531936.940125525 49696513.04390586 24509785.11314361 2182331.5054037995 24530820.40142148 57717612.427896455 36248288.263105825 38518443.75629891 49996707.01052299 82625479.27575576 23334252.433762293 23377056.619417157 362727.72857899073 54394805.81535412 47979017.83756856 49662675.40884717 36511319.2238416 31239976.466636438 49265689.74469597 52738253.31865332 9002462.230881426 17635265.830607057 42038128.543502785 19746785.246975992 41690614.50172794 66593887.08151481 28378537.485066768 54091725.61650817 47358905.215642646 47966852.66584707 50014207.59084179 340355.0865570648 52023952.08779058 62704152.32256756 31918774.457989614 35335840.06070054 51510677.87351803 38615697.38672191 32045006.832498144 39760426.594029844 44017102.108191304 7749693.914365173 37774090.038076065 22985875.942951497 44228760.376464985 37500298.66291547 42410177.116933115 44627126.87391114 47971533.218278624 15207363.963713594 52435382.84331471 52583737.28179448 48966479.36478251 88887594.31585048 36212646.8765274 52947394.45741789 48380735.244578265 34046472.3277828 17676513.0604916 62129627.799322896 45629862.010502264 38344831.29090234 53773529.28167416 48927041.67932193 21315042.524308223 9672190.308657104 53967405.64487532 39236950.50127606 36053999.197554484 24868789.992419146 42630658.707978934 52581409.24790662 51317097.701225474 40267760.14280869 48715223.348796695 40630262.61522913 33532310.506341815 37210335.5075513 17864171.970895614 35386937.414830565 53419599.03868585 29645647.73178555 40299552.78280851 50148187.30742769 17842010.975318503 51859713.043909065 48961450.919026926 51713042.12171967 48924670.369305246 52430756.07743949 50923477.279674225 36568321.21960364 21375669.39441846 51671575.5941168 52655655.87720603 31388447.03547891 29624295.291645907 14322774.51402439 54452196.287898004 46334079.16713326 6496558.66885338 51863227.36823649 49497834.82264099 61960846.159645915 37223101.1497883 7632512.326720097 51952191.806315735 21305276.623830944 17867689.122557193 46220565.5800738 680449.620014145 677550.9494485089 50556527.26190467 54780730.420904495 31233614.86035146 11475748.480519658 22292770.529966667 9927686.285025747 63967829.90836464 50885310.169258945 51544157.07776733 18393652.149283454 53423110.810054824 71103655.42550229 26320751.705583543 12919170.355512654 27076566.888831817 52838580.11420676 50833051.06859005 89984539.40597792 53220221.76487056 42196538.51662694 17990563.52406155 49245660.62495967 62776274.73947931 36313461.376057886 35237603.42126757 49783000.442618325 39528956.61052538 50939682.903943524 39182925.59937828 44873168.7197242 20226192.28716256 106362973.42261906 46077768.2347758 49692311.316851035 61566497.400773495 19200474.296258118 52147872.47014079 54902642.23197555 27430722.08543883 37690958.07519512 49689726.88086864 34665301.82236424 50139954.09646693 27660752.50795112 56527351.6764537 47349344.0688199 36893278.01213959 51272672.203308396 46854015.47082364 31307424.17831953 24941242.604871295 51118481.53016201 90314641.7582532 19446058.73477143 22948193.425388657 49972644.81538277 31357631.364339713 66739490.43384283 47678856.41734518 33623846.00929787 24502909.308385257 49584827.51217974 53942622.08902635 18072927.58031872 23390712.56478569 31131503.803723477 53944491.343948945 26959398.348475978 39860407.67850859 25390654.865131788 61026320.81168714 60329672.97620666 46290219.71151612 47268886.59892712 25632869.389087833 51891820.66097544 51810579.821924284 23516147.089519795 63200201.48343636 49821439.09325484 37250214.83446753 35124654.891473375 54411912.10479424 52137186.843865715 54887930.8517251 37670961.79565252 91756144.03470743 51053904.311260015 4640459.334345316 51468209.50746187 53305785.61313349 3637180.179597375 3618127.9577675676 31346955.75204912 62425198.35471342 47159891.66625673 52696458.37209326 5593093.719637668 68107549.80287991 21726433.50476268 6925603.502209224 6868548.314583416 52695925.4455206 51940172.77799727 36609619.08061505 39669916.55279384 9839762.792403676 31434261.222142592 60633841.60368426 38453330.475826144 56325505.005942374 30284064.57971774 51024175.95303487 27643569.14399066 46677029.04877167 20640816.698248517 49266069.54898919 62318092.55480265 48759815.87715007 35133686.4453594 49044122.47958917 34089721.67990654 51942391.521199204 52492452.94265703 65142379.19053844 61292525.75691072 33441647.793162096 60753644.34287332 2412085.7545283255 49066075.216727644 51853598.46487529 50700953.08594866 52554372.719040945 50454887.75170201 41425222.99737935 11508832.56595128 48427243.122587495 5414757.491661886 52249598.35310488 49964925.79985021 9160956.788045144 64996125.05279795 47574102.422059044 198399845.57760686 43654270.0813141 64751006.385325015 48908696.75657603 43815758.919859104 50881495.27416405 2921527.891292664 2932234.2915911297 46915613.01032425 52519671.82279448 51052245.220450416 32320386.64740534 30132857.59791655 26502885.66050336 71213594.53482868 48753641.69182858 39756594.96046437 27258878.980518468 55155368.79676658 54950814.154489055 65300044.94140665 41039541.17218744 50439649.76158803 47030518.1913753 37277304.045685165 52673006.27452841 5390556.397924835 9681333.930575727 48366200.48601726 18951174.525473613 36463188.76946251 715743.1636653761 717072.8599606113 96431731.73527847 2007813.0657949906 18044253.612639222 131225483.21117768 24584770.420943856 43449455.537501894 6463532.420339724 43331772.0334363 42567770.55223919 52414034.798508935 39046529.61454293 49965182.18530603 49651720.52233657 57411181.80676211 38806402.0584298 79972262.77014573 2636039.691441315 2640986.285671293 389661.19810691074 42457051.565697856 79401219.98396383 32902969.047544535 42160423.254428 75731631.94401087 60057387.955918536 404040.09631821635 40560082.021626756 1523568.8905724534 1532381.7064065218 20475932.678502433 41751188.786946006 57296557.92893785 51629682.993699126 39222582.92924686 237483467.01337078 58961972.72127185 24097779.196484536 20470390.72413537 35802989.09727161 51650532.384297684 60863682.79655763 44158574.02785615 39097647.63553461 50367476.68384643 73219095.8399499 55096993.154511094 36122171.05309204 52046623.785290845 19958934.226502288 83739450.60626762 15313573.4177356 58409762.40262738 69230663.40244205 91014174.69946446 50733895.17758658 54113768.96479523 26863216.64386285 84459520.88599247 26950596.543535948 54854563.86215554 54483828.74331135 52328800.88607074 67592473.92830715 4773815.239806211 32285704.043537993 31851206.64329672 50297971.565903254 24231815.919079497 24572621.977212243 24138900.18447095 16960330.77130722 10575187.891455153 49071811.02145568 19287870.393988322 28330014.448794592 15674153.349773804 49695920.90913503 24582278.043970548 25348381.511226404 25295985.65454393 28262541.950054288 48107766.9560807 27718732.152252145 9476168.998197014 53189595.31738732 5073970.093142332 27665171.64910183 65147659.520339906 17398471.984583706 32312817.917645838 65641720.48685077 19564572.31178888 32170469.342115965 48989143.962283626 37520223.27989564 22071773.335993048 21973626.548356522 16013555.529352311 70439349.21606717 38429537.8253261 61454131.72926696 19364745.839392375 17809738.191963654 18523304.025790967 47877477.41310317 10860601.827175992 12507279.170963543 21064846.71565787 5115015.977064828 3980700.7713217186 4032088.3698987225 38989278.48006585 43130741.57326004 16317819.783674292 19812725.15372967 36080522.50811366 42552753.22857252 63393599.97652452 32313252.386443257 65028276.02528282 42994705.38875636 19881013.233588662 17339010.699881855 46809619.580578275 45819602.54262408 29972016.945236832 46609432.30867365 15172989.717504699 7730209.83759253 16573515.420872323 56220846.06501652 3156532.863894119 31664389.234594725 36584369.60056292 22016317.307212934 51818865.5306886 24036302.787178084 45126431.433344305 42792285.565050066 4171312.5578713864 17418542.32915125 50126004.454388216 52170525.13165742 48312438.85017281 47369583.24752877 49934770.2521024 14013488.39211391 54827409.25281523 51373519.75188663 21128815.114887085 1292526.059610749 55591442.26381486 99313183.24005038 37224008.4463171 18984242.60520756 1255604.5344331346 17097501.625037823 85891347.77421878 53095449.814087935 51753387.64156973 53325617.408785656 60547542.13337877 39875066.34841387 24928256.502376422 48979487.17904095 49496917.26358879 19117388.265654776 55285296.190371946 36176162.53129422 30036859.25809202 51726173.28254991 22090957.96789427 55030446.61295066 40698801.707156375 36300891.12985335 51859022.07681843 47764289.380513035 30958572.58657389 55085579.345986545 39002438.93154401 34680629.01209925 49857528.160768315 47513937.947469875 45579204.36635001 17912792.050845537 15265683.25145169 49379535.32811146 14197379.728287363 3916478.8662572983 39746996.778431244 53201669.59984207 52156599.886271946 49584733.93889989 27257179.726065774 36379314.456380405 52715485.59009442 27787168.644595247 36490288.07854868 52379470.2140498 38394902.86858762 29009621.079151392 50596246.16859416 47718560.021969125 52106804.45647845 38465738.23655922 48588126.72766039 48835060.889183246 48477788.33169683 37832749.45207187 50953108.30221178 38129539.30021428 18458671.961615063 48542307.3628829 28793708.62267204 33315478.759865083 62068361.401393756 42771234.35714234 58748130.85173692 38706791.88173986 82930028.41230796 18918575.426483385 65080297.360171944 20304875.12896059 49199214.15697319 8593413.424322475 73805419.009591 47457803.49798537 32219109.321537666 37127085.06734932 60740713.68521103 52388714.31612409 43364295.97075089 7535891.517775616 49134826.1136399 28978173.347086128 52469666.61198015 42808842.431236856 56357144.603349775 39604815.0072463 13932830.724667354 52372753.47200419 52002445.38502025 54649293.46190255 52448918.94622517 25579348.57008953 13812153.022512019 32036880.053640697 19663695.92302915 23313683.087701987 49151558.069783226 6254271.927761024 6272611.057384916 18069838.100113023 32058280.05053799 38116400.54839479 24714366.62479799 23179236.00757497 64824017.20894316 14106314.469352365 55643227.26148907 3372685.1257789345 3356795.6510105366 19028751.39813721 51093220.02068356 15373543.937010212 31500055.55119939 23546846.66707162 15191152.220035536 47797898.84277014 51547425.47916328 44155951.77010664 34444159.87144791 39184247.175204925 22944295.80549875 71035170.29794647 3382574.9192408933 48468002.01409365 46473591.74055543 27788096.348656114 48022896.936965674 8126006.867767069 47528665.45610129 45803149.94457232 46364417.93853039 26178176.04079111 22561357.215967927 44394220.3054343 55756860.13047485 19812962.98275317 18188810.26127949 40773948.5318237 34167672.702768 50169254.73277324 50884976.04575433 22341406.198552232 45770829.597818725 15891852.082595883 46001478.130276866 53291229.90768355 51130078.80820243 9747245.627002787 38954605.21020375 45090971.21548861 52693069.481457844 58850078.96233137 35546568.03404463 44638305.08532607 54786450.14320928 19010304.48642785 52161074.671625234 25033599.872852504 16579278.678028945 60356188.90806341 7503658.3060602 7469413.453798554 50276983.572321124 52407487.212410025 40223023.14247937 33225175.209988702 27413513.30418153 77269225.86112356 53199246.302611575 25584807.750465386 48775813.88456242 41585516.02519632 51664884.17054358 22326031.35990954 51677972.81819213 52310407.67401217 52518932.50013072 5843705.549792072 51178078.600669146 34191903.193174124 10864472.14333388 44575687.046169266 42284989.928504884 55777669.99084845 48212830.436326556 31538126.984259117 51587507.69646291 50919015.48772002 46351996.94302129 47971424.313443266 67175535.26087189 34992415.984013215 38426427.26373761 14145531.172749108 72955682.06086245 49943413.682397 54722650.627716206 46157558.600110196 48330327.87051546 45648071.87174856 14310068.388241086 29215980.215164475 43372870.79326303 23655401.311834052 52106966.83981735 44043277.156920485 46704913.12345273 48840472.98676426 65196714.18731169 47946418.13934336 32170122.647898287 41157675.68469629 45777360.976871416 42408189.59331542 51528127.247851655 43330787.77014201 72121491.68375054 29298290.74927101 57134802.576995715 56467238.35857513 52028075.374898896 51435013.91764381 43172131.52345663 56492658.30182941 49990595.53715386 48458637.390198454 49067511.1414732 57197556.71426788 62033674.75011315 50881578.6703123 51975909.61845876 46076015.29607544 59199221.19726914 15509785.523778813 3901640.1761213476 54049884.25373825 53602251.11616299 51454214.40169683 37021491.46486596 53921640.063076496 52574207.849487126 50299279.92119323 19695293.234979406 34579212.62317425 61724873.63150919 3090549.1045311615 47928230.83094298 50455464.58446954 45171928.651113525 51440704.0231054 51951144.4229101 45963118.70010287 3437268.2727155187 49950370.65185286 73216612.71240973 25458275.373432446 18154933.790618215 44328026.22183879 51352725.10578347 47954818.465962894 70778597.93403575 54480187.69573152 108099189.01309602 52347601.17108046 70260879.1090612 7095035.425377612 52755137.66987697 1704267.0119274599 52775628.1617365 39551407.48135888 59151766.14845957 38536096.715352595 67192849.61409272 44366903.64708644 4414262.3134243265 47556355.79844599 27955786.59373322 45986094.7788517 29611923.17539795 53334500.41205623 46698209.77721515 4955907.596284092 47197320.76670612 9902523.719609128 52405130.10931452 48821448.671453945 33534860.998660132 52311955.28040205 26449268.810613196 50843229.05874853 36716432.78304775 41693387.460317366 51643396.66475498 54463309.96379824 19150788.985147297 48348321.046937145 32493336.95561966 65780830.82594613 50816124.49616997 37956318.03771675 49844102.73733806 46636591.76478672 15717667.55822201 33689201.705798276 52306082.80570699 49052938.065072566 53453424.44613315 49786138.718442924 49732698.36817559 34290944.33800568 50062721.00514931 47373862.45354636 60156121.14130456 45862409.10119403 48010203.52754387 38991011.37826844 46046360.62206913 60535493.83209477 52017411.67112889 8085404.392987304 53146103.14615455 49993686.38025589 34553436.38807311 29452724.807804625 47644202.167840555 48727023.04272236 35853944.62897747 23574061.022253975 60983842.969709136 52428020.49122576 51616968.55397806 52786406.859736204 49420052.34446416 52013588.06075731 46660604.06435183 49205009.57667346 115596529.04597712 56551798.50417815 14255132.418686502 45141113.809337735 45517116.73449995 58838330.216994114 10710461.432525368 51363046.24411424 52171789.28863986 4137362.3486392233 47136474.17128815 39441313.07743389 46728567.00042509 69954087.01090021 46151309.62176253 51619994.12101898 52029509.98346638 52259120.69876642 26107375.539372467 51455070.545643024 51068824.37315225 51507675.51381905 52726452.69987197 51159871.49877303 38932786.765047245 51671764.6212932 68345592.76749249 45432879.579477035 35173093.96784968 64122536.15955581 47544992.62174103 7540248.243271679 49804605.0238488 49357899.8199508 28766838.690063782 48807923.39586579 51216470.939292036 9287522.103758175 49064190.444249086 28841487.26885969 49159500.76920201 76456853.79943322 37758291.322981596 61098363.290340476 52468275.58605947 75487951.83549902 17320124.56562736 21635042.244491063 69502434.92348687 50977723.72862048 26898217.0415887 48335170.97062796 26801846.562984813 28734018.987352848 48288243.59195871 51227550.98094153 49220747.493131496 49371216.19270899 27437490.433706857 27269003.92043894 59891494.12696994 86892660.11917736 46995833.08906773 47852985.18407944 21423483.844422676 83746857.4276261 6961983.824597465 58097008.66142091 48331117.991010375 52137747.463563405 48923303.340299755 51281681.09365988 48308085.573403776 48725053.53929842 74635008.27258392 7424027.433619273 45260227.76241016 97683709.31212966 22973271.706053395 46129933.924173124 32909124.720554635 52232675.832309976 57333939.73808754 22713613.6967567 58548189.5864405 48879535.62546015 51726345.89490216 48951281.60934208 74391525.62503462 51447607.36281915 51018373.90147497 88639783.29151602 39964100.794742905 39550083.65471497 49259547.83041344 49215773.30771918 47916981.45708059 50300095.537789695 87776538.36698152 17600961.63734578 39161468.76596416 48537962.04282081 55245391.42848231 72928264.92326462 56845691.45614738 2470338.057698299 16033621.25062602 83185214.59897423