# vtk DataFile Version 2.0
Really cool data
ASCII
DATASET POLYDATA
POINTS 2109 float
10.0 25.0 0
10.5 2.5 0
14.5 2.5 0
15.0 12.5 0
20.0 12.5 0
20.5 2.5 0
24.5 2.5 0
25.0 20.0 0
13.21875 5.0 0
12.5 5.71875 0
11.78125 5.0 0
12.5 4.28125 0
23.21875 5.0 0
22.5 5.71875 0
21.78125 5.0 0
22.5 4.28125 0
13.21875 21.5 0
12.5 22.21875 0
11.78125 21.5 0
12.5 20.78125 0
23.21875 17.5 0
22.5 18.21875 0
21.78125 17.5 0
22.5 16.78125 0
12.5 15.5 0
20.0 15.5 0
20.0 14.5 0
12.5 14.5 0
10.00806451614194 24.63709677361278 0
10.01612903231258 24.27419354593386 0
10.0241935484938 23.91129031777878 0
10.03225806461129 23.54838709249173 0
10.04032258071191 23.18548386796397 0
10.04838709682194 22.82258064301263 0
10.05645161296179 22.45967741671925 0
10.06451612913326 22.09677418900329 0
10.07258064533511 21.73387095991988 0
10.08064516149915 21.37096773253857 0
10.08870967759623 21.0080645081696 0
10.09677419375892 20.64516128084849 0
10.10483870990822 20.28225805413003 0
10.11290322607429 19.91935482665694 0
10.12096774224832 19.55645159882557 0
10.12903225841202 19.193548371459 0
10.13709677455406 18.83064514506724 0
10.14516129073117 18.46774191709723 0
10.15322580686834 18.10483869092457 0
10.16129032303272 17.74193546352748 0
10.1693548391806 17.37903223687297 0
10.17741935534539 17.01612900945749 0
10.18548387146244 16.65322578418995 0
10.19354838763403 16.2903225564684 0
10.20161290381374 15.92741932838155 0
10.20967741997008 15.56451610134622 0
10.21774193613836 15.20161287377394 0
10.22580645230157 14.83870964642906 0
10.23387096844209 14.47580642010597 0
10.24193548458432 14.11290319370539 0
10.25000000073421 13.74999996696068 0
10.25806451684794 13.38709674184244 0
10.26612903295814 13.02419351688371 0
10.27419354902925 12.66129029368375 0
10.28225806511086 12.29838707001138 0
10.29032258120948 11.93548384557348 0
10.29838709730668 11.57258062119947 0
10.30645161342799 11.20967739574034 0
10.31451612954823 10.8467741703298 0
10.32258064562724 10.48387094677422 0
10.33064516174957 10.12096772126913 0
10.33870967784367 9.758064497034947 0
10.34677419397089 9.395161271309828 0
10.35483871007663 9.032258046551387 0
10.36290322617298 8.669354822215917 0
10.37096774228375 8.306451597231394 0
10.37903225839794 7.943548372092563 0
10.38709677451733 7.580645146720181 0
10.39516129059989 7.217741923004883 0
10.40322580666075 6.854838700266257 0
10.41129032276591 6.491935475534158 0
10.41935483889413 6.129032249764203 0
10.42741935499985 5.766129025006942 0
10.43548387108066 5.403225801370201 0
10.44354838716179 5.040322577719254 0
10.45161290326106 4.677419353252181 0
10.45967741938996 4.314516127451607 0
10.46774193552708 3.951612901281566 0
10.47580645160294 3.588709677867938 0
10.4838709677258 3.225806452339046 0
10.49193548385171 2.862903226672901 0
10.86363636397148 2.5 0
11.22727272776948 2.5 0
11.59090908917042 2.5 0
11.95454545068175 2.5 0
12.31818181403819 2.5 0
12.68181817915301 2.5 0
13.04545454194173 2.5 0
13.4090908986116 2.5 0
13.77272726213363 2.499999999999999 0
14.13636363138024 2.5 0
14.51785714288412 2.857142857682448 0
14.53571428574426 3.214285714885328 0
14.55357142862196 3.571428572439232 0
14.57142857151165 3.928571430232919 0
14.58928571437537 4.285714287507488 0
14.60714285724751 4.642857144950152 0
14.62500000009455 5.000000001891001 0
14.642857143032 5.357142860640115 0
14.66071428594258 5.714285718851571 0
14.67857142887942 6.071428577588326 0
14.69642857180077 6.428571436015462 0
14.71428571474886 6.785714294977167 0
14.73214285764917 7.142857152983446 0
14.7500000004943 7.500000009885979 0
14.76785714328319 7.857142865663754 0
14.78571428612831 8.214285722566284 0
14.80357142896074 8.571428579214821 0
14.82142857173971 8.928571434794218 0
14.83928571444931 9.285714288986206 0
14.8571428572153 9.642857144306044 0
14.87500000002409 10.00000000048181 0
14.89285714286733 10.35714285734665 0
14.91071428569972 10.71428571399456 0
14.9285714285493 11.07142857098609 0
14.94642857139116 11.42857142782311 0
14.96428571424643 11.78571428492866 0
14.98214285713977 12.14285714279527 0
15.3571428591223 12.5 0
15.71428571719138 12.5 0
16.07142857423201 12.5 0
16.42857142974857 12.5 0
16.7857142846084 12.5 0
17.14285714112862 12.5 0
17.49999999772317 12.5 0
17.85714285297952 12.5 0
18.21428571083795 12.5 0
18.57142855939082 12.5 0
18.92857141386655 12.5 0
19.28571427430228 12.5 0
19.64285713574168 12.5 0
20.01785714292029 12.14285714159426 0
20.03571428577939 11.78571428441216 0
20.05357142862984 11.4285714274031 0
20.07142857152504 11.07142856949918 0
20.08928571434997 10.71428571300059 0
20.10714285726139 10.35714285477221 0
20.12500000019564 9.999999996087139 0
20.14285714320795 9.642857135840998 0
20.16071428614276 9.285714277144802 0
20.17857142904537 8.928571419092558 0
20.19642857186783 8.571428562643403 0
20.21428571479022 8.214285704195643 0
20.2321428577479 7.857142845042126 0
20.25000000069735 7.499999986052996 0
20.26785714347055 7.142857130588933 0
20.28571428619271 6.785714276145805 0
20.30357142900126 6.428571419974752 0
20.32142857178615 6.071428564277086 0
20.33928571464426 5.71428570711476 0
20.35714285745924 5.357142850815163 0
20.37500000029276 4.999999994144766 0
20.39285714311046 4.642857137790787 0
20.410714285854 4.285714282920003 0
20.428571428706 3.928571425880045 0
20.44642857148773 3.571428570245412 0
20.46428571431238 3.214285713752382 0
20.48214285711565 2.857142857687005 0
20.86363636516213 2.5 0
21.22727272581398 2.5 0
21.59090909243092 2.5 0
21.95454545450997 2.5 0
22.31818181891514 2.5 0
22.68181818017414 2.5 0
23.04545453949341 2.5 0
23.40909089990082 2.5 0
23.77272726283935 2.5 0
24.13636362860863 2.5 0
24.51041666667252 2.864583333538364 0
24.52083333335455 3.229166667409358 0
24.53125000003504 3.593750001226702 0
24.54166666672229 3.958333335280106 0
24.55208333340738 4.3229166692584 0
24.56250000009479 4.687500003317582 0
24.57291666676292 5.052083336702424 0
24.58333333342993 5.416666670047649 0
24.59375000011929 5.781250004175338 0
24.60416666678541 6.145833337489197 0
24.6145833334717 6.510416671509586 0
24.62500000015173 6.875000005310423 0
24.63541666684382 7.239583339533857 0
24.64583333354729 7.604166674155124 0
24.65625000022954 7.968750008033958 0
24.66666666691629 8.33333334207003 0
24.67708333359532 8.697916675836199 0
24.68750000028001 9.062500009800464 0
24.697916666944 9.427083343040039 0
24.70833333365369 9.79166667787921 0
24.71875000035885 10.1562500125599 0
24.72916666707987 10.52083334779526 0
24.73958333375135 10.88541668129731 0
24.75000000042991 11.25000001504697 0
24.7604166670681 11.61458334738357 0
24.77083333369809 11.97916667943294 0
24.78125000036938 12.34375001292839 0
24.79166666700398 12.70833334513953 0
24.80208333364604 13.0729166776115 0
24.81250000030942 13.43750001082962 0
24.822916666971 13.802083343985 0
24.83333333355412 14.16666667439433 0
24.84375000015083 14.53125000527908 0
24.85416666675838 14.8958333365431 0
24.86458333330886 15.2604166658101 0
24.87499999988007 15.62499999580261 0
24.88541666655004 15.98958332925141 0
24.89583333319863 16.35416666195201 0
24.90624999980522 16.7187499931826 0
24.91666666644808 17.08333332568263 0
24.92708333312806 17.44791665948182 0
24.93749999980001 17.81249999300037 0
24.94791666645933 18.17708332607652 0
24.95833333311969 18.54166665918899 0
24.96874999985664 18.9062499949823 0
24.97916666655788 19.27083332952599 0
24.98958333330658 19.63541666573034 0
24.65909090697006 20.11363636434331 0
24.31818181387862 20.22727272870713 0
23.97727272112545 20.34090909295818 0
23.63636362933978 20.45454545688674 0
23.29545454074166 20.56818181975278 0
22.95454545175678 20.68181818274774 0
22.61363635870555 20.79545454709815 0
22.27272726938004 20.90909091020665 0
21.93181817642107 21.02272727452631 0
21.59090908415283 21.13636363861572 0
21.24999999070893 21.25000000309703 0
20.909090898365 21.36363636721167 0
20.5681818062032 21.4772727312656 0
20.22727271532826 21.59090909489058 0
19.88636362288735 21.70454545903755 0
19.54545453222531 21.81818182259157 0
19.20454544067146 21.93181818644285 0
18.86363634917439 22.0454545502752 0
18.52272726008306 22.15909091330565 0
18.18181816691119 22.27272727769627 0
17.84090907624678 22.38636364125107 0
17.49999998161302 22.500000006129 0
17.15909089129634 22.61363636956789 0
16.81818180107666 22.72727273297446 0
16.47727271035784 22.84090909654739 0
16.13636362113641 22.9545454596212 0
15.79545453028867 23.06818182323711 0
15.4545454400335 23.18181818665549 0
15.11363634812483 23.29545455062506 0
14.77272725866684 23.40909091377772 0
14.43181816866006 23.52272727711332 0
14.09090907805834 23.63636364064723 0
13.74999998745307 23.75000000418231 0
13.40909089754563 23.86363636748479 0
13.06818180839043 23.97727273053652 0
12.72727271853859 24.09090909382047 0
12.38636362812021 24.20454545729326 0
12.04545453791708 24.31818182069431 0
11.70454544876188 24.43181818374604 0
11.36363635991656 24.54545454669448 0
11.02272727049761 24.65909090983413 0
10.68181818161208 24.77272727279597 0
10.34090909059876 24.88636363646708 0
13.12245575810983 5.359375001489979 0
12.85937500007252 5.622455758928196 0
12.14062499745613 5.622455757501361 0
11.87754424071326 5.359374999451498 0
11.87754424189017 4.640624998510021 0
12.14062499992748 4.377544241071804 0
12.85937500254387 4.377544242498639 0
13.12245575928674 4.640625000548502 0
23.12245575866386 5.359375000530365 0
22.85937499942928 5.622455759299569 0
22.14062499843458 5.622455758066268 0
21.87754423944776 5.35937499725959 0
21.87754424133614 4.640624999469635 0
22.14062500057072 4.377544240700431 0
22.85937500156542 4.377544241933732 0
23.12245576055224 4.64062500274041 0
13.12245575835722 21.85937500106149 0
12.8593749974183 22.12245576046061 0
12.14062499962912 22.12245575875594 0
11.87754424065191 21.85937499934525 0
11.87754424164278 21.14062499893851 0
12.1406250025817 20.87754423953939 0
12.85937500037088 20.87754424124406 0
13.12245575934809 21.14062500065475 0
23.1224557587305 17.85937500041494 0
22.85937499688295 18.1224557607697 0
22.14062499958506 18.1224557587305 0
21.8775442392303 17.85937499688295 0
21.8775442412695 17.14062499958506 0
22.14062500311705 16.8775442392303 0
22.85937500041494 16.8775442412695 0
23.1224557607697 17.14062500311705 0
13.0357142863834 15.5 0
13.57142857334916 15.5 0
14.10714285783675 15.5 0
14.64285714470339 15.5 0
15.17857143070267 15.5 0
15.71428571720997 15.5 0
16.25000000702564 15.5 0
16.78571428904744 15.5 0
17.32142857412979 15.5 0
17.8571428511085 15.5 0
18.39285713616606 15.5 0
18.92857142211578 15.5 0
19.46428571101452 15.5 0
20.0 14.99999999601014 0
19.46428571160309 14.5 0
18.92857142040583 14.5 0
18.39285713577575 14.5 0
17.85714284336419 14.5 0
17.32142855637984 14.5 0
16.7857142655791 14.5 0
16.2499999775787 14.5 0
15.71428569556309 14.5 0
15.17857141150299 14.5 0
14.64285712475407 14.5 0
14.10714284117721 14.5 0
13.57142856006613 14.5 0
13.03571428124737 14.5 0
12.5 14.99999999867727 0
21.23884948523619 10.5928966633839 0
24.10005591368169 19.14415515023198 0
24.22180017546411 14.13110487691526 0
21.64149999031035 9.35933390251711 0
12.18032028820923 19.88282123578365 0
17.91554715435079 20.95065949164542 0
12.58413877656452 18.34040019796123 0
15.96828850385863 19.609411024288 0
22.33789621336727 8.916482042865002 0
23.78272486947908 12.84579143670364 0
20.78376792797122 19.46002647811561 0
19.11509669356569 18.87901705575766 0
15.12295866835606 21.38380048057971 0
13.55217374680566 8.687471716578642 0
17.89508984723456 19.04444082004764 0
18.62840159639574 17.566149245571 0
21.69119077341001 13.51122397177489 0
17.74243510065071 20.38639625696171 0
16.52395017165697 21.27639602768287 0
14.25547709379394 19.69040542457576 0
13.60598431194463 22.25617585619715 0
23.06646915241875 15.01185845694405 0
12.7696379023274 7.616012959284399 0
14.55394083523493 18.41245434912259 0
19.74330285005976 17.72289566778537 0
14.66711354780901 22.38238210368047 0
15.77715985250299 21.20767225939867 0
22.96446596599191 12.85200702173829 0
11.128146408174 20.46470516093197 0
13.43507063703849 22.92204830055094 0
23.97852715709833 16.95230008004555 0
23.53000456481334 13.84803974161314 0
13.76795648576018 9.81637714589481 0
15.865263543351 21.9711435923161 0
15.98370994931477 16.93437919334485 0
20.87287357946523 16.46374190599194 0
11.37598513502785 17.8349432805053 0
11.11937813331781 12.65779034362035 0
13.13592589119314 9.996192076017628 0
22.30733103148141 12.44598241422038 0
23.73193163066368 19.6897482277368 0
11.03292848983376 3.137386060165526 0
16.74463417807606 20.27806929359991 0
22.56524094667422 15.31532499033738 0
20.95397342304436 4.797110389446628 0
18.37936988303909 18.38178596928613 0
22.99546402101252 19.43805604058359 0
11.34028813303575 23.17058974094804 0
24.28575649989237 19.50231931303493 0
24.16662195957842 9.485741789906228 0
23.79536923997854 7.563865053085859 0
13.67972181074709 13.06714823278153 0
13.81673563688502 18.58384158203708 0
11.82323623134112 10.82620295333621 0
14.30169324927898 17.68850156394261 0
11.70380060592791 16.86132903142548 0
11.44824555631853 9.75182564379458 0
20.4277979417702 13.15769910261259 0
14.63317320739956 13.46638297062145 0
22.42230006930902 9.776132376888064 0
24.29766018349417 17.55366852017454 0
12.80867016425855 13.1040127554167 0
12.34316160645664 23.19097136248829 0
16.77751054096146 22.02583579002135 0
21.59621240299218 11.98809933557576 0
16.01160340784712 18.31939907335534 0
12.06167637578097 3.786142891629505 0
13.36829862701504 5.81880786364507 0
14.37353333957154 11.72664481700648 0
12.62755117705615 8.655180952425287 0
24.11570965564851 6.418202493004122 0
11.97705221469936 18.58010726878549 0
21.51286195724892 15.45179920170898 0
23.21010810156172 15.30973645091456 0
10.55820033060348 22.44590263483842 0
11.01971260964956 22.28073811046353 0
16.39561921990842 20.73044730046804 0
15.45728081134977 19.85141811392649 0
21.56567821552637 18.83549236733979 0
11.7546529784847 15.12972997400969 0
23.90408008895732 9.031366803258466 0
19.14564453108795 20.63183451329418 0
14.1961606054528 20.55585547838588 0
15.02301960589653 18.93302310863663 0
20.93969895433506 20.63352240035566 0
23.43910535533849 4.88784934288972 0
12.94899071411294 3.782294775723591 0
16.66876468208425 19.57953271835672 0
19.35088868297231 17.54494655011794 0
22.38716733280717 13.38168981682727 0
20.85109937959801 20.029030582939 0
12.72315199268479 11.31003663425643 0
23.48740832503052 3.542176405039511 0
24.09236120838379 16.67151821997251 0
20.85187764903312 17.38636862082224 0
22.97742517760933 3.799881641889209 0
17.77397568599876 16.7084094416096 0
22.48879791713563 15.77039964848157 0
13.10471044654439 22.9866040420516 0
23.53941013826474 15.37772739681975 0
11.78042028429911 12.17739942323989 0
11.27240909251399 18.41858819519074 0
17.2275177482637 17.06071383221829 0
10.83102059218078 19.69003613587094 0
23.64880971254631 3.880682967231291 0
17.30731166955543 19.69800998711193 0
20.60480441950045 18.65694452603444 0
10.72572060032508 22.86408647105554 0
23.83202767685822 13.1979914754072 0
24.08849041526689 12.20991874302671 0
12.05690010715723 11.53056045811562 0
12.82981116342667 7.108587659106528 0
12.40693509525028 23.679523234119 0
21.03323468468644 6.728732904965739 0
14.78182938274454 17.75325509826738 0
22.08075854815012 12.90490382545205 0
21.51774109692876 19.5269795036483 0
20.98551965330173 9.007920878541526 0
18.51840717592713 19.7238833390537 0
11.9726215666954 17.71316735527587 0
17.07559955132406 20.81895296333101 0
23.65786127542919 6.139677964095652 0
11.31048596450646 7.699617443441035 0
13.42411081523904 10.81751800439851 0
19.26085121128391 20.38701660414594 0
20.66082671304681 7.647168002829906 0
13.81128521639121 7.725047689056673 0
11.69627380333404 13.18446689324695 0
22.92983228730672 18.91374938265556 0
12.03542208220238 7.870492483229064 0
23.22264924672139 12.04566140013363 0
12.35237277797958 19.09968400219061 0
12.54392848810941 16.39830261984221 0
19.32235186896041 13.81906898379089 0
19.99455507981208 17.29806227266737 0
23.27022233164117 9.335680350960311 0
16.66358163784105 18.96185168515644 0
24.07809433409021 8.08392319168172 0
24.14162641821371 13.4691604680462 0
11.73434680650334 8.504093308819865 0
23.58473695764838 10.77228957743077 0
22.4706860682584 11.53642902720215 0
10.96673655053524 16.46833650628371 0
22.45446959826118 8.056950440708782 0
20.84508589846543 11.38705823234615 0
19.22992450168299 16.6188163608033 0
23.68635596658066 16.03661397219866 0
14.22616447411165 22.33758437679039 0
12.62302356013788 9.61375011684651 0
20.79770335173506 15.72994073557626 0
13.93572667419418 5.175707217115059 0
21.62444766752543 12.62960234647724 0
22.1676843821433 19.50107009850586 0
15.89285714571177 13.5000000019311 0
22.36045948948631 7.361853957276975 0
11.27761529393013 17.10685864037839 0
22.4600824124608 6.579705796219887 0
24.10698039190937 5.826919138587172 0
21.31854307505618 8.317596466662282 0
21.24480434143071 4.338033482013706 0
13.79631254577954 4.277729335223663 0
17.02208545153932 13.5883793562974 0
23.22362466434531 6.956424433735494 0
11.58453906011934 19.4570730896083 0
11.72628340500619 6.879195875947826 0
23.89460348444483 9.942937379985771 0
22.4705520032042 10.68233162513219 0
12.64066389275207 12.07112899684521 0
13.29548806696606 17.01117601462883 0
21.74167611597177 8.777977989877398 0
17.19693148429468 17.74287257403478 0
13.93614428605641 21.60602842105203 0
13.5158479269222 6.666618326313972 0
21.49706059197783 3.546723666359858 0
21.46690504700066 20.19616970671221 0
13.50293940809061 3.546723665660288 0
20.638592130202 9.407093813537218 0
21.69123104121612 6.952625015985936 0
23.50894553717302 8.392255019609125 0
13.91581530983773 22.3434334201264 0
16.42857142937082 13.87244898555863 0
20.32742955082085 20.42387068848243 0
13.00823507250345 19.63365808270555 0
12.18586445698588 11.82753038495839 0
23.71757774336555 9.504422660569153 0
11.03611513824863 13.6744087808141 0
18.73440889431573 21.54358293856636 0
11.35093309081929 14.32296402221157 0
23.07802501967204 7.731389273224909 0
19.84264627688107 19.58416761929912 0
10.79609885470483 11.63439838879007 0
12.5244381684424 8.165901050291808 0
15.19506615851539 20.36519360060408 0
16.43566151820632 17.58334164607202 0
19.85924905790554 13.53796136817078 0
14.13580842625416 20.8586418496912 0
11.35464774441585 15.76573089523021 0
11.32117006360154 6.071439205350243 0
20.57562222382076 11.83011431528233 0
10.91039530854321 9.57644492637788 0
14.11885514365308 9.13200457077836 0
23.06302196847205 19.71597258646361 0
11.2415418600099 9.104230092328645 0
23.98119439820778 18.2569983554223 0
22.24281626212573 20.22278501659383 0
12.03154840915518 9.2297806585282 0
23.70032099181052 19.08958164501154 0
13.814696366907 11.92490034541565 0
21.11275839887151 13.09403249451146 0
21.29147405521874 6.105973913711702 0
11.16455864134981 5.382123736237829 0
19.72307486767956 20.91502916643993 0
11.22181987859923 4.246226522834752 0
16.83154712761302 16.47683503698099 0
21.13673455876827 5.344880774439298 0
10.94802004947299 19.02807851619667 0
19.75920459966773 18.24522609423261 0
11.08366127890029 11.24539039837272 0
14.23454522639653 7.704300775287025 0
14.06278674834165 22.9513043283091 0
22.70213781675908 14.65816827318637 0
12.94326601787643 23.33237940064492 0
21.08527629952536 15.28447191309157 0
14.22715140409027 12.52324977426924 0
11.48223698010569 11.9925039102408 0
14.19016150843471 10.36084466551929 0
13.80053784863459 5.830122278506331 0
11.04827882804779 17.41831073208289 0
22.15551933261924 14.89072335881047 0
12.83392597097638 20.2537713118344 0
14.42117306841237 20.99902491503657 0
13.11041393721884 18.88198102904632 0
14.38849158806379 16.55053161189185 0
18.29227483760144 13.4282846813149 0
20.73107129709959 18.26634251662205 0
20.42119157216166 16.08589241288802 0
20.93775867018425 9.822154986248176 0
16.04601867197694 20.27045042558678 0
23.067223095586 8.784525466792822 0
14.13090387901018 8.265623270457226 0
14.63528545906005 22.79533671256432 0
21.52711457901523 14.22091586335526 0
23.85112131050956 5.433236484494728 0
24.09974195320283 19.87384112698986 0
17.68535247601822 18.26658155334893 0
19.22819453193625 21.28992306048622 0
19.96475862696984 20.53257650959183 0
14.65442453853082 11.59505481294258 0
13.59717218363474 10.29572104985361 0
18.50797772009856 21.07742441073376 0
11.51788380009442 3.540626953236552 0
11.35517381211982 20.97209133658238 0
13.47372083197286 23.33201030287334 0
18.69220024875286 13.58837935758354 0
12.03678296787961 6.286136691462305 0
19.26284482588009 13.12429435086304 0
21.65090254114698 7.770976174089625 0
13.5217806077584 20.4213991852351 0
10.63884274320216 20.83874846800965 0
14.69438682115791 21.95889318805161 0
22.10121986311597 13.97435280995638 0
12.36209232841501 9.109973462862815 0
15.2294985735745 16.41126518656722 0
21.64853920379975 5.897894825697437 0
23.93534982726089 6.797277966213953 0
20.76646486963117 13.94927480344001 0
10.647779604217 21.82094573079306 0
11.00961687001014 8.35220819283002 0
23.0063450137039 15.59581867830854 0
12.33768487167691 10.93070453758241 0
22.71069237985591 14.12975581244516 0
17.56375755459549 21.4323446129071 0
23.7215672507694 17.73813481530664 0
23.00202529553083 16.26497761545057 0
22.1550317186482 6.938269823477135 0
12.48012319783908 6.180557200584026 0
21.7980845021744 10.65943744042266 0
20.31987886410834 18.95124249516768 0
20.56260960865278 9.025024766190278 0
14.37357484828659 19.10467754291972 0
13.3080483651671 9.349549634891105 0
21.38960680264542 18.19238726781531 0
24.32700838651228 18.80286561683429 0
23.89197947619449 14.82770845751777 0
17.01929223322536 21.51977232416291 0
20.29740407965675 17.82424943233929 0
23.30234385334933 10.48752921104331 0
20.86890850090735 14.80273952462599 0
11.88906849860062 16.21702337817398 0
12.60361386639189 6.62599073384771 0
20.74396478437001 8.577179563090716 0
22.95024249537254 13.50649440031994 0
11.03572135836811 7.11671407268915 0
22.08769735947871 15.44050978554886 0
13.17797998306983 13.67493482759999 0
21.75849852624187 11.21649479861013 0
22.99927789935412 6.285869587609123 0
10.8126984490141 14.30527452836947 0
13.83078557014247 17.67647484707255 0
12.6241450976862 10.43752158047554 0
22.4976479301411 3.291227834960871 0
20.79755291504902 12.37083408452932 0
10.72046099831989 16.99341454600922 0
15.16617079337171 13.06611171577711 0
23.97068950069011 3.137294630398139 0
12.50314700617343 3.289912197202004 0
14.48372457929977 21.31533646944944 0
13.88093901636494 10.89220027273578 0
22.52287474010728 20.43947592706845 0
21.91212746905554 3.10815728656386 0
11.3646536307509 19.99738903649192 0
15.35585693520323 21.83348075024981 0
12.74156504980357 13.53782550131843 0
21.30371900662224 17.72506072653768 0
24.34090157041037 6.655427725575486 0
19.43153070014099 20.00861306181343 0
11.79556087828088 5.927784033355465 0
13.61092477300489 4.741447826107779 0
17.28269021038436 13.02203855497645 0
19.99832820012316 16.42255574262636 0
15.95094934688606 21.45226638903314 0
14.24921331374153 6.046618821047522 0
13.43108635161551 12.05650484557191 0
14.32280312370563 3.76198484515414 0
14.05399435656361 9.513952765648758 0
24.47487941577477 17.91673307153531 0
20.80994444317846 6.344204874458685 0
23.90732857101151 11.52800449787497 0
13.42213501129521 7.325468133288535 0
22.09495322968053 9.3961316087156 0
23.42200861453696 18.53400034994743 0
12.09393633308246 10.02690960629885 0
12.73577482019424 17.58084937990934 0
24.1578905369229 4.471227204245468 0
12.56164893509008 12.56356874531279 0
13.61128277690978 5.372920743702602 0
12.84892743280773 22.73091348369017 0
15.07687325945052 22.40325703526478 0
15.66333284265704 20.45190830953016 0
22.69042622209456 9.328774562246455 0
10.92456321062944 21.28011870375443 0
12.14705451761034 15.24316039295798 0
10.58567309087939 19.40589812923793 0
24.15989770460967 10.43121386834954 0
10.87331416388585 8.687945497304572 0
21.96565449257806 11.56461779886199 0
13.62792086049665 16.29494883786209 0
21.08133994508678 7.516783475586337 0
10.85598316428362 23.84117493968575 0
18.10049877300456 17.9601162640857 0
12.16129863204362 9.594283073499627 0
14.34008193633927 8.750557819948787 0
22.54579373982735 19.80607664086653 0
13.26245051520159 8.10596032506413 0
21.65559133871655 4.116953979367975 0
12.3660442036652 17.04367567480755 0
17.22041467494756 19.28995294282387 0
21.82337615149439 19.91627179501128 0
19.15921086845316 19.70997869434543 0
21.39885393047548 4.711970271219011 0
23.62153277459633 11.2128037365477 0
19.21289107405988 18.52954945975138 0
13.14498904930226 11.74858422806841 0
14.2004392144177 5.49610433547005 0
23.1406522103808 14.05683457561283 0
18.57428853566909 20.40778015617953 0
12.25932201375001 13.73578008706173 0
11.1116874027149 10.45358868211552 0
13.9448692617885 20.38801589098606 0
24.18316370970359 7.703191255752545 0
20.97623679384028 3.75011761778964 0
21.29937226754267 16.91474476634006 0
14.1220187574178 11.16625932404386 0
13.46337579513077 2.952363489713377 0
19.07335151865674 18.15409879874298 0
13.05079997771923 6.664034294555687 0
11.52463746491913 16.099174887555 0
15.76722747207833 20.8896520370909 0
19.00084507445757 17.76427838493194 0
11.62552582551242 14.53615835789511 0
12.16579050836086 22.66905315739749 0
17.88283261615297 13.34754481112354 0
20.23668152491918 18.46470083028035 0
10.63355545739939 20.25581453110323 0
17.44164963496835 13.89008620859283 0
13.38647400734764 19.70962144369325 0
13.75785647059278 12.36880098911127 0
21.34455751051391 7.954915210228949 0
18.94129894427042 16.11398828912236 0
11.17959296367122 22.72476278282722 0
23.03338407736232 10.12467362211837 0
17.34837199253521 16.19649977297245 0
10.95647481896737 15.02236136739911 0
11.68994659707363 20.41636199467371 0
11.93815301930916 14.52789334340732 0
21.25711779594147 19.19917888994622 0
20.52098787256816 14.4329045145538 0
15.87958928834025 13.02774768679079 0
13.00476203031977 9.631095020363784 0
16.21308871456341 19.13694465413818 0
23.77560254515593 4.257150568176034 0
22.64829044736623 19.32748365959318 0
11.39966061560601 14.80700193271406 0
13.30021962542799 11.15632489854624 0
21.24448296894862 11.03919820431608 0
24.3765705880566 10.69613610225611 0
12.11116697196312 13.05184794090327 0
23.46676961024504 13.27376635092988 0
21.83109097168146 12.28133531432675 0
23.07101912137524 3.106502444993272 0
22.22327189525746 18.84214439881658 0
11.61033845092128 22.52240542936247 0
13.94017853696729 13.76166000060744 0
23.7128046089611 17.2006676108911 0
11.96877733879491 12.44184017168414 0
17.20009822769219 18.19565689167677 0
10.66739184425195 8.21672264920452 0
14.63288764151606 12.91220298731423 0
23.04110393710956 11.33957435901565 0
23.52073673958283 6.584183773888665 0
22.19607452588294 14.30540761272047 0
11.199920120559 12.25085452632912 0
24.40188777818861 13.7685290874208 0
21.81991748825842 10.10822321651196 0
11.87290118270392 8.888849095206762 0
24.13572453621392 15.47995713214549 0
23.30966840374246 5.793317869527135 0
22.15204337795711 11.03878627099496 0
13.06884281995304 6.218656559216152 0
21.64441217944772 16.24889020070552 0
13.64719118289729 7.026947275138788 0
12.4467149952331 22.86975562770731 0
11.53127206164462 10.61746492262341 0
20.42962063803152 19.3544150765727 0
18.32017670063122 13.89343365893288 0
14.31458981012256 17.27097491338849 0
14.09110163226246 4.648942799415632 0
10.62574840690398 16.62543352538293 0
14.40602564706012 7.371842740133976 0
14.43421752531032 10.78415639502827 0
13.24503909000171 12.45322065651515 0
10.96800428663135 6.501908522735675 0
23.25601686853355 19.20381042632988 0
11.83357865119354 23.66202331938748 0
16.29911041505283 22.35269440445807 0
12.91547566126188 10.81731890118075 0
14.05437681426682 7.093606402343277 0
11.22539510866532 11.66526059234886 0
18.13088951009767 19.44214651274456 0
12.1320872168403 2.812339186171363 0
23.37360414294741 12.51063862124381 0
22.35988873102363 6.173799902857539 0
21.88329472609366 19.16642696901678 0
11.38198860500228 6.515295231410116 0
20.02315084604213 19.23778814324339 0
17.86657712563237 19.78270079676865 0
18.51912731287654 19.02986195289686 0
17.91164665051561 17.45903292629709 0
16.44896389478519 15.99634485551402 0
22.176520025838 9.671361066033395 0
11.71410049537117 20.80060575709518 0
17.80322505676707 21.92359279310334 0
12.37123596626085 11.98204656167543 0
13.59263357609241 11.36790149322671 0
11.3082163331094 18.77037138933908 0
21.2567891937174 12.74485458884524 0
13.71906853519863 9.294526803029058 0
23.85024359650213 18.61358160472776 0
22.69790850891305 10.2434233590898 0
21.0358469286253 14.34034849478392 0
20.10292650614696 13.92318819284951 0
23.00110734527088 9.147761986040782 0
22.66414839506621 12.03167021405463 0
16.45144088254715 13.12429434978326 0
21.3937423434326 17.30898826573272 0
12.29407720348293 7.200010861319756 0
11.62559294820291 7.967171567306829 0
24.57444776129232 19.117681552547 0
18.16096901938695 21.56947341561438 0
22.5944288807793 12.86387465982364 0
22.10401679983205 11.99398369094272 0
20.34731196329673 10.89800547208623 0
11.00887223746482 23.06849051940237 0
11.88349910465989 15.67237920366086 0
21.91044008959417 6.231204350347056 0
23.66257373009626 5.080106745059256 0
17.22241794642845 20.18902185115213 0
24.01069858414634 15.81582490318018 0
12.16153165186757 8.203068938400094 0
20.28710645611169 13.49499919960871 0
21.16146904209834 3.452785867994915 0
21.06925584807306 13.67182906267443 0
24.37931529667815 17.20432017994992 0
22.15727942639211 10.27685948635979 0
21.53548542979472 13.07884648404377 0
14.24213823405333 4.092436966222696 0
15.07248626150178 17.08162885413248 0
20.01582311335672 21.22579042326942 0
24.26667734218632 16.36708030950974 0
12.76877803150399 23.72485674483687 0
19.02820830774354 13.42162413207038 0
24.18121947898587 4.077319142676253 0
10.82654902946105 7.446475343044641 0
23.33922902249927 14.45458498494644 0
22.18128822315823 8.121203001781472 0
21.01678678180273 3.137208286750586 0
14.61519253076321 10.53121133451473 0
22.98074974039564 18.50993373568867 0
20.27343465964869 19.90691400980724 0
13.98321321739953 3.137208285228708 0
10.69582723624719 7.136796612624638 0
10.4210910251066 20.5009580121936 0
23.28149847716092 15.88734263852084 0
13.68383670202402 21.1310464605719 0
13.68966474721537 19.40710396861616 0
24.07426625932524 17.25008408569606 0
14.85399442753476 19.6984977223232 0
14.1333325242019 6.427361512999299 0
14.64769137782177 11.27034359120278 0
11.35795023608459 3.888432920740799 0
10.90481807224516 10.12034703045783 0
22.2000484221765 16.30960691034025 0
20.65836098757515 10.87461152625925 0
21.62272411386765 9.023889310424469 0
20.36755068586869 20.98973003275547 0
22.24003691417484 7.846249027555013 0
22.51330751871416 8.622654478709897 0
20.48305367084978 11.27102768198983 0
10.85836478326877 12.12792962701509 0
11.00494975971875 3.740316751421065 0
18.12013323449646 20.21614832383755 0
22.72074724283044 7.010325524554167 0
11.40863853779998 21.50227682362176 0
10.67921357400805 18.55110329264977 0
13.08787252877833 3.108157287358279 0
21.88118715667118 18.51683860784625 0
16.86073147696559 12.96249038891501 0
10.54894100253452 23.39988085048343 0
11.42742009802248 19.13221673063457 0
13.53879416551331 6.244122443872927 0
13.46980585928342 4.453883224685709 0
24.27861091446416 12.89187754559455 0
21.86366060759445 20.55268489636333 0
10.79079652610044 15.76053631654858 0
15.6530052919347 22.55530037507188 0
15.57143974922809 17.61618055489427 0
21.60153408689347 14.8557862756113 0
13.11212672363425 20.5913480732315 0
18.52858857181053 21.77873169381068 0
22.49904915349146 2.886066682916501 0
11.93198256130944 3.104985965853985 0
10.42036747197894 22.10339060997617 0
23.70945896685553 13.54209605765361 0
12.89289793538535 8.184960777853245 0
23.96944075190191 4.833934516859115 0
24.67298186362037 19.76947570570796 0
18.69655134852995 16.60945560752012 0
23.47079097168604 16.62849960514422 0
23.83685894416161 15.22733972987833 0
23.92752492307654 8.353118814665041 0
24.13881295266457 10.96756815339845 0
15.98268778135477 17.80434535060066 0
21.88225237731646 9.117194263240297 0
23.08537098783508 20.33234725845358 0
22.49673555061362 3.864626108162904 0
20.79503604133878 8.053479289899277 0
22.86409750698768 13.81057927392691 0
12.31407614665208 18.66663721090027 0
13.51919243616291 9.034419830573322 0
11.73756833721787 18.84192409716604 0
21.1917284531644 19.83873947851597 0
22.05100928436077 3.782294776197475 0
17.2659562409113 21.21588297394658 0
11.59773405821299 11.3045479293715 0
11.90922977617403 3.491247065964468 0
12.40394742054618 7.592117728834011 0
10.7768419771889 18.01947404674658 0
10.43426372115131 23.8071340766313 0
20.92825955505017 18.8503963731003 0
24.3312500304256 11.31299414688753 0
13.78918142161271 16.95454584420469 0
23.09937489167705 3.494916444600792 0
14.32881046008723 22.691504352431 0
21.31897563253226 12.39405586429186 0
15.73249149900668 18.94023086072493 0
14.14070538613008 13.15709165314017 0
23.54762730196371 10.27424633597225 0
11.04633721072816 4.805660240427546 0
12.85720620754015 12.7085107858894 0
20.45625656578072 12.19459038190737 0
11.74512312095851 19.92383852094518 0
10.6486921418448 13.94715034652373 0
14.80002214181545 20.81633657761761 0
10.52657230963344 24.1995617780165 0
18.41916817833627 13.03664624275589 0
14.1293472193524 11.89486920353738 0
11.15568169145134 19.4316298618481 0
13.26859827319534 18.12323223963035 0
14.32791431755423 9.848336427947215 0
19.78458972459305 20.15593720761432 0
22.97750280318473 10.71752083977437 0
17.31552993115296 21.97513604081482 0
12.31148799271939 10.25203958873201 0
16.1549039055431 21.08331693836765 0
12.36861561827326 11.26466717149657 0
15.28287118999994 18.29748791612421 0
21.95388359245121 13.2448143300445 0
11.53761279195384 8.876951945951895 0
13.62026822865077 8.281661574982067 0
11.75095676184058 9.979293161082605 0
20.5782883455185 20.67548331195847 0
14.20871069360384 3.417572348408201 0
14.02376320574768 3.750117617480133 0
16.02216888673455 22.57963046352407 0
16.72716343457888 20.60839986946324 0
20.7830338535809 4.114723991684309 0
11.29006601633854 21.79550824487397 0
20.79666001706589 16.12326384105077 0
10.71241340158612 9.18354188650753 0
14.10869901061102 18.1545542569409 0
11.23095897023792 9.490946955960638 0
23.73155052805344 14.21941243987893 0
15.17381395776224 19.96633208393245 0
22.71203445288785 6.031152803130714 0
18.43376456043205 16.27246559188467 0
22.6487969561235 11.0845376075478 0
10.51346478917176 19.07926258039057 0
16.71217436927968 18.24571214083061 0
24.18283602103945 5.187395693012923 0
20.48727584613511 16.92363713283785 0
23.82165330243962 6.459141589993385 0
19.55925971013018 18.57621462296932 0
15.19358115327603 20.96691866171719 0
11.89962262913262 18.27544605532943 0
11.03384159869375 14.56751183704694 0
20.65850378531013 10.31310308463061 0
18.91011561022835 19.26891883766943 0
19.36448779436222 19.2343568298369 0
11.93612683561981 19.26146837742824 0
12.99757197175786 18.46440959796186 0
23.37814579012923 12.8770231858309 0
20.72922097934752 20.36514008615541 0
19.7190471765535 18.9729107219302 0
11.49138046571393 16.46117337690398 0
24.47621779984703 16.69793251202676 0
23.73407772517327 7.183970849349738 0
18.84601246545192 20.02795573383784 0
11.38716995578348 23.98290790583506 0
15.84744350249227 22.25397525038464 0
20.7213652243658 13.43222618391155 0
22.6254903258841 16.3702398484007 0
24.00065948734714 3.743436098889532 0
20.98120125828646 6.071832745057447 0
21.95680818737492 8.309608994132116 0
14.67996048694031 16.17931157538209 0
11.65208793602251 10.31125261307569 0
22.77248194484446 20.16993058269733 0
11.34649204438771 10.84892244353753 0
23.44314038189499 9.831746114510217 0
13.57163651132788 7.921720481371498 0
23.39445158011253 16.28874562012006 0
15.26374297837952 13.79704645135543 0
20.43561233123464 17.41090295813162 0
14.86983444432329 18.14654357463198 0
14.48530818227306 20.29251704249021 0
19.84831997783063 21.44903167583535 0
12.55199241878891 19.65363726546316 0
23.94799400656925 10.66010844417253 0
21.10217051746775 11.87322474225505 0
13.5240234404295 16.69684039116201 0
12.07119681760614 14.1300295690025 0
11.4959014928926 9.317860521215621 0
10.84614429787434 4.462829571702857 0
22.48562053729675 13.76264056331902 0
12.32013912674547 6.463899762958873 0
24.06597727677144 17.88126640678019 0
16.59715941050183 12.7828031925008 0
14.5198294556169 10.19910062203991 0
18.85355422900524 12.9624903908972 0
16.01077162845156 16.18507797230059 0
20.96925379959248 4.327804397698524 0
20.35045190379831 11.63227310873277 0
22.87606638421029 9.752810290958973 0
20.18169803834925 12.80825359515651 0
22.95042754700137 8.235243370019809 0
24.57338953555737 16.14176059726581 0
21.19150765844388 5.740211383239938 0
11.74532830657122 7.398111893159929 0
14.22564358784683 18.67122198650977 0
20.84916196525335 5.800975741241948 0
24.37671185964969 14.96038559082201 0
12.21716729806124 8.77533696135128 0
13.68256455032622 18.19040658536911 0
23.42162050587776 11.8734363435008 0
13.02649764178009 12.10133684645881 0
21.36324870273691 9.119100188853066 0
24.1625962047254 8.595325053980822 0
10.42382506349328 19.71844899616607 0
11.07298668941345 14.02019555958767 0
11.37237649829051 5.031793620136265 0
11.7783066626317 13.83281547306494 0
21.2946620992322 16.49996963535359 0
12.14386594288018 23.93206082881949 0
15.78145804593831 19.97590539834077 0
18.439606542277 21.40254655308132 0
21.73235006681161 18.18565817300889 0
18.94081202759745 20.79508417920408 0
14.01205768662271 10.06604909622163 0
13.38322610373929 9.716322133083425 0
17.34488280127504 18.59967435596807 0
23.32978328211213 20.10528345681425 0
14.06992431665739 12.16748358002055 0
10.97080768734349 20.95500835741393 0
13.2470417322154 19.2994077964443 0
10.80516447613434 3.432142575049867 0
13.8321267625066 23.37239368204695 0
22.94264836235083 9.478222742095626 0
24.43409853325756 12.54689986381621 0
23.90569572117578 19.39924171720678 0
10.7861972377023 13.12437616671566 0
15.52506209550994 22.84496406140339 0
21.86188092662461 9.719693748019981 0
13.15080201725674 10.59226920710447 0
12.21005349865864 16.29169870210573 0
13.31256684314826 4.141402338472256 0
11.1033108681337 3.986383640136951 0
23.72421427989956 16.82772033904287 0
22.59837224814729 18.63553570820885 0
17.52207818863038 20.77031077392179 0
11.84531695395566 23.06702438085477 0
17.46521947136638 13.42129834321541 0
13.40594003180528 18.55089384518864 0
21.30414186320678 11.57344262380576 0
18.87449240031887 16.98733542134021 0
14.69590543576359 11.95088571466223 0
13.53152594254357 18.95676389939382 0
12.10919125875198 12.07260478240917 0
18.4124370066242 16.94762679871292 0
18.06223816624899 15.99999687782599 0
13.05110902377247 16.10659158547725 0
13.78648836373844 22.64456870388985 0
24.42466987240546 9.625768317300608 0
21.00279236404299 8.673443679983912 0
16.59996472414529 17.03274200733791 0
21.57911515493959 4.382689112795864 0
14.18105971192258 23.32918172252427 0
22.79962692645039 11.67301028642898 0
12.94885499322562 10.24455713943265 0
10.78552606633402 10.84995206910038 0
22.03318361303304 8.851887280161538 0
15.03282245611992 13.46602308412201 0
23.32223168370599 4.135858913527562 0
13.52821169416898 23.59006903307777 0
24.36651969133755 7.39998809854376 0
19.82142856787083 12.98405612181365 0
12.61887369545879 10.75053638292133 0
13.57293823184199 12.71882149482126 0
12.85492500819356 9.07344447545193 0
19.89368807497932 18.60704428907264 0
13.30946068063034 6.072833527925104 0
15.51039259825882 21.47693368886775 0
22.08341617423561 5.948717477544938 0
11.67982151344727 4.132378168591335 0
12.85068318075488 3.384650465680553 0
11.36853462262931 6.915077947484354 0
21.07307012325096 20.27044429009305 0
24.38714501625719 15.83065771166272 0
10.7603204107202 6.756016889088196 0
13.17548069543826 8.963650540324636 0
10.59814425757401 10.21186139242707 0
20.46863617298595 18.03220304926346 0
17.01178755939956 15.93296642812934 0
20.77785634148217 7.171984166542527 0
16.99897888011503 19.53340741926491 0
11.97157462630205 20.23855814364686 0
23.57758673027733 4.650041024890831 0
23.50870747563873 5.441898494906972 0
12.22734093955754 20.46288476120032 0
18.19370771800466 18.74060230965629 0
10.94909052858213 5.81802232906522 0
23.22180771108439 14.74558740897514 0
19.82142856787083 12.70908998313477 0
13.16438257071505 3.475174531275124 0
14.1298218358944 16.05559167194544 0
14.83994710891291 20.09817870944647 0
23.34515750624886 10.09187668744685 0
12.33517468892029 17.47059921038619 0
10.85732597739509 7.938935735440598 0
13.28801003745312 22.11751061984417 0
24.39795730850253 9.984868720853493 0
11.51397762799832 5.895221468047282 0
13.60139714399648 13.51147191222189 0
16.96428571286854 12.70836442144616 0
20.64263475459041 5.544686039195248 0
11.59558685214073 7.632758420118948 0
12.24870283611878 4.062146216815803 0
23.33575097463757 8.990290280501766 0
23.16975778814964 2.774209106821 0
12.39691985925559 17.91189618656312 0
12.15299137794101 5.917205837559056 0
21.38424300399402 6.529823446051248 0
16.65432330929578 21.65002685651998 0
13.06014081390418 8.527047135590038 0
21.16300235068672 19.50252744880531 0
11.42205185556228 13.50257466798264 0
11.5164032444342 12.45103809715296 0
13.83826095568226 3.452028359734931 0
22.8689522949783 2.81311142516399 0
24.62999152287789 17.63039534342407 0
23.67115269865304 11.95319927038366 0
11.79057960863828 9.552930428847903 0
12.85252133251878 17.99906819970693 0
21.63205246950271 8.132930688469052 0
14.47303514769862 9.475265312342236 0
12.76713025251614 16.85172718880852 0
24.32148218157926 11.85688579569388 0
12.65854837147999 7.877987548234202 0
24.09274212144228 7.167758219857494 0
17.86672122047517 20.123585652582 0
10.59690755162154 15.39702650422467 0
12.47759253773428 3.854953131092052 0
16.2814006958754 21.5048984285044 0
18.43929750690031 20.09534823296053 0
23.8218877945426 3.437089056850363 0
16.30824459762382 21.81049207300294 0
22.71711372536972 11.33177818175776 0
22.70543009388719 3.638133534031847 0
17.64072423634522 13.13902318219911 0
21.27596427655015 10.18699253976181 0
21.55305550718122 10.85796285601938 0
13.17460303724903 20.01140133055646 0
19.38672490371592 20.74233110542808 0
20.90851810284573 18.50842355218019 0
17.33088466513707 16.60962056933547 0
12.13150896877917 10.49786793899156 0
20.4344308721837 10.55867386968229 0
22.9415702487448 14.46206626368216 0
24.29818786160606 3.782849396018331 0
21.16997252066066 9.438247774400013 0
12.30275991443134 3.600211246932662 0
20.93831820567758 8.341436064285112 0
14.07619199862383 19.39337690140123 0
21.82561771645737 7.267107894727193 0
12.70511774656436 23.08818229030243 0
12.75484756806944 4.013025569601986 0
11.07137374037982 24.21472631397594 0
23.03519599527679 4.03741529807911 0
20.55253379183248 8.344864556879799 0
11.79855805751637 6.535796135042767 0
20.95692074352853 10.28992660430594 0
20.64198069419404 4.834331172092414 0
13.01448629684135 7.825946781696488 0
23.48864498778315 14.9828101421266 0
21.0324361437689 10.046904141042 0
11.18077513912106 3.437466185549624 0
15.72688216471567 19.28894017066848 0
17.65774804073878 12.80089785230248 0
12.08676316311039 10.7811149167134 0
20.55004273105976 6.309126745697277 0
21.89809002419284 18.84158136657068 0
21.5366242025927 2.952363490069765 0
13.77769221839037 2.818118926794609 0
24.29482744059816 4.87758826694794 0
12.5916015747188 7.328089625009246 0
12.53291921124314 6.960874952933511 0
13.55949394389015 13.95145593156604 0
23.66139235456487 20.09412095200659 0
12.09664127693562 13.40018640719051 0
21.12868196277929 17.17788431046073 0
19.69749992863827 14.09445621245602 0
22.19106725649206 20.56629202251731 0
23.94732317336418 13.82314252388896 0
21.09623445428111 4.549035627663738 0
21.42510266227866 20.72730632580803 0
21.65454821287102 8.476024760090212 0
14.66212885633567 18.82100326126566 0
23.18104994359489 8.462032100691138 0
11.14264889978999 20.70994331858242 0
13.9251692788 13.41099122412709 0
19.97883202273953 19.88496011548202 0
12.33847884502533 9.868300471968958 0
20.8648730805837 11.10400115727333 0
11.3493780762733 15.18294866649247 0
13.96008988046685 8.766045422040282 0
20.51721173756393 12.57390983641806 0
14.85006393560332 23.04850052700019 0
18.28361507006959 20.73025279339657 0
22.16509108440676 8.584984995679257 0
10.47641392686409 17.54729178800162 0
24.19980777293297 3.434820966339021 0
10.49906856257605 13.2012502831491 0
24.55364113899398 14.24691194608065 0
24.67030347977472 18.77005854516072 0
23.45427208500043 2.951431663947738 0
21.22302006992873 15.66892894452022 0
10.52110297211894 15.02285817722114 0
21.55171671164197 18.49801174008573 0
13.77795435629253 20.71851429278274 0
12.50127568292429 2.885611922251903 0
11.54902876822301 2.951003042400203 0
23.558041518267 6.924186449550893 0
23.28509694645989 6.211011227013874 0
14.44321353218165 12.15522825099368 0
14.52319938443855 18.03106176858109 0
16.71458834159828 20.943527405244 0
17.90145193281438 21.32316528456652 0
21.83561742822051 3.475174531217103 0
20.9142214623234 19.72812107665062 0
12.49975706457826 11.65813634599365 0
14.28248624707622 21.53766303017764 0
22.56935500820377 7.746243432938607 0
24.38401643174776 14.5275559984726 0
24.32350544770355 8.27198454887978 0
10.42143325108347 18.66160609465188 0
13.72001895325466 19.87127133070917 0
21.39357900906989 5.077323877556399 0
21.10609682135586 6.409557125283247 0
13.23757916879851 12.92422475187612 0
12.16003647487131 6.762914425941449 0
23.56615071089858 7.874985367307717 0
16.80073250372532 17.84098253808842 0
18.83689941368792 21.1816155841639 0
21.50319784457376 7.368852083560361 0
12.63411401989577 10.04312385847665 0
23.39139728725985 7.402379531102688 0
11.43130188634564 23.57334338145123 0
11.57435506802412 5.596871877365873 0
18.65792298998642 13.26361392945596 0
18.537184846742 19.36700422443304 0
22.12672805176831 2.81470279856325 0
19.67487088167408 16.86401255602511 0
24.26360421140152 5.529093598063563 0
22.91438033528848 12.41012553496697 0
18.02504185080792 18.40041763302643 0
23.99871229253688 18.85053259712659 0
22.36140172118921 15.51786666846521 0
11.23625042875718 13.12967632303975 0
16.68708593236921 22.31323970961811 0
11.87879597240715 5.655079322053982 0
15.18335942462076 22.91590221776355 0
18.14358486931601 13.19740389025794 0
14.31853141223556 4.488712228901138 0
21.37257764762844 6.867616671131778 0
19.61287962843814 17.30685492857451 0
11.88056962997876 22.76327897801743 0
22.44635728083724 19.54464545592239 0
13.52848061238676 21.8323231592709 0
11.73568162904759 3.805892455476814 0
12.75432679755576 19.25555122287455 0
19.42964346110953 13.5079719393016 0
21.86370496441597 4.334345097837391 0
14.89521384234709 12.79670235552119 0
10.7445254427368 3.115123581949866 0
23.57491632170197 15.72376324402112 0
24.17632858985834 18.52003480801071 0
20.57385056767435 7.021276823146289 0
15.81277468689258 22.7869197251388 0
10.97507363417215 16.83381284062354 0
21.17059038732599 16.06323384164978 0
14.4656676896811 8.452557916469162 0
17.60092954731006 17.03654014247033 0
24.12230402356515 13.15109625804456 0
19.48959955673983 16.10119572661713 0
13.31180171029757 11.47082592718965 0
13.99065536111868 11.55935035069941 0
14.4327555934744 8.016958176321577 0
13.09841504308181 5.865974579385476 0
13.16457078869027 22.42228991781243 0
21.81530594278794 15.62953366424133 0
24.1610695055832 2.848828432761104 0
14.80652605576969 20.47508375303144 0
10.70860056230389 3.775424097768954 0
18.57678210657035 15.87757585615414 0
19.59692615295587 21.33845537114848 0
13.13186285399346 16.56140714324555 0
12.09555412790331 19.53832831914141 0
19.51045473097214 12.8342608436049 0
11.05200615128436 23.39850662639108 0
21.00032706440381 13.34772326788879 0
22.24367349556633 4.02647753288624 0
12.38074385735514 12.30057186853794 0
20.05511183649367 13.22457361393297 0
11.83568978376894 8.235690220203093 0
15.3414021277443 19.30588036901169 0
22.72309709092566 8.025114886841303 0
20.37555569840476 9.475474205679404 0
21.38507436670242 8.768734579774403 0
12.03534939731018 23.34619521570389 0
21.69253810430624 16.75720327007792 0
10.64586953598966 9.473131438499303 0
14.782185215443 21.17494436453013 0
20.36184535882654 15.70668859752804 0
23.3448080966722 18.8848651140942 0
24.16088453983272 9.787955552592631 0
23.92376765545193 9.331997774149762 0
11.54971892292943 15.48028893519664 0
12.77976433042003 22.42126965662116 0
10.4236503853449 21.17986229916413 0
22.78708094655853 15.93975298265595 0
13.88363730393077 4.832643667280014 0
11.44089771731602 4.652240642680081 0
18.83110595044501 18.53766513767835 0
23.62986309356385 10.0270234418215 0
11.1643491579856 23.7517382859001 0
22.65799703375458 9.935957226415463 0
21.55206869583398 12.25300270893328 0
13.28832006802048 17.57095034365416 0
24.41235665072723 9.294984734619682 0
17.63375821426047 21.13847262739748 0
23.65555695270304 11.66705679598603 0
13.43300230862652 20.81804817183469 0
14.75180768314874 12.28201861415485 0
21.94879046275378 7.957890428492595 0
15.48573625013651 13.35815496250913 0
20.67719687641829 3.761984841878798 0
10.6932234703907 12.53039909179196 0
11.84903460017145 10.55191232141614 0
23.38021267715253 11.65572155253171 0
10.6324394342738 8.868989954802519 0
20.52542789577813 9.765021769422605 0
11.17815704852728 18.07359569464186 0
16.73158273287407 13.7778991087021 0
24.28050326547736 16.92210811076375 0
22.98713679094331 10.43123786699928 0
24.48943650196163 11.57716975879821 0
13.1713522764556 14.10871088386178 0
21.90679588539239 20.25482735159757 0
14.71232648402079 17.34186174854121 0
24.52297791809265 18.48182890225103 0
11.2311021100835 22.11134187543825 0
16.67196806831305 13.42979870806988 0
10.61768722405642 16.18078433061842 0
13.49731518398882 10.51144441675998 0
12.25863765670178 22.39532287543724 0
23.83048275680594 15.53744334239452 0
23.78048181440771 8.6540105425059 0
21.72809609122184 20.77671433482898 0
11.53913145707793 22.12807320719789 0
14.05147410372303 7.451074911586417 0
11.85685754984038 7.638637082955557 0
11.45990871124237 24.2555957812284 0
21.03008464395591 7.831898507799423 0
15.52517232885715 12.84958088775027 0
14.30157220777393 5.195189249454994 0
11.60796923647591 17.27841605254546 0
21.43425002673886 13.80060607934086 0
12.12092730458384 9.000985044487265 0
21.46154259155712 15.1378595692624 0
10.60858410156585 14.65458049427891 0
13.35760298259056 7.698053132735005 0
20.75309431584184 10.07277960307294 0
21.52432066775158 19.86732595318782 0
23.85617007014062 7.871665853499115 0
13.20400277510808 22.72508963637152 0
13.91642487793354 4.054830878388588 0
23.25053849291041 10.99213045082885 0
16.13532770898772 22.0396430995912 0
13.94449461906984 12.78071284382224 0
10.9297363614825 18.33642389682937 0
23.47968701252701 18.06633396860689 0
21.96312687124558 15.94047958244101 0
15.98214286211781 15.80243771789858 0
20.76706799043713 20.91863963173902 0
11.0254684112026 10.99619852827509 0
21.59009774391316 17.07776087462443 0
14.62244555438416 9.833325863445268 0
14.28467152729615 6.77290566327706 0
17.39990287032572 20.45565212547134 0
12.87332608524328 2.814627005595871 0
23.82870366510799 16.41450763110909 0
23.61782462086305 9.224532188411425 0
16.3378876398612 18.6402698239163 0
12.69468244640943 8.39663601933901 0
11.60873970149424 7.137223734687431 0
20.87076210265489 17.82869432427277 0
11.97654381904952 22.43375745263121 0
20.49644807486318 15.25036418767197 0
21.30830261708556 13.42647425020873 0
23.03309054037472 5.988761449316083 0
11.08657128876229 17.77363791732762 0
17.98006384517337 12.97713982583745 0
22.67857150950039 15.57296613477839 0
20.39982586329082 14.11806613391072 0
12.38135980441237 10.63179543861987 0
20.86902080259671 12.74878049291972 0
16.91169405565507 19.88281829605195 0
11.65979112447847 4.432253390442661 0
12.88920108543449 8.830867972174762 0
20.75125033907442 5.189617720826595 0
21.22230777919366 2.818118927336157 0
22.94175507646428 6.685346356813152 0
10.76102321955878 23.57978241881861 0
21.10594288056934 11.33583333971717 0
17.55933127437601 21.74199814597545 0
20.64901579514594 21.19203435271548 0
23.00845770971164 7.32991246214254 0
12.75508217299659 14.01835862825262 0
14.51512406875145 19.88623636045858 0
13.81635457482355 4.555275746375839 0
21.1624225479346 7.131293436480552 0
24.24894077617389 16.06836132833575 0
15.18507404123115 12.75033107774204 0
21.48463524392244 9.67505556767077 0
20.92348134284547 11.65397993543401 0
22.33271398946482 8.355767541184656 0
16.9095423852558 22.48734540431545 0
14.42639222348136 13.98131321066721 0
13.9527220275651 22.01769391135778 0
11.10279084540955 5.090875822832044 0
20.88068769863199 9.286526363354342 0
22.41010144993956 10.92918787725647 0
18.27290684602229 17.32352226773886 0
22.63458521026713 7.398788317867147 0
11.22137612709907 10.06564516947794 0
21.53361492315309 9.98252876438973 0
17.29284546825418 21.62049723091676 0
10.33381360500176 20.8345589136771 0
10.7659162438939 11.23632598028664 0
18.79433822444462 18.87433491506983 0
13.77387594845742 8.982893668599933 0
21.47278244041084 7.109140941946148 0
21.63247456830462 6.347762371776807 0
10.84202805743665 2.849675374099621 0
10.50915622909023 14.29914299659669 0
18.87166983997527 21.77581273496446 0
13.28570678379707 3.804992700411294 0
16.88489079483735 18.59324281240612 0
14.47570129179 13.1857517548845 0
16.45761939822327 19.96910369205313 0
13.75113761450047 7.360576951111137 0
10.8539900461156 22.55400959310833 0
13.64950535294908 10.7057251751022 0
13.59081083734909 5.678403386963564 0
24.35205872036511 8.910890003351298 0
12.13808433549466 23.62216181670047 0
13.3658824782246 4.771141900026585 0
22.61054146708577 14.97373311545277 0
23.70887201203403 18.32452697237061 0
10.74104240020772 10.47449027300688 0
14.17168274959946 10.75524870534458 0
14.36094462853342 11.39747158079182 0
23.18155591856375 12.29764208280165 0
10.8278910312697 5.143925694526537 0
20.79128930588087 3.417572348549009 0
18.02454981874446 17.01073109750176 0
21.56417770494195 19.2084719037934 0
10.50011946804838 18.2663760090666 0
19.4494277021985 18.00235425254714 0
22.36922390617081 12.18063220262393 0
21.90791802811839 6.627914711597172 0
12.59052597968368 19.99084965595359 0
11.78848926385411 12.792460643615 0
11.39536443275128 13.92636440825083 0
12.68624175460857 18.78580438664473 0
23.7675437649361 12.44703994601215 0
14.32148642588552 21.86752791402715 0
11.95473737713062 7.137728928910203 0
23.26531116237105 3.812913575008198 0
21.15315992772765 20.92402038959377 0
11.77017860739098 24.04478240138496 0
17.41551932302354 17.41463222088641 0
20.88589113887093 16.99352720954757 0
12.40932771548652 14.08481756278489 0
16.03238095026155 14.003022605189 0
12.79340114807169 12.35731498888233 0
13.6577971517947 3.885313178611027 0
22.38382137476835 7.610464924462869 0
21.33597942610233 3.902773386440325 0
12.86663293492612 10.55848604765962 0
13.47402478484725 20.04720538607679 0
23.71152620035936 8.121214531332914 0
18.34684734363695 12.73903449149991 0
24.46506912846747 13.2355208632875 0
17.59135485294908 15.84903101900884 0
10.43452591717024 16.89553248057355 0
17.05644416840251 22.23062789316487 0
10.62592074116772 8.515608687108385 0
11.36556311172335 7.317274255892437 0
21.23844271273977 9.862666971821154 0
23.92716299620861 9.651972595451099 0
22.39387481042597 16.04145332654843 0
11.6500608279068 3.253421716731091 0
22.59364158482428 12.49760656746015 0
16.55292008922114 19.29358684382074 0
13.57805401100991 21.4510694075619 0
14.46556492239888 23.1128323190864 0
22.72631590781899 13.18757226924875 0
11.60555727517841 23.81576425201468 0
10.37896983511152 24.47224348733194 0
22.75163695113217 4.060878118036847 0
24.4672433810656 11.02242301977727 0
17.71132144704838 16.31970095734163 0
24.07552566389831 8.83385703096727 0
17.65969623700988 19.4328884235823 0
11.07537905741961 16.05255695248175 0
21.78800178812685 13.87676508878258 0
18.61189680016819 17.9997746617164 0
11.23967691237994 16.33301351825165 0
13.94511735875361 19.01839751288552 0
18.75169086521105 14.0596511401029 0
16.96627131093164 14.04672706222914 0
13.91644360705812 20.9835997218946 0
10.27525471568873 23.38775624265394 0
12.01720290608666 11.10525751942134 0
12.57846674926096 23.41112457863737 0
11.0621527557489 15.46208925658871 0
22.55286815140354 14.40829871735068 0
17.76628040397309 18.65300206875511 0
13.88799057410871 6.748996253874503 0
22.16975859650885 6.438653725312705 0
20.63715720605315 6.645950616721309 0
21.86925733527922 14.55872956201208 0
10.67762132179374 7.672005773277625 0
20.83690426956614 6.939847589571284 0
10.64058772463348 13.48448781736715 0
23.67348418039296 9.755384053317583 0
24.64833972984335 17.3436017684848 0
12.30507112189133 15.97093965966609 0
19.19454992850134 14.1820432764006 0
11.66872776250016 11.63061484821564 0
10.79974057747191 6.159412408404064 0
11.62430126799304 20.17331567231711 0
12.07467722521509 18.92135156015312 0
24.52341886018828 15.47635364449563 0
22.42665375766282 10.40825802666692 0
21.23402303880802 18.56355770118573 0
20.74708314361133 4.505954447456913 0
14.52825021039148 19.46447989567731 0
11.99055746362171 9.794054282581154 0
23.10956304630399 13.20582735048075 0
21.58378123271871 10.38861873873713 0
10.38783093022681 23.07384195499427 0
12.54939874776046 20.46572504161553 0
16.27703884241534 16.53435505857335 0
23.99577515220558 16.1334371180546 0
24.63213308939741 16.46026608776249 0
23.09326824552359 16.57671345090255 0
20.06663760369139 17.62747465771941 0
11.22739531767981 2.814911991056998 0
23.25263231835072 13.610693431107 0
13.07737912385499 13.32193684685637 0
22.32072621382208 12.72649744427315 0
11.40887387935146 20.60072707359597 0
11.560270277637 22.900590051846 0
22.58524689622494 19.0137628549486 0
23.71297987402152 5.784319760365064 0
17.03692052505957 20.47278853026275 0
24.54865437182786 13.53040146758652 0
14.08399280257956 21.22597602723475 0
11.21559091321227 8.701748521243312 0
14.39814060491613 11.04665221591806 0
20.66536569513554 19.09672392289012 0
21.58959572338894 20.49563371108331 0
22.73418646961213 3.080906407534603 0
14.5357287331556 9.05527568993653 0
11.83171061724499 2.77366563888511 0
11.01930198988772 21.5715460418696 0
10.82852359813225 4.070558365551193 0
10.98385658121599 20.12859904493672 0
12.10891164410041 16.60042611114658 0
24.13906845649639 9.14813968937545 0
20.39788025021481 9.22424837174505 0
14.46268431731095 6.555597499874621 0
22.70037308531516 8.969078513647723 0
22.25282900949617 18.47411381394511 0
14.60885683179806 12.57569940959397 0
23.9527541333706 6.104678450112921 0
12.49749100912694 12.90079670691949 0
15.42718401110052 16.81642666206744 0
14.06888717382079 7.964496656664859 0
12.75554060643598 3.094158240046037 0
20.0384892973205 18.84673729593885 0
10.58163551850641 7.405969545704034 0
17.61472321148166 17.83533832786274 0
13.83649605651195 10.45694633573108 0
11.62589175247981 18.49841562320747 0
11.20927736182876 8.008908031325511 0
10.37265638638238 21.57904478234129 0
12.78782365189037 5.98749858547867 0
20.31854976565638 21.29655842775007 0
23.40911033315865 8.700391340689544 0
15.54213444998489 15.97790917460753 0
12.49213490726075 22.55257007635284 0
22.43833431354255 11.85283404937276 0
24.70714030740771 19.43703472749162 0
21.59964880467544 17.89780498149797 0
22.71109872963459 10.53439403824287 0
11.40133903280925 10.30550081719701 0
21.54598945493898 5.431149027884013 0
24.46918115340319 12.17297703808248 0
23.42223437820955 16.9888423425403 0
11.64131437094 6.202300288114641 0
16.94597248395284 17.3558703179159 0
11.11618060538411 7.459854585423077 0
10.69163500804036 9.859630990627265 0
15.40484708248362 22.25164003101467 0
23.90157280600882 3.989647194243277 0
16.39561879150688 20.40661372387373 0
18.96025188067497 17.36680781731754 0
12.84895071773168 11.60955320528683 0
12.22105072400922 12.68040789877174 0
21.1004451517552 4.076293054257122 0
15.38037979298412 18.67831830872123 0
21.61327290678099 6.673324026150773 0
21.86725846158727 5.636801751198404 0
14.91576225553753 22.66163796817404 0
13.74730302665741 20.17394340417437 0
20.49096502375124 8.023388079769349 0
12.49000408779216 23.94334080117301 0
17.93684530928818 22.14128074868347 0
20.01544261398895 15.96130737025435 0
22.22258801521416 6.693738974266603 0
15.58162503927592 17.21439536914326 0
17.85714285031339 14.06498105623528 0
11.96178484141054 17.28407218199453 0
12.96625520139593 11.10337500039782 0
10.85024271196116 20.55718466438786 0
10.34346690999617 22.68842084843688 0
16.2019355700786 12.84050249654628 0
10.76057661723216 24.41437313288905 0
12.65039050262978 11.02723764445928 0
13.46673457045954 22.56359243775243 0
24.2960661594599 6.102858849220283 0
16.30972753527226 22.6245750494786 0
15.09853236147717 20.67649767913009 0
20.48331961493863 16.51435016910495 0
21.56496366612213 15.8553400011496 0
21.85168153241172 11.86649629765964 0
11.8275460502141 22.19223749021892 0
16.86971265613869 19.25154542310015 0
15.51107451687194 14.12681162897224 0
13.20105521719322 23.58161467075193 0
23.36621501673557 19.5641953932585 0
16.04183357489497 21.75534981296283 0
20.08307491420292 16.87576664522938 0
20.83038699585708 2.846807272039155 0
14.16961300463763 2.846807271188512 0
21.25839676204961 18.88976588331024 0
11.47889434797806 8.610417719550968 0
20.55901901485813 7.318900889275825 0
21.85513945846787 15.15065688242635 0
21.44481632647735 11.262677539501 0
20.82476858293267 12.02954707251661 0
13.56656967123788 5.021942290954217 0
22.49236259042554 20.08241045501009 0
11.42802688024278 8.358877102188806 0
15.25181124356711 21.60822534987944 0
12.21047719749869 18.27686906595662 0
14.15079485212938 8.554230737787217 0
19.07976307840477 21.60414896575732 0
22.3161324428672 3.637715943224476 0
22.08551554537271 13.60162509359053 0
18.53158368535247 18.71564596944029 0
24.07013492540908 12.64061687438461 0
14.8502327547341 16.66916046808995 0
17.58922688651027 20.03690608190453 0
23.16934968472788 18.71063714559646 0
20.57727469167806 19.75351521103222 0
22.80590312581316 16.59462999090645 0
13.16368438105994 10.9117507351666 0
22.19693245710504 19.86474207726743 0
22.86256251174087 15.29863384042168 0
20.57585084092564 17.69889181741875 0
17.48951400958585 18.98937509801092 0
22.12533341694784 9.94429620365186 0
23.91649295338679 5.133668359856505 0
12.07134069089598 7.463485723145477 0
10.56286288602882 12.8492463851734 0
23.38311978095141 7.159374745176271 0
10.75206923201232 5.546402919177469 0
10.99215723708496 21.95381434528106 0
20.63047409749232 11.55875539512021 0
24.35364150915441 7.95841430801258 0
13.52277551600369 17.86598267384478 0
15.78727573018221 16.58075128596171 0
11.34465503110255 11.39790425245683 0
14.92410045807333 14.11015105922125 0
12.30039943675454 23.44999524152981 0
23.31610123041565 8.109820828213644 0
19.59192167239721 20.45691727583892 0
12.36838413725907 8.450090180534676 0
19.17002546998427 20.97643660549636 0
17.03320557526395 21.83784928769373 0
10.73256146767454 21.13047083528068 0
13.53283165350162 11.69942028740262 0
15.15342224886986 17.48003619266473 0
16.04243639070376 20.65611106460292 0
16.33748553158649 18.03114851881478 0
22.29195020527666 19.20847017183802 0
15.62487691248801 18.0728925146623 0
21.10675195414566 8.102743210828036 0
24.66700719550698 15.8129348150181 0
20.98973476367875 10.83483809972987 0
11.019154953028 11.46444569594307 0
13.17582396994114 2.775029556533505 0
21.82418685407149 2.775044715039375 0
21.3911405411877 7.654346677115072 0
10.46351695381951 17.18945953782817 0
14.41765084273833 6.302844330113143 0
23.8556409433954 10.96897685012472 0
24.43343758554436 10.3301364997596 0
14.85604626469074 13.76418335519747 0
17.5980487417531 22.15476518668707 0
18.93571840500336 20.44019729689493 0
14.67165168149829 21.56824908278026 0
13.88012400538918 6.107019381873958 0
17.97081578299496 20.60415711588446 0
24.58711023855268 13.98039341336818 0
23.87292694246038 10.2771957964631 0
13.78616978340185 15.83647982288726 0
15.20082657644802 17.87289553100982 0
20.67811200527978 6.055478253054561 0
15.0078503661368 22.07861159089219 0
23.17285522461461 18.21841976308552 0
14.56607218238725 16.96750411808601 0
22.18387441015637 11.3460191929411 0
21.71429321459778 3.804992702788622 0
22.64063231916352 8.316159275791145 0
11.31444323026654 22.39857546937479 0
13.73401984251015 23.01900381136548 0
11.68511478589839 23.3420499581182 0
15.99871648567349 18.71462655033543 0
13.04206581660257 7.411474039876005 0
10.59194888250558 11.87108324139498 0
21.83183259577996 19.56686514141337 0
22.14956884344645 3.384850836270126 0
17.33171379890826 22.28551144354452 0
10.69092763419818 6.425451635429426 0
11.97330147086442 4.032820794717053 0
11.01939418591268 13.35864638873041 0
23.19818825900257 6.540463436253777 0
19.52804209913817 19.62974030844651 0
14.38565501578437 5.765822968638918 0
10.48162859182967 17.90389117691733 0
14.94736458274241 18.53661076313555 0
13.37375832614055 8.40053518805372 0
16.05134251307939 17.36917503644968 0
14.05594447702925 9.791741793259332 0
11.28417617230555 5.746592170348331 0
12.77189182026031 6.339502994636435 0
24.01496506459218 14.50132630496148 0
13.8692022428238 5.560655666897838 0
18.14312708631343 21.92539036077091 0
23.80690724017714 12.15576867603241 0
22.69741951243946 6.399990878441188 0
12.12515776994824 22.98684339601265 0
23.40778398806235 17.26635001854921 0
23.94767501406462 11.8515870913583 0
13.62159390600919 17.30478051530415 0
13.04460904531123 11.39758118877763 0
20.18749318917016 19.62029336257278 0
13.86889894180589 8.465808467582919 0
17.07282398335709 18.93451437986644 0
13.7941838265001 6.45082440779592 0
22.11367631340626 12.27561914466956 0
13.51338338886264 9.997543956826199 0
22.41221972266847 10.0944363220415 0
14.60720108246264 8.755529271597606 0
22.82268830766647 3.333104832665361 0
12.35931306212315 9.37341153007143 0
11.14327693747347 19.80023472197563 0
22.79890217041447 20.45710832544722 0
13.61750802435679 11.02817952695668 0
13.82134191328844 21.36469723506677 0
13.18702127399257 7.004396151645687 0
20.63261264852294 17.18435247666944 0
15.22425038084697 19.61798662821149 0
14.98178591111953 15.90233744075311 0
10.96367699032551 9.300793757994368 0
14.47416641332959 20.66624326937549 0
18.61354047232389 20.75832330027795 0
21.3384314018558 12.0896663992292 0
14.43631705065803 15.82394529142188 0
21.34930219920937 14.58027125950252 0
16.47198805749239 22.06172136490688 0
12.1791514144476 3.334317671534116 0
24.2072843677369 14.7488253386419 0
22.79196836033107 19.90442665259851 0
10.86981391120856 19.32786947985673 0
14.86042248365973 19.27672014957725 0
22.26158190145842 15.20828565596343 0
18.82136538680187 19.62686262801704 0
19.30078064767247 17.10435759627673 0
15.50232593974865 21.13619224363391 0
23.63888203018257 14.57915404417307 0
19.42098918525438 21.05243506179981 0
10.78034315747969 24.1128018984228 0
22.9813105272427 12.03169663433596 0
20.78995323362309 13.11405434813776 0
13.20436120765077 20.30563361617847 0
23.4946491186706 12.18690875433988 0
16.28464225422475 13.50797194154154 0
12.59361914625636 8.952207493703472 0
11.00204326496939 10.72463039920708 0
13.37609545279341 3.258336049293684 0
21.33809303773495 3.209261275756164 0
21.62390454591631 3.25833604999335 0
12.41424412378127 16.71950742954074 0
12.09712050490711 14.91369278844208 0
23.76958152872551 2.818132762695308 0
23.3538631773533 3.256932927507365 0
21.06125346571668 12.52172527842797 0
23.19027756245529 9.74218773696183 0
20.12944221789271 20.16333759693256 0
10.9795942233165 18.66600888224008 0
18.19501291874995 21.17145150944362 0
22.3477331048383 14.63251010658881 0
19.41082692094261 18.30148864564869 0
13.96494646362081 19.68220781246904 0
20.48939630338492 20.11031356259357 0
21.04977016684783 18.14048306651637 0
21.6109462112884 11.60919590989997 0
19.11696512066813 12.78227244108257 0
13.27444131655174 6.443853356176454 0
22.00733846770111 12.59739508383021 0
10.27636276130016 24.09843529787629 0
22.1203005776772 7.195796377393792 0
14.24995835988613 4.858979125804876 0
13.42970738544601 15.88481999700583 0
12.84314840233555 11.86771789097173 0
10.72310676605901 4.826031487525675 0
20.373832872129 14.81366989906756 0
15.01803677245035 21.73868647982051 0
23.13189656012525 12.60979352360887 0
11.79177331353477 16.53932830786172 0
10.74870121660825 22.19313350407676 0
20.49718131928686 8.712736956744212 0
23.04986404722489 7.992341332300468 0
11.76302258876388 14.78289527929365 0
24.2551464329553 3.120160913580722 0
12.90248328967706 17.22043376754339 0
16.87561830800196 21.23742642514789 0
22.39326132101722 9.225677007228851 0
19.68878807875852 15.79167793478628 0
11.11240316946072 11.93418940894479 0
21.98419180646422 16.49579866514895 0
10.93982946054891 8.97454161836349 0
15.70981555664583 21.75365529532921 0
22.90068920474685 11.04955659429161 0
12.95550587001316 9.342065788082602 0
23.42899683036952 14.14624045987139 0
22.40990401281331 14.06859227350089 0
20.82280010625207 10.57734164133198 0
20.41124415828194 10.17544897537386 0
11.44715571875509 12.84574516389908 0
10.6894817945087 21.45602239432736 0
11.71179315983233 14.20522794584407 0
23.33719597688462 11.38190052736583 0
12.42520305190051 13.29643211522306 0
14.12776738960254 20.0733393682385 0
16.58669439826716 22.59222078774528 0
10.57933968877328 12.21988540009623 0
14.26384351615905 13.55758432188443 0
10.36998447630001 20.10699538985038 0
16.52164798723916 14.20570822952649 0
14.47728781724102 22.1365968956374 0
11.07211704417649 14.29693306852404 0
12.70198172726406 15.87604004680553 0
23.41388089847777 17.74487364905181 0
12.78963232853872 20.59788707648007 0
22.29689139128258 16.57921941592909 0
21.16658645041673 13.9965948607189 0
23.06805739649767 20.01387472659228 0
11.49480108281799 10.08270348092557 0
23.65112581239821 10.49427387301639 0
18.03571428190872 12.69818993561667 0
11.13879977612944 4.541739244411309 0
10.56224187923059 10.99336286932653 0
13.14779144278812 4.352212399323125 0
23.98512802549848 11.23211433907416 0
14.45535921913965 7.026158015593494 0
24.5669053866808 14.77719272977611 0
20.28718042441989 11.91710984638578 0
15.69851116708902 18.53628833954241 0
19.33097674723873 21.59650548128529 0
11.41654749718577 19.69723874184324 0
14.0737468636481 5.794398708761584 0
12.05007137117196 16.96292795229859 0
15.30448488538628 22.59917275516089 0
24.43638207466114 8.561889924823625 0
20.05775826722632 20.85373033123973 0
10.97012089167331 12.39892702800177 0
23.86462699527729 4.549670426762439 0
16.33245609328415 19.57288200947229 0
24.39738151244975 19.92609722349937 0
11.574057368076 5.266075475554131 0
18.1611033194212 16.55464806329744 0
20.75841354593087 8.79926116891013 0
11.58783615611954 21.74818645630243 0
14.16658968745849 16.94579691119464 0
10.48333632511244 15.76605651622389 0
11.06790484041404 9.810806786116022 0
11.62739843618817 18.0585068312516 0
19.59818078505502 16.50164509651798 0
10.2965195353704 22.34088829642381 0
14.31912685726564 12.86792865528454 0
22.42529488780548 6.988540545499829 0
21.25290115565002 14.94658357347382 0
13.36239239186957 13.27171622011493 0
11.94106095904778 10.2749624132849 0
17.30951622056869 12.70626016574502 0
22.68912989707547 10.82673654713798 0
23.3450282147823 4.435391448339937 0
11.08047297987391 6.234073275189894 0
21.12687825208649 5.024180606697587 0
14.80896225677208 13.14458704010311 0
11.96964325997893 20.62294159691701 0
22.14483345988903 10.66204432151023 0
12.35677753890771 7.941913549797836 0
24.35173049700319 6.991399545461886 0
21.8754392899786 10.91927575255938 0
21.89879968149648 10.40457620753727 0
22.83449191823466 8.549956578821893 0
11.3549848346925 17.52151495669771 0
21.89083134449018 14.19411343720376 0
24.60248719572748 16.99126824565406 0
19.69047228765149 19.30979447852079 0
13.93631263171151 16.58489786271111 0
10.75430935822788 17.33565230335052 0
14.36060198641654 10.55915735549798 0
22.97364617333792 6.995502194311339 0
23.59203604578382 19.3893154819087 0
17.85428750223496 21.62783975612886 0
15.45470966826947 20.13731541807282 0
10.55384530007595 10.71090503100897 0
10.74692141599593 23.19654826875843 0
18.1728389580919 19.88941073786738 0
11.10291385667025 6.761002532681498 0
10.43630991123939 16.4008220433637 0
21.81298252049962 12.92583682994617 0
20.7344755400488 3.117359115533878 0
14.26552446044256 3.117359114887719 0
14.65228859081404 10.90643369909704 0
23.78744272630503 18.04063194827491 0
11.35900459496238 3.19762189036476 0
23.10550234136601 11.73207028762993 0
18.21974797929435 19.08986292957508 0
13.28780325353386 5.564146357422548 0
13.57105949548472 5.955687500134125 0
19.60273433569442 13.2289628977933 0
20.09561517308635 18.02020844575598 0
13.66190696125229 3.209261272461351 0
23.64295040189041 3.190509574406404 0
24.58916270495017 15.16696604462092 0
11.58337600520115 21.15858911059497 0
11.62639705733288 11.0218163113888 0
17.60042048401084 19.73690784156271 0
10.77067399515343 17.66637632740443 0
22.24466309694717 3.094450605385228 0
21.07245963002604 12.20850028655279 0
13.98024257570993 17.34086546973333 0
13.30724227636028 10.27295464099909 0
15.64034453088858 13.77068856694206 0
20.95897153774896 21.11243338394786 0
20.57262116689967 5.819421266274781 0
11.87818578814018 11.88109885183995 0
22.75070450967662 19.62101230750797 0
21.22776835351175 20.54030070795855 0
18.30507013322128 17.66171907308181 0
12.67353958030039 3.638382422203808 0
20.94789532175865 19.19751516530641 0
13.92092722111643 14.13888582856814 0
13.74541316027844 10.12652751690547 0
16.1420930281805 13.20010329531859 0
22.031654441165 7.566374684928302 0
14.07367597586021 22.57331198810946 0
11.35020836488013 20.29043066582787 0
11.71362303506869 9.119521929600689 0
22.14238272553666 9.135679869589481 0
13.84075094707013 11.20277819353249 0
22.74044285220721 18.38114473072412 0
13.04491536313791 4.067497381731489 0
21.94621720967143 4.074697295083256 0
12.81158919150828 6.839391934129904 0
10.56248282919982 11.48078927799948 0
20.85790091304099 9.551727651376662 0
24.17986500302689 15.14226891848898 0
23.18280106124505 16.84637238579745 0
12.26651986084885 3.078490284973102 0
23.63336592039149 18.81585691250952 0
21.38870153228259 11.82111545776649 0
22.65133966888821 9.618977846210898 0
22.84827795915471 7.642441547310354 0
23.32245561047865 15.57887768171696 0
10.66360666733668 5.915410458692035 0
23.94634573768536 17.55717522022985 0
13.38060439317609 21.18338030462202 0
24.56908495949654 12.89384457209076 0
12.02921833359467 8.510437921273914 0
10.87958243123936 12.85829766206822 0
19.42500804169351 18.8580195409593 0
15.43023631463987 20.75093529263554 0
22.66946287374964 13.47040984065165 0
20.26805094548005 20.69703407687548 0
19.24710001354993 15.80856531204183 0
21.90187301165558 8.575216659157693 0
10.64685136431515 19.9719183356924 0
22.91858067053719 14.76175499133848 0
11.85051912244273 13.53116470570935 0
21.99510592021041 20.75873817495039 0
21.0642370779559 16.70994006613026 0
11.2103102071636 21.23993839563951 0
12.86488222679455 19.922681016695 0
20.82372332277758 7.4301192264943 0
15.61375088238566 22.00920654247918 0
22.68655950817931 6.736816894298897 0
23.56267519237142 17.50161513619759 0
10.31834666440072 21.85442552777286 0
14.52992048285179 7.689623901652597 0
22.34085876999627 13.04922211485246 0
24.67515500946668 18.19998756226028 0
24.30520004860891 18.20924699667905 0
23.4492803252593 9.571088688508233 0
23.34099196242347 7.668113800081453 0
24.39984710317877 6.34984625482714 0
23.40727240086871 19.85952703116268 0
17.05874442239196 13.26169686509717 0
16.96454341055804 16.88649945834231 0
20.91943677145218 5.541834985751461 0
18.74999998662868 12.70836442437949 0
15.88258939573185 12.73371586312623 0
13.36398473219896 5.23108716784296 0
20.26147572227499 12.43088201649875 0
13.22860485180748 23.22573304678452 0
18.99207882417144 13.80231660210077 0
15.34051202824374 19.00042950320385 0
13.60030680209008 9.564412595359558 0
12.88797237844924 9.886089060524661 0
13.15273912764543 20.88505314537825 0
18.60610288223284 17.23377970566742 0
19.69719184992864 19.87444899319701 0
19.6309577063602 13.77043783886138 0
17.92057795891661 13.71082779404279 0
24.03495804211171 19.61475654369193 0
20.72054338994061 16.72215268824248 0
24.13154667273816 10.13834418296332 0
24.06159625303349 7.451171889503057 0
21.13804360163678 17.47288125365207 0
20.26671941950557 17.15265553511779 0
11.26457516200322 16.68682767274289 0
13.58877705860161 7.568871967012697 0
14.27028847767427 10.10271117524671 0
23.60944956640486 8.92011823107342 0
21.93694371271845 16.21922514303932 0
19.15101042648046 20.10171907376748 0
18.28074437449019 20.43266777412784 0
14.03014387951466 4.352987992421259 0
15.631136531712 19.60877454487223 0
20.46166627527723 13.78360739298275 0
24.16926012462512 11.56315303237681 0
11.33676607161728 11.12848363239103 0
16.44726540967669 21.00842191794064 0
11.84632245160644 11.34459420982852 0
13.81697948105998 8.069172929241113 0
22.85722534199461 19.17847943614808 0
23.39344048476681 5.188312258042957 0
22.38507428245351 9.515941599661843 0
22.18338956445646 11.71480273790947 0
11.06749482687447 15.76638623149426 0
23.59267115479641 12.65755523946527 0
23.61493236810176 13.05229883776186 0
21.72211630512702 7.493815818073584 0
10.95514762253957 17.13760981248891 0
12.62474649585652 9.244142144503124 0
13.59475597833805 4.15373358705989 0
21.39535824569553 4.159143689595303 0
21.87036255331495 14.86397401971505 0
20.56992648156021 12.87160831245331 0
22.43043599796744 11.21112302628337 0
11.82950518970938 19.63286893481625 0
10.71665480184947 18.8020688776742 0
12.34815313597312 19.39003568899436 0
24.01716048195513 12.94547471802691 0
10.33331195980867 19.3850474523234 0
22.18503410371051 15.72337377928774 0
16.105274251432 19.87494032932378 0
11.65012400841506 17.61510344304508 0
11.02063959034456 7.711593686169191 0
21.92374521250085 7.052631358453329 0
12.02716926720608 18.03598279143695 0
23.40862517780712 20.33951191661843 0
12.60005519367517 17.26111946362607 0
12.39218109208155 20.21576835833906 0
POLYGONS 3900 15600
3 732 453 1477
3 51 52 1357
3 1236 469 851
3 275 274 752
3 590 396 640
3 689 106 1758
3 729 449 1788
3 590 1143 971
3 201 1141 1350
3 1477 740 1626
3 386 651 1001
3 396 590 956
3 692 1026 2024
3 677 526 1209
3 484 1312 1068
3 368 1454 1411
3 1131 363 747
3 818 386 841
3 278 14 685
3 55 56 1374
3 569 225 1192
3 53 54 1145
3 280 1077 1928
3 1199 232 1484
3 639 22 1611
3 693 846 1439
3 652 439 1536
3 550 773 1545
3 651 217 2036
3 22 639 800
3 1303 373 1251
3 754 701 1765
3 732 1477 1626
3 983 693 758
3 270 10 1326
3 726 1077 430
3 217 651 1134
3 854 516 1860
3 768 454 1318
3 639 607 1836
3 789 729 1788
3 1077 726 1928
3 74 1113 742
3 802 455 1308
3 1166 484 1068
3 516 854 1749
3 1088 538 845
3 329 655 1047
3 1326 10 1025
3 461 1122 1396
3 57 58 917
3 1447 1475 1629
3 316 710 1639
3 760 314 1639
3 446 1054 898
3 554 1462 1806
3 544 452 1364
3 1088 271 1412
3 1017 395 1818
3 151 152 451
3 898 1054 1334
3 439 652 1242
3 846 693 1464
3 473 1433 1481
3 452 544 1595
3 1164 443 1021
3 1092 751 1549
3 1058 994 1429
3 360 1069 1762
3 538 1088 1412
3 752 447 1227
3 578 355 1745
3 593 1113 1602
3 1454 413 1411
3 708 603 1597
3 37 38 1323
3 330 916 2095
3 810 1475 1447
3 1843 476 1325
3 394 1228 921
3 338 958 1809
3 568 483 1571
3 47 48 1214
3 528 997 946
3 817 591 975
3 1357 52 1916
3 699 96 1187
3 168 1186 1415
3 1565 690 892
3 1058 1429 1418
3 141 142 853
3 117 118 1139
3 528 946 1794
3 370 685 1930
3 1534 772 756
3 535 589 1447
3 701 754 1839
3 651 386 1134
3 607 639 1611
3 1164 329 1428
3 973 1171 1329
3 716 794 1330
3 621 753 1741
3 997 528 933
3 1545 773 1701
3 641 925 1705
3 1178 425 399
3 1171 674 1329
3 1069 519 1762
3 589 810 1447
3 1168 1248 1446
3 220 221 803
3 1374 56 1449
3 1650 518 2017
3 443 1164 1435
3 752 1227 1404
3 533 712 648
3 503 1168 1446
3 588 1607 1700
3 1339 987 1076
3 1062 740 426
3 1332 923 1137
3 958 338 1316
3 151 451 1633
3 1086 338 1809
3 347 1178 399
3 789 1290 1710
3 53 1145 1916
3 938 1491 1132
3 1493 696 816
3 712 766 648
3 224 225 569
3 579 760 559
3 710 487 1056
3 1301 330 2095
3 473 1481 1881
3 1128 339 1094
3 586 999 1867
3 1026 692 996
3 106 689 1369
3 818 841 1348
3 518 664 2017
3 1105 523 1929
3 1064 308 1298
3 1210 627 1410
3 1072 1961 1813
3 1402 613 548
3 953 1397 1713
3 689 476 1369
3 328 947 1197
3 500 683 1352
3 803 374 327
3 760 579 1525
3 487 710 1526
3 999 586 1677
3 371 675 1522
3 1219 173 1825
3 170 171 875
3 93 94 1224
3 1143 590 1935
3 1077 280 1172
3 589 535 1012
3 658 1332 1137
3 901 1142 1934
3 608 803 327
3 400 433 1643
3 1462 554 1832
3 184 483 1257
3 798 1072 1813
3 351 585 1738
3 467 1072 1609
3 475 1402 548
3 564 1122 797
3 918 958 1316
3 903 31 1528
3 627 1210 915
3 1262 1045 2015
3 1491 501 1132
3 499 1493 816
3 1122 461 797
3 57 917 1449
3 91 1225 1564
3 901 348 1142
3 1748 1375 1177
3 740 1062 1306
3 1139 118 1391
3 1969 1549 2002
3 751 1092 813
3 1084 708 1597
3 1323 38 1442
3 455 814 1308
3 208 1237 1217
3 1083 1094 1865
3 1035 570 1533
3 798 1258 1508
3 637 1086 1863
3 376 1245 2039
3 637 1863 2030
3 363 1262 2015
3 449 729 1685
3 425 1178 884
3 1141 201 1615
3 758 693 1613
3 947 357 1197
3 30 31 903
3 431 682 1519
3 1250 376 2039
3 61 62 1341
3 1178 609 884
3 1054 446 1393
3 1594 822 1680
3 852 334 1213
3 149 1173 1852
3 748 328 1197
3 810 589 1087
3 580 1244 1174
3 1258 353 1508
3 1101 880 811
3 464 748 1197
3 1244 580 1000
3 462 725 1397
3 1072 798 1609
3 200 201 1350
3 1243 387 914
3 685 14 1241
3 563 664 1029
3 922 541 864
3 795 613 722
3 271 1088 1754
3 685 485 1070
3 532 768 1318
3 1748 437 1790
3 809 24 1543
3 917 58 1540
3 264 1514 1645
3 106 107 1758
3 483 568 1257
3 1489 479 1817
3 772 1455 756
3 346 1272 1433
3 1369 476 1843
3 1241 14 1614
3 896 500 1091
3 446 1572 1393
3 1248 673 1425
3 1015 1012 978
3 1008 716 1330
3 450 641 1705
3 655 329 888
3 1730 1481 1235
3 553 481 1939
3 357 690 1565
3 1131 740 1477
3 562 1164 1504
3 330 1301 992
3 593 670 1502
3 570 1035 741
3 572 537 1705
3 476 689 1767
3 1228 1037 921
3 455 802 1365
3 701 615 1765
3 1428 329 1047
3 1448 89 1564
3 282 16 1272
3 416 896 1091
3 250 251 1265
3 980 558 1109
3 373 1569 1746
3 458 1065 1300
3 570 741 1599
3 671 621 1741
3 591 795 722
3 537 1157 1705
3 514 1421 2039
3 536 1105 1695
3 792 526 650
3 7 223 881
3 395 1017 1706
3 585 1481 1730
3 700 1327 1522
3 483 184 1648
3 683 500 1377
3 716 1008 1828
3 1421 1250 2039
3 686 653 1335
3 1032 1247 1796
3 1397 391 1713
3 232 233 1484
3 919 903 1812
3 1164 562 2001
3 1607 1005 1700
3 1272 497 1433
3 1704 504 1202
3 314 760 1525
3 710 316 1526
3 444 972 1148
3 238 1299 991
3 522 809 702
3 541 790 864
3 1549 751 2002
3 972 444 1807
3 588 1594 1680
3 83 998 1846
3 88 1 1448
3 222 7 881
3 1 89 1448
3 1569 1055 1746
3 841 356 1348
3 1462 369 1806
3 443 1312 1021
3 77 78 1093
3 175 1295 1825
3 307 308 1064
3 583 694 1223
3 1139 924 650
3 353 805 1508
3 1327 371 1522
3 427 790 1830
3 83 84 998
3 848 853 807
3 481 381 1370
3 355 578 2049
3 433 400 1456
3 679 1128 879
3 853 848 1207
3 1131 550 426
3 262 263 1171
3 414 1473 704
3 684 962 963
3 237 238 991
3 990 1875 1423
3 453 1262 1870
3 180 181 659
3 741 496 1599
3 14 277 1614
3 580 642 1125
3 847 1386 1506
3 376 1250 971
3 326 1154 1556
3 659 181 1188
3 977 430 1149
3 740 1131 426
3 220 803 1218
3 504 1606 1202
3 482 1922 1637
3 1069 360 1559
3 27 720 996
3 13 777 1087
3 1094 606 1865
3 802 1120 1365
3 89 90 1564
3 1922 482 2031
3 24 809 667
3 794 716 1349
3 523 1105 1764
3 1661 166 1415
3 98 1662 1187
3 634 229 1196
3 1113 593 742
3 1048 449 1685
3 1128 395 1398
3 430 418 1149
3 739 356 841
3 1105 536 1764
3 229 230 1196
3 962 337 963
3 768 532 1947
3 96 97 1187
3 167 168 1415
3 771 1048 1685
3 175 6 1295
3 1041 255 1078
3 698 633 1465
3 1836 1551 1158
3 165 5 1661
3 2 99 1662
3 587 1017 1818
3 1400 560 1096
3 1284 755 1027
3 1122 564 1606
3 1345 502 2001
3 607 1551 1836
3 6 176 1295
3 838 599 1324
3 685 1241 1930
3 994 1058 2006
3 1299 537 823
3 605 1201 1805
3 1093 78 1753
3 448 1503 1120
3 916 636 1901
3 1113 74 1538
3 1384 427 1830
3 798 1508 1474
3 747 363 1907
3 759 336 1683
3 745 488 1756
3 654 1375 1748
3 329 1164 1021
3 1213 979 1430
3 386 818 1542
3 615 701 1999
3 1045 1262 1755
3 1503 1013 1120
3 979 830 1430
3 603 432 1577
3 845 855 1180
3 1336 583 1223
3 373 715 1569
3 550 1131 747
3 472 1395 986
3 466 686 1381
3 576 845 1180
3 174 175 1825
3 594 838 1324
3 356 739 1052
3 820 534 791
3 5 166 1661
3 98 2 1662
3 1281 1536 1539
3 716 1828 1111
3 70 71 944
3 752 274 1102
3 526 677 1580
3 911 377 1383
3 1029 664 1949
3 1395 883 986
3 1247 575 1796
3 599 976 1324
3 81 82 1468
3 913 1326 1025
3 715 737 1569
3 670 593 1575
3 832 121 1958
3 447 752 1571
3 668 429 1023
3 819 1933 1937
3 439 1126 1268
3 846 1620 1917
3 432 904 1577
3 610 1127 1857
3 726 1101 1928
3 1400 1096 1688
3 809 614 702
3 448 802 1602
3 295 294 1314
3 653 686 1895
3 730 326 1155
3 506 1489 1817
3 195 196 1115
3 1506 1386 2100
3 461 1396 2038
3 1536 439 1539
3 535 1126 1242
3 477 820 791
3 668 952 1804
3 415 999 1677
3 1933 819 1550
3 435 1141 1615
3 796 520 815
3 1326 538 1412
3 1227 622 1404
3 433 715 808
3 1127 344 1857
3 508 992 1274
3 182 183 954
3 1790 437 1999
3 334 852 1589
3 1126 439 1242
3 685 370 1198
3 931 1715 1899
3 1683 834 1776
3 715 373 808
3 1749 64 2000
3 192 193 1459
3 492 1933 1550
3 663 351 1738
3 779 767 1929
3 1429 470 1418
3 812 368 1411
3 1244 801 1482
3 254 255 1041
3 765 832 1958
3 68 1620 1095
3 802 448 1120
3 712 533 1037
3 485 685 1198
3 617 1565 892
3 1154 326 1175
3 481 1370 1939
3 1421 488 1694
3 759 1683 1776
3 490 1244 1482
3 173 174 1825
3 753 621 1936
3 1288 471 714
3 673 1248 1722
3 669 731 993
3 1236 851 1492
3 1250 1421 1694
3 523 779 1929
3 429 668 1804
3 454 1053 833
3 731 886 993
3 315 316 1639
3 314 315 1639
3 549 712 1037
3 366 569 1192
3 701 1790 1999
3 718 1145 1221
3 166 167 1415
3 97 98 1187
3 1012 535 978
3 361 1284 1027
3 326 730 1718
3 1374 718 1221
3 1514 919 1645
3 281 280 1928
3 1140 458 1300
3 180 659 827
3 401 715 1456
3 292 861 1031
3 339 1128 1761
3 742 593 1502
3 1173 616 1852
3 774 781 1519
3 662 1169 757
3 1971 1529 2078
3 812 431 1681
3 1290 533 1710
3 693 983 1819
3 916 1901 2095
3 1126 535 1447
3 645 1288 1636
3 987 1339 1978
3 774 444 1952
3 766 1243 914
3 715 401 1744
3 58 59 1540
3 340 774 1519
3 781 774 1952
3 202 203 1043
3 414 350 1473
3 353 1258 1849
3 90 91 1564
3 431 812 1411
3 1620 525 1917
3 395 1128 1413
3 583 1336 873
3 952 541 1804
3 1128 679 1761
3 1477 453 1870
3 192 1459 1905
3 654 1748 1790
3 51 1357 1954
3 1098 1425 2029
3 585 351 1881
3 690 829 1162
3 745 590 1226
3 792 606 894
3 562 1345 2001
3 1875 1240 1834
3 488 745 1226
3 454 768 2080
3 1234 436 930
3 1497 1406 1891
3 914 387 1593
3 351 566 908
3 481 553 2088
3 1074 1464 1819
3 1141 435 1773
3 971 1143 2062
3 614 809 1543
3 1810 1178 1106
3 715 433 1456
3 363 1131 1870
3 1312 484 1200
3 863 903 1528
3 542 350 1966
3 68 69 1620
3 539 717 1159
3 378 945 1014
3 119 120 1003
3 495 1312 1200
3 793 529 1280
3 745 447 956
3 629 1339 1076
3 145 146 1345
3 342 1371 1403
3 739 2011 2032
3 294 22 1390
3 275 752 1404
3 725 333 1181
3 603 708 432
3 1553 605 1805
3 686 1335 1873
3 924 1139 1391
3 497 1272 1510
3 717 539 1097
3 864 895 964
3 117 1139 1580
3 909 477 791
3 383 975 815
3 755 1314 1027
3 1537 746 1832
3 1314 697 1027
3 1110 990 1423
3 759 603 1577
3 1038 1642 1203
3 720 27 1824
3 2039 1704 1853
3 122 123 844
3 1086 637 1672
3 686 466 1725
3 473 351 908
3 336 759 1577
3 596 690 1162
3 1397 953 1452
3 621 671 1837
3 866 486 1424
3 613 795 1799
3 609 1178 1810
3 1267 104 1843
3 822 1638 1711
3 382 997 1136
3 271 270 1412
3 19 287 1103
3 1125 642 1264
3 762 1843 1325
3 1335 1343 1873
3 739 841 2011
3 207 208 1217
3 590 745 956
3 676 531 1785
3 606 792 2052
3 737 715 1744
3 1101 811 411
3 779 523 1617
3 1511 545 908
3 43 44 952
3 590 640 1935
3 1464 693 1819
3 63 64 1749
3 1293 283 1114
3 1828 984 1111
3 584 1323 1442
3 1341 62 1877
3 566 1511 908
3 1245 1704 2039
3 945 349 1014
3 262 1171 1366
3 526 1139 650
3 853 142 807
3 1164 1428 1504
3 903 919 1841
3 368 812 1572
3 708 560 432
3 1425 673 2029
3 240 241 874
3 621 1837 1667
3 998 84 1583
3 1168 503 2104
3 520 796 2057
3 633 698 1995
3 504 1361 1606
3 695 189 1698
3 1056 707 2058
3 1243 766 1082
3 417 1234 930
3 447 745 1227
3 445 1918 2102
3 1238 1022 885
3 539 1069 1559
3 1428 1047 1440
3 659 726 827
3 1069 539 2043
3 903 674 1812
3 554 1537 1832
3 1314 755 1861
3 470 853 1207
3 1608 662 757
3 538 998 1583
3 801 1244 1190
3 1966 350 1563
3 1258 798 1813
3 1853 1310 2008
3 1318 454 1682
3 660 914 1593
3 1004 581 826
3 1388 850 936
3 1244 615 1190
3 22 800 1390
3 529 793 1463
3 409 1309 1805
3 339 1209 1445
3 601 9 1604
3 379 1529 1971
3 1070 485 2091
3 453 732 1193
3 462 1397 1452
3 1519 682 1689
3 1033 551 1600
3 517 814 1934
3 81 1468 1695
3 910 725 1181
3 1292 267 1963
3 1303 1251 1329
3 583 873 1815
3 814 455 1934
3 642 580 1617
3 493 1234 1845
3 490 779 1174
3 514 1853 2008
3 1456 400 1851
3 828 618 1619
3 1228 549 1037
3 603 759 780
3 1065 458 1883
3 1248 1168 2087
3 1395 419 1052
3 578 1041 1078
3 1041 578 1745
3 1660 645 1651
3 1392 772 1534
3 701 498 1790
3 843 1392 1534
3 829 1810 1106
3 1033 1600 1988
3 1400 639 1836
3 859 1472 1384
3 778 478 1750
3 531 676 1136
3 1244 490 1174
3 1043 203 2013
3 1425 1098 1539
3 975 591 2074
3 710 1056 2058
3 822 1594 1638
3 436 1234 509
3 1514 29 1841
3 252 1511 1211
3 950 1064 1298
3 698 1465 1576
3 861 292 1590
3 1582 666 2027
3 1299 238 1900
3 1034 364 724
3 1214 48 1723
3 477 909 1331
3 96 699 1720
3 1186 168 1721
3 858 1582 2027
3 276 13 1087
3 376 971 2062
3 790 895 864
3 736 861 1590
3 839 1336 1223
3 1240 1875 1632
3 102 103 821
3 161 162 941
3 80 1695 2010
3 717 1097 1499
3 1324 976 1506
3 1301 964 2097
3 695 463 1378
3 43 952 2099
3 9 601 1125
3 1288 645 1919
3 327 374 1044
3 1371 817 1403
3 457 893 1479
3 1606 1361 2068
3 170 875 1255
3 1224 94 1394
3 496 1618 1486
3 376 695 1378
3 478 778 1714
3 767 779 1953
3 1618 428 1486
3 675 371 1259
3 837 40 1879
3 531 587 1785
3 558 980 1680
3 217 218 2036
3 526 792 1445
3 460 1256 1660
3 1272 346 1114
3 874 241 1768
3 1686 683 1750
3 478 1686 1750
3 542 708 1084
3 928 1160 1925
3 779 490 1090
3 755 1284 1652
3 1472 902 1384
3 799 862 1356
3 391 1397 1747
3 1004 920 2045
3 1546 1105 1929
3 401 1456 1851
3 778 736 1714
3 1004 826 1253
3 282 1272 1114
3 2002 609 1802
3 173 1219 1123
3 343 856 1732
3 920 1497 2045
3 703 664 1712
3 267 266 1963
3 884 609 2002
3 875 171 1133
3 1035 1533 1689
3 1225 91 1581
3 141 853 1007
3 1926 644 1118
3 980 588 1680
3 387 1243 1566
3 1072 467 1151
3 482 777 1770
3 869 1357 1916
3 278 685 1070
3 108 647 1758
3 792 650 2052
3 567 795 1887
3 644 862 1118
3 1256 460 1269
3 93 1224 775
3 1666 619 1294
3 737 1363 1654
3 917 511 1024
3 374 803 1610
3 1628 931 1899
3 805 353 1512
3 623 1374 1449
3 880 659 1188
3 268 1125 1264
3 920 1406 1497
3 817 975 1304
3 377 1243 1082
3 1038 584 1642
3 567 1537 1799
3 582 713 1722
3 240 874 1450
3 1422 692 638
3 1016 1969 2002
3 471 1059 882
3 47 1214 1759
3 331 1212 1831
3 1675 512 1247
3 497 1510 1789
3 964 457 2097
3 1249 474 2053
3 899 1971 2078
3 190 191 1238
3 569 374 1910
3 516 773 1860
3 656 793 2005
3 571 1675 1247
3 1918 445 2105
3 1356 862 2042
3 891 451 1367
3 1262 453 1130
3 657 928 1925
3 1097 306 1499
3 463 1238 885
3 922 429 1804
3 70 944 1315
3 514 2039 1853
3 1059 471 1808
3 1234 417 1625
3 502 1345 1311
3 494 1332 1856
3 675 570 1599
3 338 1086 1672
3 252 253 1511
3 1570 727 1714
3 954 183 1257
3 149 150 1173
3 1256 645 1660
3 793 656 1463
3 519 1069 1618
3 1072 744 1961
3 451 673 1367
3 370 1414 1176
3 1357 468 763
3 1020 766 1490
3 861 736 1185
3 650 358 2052
3 158 159 1414
3 1193 692 2024
3 232 1199 1362
3 1489 506 1880
3 1145 869 1916
3 623 917 1024
3 179 180 827
3 1961 744 1873
3 713 582 1138
3 1212 575 1831
3 328 748 1733
3 893 332 1479
3 1044 374 2059
3 328 1237 1766
3 694 583 1632
3 618 828 836
3 435 1043 1679
3 673 451 2029
3 712 549 1383
3 1166 616 1173
3 777 13 949
3 891 1166 1173
3 853 470 1697
3 1178 347 1106
3 997 382 946
3 560 708 1096
3 73 74 742
3 1805 1309 1792
3 287 286 786
3 1388 410 1484
3 699 860 1720
3 635 1186 1721
3 917 623 1449
3 570 675 1259
3 974 1621 2030
3 627 915 1668
3 471 1256 1808
3 444 774 1254
3 321 322 1432
3 1139 526 1580
3 333 725 1909
3 404 861 1185
3 1228 394 1060
3 736 778 1185
3 1265 251 1211
3 1414 370 1930
3 1370 381 1640
3 113 114 1291
3 1473 700 704
3 549 1228 1591
3 860 699 1820
3 1186 635 1822
3 998 913 1846
3 1899 391 1747
3 1537 872 1799
3 119 1003 1391
3 723 479 1339
3 1702 987 1656
3 803 608 1218
3 25 311 1402
3 762 1267 1843
3 606 1034 724
3 190 1238 1698
3 601 580 1125
3 664 563 1712
3 778 404 1185
3 1571 483 1592
3 1001 651 2037
3 398 1666 1294
3 345 1875 1834
3 498 701 1839
3 538 1583 1051
3 404 778 1471
3 161 941 1552
3 111 112 764
3 819 749 1690
3 647 108 1724
3 1714 727 1271
3 725 910 1747
3 1126 1447 1629
3 488 1416 1756
3 26 796 1408
3 84 85 1583
3 1155 621 1667
3 1888 527 2041
3 1217 328 1733
3 189 190 1698
3 1094 1083 1413
3 342 820 932
3 1309 409 2051
3 1503 618 1090
3 709 1584 1642
3 861 404 1222
3 1171 973 1366
3 1332 658 1856
3 955 1660 1651
3 331 1054 1732
3 1219 735 1123
3 474 1249 1206
3 257 258 825
3 1293 662 1322
3 381 481 2065
3 126 127 1368
3 624 945 1018
3 219 1354 2036
3 636 916 1547
3 615 601 1765
3 1127 610 1708
3 469 1236 1310
3 1249 625 928
3 601 615 1000
3 876 1225 1581
3 348 1748 1177
3 1312 495 849
3 670 1575 1862
3 809 522 1321
3 1584 354 1642
3 22 293 1611
3 326 1718 1868
3 1237 208 1897
3 1234 493 788
3 1196 868 1352
3 766 914 1490
3 958 918 1650
3 875 626 1974
3 631 1224 1596
3 735 1219 1826
3 661 476 1767
3 1224 631 2004
3 915 524 1668
3 530 1196 1352
3 1012 1015 2044
3 626 875 1579
3 580 601 1000
3 241 242 1768
3 741 953 1246
3 449 1048 1358
3 507 572 1829
3 339 934 1777
3 840 1240 711
3 374 881 1910
3 714 471 882
3 645 561 1651
3 1901 489 2095
3 883 1395 1052
3 283 1293 1322
3 382 1136 935
3 500 1352 1578
3 620 1422 638
3 968 957 1084
3 1225 876 1507
3 783 675 1599
3 1357 869 1520
3 1332 494 1774
3 511 917 1540
3 639 1400 2063
3 1237 328 1217
3 534 1410 791
3 625 1249 1073
3 1837 1058 1667
3 684 972 1807
3 647 843 1731
3 1336 839 2012
3 725 462 1509
3 1480 435 1679
3 1343 1961 1873
3 37 1323 1603
3 691 972 1729
3 1388 1484 1979
3 466 1381 612
3 1274 457 1479
3 80 81 1695
3 972 691 1148
3 813 472 1279
3 784 539 1559
3 865 498 1839
3 1059 1063 882
3 489 864 964
3 1381 926 612
3 894 339 1445
3 933 465 750
3 766 712 1082
3 899 1545 1701
3 883 1562 986
3 250 1265 1046
3 502 604 1435
3 1272 16 1510
3 304 305 784
3 1274 992 2097
3 572 925 1829
3 604 443 1435
3 869 1145 1531
3 522 1531 1321
3 153 1281 1665
3 100 101 937
3 163 164 1469
3 708 542 1966
3 1054 343 1732
3 615 1244 1000
3 1245 376 1378
3 1175 326 1868
3 811 568 1102
3 867 1043 2013
3 591 817 1887
3 1065 672 1300
3 1252 536 1911
3 494 906 1774
3 1262 363 1870
3 468 1357 1520
3 1053 454 1570
3 870 1621 974
3 1401 737 1654
3 318 1489 1880
3 471 1288 1919
3 643 866 1424
3 1562 599 986
3 613 1799 1923
3 1686 530 1352
3 1115 196 1726
3 202 1043 1615
3 498 865 1779
3 736 1053 1570
3 568 954 1257
3 484 713 1138
3 423 1506 2100
3 952 668 2099
3 1005 784 1559
3 919 1514 1841
3 389 1127 1708
3 1290 789 1995
3 796 26 1195
3 1589 852 1938
3 778 1750 1471
3 1433 497 1481
3 843 647 1724
3 476 661 1669
3 546 1462 1832
3 770 939 974
3 320 1702 1656
3 413 1454 1909
3 1732 856 2071
3 858 942 1582
3 361 1651 943
3 1861 755 2069
3 722 613 1847
3 1485 769 1028
3 507 1835 967
3 1151 467 2094
3 683 1686 1352
3 1400 420 2063
3 13 275 949
3 536 1025 1911
3 795 567 1799
3 933 528 1575
3 1933 602 1937
3 1243 377 1924
3 1240 840 1834
3 1459 1022 1905
3 1918 362 2102
3 957 542 1084
3 748 464 1573
3 428 1618 2043
3 565 1777 2079
3 561 645 1636
3 377 911 1204
3 1247 512 1030
3 950 714 882
3 774 340 1962
3 1432 322 1987
3 1173 150 1633
3 557 1274 1479
3 479 723 1989
3 1145 718 1531
3 787 1728 1419
3 1299 823 991
3 1047 749 1440
3 480 1990 1842
3 676 474 1206
3 612 716 1111
3 1036 1888 2041
3 838 472 986
3 1531 1208 1321
3 1750 683 1377
3 879 1128 1398
3 1020 688 648
3 718 1374 960
3 1354 219 1218
3 814 517 1706
3 660 1306 1490
3 489 922 864
3 1053 736 1590
3 911 1383 1921
3 1130 511 1755
3 496 741 1246
3 1728 927 1419
3 586 746 1940
3 177 178 1215
3 1146 11 1121
3 458 1543 1883
3 1134 386 1542
3 587 531 1372
3 972 684 2070
3 898 597 1441
3 1003 924 1391
3 1522 675 1984
3 389 1501 1263
3 486 866 2090
3 1017 587 1372
3 21 1053 1590
3 1262 1130 1755
3 863 1557 1951
3 1784 907 1152
3 326 1556 1155
3 442 1750 1377
3 1109 558 1943
3 804 1231 1831
3 582 1722 2087
3 907 421 1152
3 11 1146 1170
3 313 314 1525
3 316 317 1526
3 887 871 1762
3 934 679 985
3 1575 528 1862
3 976 599 1684
3 936 507 967
3 1658 527 372
3 650 924 1763
3 1374 623 960
3 1182 133 1891
3 1671 802 1308
3 1602 1113 2103
3 86 87 1040
3 905 199 1350
3 857 1438 1922
3 934 339 1761
3 540 1241 1614
3 373 1303 808
3 810 777 1535
3 709 837 1879
3 113 1291 2034
3 768 1658 372
3 690 596 892
3 1556 602 1155
3 15 890 1515
3 1061 840 1039
3 777 482 1535
3 679 934 1761
3 531 1136 1993
3 1360 813 1279
3 1048 771 1494
3 547 1169 424
3 1073 364 1977
3 684 963 1757
3 881 374 1610
3 772 1392 1896
3 662 1293 1379
3 1012 540 1614
3 890 15 1305
3 589 1012 1614
3 599 838 986
3 324 27 1422
3 433 1557 1643
3 1064 950 1912
3 116 117 1580
3 1323 584 1709
3 1306 493 1490
3 1748 348 1189
3 474 676 1785
3 1048 1073 1977
3 1618 1069 2043
3 575 1247 1030
3 969 381 2065
3 722 26 1408
3 1336 2012 2054
3 740 1306 1626
3 1086 646 1863
3 145 1345 1869
3 1491 1050 1451
3 680 1493 1742
3 606 1094 894
3 925 572 1705
3 1511 566 1211
3 1034 606 2052
3 498 1534 756
3 829 690 1866
3 500 896 1377
3 1293 346 1647
3 260 1485 1028
3 465 933 1664
3 28 265 0
3 777 810 1087
3 906 494 995
3 844 123 573
3 565 1291 1285
3 764 112 2034
3 350 542 1473
3 1345 146 1311
3 1169 662 424
3 675 783 1984
3 440 380 1353
3 728 718 960
3 690 357 1866
3 677 1209 1674
3 857 1421 1438
3 749 819 1937
3 283 282 1114
3 1310 1236 2008
3 39 40 837
3 645 1256 1919
3 1493 680 2091
3 1050 1491 2090
3 695 376 2062
3 1553 345 1167
3 346 1293 1114
3 724 474 1865
3 896 442 1377
3 571 1299 1900
3 429 922 1786
3 596 999 892
3 824 970 419
3 281 1101 411
3 613 1402 1847
3 340 1519 1689
3 154 155 1536
3 392 900 1165
3 620 1566 1924
3 947 328 1766
3 1256 471 1919
3 646 1086 352
3 260 261 1485
3 1777 934 2079
3 1793 980 1798
3 578 1657 2049
3 45 1472 1239
3 61 1341 1693
3 541 922 1804
3 1439 846 1917
3 897 1232 1751
3 1108 412 1089
3 713 484 1716
3 766 1020 648
3 1030 804 1831
3 1136 997 1993
3 1146 392 1165
3 150 151 1633
3 557 1061 1039
3 1065 298 1844
3 730 1155 1667
3 25 1402 1317
3 1254 774 1962
3 900 1801 1165
3 795 591 1887
3 1695 1105 2010
3 392 1146 1121
3 436 1529 930
3 451 891 1633
3 451 152 1665
3 1621 663 1738
3 1402 475 1317
3 588 980 1793
3 1265 1211 1631
3 1281 1098 1665
3 1284 361 943
3 729 789 1289
3 746 586 1867
3 1642 354 1203
3 218 219 2036
3 935 1136 1554
3 508 1274 1039
3 825 258 1634
3 564 1589 1938
3 561 475 943
3 1127 389 1800
3 537 1299 1811
3 1209 339 1777
3 183 184 1257
3 1291 565 1595
3 442 896 1129
3 1750 442 1471
3 544 1291 1595
3 1303 1329 1417
3 1066 545 1745
3 353 966 1555
3 1160 928 1409
3 380 761 1353
3 1122 1606 2068
3 301 1793 1798
3 734 390 1653
3 1515 890 1152
3 896 416 1233
3 355 1066 1745
3 1651 561 943
3 464 1498 1573
3 734 477 1331
3 545 1066 1991
3 786 577 1568
3 421 1515 1152
3 405 809 1321
3 41 42 1023
3 488 1421 1946
3 664 703 2017
3 1704 1245 1496
3 204 205 1498
3 1556 1154 1440
3 842 1805 1792
3 1326 913 1892
3 419 356 1052
3 188 1079 1935
3 1088 845 1273
3 28 29 1514
3 532 327 1044
3 880 1101 1908
3 1479 332 965
3 806 734 1653
3 1468 536 1695
3 738 1432 1987
3 538 1326 1892
3 682 431 1099
3 1101 726 1908
3 1312 443 1068
3 750 465 2014
3 364 1034 1781
3 970 824 1561
3 1909 1454 2101
3 770 974 1382
3 1150 1127 1800
3 452 1455 1364
3 1396 510 2038
3 318 319 1489
3 1363 737 1744
3 1425 439 1268
3 1329 674 1417
3 1247 1032 1707
3 1251 373 1746
3 1990 480 1492
3 337 962 1444
3 1043 435 1615
3 1368 127 2046
3 929 703 1712
3 829 947 1810
3 637 1621 1738
3 851 469 830
3 557 1479 965
3 1284 475 1220
3 992 508 2028
3 1299 571 1811
3 195 1115 1067
3 764 772 1896
3 850 823 1906
3 516 1749 2000
3 513 728 960
3 646 929 1147
3 929 344 1147
3 1875 345 1423
3 430 1077 1483
3 1215 178 1163
3 611 1966 1563
3 199 905 1516
3 1788 633 1995
3 749 1047 1690
3 957 968 2016
3 936 850 2019
3 1117 620 1924
3 923 1332 1699
3 264 265 1514
3 1922 600 1637
3 679 879 1177
3 1101 281 1928
3 504 1704 1496
3 608 1354 1218
3 1386 847 2069
3 854 1341 1877
3 591 722 1408
3 464 1197 878
3 547 825 1530
3 1363 942 1914
3 1990 1168 1842
3 371 1104 1259
3 674 903 1417
3 676 1206 1554
3 1206 657 1554
3 102 821 649
3 941 162 1340
3 2012 289 2054
3 827 726 1622
3 638 387 1566
3 823 537 1906
3 410 1388 936
3 77 1093 836
3 357 947 1866
3 622 1416 1770
3 903 863 1417
3 1333 194 1067
3 1314 294 1390
3 947 829 1866
3 975 383 1814
3 605 1553 1167
3 945 624 380
3 886 905 1895
3 447 1571 1592
3 1612 794 1349
3 446 1230 940
3 539 784 1097
3 1089 412 1985
3 45 46 1472
3 999 596 1867
3 1145 54 1221
3 457 1274 2097
3 803 221 1610
3 285 1363 1914
3 474 724 2053
3 937 101 649
3 163 1469 1340
3 632 1574 556
3 942 858 1914
3 790 427 1601
3 1234 1625 1845
3 749 1556 1440
3 27 325 1824
3 1291 544 2034
3 897 1751 1676
3 1368 723 1339
3 1520 522 702
3 1529 595 930
3 27 996 1488
3 621 1155 1936
3 1392 843 1588
3 1064 1912 1517
3 945 378 1018
3 618 1503 1619
3 793 1280 1260
3 293 292 1031
3 132 133 1182
3 821 938 649
3 696 941 1340
3 599 1562 1684
3 1024 511 1478
3 160 161 1552
3 55 1374 1221
3 290 1385 1739
3 295 1314 1861
3 932 441 2035
3 674 1171 1812
3 1087 589 1630
3 1872 513 1478
3 76 77 836
3 1341 854 1907
3 425 884 1360
3 143 144 1161
3 1063 1059 2055
3 966 733 1555
3 384 1432 1878
3 858 18 1914
3 1557 863 1528
3 844 573 1466
3 884 751 1360
3 1021 1312 849
3 544 764 2034
3 86 1040 1297
3 420 1400 1688
3 270 1326 1412
3 1503 1090 1399
3 895 790 1601
3 536 1252 1764
3 362 1918 1346
3 259 260 1028
3 999 415 2018
3 475 1284 943
3 1602 802 1671
3 460 350 1269
3 1354 608 1280
3 1414 159 1176
3 721 442 1129
3 1386 755 1652
3 566 351 1631
3 665 1589 797
3 1865 474 2089
3 610 898 1441
3 1044 366 1947
3 105 106 1369
3 1274 557 1039
3 265 28 1514
3 475 561 1317
3 415 932 2035
3 214 970 1561
3 590 971 1226
3 581 1004 1838
3 334 1589 1858
3 503 1475 2104
3 1385 656 1739
3 905 886 1516
3 1589 665 1858
3 1131 1477 1870
3 1345 562 1376
3 962 782 1444
3 465 1671 1308
3 72 1502 1344
3 511 1130 1478
3 186 187 640
3 1475 600 2104
3 1332 624 1699
3 1022 1361 885
3 912 612 1111
3 1572 446 940
3 210 211 1549
3 924 1003 2067
3 809 405 667
3 718 728 1208
3 1171 263 1645
3 953 741 1452
3 107 108 1758
3 351 663 1631
3 287 786 1932
3 782 1254 1962
3 1092 1549 1717
3 350 414 1269
3 1207 730 1418
3 1762 871 1638
3 442 721 1471
3 777 949 1770
3 437 1748 1189
3 1043 867 1679
3 438 825 1634
3 337 687 2016
3 686 1725 1895
3 1161 144 1869
3 741 1035 1452
3 656 1385 1463
3 965 332 1137
3 1571 752 1102
3 755 1386 2069
3 1869 1345 1376
3 1211 566 1631
3 916 330 1100
3 928 625 1409
3 1646 771 1641
3 1066 355 1647
3 632 1730 1235
3 122 844 1958
3 1657 578 1078
3 572 507 2019
3 922 489 1901
3 549 1591 1921
3 857 1416 1946
3 790 541 1830
3 201 202 1615
3 856 343 1144
3 348 901 1189
3 1416 488 1946
3 402 929 1712
3 1620 846 1095
3 69 70 1315
3 298 1065 1883
3 412 1170 1985
3 949 275 1404
3 342 932 1677
3 862 799 1002
3 1305 897 1676
3 624 1332 1774
3 1170 1146 1985
3 434 464 878
3 962 684 1807
3 1169 547 1530
3 184 185 1648
3 1115 1726 2061
3 19 1103 1558
3 158 1414 1119
3 890 1305 1676
3 540 1414 1930
3 893 457 1548
3 1617 523 1116
3 672 1065 1844
3 687 957 2016
3 501 1491 1451
3 1493 499 1742
3 1104 1533 1259
3 592 1871 1582
3 366 1658 1947
3 629 1931 1277
3 363 1341 1907
3 436 509 1981
3 346 1066 1647
3 679 1375 985
3 206 748 1573
3 1079 1143 1935
3 988 420 1688
3 1081 771 1646
3 784 305 1097
3 1280 608 1260
3 257 825 1657
3 404 1471 1663
3 937 938 1132
3 696 1469 816
3 402 1712 1623
3 1545 436 1981
3 901 455 1692
3 1201 409 1805
3 332 1124 1137
3 1696 592 1582
3 1371 567 1887
3 744 1072 1151
3 801 901 1692
3 1291 114 1285
3 620 1117 1191
3 700 1522 704
3 1455 654 756
3 500 1578 1983
3 923 965 1137
3 1341 363 2015
3 796 1195 2057
3 1375 679 1177
3 589 1614 1630
3 439 1425 1539
3 1594 588 1700
3 1103 287 1932
3 1455 772 1364
3 32 33 1557
3 748 206 1733
3 1443 1074 1389
3 1091 500 1983
3 1363 285 1654
3 197 198 731
3 977 1215 1163
3 30 903 1841
3 1003 120 832
3 970 214 1941
3 656 833 1739
3 1375 654 2066
3 938 937 649
3 1469 696 1340
3 1438 480 1922
3 1533 340 1689
3 697 1314 1390
3 9 267 1604
3 772 764 1364
3 1715 391 1899
3 691 1729 1796
3 944 71 1344
3 1392 110 1896
3 1181 1309 2051
3 823 236 991
3 1471 721 1663
3 773 516 1719
3 374 569 2059
3 1620 69 1315
3 477 1840 1955
3 1414 540 2044
3 215 1542 1941
3 1210 1410 2093
3 1117 738 1191
3 746 1537 1940
3 1502 670 1344
3 350 460 1563
3 189 695 1079
3 550 1545 1981
3 821 103 1267
3 692 1422 1488
3 968 963 2016
3 1066 346 505
3 1432 738 1878
3 825 547 1657
3 543 1443 1389
3 1557 433 1951
3 764 544 1364
3 463 695 1698
3 942 1363 1355
3 532 2005 1260
3 327 532 1260
3 997 933 1993
3 1469 831 816
3 835 937 1132
3 1040 855 1297
3 724 364 2053
3 820 477 1955
3 1157 450 1705
3 1009 1210 2093
3 910 1181 2051
3 1352 868 1578
3 647 1731 1902
3 1874 732 1593
3 1536 155 1184
3 359 974 2030
3 1574 632 1235
3 1712 563 1623
3 1591 743 1921
3 628 763 1283
3 370 1552 1198
3 2011 598 2032
3 733 878 1565
3 1432 384 1727
3 1421 857 1946
3 1480 776 1816
3 330 992 1476
3 992 1301 2097
3 424 355 2049
3 927 1501 1708
3 963 337 2016
3 1961 456 1813
3 477 734 1840
3 820 342 1403
3 305 306 1097
3 1512 415 2035
3 569 366 2059
3 248 939 1649
3 669 993 1734
3 94 95 1394
3 169 170 1255
3 238 239 1900
3 1156 508 711
3 913 1025 1434
3 976 23 1886
3 542 957 1833
3 1157 537 1811
3 1990 851 1338
3 1209 526 1445
3 769 1251 1746
3 1501 389 1708
3 1520 702 1523
3 1041 545 1071
3 1537 554 2092
3 426 550 1981
3 1124 658 1137
3 18 858 1970
3 598 1385 1884
3 612 912 1890
3 466 612 1890
3 349 945 1229
3 513 1024 1478
3 721 1986 1663
3 1476 992 2028
3 642 1617 1116
3 840 1061 1524
3 268 9 1125
3 1406 1182 1891
3 302 303 1607
3 171 172 1133
3 568 1571 1102
3 332 893 1673
3 1729 1032 1796
3 573 394 1466
3 341 1522 1984
3 92 93 775
3 920 1004 1253
3 565 1285 1674
3 1175 961 1376
3 1385 290 1884
3 1023 42 2099
3 335 1480 1679
3 1395 824 419
3 62 63 1877
3 833 656 1682
3 1986 904 1663
3 624 1018 1699
3 1485 261 1366
3 199 200 1350
3 1472 859 1239
3 540 1012 2044
3 1904 1265 1631
3 529 1001 2037
3 833 291 1739
3 824 1395 1560
3 383 1009 2093
3 1094 339 894
3 773 550 1860
3 1427 629 1277
3 862 644 2042
3 678 1686 1271
3 1306 660 1626
3 1897 209 1969
3 551 1003 1945
3 1718 730 1207
3 1555 733 1565
3 961 1161 1869
3 567 1371 1521
3 139 915 2048
3 351 473 1881
3 1395 472 1560
3 79 1546 1753
3 1681 343 1393
3 227 228 889
3 1212 691 1796
3 1162 829 1106
3 1599 496 1486
3 915 139 1898
3 665 797 1042
3 825 438 1530
3 716 612 1349
3 1522 341 704
3 418 430 1483
3 1686 478 1271
3 1080 1009 1307
3 1054 331 1334
3 1080 1307 1965
3 852 1213 1430
3 938 821 1380
3 941 696 1627
3 857 1922 2031
3 26 722 1847
3 216 217 1134
3 1053 21 1996
3 140 141 1007
3 664 518 1949
3 450 1157 407
3 1385 598 1959
3 939 248 1282
3 1706 1017 2014
3 963 968 1942
3 567 1521 1940
3 521 1223 408
3 1918 427 1346
3 1397 725 1747
3 1003 551 2067
3 219 220 1218
3 512 874 1030
3 648 688 1710
3 1595 565 2079
3 845 576 1273
3 239 1675 1900
3 1061 557 1057
3 1142 517 1934
3 763 468 1283
3 555 1558 2108
3 784 1005 1387
3 182 954 1188
3 1640 381 1903
3 110 1392 1588
3 1167 840 1524
3 617 1555 1565
3 878 357 1565
3 440 1353 1711
3 577 786 1970
3 1251 973 1329
3 457 964 1548
3 779 1617 1174
3 498 756 1790
3 1757 963 1942
3 874 804 1030
3 770 1263 1876
3 973 1485 1366
3 663 1904 1631
3 1512 353 1555
3 1215 977 1149
3 378 1014 1524
3 560 1400 1836
3 36 37 1603
3 786 286 1970
3 805 1512 2035
3 23 976 1684
3 1416 857 2031
3 780 759 1776
3 1357 763 1954
3 224 569 1910
3 1040 367 1180
3 850 1388 1420
3 323 324 1351
3 954 880 1188
3 1768 787 1948
3 537 572 1906
3 515 780 1776
3 746 1867 1532
3 855 1040 1180
3 1476 555 2108
3 525 1315 1794
3 26 312 1195
3 309 714 1298
3 1459 193 1333
3 812 1681 1393
3 489 964 2095
3 1315 944 1794
3 454 833 1682
3 249 250 1046
3 630 1215 1149
3 782 962 1254
3 137 138 1302
3 1410 534 1814
3 1410 627 1827
3 534 820 1403
3 847 976 1886
3 1464 67 1095
3 337 1327 687
3 65 1443 2000
3 1464 1074 1950
3 728 405 1208
3 990 1110 1296
3 375 1333 1067
3 617 1512 1555
3 582 1990 1338
3 988 611 1563
3 804 1768 1948
3 1443 543 1719
3 1726 669 2061
3 516 1443 1719
3 1223 694 408
3 128 129 1644
3 1128 1094 1413
3 779 1090 1953
3 1657 547 2049
3 1177 879 1142
3 575 1212 1796
3 1729 972 2070
3 1454 368 1623
3 659 880 1908
3 964 1301 2095
3 1713 519 1246
3 557 965 1057
3 234 1420 1979
3 979 1213 2021
3 545 1511 1071
3 726 659 1908
3 1574 521 556
3 1871 1323 1709
3 292 21 1590
3 91 92 1581
3 1213 334 1075
3 545 1041 1745
3 1416 622 1756
3 966 353 1849
3 666 1871 1709
3 95 96 1720
3 168 169 1721
3 527 1658 2041
3 301 302 1793
3 172 173 1123
3 767 1093 1753
3 1840 441 1955
3 952 44 1239
3 1540 1045 1755
3 1017 750 2014
3 681 1140 2107
3 1110 518 1296
3 597 898 1334
3 1589 564 797
3 1191 323 1351
3 204 1498 2013
3 78 79 1753
3 961 1869 1376
3 382 1439 1917
3 563 1454 1623
3 833 1053 1996
3 973 1251 1513
3 393 1292 1963
3 212 213 1011
3 668 1023 2099
3 753 1436 2094
3 530 634 1196
3 1715 931 1736
3 472 838 1279
3 533 648 1710
3 652 1536 1184
3 684 641 2070
3 1673 893 397
3 475 548 1220
3 1251 769 1513
3 346 1433 505
3 796 815 2074
3 1433 473 505
3 148 604 1587
3 157 158 1119
3 901 801 1189
3 811 880 1691
3 229 634 1787
3 1498 867 2013
3 1175 1376 1179
3 831 1661 1415
3 1662 835 1187
3 1318 656 2005
3 1683 416 1835
3 629 1368 1339
3 247 248 1649
3 654 1455 2066
3 1465 765 1576
3 304 784 1387
3 236 237 991
3 1559 360 1700
3 839 1223 1527
3 108 109 1724
3 1722 1248 2087
3 956 447 1592
3 63 1749 1877
3 448 1602 2103
3 452 985 2066
3 638 692 1874
3 672 1109 1943
3 1009 383 1307
3 1421 514 2008
3 932 415 1677
3 1339 479 1978
3 256 257 1657
3 604 148 1852
3 364 1073 2053
3 1034 358 1781
3 1731 552 1902
3 321 1432 1702
3 568 811 1691
3 1302 1080 1965
3 340 1104 1962
3 985 1375 2066
3 1542 818 1941
3 953 1713 1246
3 1289 688 1775
3 1061 378 1524
3 298 299 1844
3 228 229 1787
3 194 195 1067
3 367 1448 1564
3 450 1729 2070
3 1124 445 1112
3 511 1540 1755
3 1600 574 1988
3 703 929 352
3 156 157 1980
3 1415 1186 1821
3 699 1187 1967
3 783 1599 1486
3 908 545 1991
3 1161 961 1868
3 1057 923 1018
3 834 1683 1835
3 656 1318 1682
3 1381 686 1873
3 688 1625 1775
3 719 1568 1992
3 1361 504 885
3 848 1161 1868
3 342 1677 1521
3 865 1839 1085
3 225 226 1192
3 751 884 2002
3 1248 1425 1446
3 1096 611 1688
3 723 1368 2046
3 460 988 1563
3 1575 593 1671
3 1944 553 1973
3 1628 409 1760
3 1295 630 1825
3 114 115 1285
3 1454 563 2101
3 254 1041 1071
3 1016 2002 1802
3 390 734 1331
3 744 1381 1873
3 918 1316 556
3 1406 920 1266
3 843 1724 1588
3 719 1100 1932
3 1568 577 1203
3 548 398 1220
3 1307 520 1965
3 103 104 1267
3 508 1039 711
3 713 1367 1722
3 1367 673 1722
3 579 559 1253
3 398 548 1373
3 871 1715 1736
3 535 1242 978
3 804 874 1768
3 1056 487 2042
3 388 1169 1530
3 640 396 2040
3 383 815 1307
3 739 1616 1052
3 831 1415 1821
3 1187 835 1967
3 245 1501 1752
3 1525 2050 1544
3 41 1023 1879
3 914 660 1490
3 222 881 1610
3 1614 277 1630
3 121 122 1958
3 381 969 1850
3 571 1247 1707
3 1564 1225 1960
3 595 1529 1183
3 524 915 1898
3 1549 211 1717
3 776 966 1849
3 614 969 702
3 1529 379 1183
3 954 568 1691
3 719 786 1568
3 642 1252 1264
3 387 638 1874
3 824 1011 1561
3 826 579 1253
3 1026 1872 1478
3 1073 1249 2053
3 913 998 1892
3 1214 1944 1973
3 560 1836 1158
3 1531 718 1208
3 50 763 1500
3 343 1054 1393
3 880 954 1691
3 1347 1526 1880
3 1402 311 1847
3 1010 1704 1202
3 12 281 411
3 998 538 1892
3 1443 65 1893
3 1468 82 1846
3 291 290 1739
3 2050 459 1544
3 926 1381 1864
3 1508 365 1474
3 593 1602 1671
3 248 249 1282
3 367 1564 1960
3 1252 269 1264
3 1212 331 1732
3 1197 357 878
3 965 923 1057
3 1766 1237 1802
3 1198 1552 1006
3 1736 440 1711
3 1420 1388 1979
3 734 806 1780
3 291 833 1996
3 1098 1281 1539
3 1475 810 1535
3 1005 1559 1700
3 1640 681 1112
3 1327 337 1444
3 487 1356 2042
3 1219 1825 1968
3 1381 744 1864
3 431 1411 1099
3 236 823 1605
3 1074 1443 1893
3 46 47 1759
3 1093 618 836
3 559 920 1253
3 1014 605 1524
3 160 1552 1176
3 874 512 1450
3 796 2074 1408
3 688 1020 1845
3 915 1210 2048
3 644 1056 2042
3 415 1512 2018
3 1411 413 1099
3 1867 596 1532
3 33 34 1643
3 32 1557 1528
3 1036 1192 2106
3 387 1874 1593
3 838 594 2009
3 867 1498 1287
3 626 1152 1676
3 1108 501 1451
3 499 1232 1742
3 1498 464 1287
3 1109 672 1735
3 1039 840 711
3 763 50 1954
3 691 1212 2071
3 823 850 1605
3 719 1992 1547
3 186 640 2040
3 1165 631 1985
3 455 901 1934
3 1439 382 1889
3 506 1347 1880
3 1394 95 1720
3 169 1255 1721
3 286 18 1970
3 1263 770 1800
3 1649 770 1876
3 1825 630 1968
3 728 513 705
3 723 1644 1989
3 358 1034 2052
3 731 198 1516
3 976 847 1506
3 698 1290 1995
3 2061 491 1319
3 484 1138 1200
3 1770 1416 2031
3 269 1252 1911
3 576 900 1273
3 731 669 1726
3 971 1250 1694
3 931 1628 1760
3 1638 871 1711
3 126 1368 1427
3 1232 897 1742
3 412 1108 1451
3 197 731 1726
3 1192 1036 2041
3 1133 172 1123
3 104 105 1843
3 1406 707 1153
3 388 1313 1771
3 1100 1103 1932
3 1252 642 1116
3 1552 370 1176
3 1138 979 1200
3 1422 620 1351
3 714 309 2020
3 733 434 878
3 907 418 1483
3 389 1263 1800
3 887 391 1715
3 1231 597 1334
3 391 887 1713
3 929 646 352
3 1313 1055 1771
3 92 775 1581
3 900 392 1273
3 1455 452 2066
3 1169 388 757
3 1422 27 1488
3 140 1007 1898
3 396 956 1592
3 1285 677 1674
3 751 813 1360
3 959 1673 397
3 1028 769 1460
3 74 75 1538
3 1296 918 1795
3 421 907 1483
3 364 1781 1977
3 831 1469 1956
3 937 835 1957
3 1737 156 1980
3 693 1439 1613
3 1022 1459 1518
3 479 1489 1978
3 1099 413 1655
3 1193 732 1874
3 478 1714 1271
3 1875 990 408
3 969 614 1850
3 420 988 1791
3 378 1057 1018
3 111 764 1896
3 120 121 832
3 1472 46 1759
3 143 1161 807
3 913 1468 1846
3 60 61 1693
3 886 731 1516
3 1562 883 2003
3 67 68 1095
3 932 820 1955
3 736 1570 1714
3 1047 655 785
3 1009 4 2048
3 641 684 1757
3 1025 10 1911
3 187 188 1935
3 1161 848 807
3 1525 579 2050
3 882 1063 1912
3 331 1231 1334
3 1443 516 2000
3 843 1534 1779
3 497 1574 1235
3 205 206 1573
3 2036 1354 2037
3 325 24 667
3 470 1207 1418
3 198 199 1516
3 378 1061 1057
3 487 1526 1347
3 597 1231 1948
3 1370 1640 2102
3 1242 652 978
3 406 1361 1518
3 881 223 1910
3 443 604 1913
3 842 1110 1423
3 990 1296 1795
3 209 210 1969
3 1361 1022 1518
3 815 520 1307
3 1951 1303 1417
3 1534 498 1779
3 311 26 1847
3 329 1021 849
3 871 887 1715
3 1140 1856 2107
3 1146 1165 1985
3 1604 754 1765
3 423 1324 1506
3 1152 890 1676
3 604 502 1587
3 1636 1288 1859
3 263 264 1645
3 215 216 1542
3 958 1650 2017
3 887 519 1713
3 1383 549 1921
3 768 372 2080
3 1607 588 1793
3 1666 398 1373
3 67 1464 1950
3 601 1604 1765
3 1290 698 1466
3 1110 842 948
3 1511 253 1071
3 1839 754 1085
3 1249 928 1206
3 413 1509 1655
3 1681 431 1972
3 136 137 1838
3 1731 865 1964
3 797 461 1042
3 605 1014 1201
3 801 1190 1189
3 142 143 807
3 1538 828 2103
3 1190 437 1189
3 2005 793 1260
3 928 657 1206
3 611 988 1688
3 608 327 1260
3 193 194 1333
3 620 638 1566
3 1361 406 2068
3 617 892 2018
3 581 1302 1965
3 129 130 1002
3 851 1990 1492
3 404 1551 1222
3 694 1875 408
3 1119 1414 2044
3 124 125 1060
3 1730 632 1316
3 596 1162 1532
3 1640 445 2102
3 259 1028 1634
3 472 813 1560
3 48 49 1723
3 394 1290 1466
3 4 139 2048
3 1600 551 1465
3 548 613 1923
3 366 1044 2059
3 1230 446 1857
3 213 214 1561
3 338 1730 1316
3 633 1600 1465
3 811 1102 2081
3 892 999 2018
3 1155 602 1936
3 466 993 1725
3 574 1600 1358
3 493 1020 1490
3 434 335 2098
3 136 1838 2045
3 1475 503 1629
3 1652 1284 1220
3 860 1394 1720
3 1255 635 1721
3 1025 536 1434
3 1148 691 2071
3 1028 438 1634
3 459 1195 1544
3 371 1327 1678
3 993 886 1725
3 1734 993 1890
3 243 244 1728
3 1766 609 1810
3 1060 125 1337
3 1773 435 1769
3 1162 546 1532
3 658 1124 1112
3 64 65 2000
3 888 329 849
3 1016 1897 1969
3 1002 130 1118
3 320 321 1702
3 707 1406 1266
3 1020 493 1845
3 551 1033 2067
3 110 111 1896
3 164 165 1956
3 99 100 1957
3 367 1040 1278
3 947 1766 1810
3 1327 700 687
3 1481 585 1881
3 1031 861 1222
3 541 952 2096
3 1210 1009 2048
3 982 634 1670
3 1551 607 1222
3 24 298 1883
3 445 1640 1112
3 519 887 1762
3 846 1464 1095
3 153 154 1281
3 1469 164 1956
3 100 937 1957
3 1405 362 1346
3 344 1230 1857
3 1215 630 1855
3 1358 1600 1457
3 634 530 1670
3 1617 580 1174
3 400 877 1851
3 1553 842 1423
3 1692 1013 1482
3 71 72 1344
3 1557 33 1643
3 949 622 1770
3 1263 1501 1431
3 1501 927 1752
3 801 1692 1482
3 208 209 1897
3 152 153 1665
3 786 719 1932
3 1104 340 1533
3 231 232 1362
3 494 1140 1300
3 1895 905 2075
3 244 245 1752
3 856 1148 2071
3 1011 1092 1717
3 212 1011 1717
3 555 1156 1815
3 446 898 1857
3 519 1618 1246
3 419 970 1348
3 139 140 1898
3 234 235 1420
3 251 252 1211
3 1480 1816 1769
3 939 870 974
3 147 148 1587
3 1108 860 1820
3 635 1232 1822
3 1584 636 1992
3 712 1383 1082
3 1875 694 1632
3 105 1369 1843
3 950 882 1912
3 1300 672 995
3 272 11 1170
3 600 1475 1637
3 15 279 1305
3 830 469 1430
3 1241 540 1930
3 842 1553 1805
3 536 1468 1434
3 1313 769 1746
3 1199 1484 1983
3 735 1133 1123
3 221 222 1610
3 606 724 1865
3 692 1193 1874
3 405 728 1854
3 863 1951 1417
3 1290 394 921
3 646 1147 1659
3 436 1545 2078
3 1091 410 967
3 354 1584 1992
3 1545 899 2078
3 87 88 1278
3 1668 524 1429
3 1132 501 1967
3 499 816 1821
3 1584 709 2022
3 518 1110 948
3 1644 799 1989
3 435 1480 1769
3 1014 349 1201
3 860 1108 1089
3 1232 635 1751
3 754 1604 1292
3 1468 913 1434
3 1484 410 1983
3 1970 858 2027
3 605 1167 1524
3 651 2036 2037
3 775 876 1581
3 1055 1313 1746
3 123 124 573
3 607 1031 1222
3 577 1970 2027
3 239 240 1450
3 814 1706 2014
3 1031 607 1611
3 319 320 1656
3 782 1104 1678
3 1192 226 2106
3 1275 459 826
3 1138 582 1338
3 714 950 1298
3 154 1536 1281
3 1480 335 2085
3 3 126 1427
3 1741 753 2094
3 758 379 1971
3 515 1757 1942
3 1501 245 1431
3 1316 632 556
3 983 758 1971
3 176 177 1855
3 49 50 1500
3 308 309 1298
3 550 747 1860
3 280 15 1515
3 776 1480 2085
3 445 1124 2105
3 1005 1607 1387
3 416 1091 967
3 815 975 2074
3 429 1584 2022
3 1491 938 1380
3 696 1493 1627
3 1906 572 2019
3 1383 377 1082
3 813 1092 1426
3 181 182 1188
3 11 271 1121
3 165 1661 1956
3 1662 99 1957
3 1162 1106 2023
3 1104 782 1962
3 576 1180 1960
3 428 1159 1286
3 1572 812 1393
3 358 650 1763
3 1759 1214 1973
3 870 939 1282
3 17 283 1322
3 907 735 1826
3 1149 418 1968
3 324 1422 1351
3 1485 973 1513
3 1675 571 1900
3 532 1318 2005
3 916 1100 1547
3 148 149 1852
3 876 900 1507
3 1302 138 1107
3 769 1485 1513
3 380 624 1976
3 50 51 1954
3 883 1616 2003
3 840 1167 1834
3 614 1543 1049
3 1231 331 1831
3 1680 822 1740
3 1124 332 1673
3 1026 1130 2024
3 1100 719 1547
3 981 758 1613
3 539 1159 2043
3 939 770 1649
3 561 1636 1317
3 1952 856 1144
3 1540 59 1216
3 1080 1302 1107
3 1013 1503 1399
3 988 460 2064
3 1130 453 2024
3 358 1033 1988
3 344 929 2077
3 256 1657 1078
3 1503 448 1619
3 1608 17 1322
3 54 55 1221
3 889 228 1787
3 1556 749 1937
3 735 907 1784
3 1288 714 2020
3 1627 1493 2091
3 1491 1380 2090
3 485 1627 2091
3 1380 486 2090
3 781 1952 1144
3 859 1384 1830
3 82 83 1846
3 394 573 1060
3 891 1173 1633
3 879 517 1142
3 1621 870 1904
3 1677 586 1521
3 366 1192 2041
3 1127 1150 1147
3 1718 848 1868
3 1285 115 1783
3 616 1166 1068
3 533 1290 921
3 602 1556 1937
3 441 932 1955
3 1063 1470 1912
3 677 1285 1783
3 1363 1744 1355
3 935 657 1925
3 88 1448 1278
3 900 876 1801
3 1104 371 1678
3 1779 865 1731
3 1546 79 2010
3 1835 416 967
3 1159 422 1286
3 1498 205 1573
3 1639 710 2058
3 128 1644 2046
3 584 837 1642
3 1026 996 1872
3 981 935 1925
3 763 628 1500
3 663 1621 1904
3 1115 2061 1319
3 1814 534 1304
3 506 1817 1356
3 60 1693 1216
3 1519 781 1972
3 179 827 1163
3 253 254 1071
3 1931 743 1277
3 737 1401 1270
3 1401 706 1270
3 622 949 1404
3 780 515 1942
3 1033 358 1763
3 1675 239 1450
3 1669 8 1461
3 837 709 1642
3 609 1766 1802
3 827 977 1163
3 783 1486 1286
3 1156 555 2028
3 1551 904 1158
3 959 1918 2105
3 888 495 1075
3 1040 87 1278
3 517 879 1398
3 1618 496 1246
3 1625 688 1845
3 925 641 2056
3 1607 303 1387
3 980 1109 1798
3 345 1553 1423
3 35 36 2033
3 1591 3 1277
3 403 1029 1949
3 587 1818 2089
3 552 1731 1964
3 1537 567 1940
3 1156 711 1495
3 618 1093 1953
3 177 1215 1855
3 1109 300 1798
3 626 1751 1974
3 1089 631 1596
3 344 1127 1147
3 641 450 2070
3 1214 1723 1944
3 1093 767 1953
3 800 697 1390
3 501 1108 1820
3 1232 499 1822
3 159 160 1176
3 1302 581 1838
3 398 1652 1220
3 1295 176 1855
3 631 1801 2004
3 1007 524 1898
3 296 23 1684
3 1643 34 1920
3 1784 626 1579
3 653 1773 1335
3 409 1201 1760
3 1129 336 1986
3 640 187 1935
3 1045 1540 1216
3 302 1607 1793
3 900 576 1507
3 1090 490 1399
3 800 639 2063
3 1419 597 1948
3 431 1519 1972
3 249 1046 1282
3 1368 629 1427
3 1473 542 1833
3 530 1686 1670
3 594 1324 1407
3 902 1472 1759
3 761 380 1976
3 476 1669 1325
3 929 402 2077
3 1773 1135 1335
3 968 780 1942
3 313 1525 1544
3 756 654 1790
3 418 907 1826
3 522 1520 2084
3 996 720 1872
3 904 1551 1663
3 721 1129 1986
3 1130 1026 1478
3 1686 678 1670
3 1644 723 2046
3 1482 1013 1399
3 137 1302 1838
3 1693 1045 1216
3 791 1410 1827
3 1526 317 1880
3 904 432 1158
3 490 1482 1399
3 29 30 1841
3 1669 643 1325
3 930 595 1646
3 1147 1150 1659
3 563 1029 2101
3 1166 891 1716
3 1531 522 2084
3 116 1580 1783
3 909 791 1827
3 1594 360 1638
3 952 1239 2096
3 65 66 1893
3 300 1109 1735
3 902 1759 1973
3 1580 677 1783
3 1463 1385 1959
3 623 1024 1882
3 1644 129 1002
3 643 1669 1461
3 877 35 2033
3 335 966 2085
3 501 1820 1967
3 1822 499 1821
3 223 224 1910
3 799 1644 1002
3 417 930 1646
3 325 667 1824
3 1512 617 2018
3 210 1549 1969
3 424 662 1379
3 109 110 1588
3 276 1087 1630
3 1736 931 989
3 1912 422 1517
3 1543 24 1883
3 1324 423 1407
3 243 1728 1635
3 697 800 1194
3 966 776 2085
3 873 555 1815
3 509 1062 1981
3 1795 918 556
3 482 1770 2031
3 1529 436 2078
3 946 382 1917
3 767 1546 1929
3 727 1570 2080
3 1113 1538 2103
3 10 269 1911
3 1195 312 1544
3 188 189 1079
3 322 323 1987
3 1201 349 1760
3 1546 767 1753
3 1808 414 1624
3 1570 454 2080
3 706 1608 757
3 1543 458 1049
3 1481 497 1235
3 235 236 1605
3 868 1362 1578
3 418 1826 1968
3 747 854 1860
3 1362 1199 1578
3 1470 783 1286
3 961 1175 1868
3 430 977 1622
3 1878 738 1204
3 1728 787 1635
3 1551 404 1663
3 1763 924 2067
3 1037 533 921
3 826 459 2050
3 144 145 1869
3 402 1623 940
3 726 430 1622
3 966 335 2086
3 1140 494 1856
3 1507 576 1960
3 1033 1763 2067
3 855 845 1051
3 272 1170 1997
3 1305 279 1998
3 1799 872 1923
3 508 1156 2028
3 922 1901 1786
3 464 434 1287
3 1105 1546 2010
3 288 19 1885
3 214 215 1941
3 40 41 1879
3 845 538 1051
3 432 560 1158
3 1287 434 2098
3 1135 1773 1769
3 1436 951 2094
3 463 885 1496
3 290 20 1884
3 310 25 1859
3 1583 85 1297
3 66 67 1950
3 975 1814 1304
3 754 1292 1085
3 507 1829 1835
3 1577 904 1986
3 585 1730 1848
3 72 73 1502
3 438 1028 1460
3 1661 831 1956
3 835 1662 1957
3 34 35 1920
3 555 873 1885
3 1027 697 2026
3 410 936 967
3 662 1608 1322
3 1489 319 1656
3 1738 585 1848
3 1405 553 1939
3 855 1583 1297
3 1092 1011 1426
3 440 1736 989
3 1023 429 2022
3 1818 1083 2089
3 1009 1080 1107
3 196 197 1726
3 733 966 2086
3 4 1009 1107
3 16 289 2012
3 1653 671 2083
3 506 1356 1347
3 1378 463 1496
3 1623 368 940
3 1666 554 1806
3 707 559 2058
3 44 45 1239
3 1470 422 1912
3 653 1895 2075
3 118 119 1391
3 293 1031 1611
3 738 1117 1204
3 636 1584 1786
3 79 80 2010
3 1636 25 1317
3 1003 832 1945
3 1380 821 2072
3 38 39 1442
3 844 1466 1576
3 783 1437 1984
3 3 1591 1337
3 101 102 649
3 162 163 1340
3 1394 860 1596
3 635 1255 1974
3 822 1353 1740
3 452 1595 2079
3 532 1044 1947
3 1062 426 1981
3 1838 1004 2045
3 877 592 1851
3 1055 1569 1270
3 307 1064 1499
3 987 1702 1727
3 1858 665 2082
3 1760 349 989
3 1829 834 1835
3 280 1515 1172
3 377 1117 1924
3 1011 824 1426
3 1448 367 1278
3 1730 338 1848
3 1136 676 1554
3 1231 804 1948
3 872 1537 2092
3 1792 1309 2073
3 1228 1060 1337
3 1744 401 1355
3 18 285 1914
3 23 295 1886
3 619 1666 1806
3 52 53 1916
3 1569 737 1270
3 73 742 1502
3 1658 768 1947
3 1121 271 1754
3 854 747 1907
3 341 2055 1624
3 1466 698 1576
3 808 1303 1951
3 968 1084 1597
3 288 873 2054
3 630 1295 1855
3 970 1941 1348
3 1941 818 1348
3 977 827 1622
3 931 1760 989
3 898 610 1857
3 1238 463 1698
3 862 1002 1118
3 513 960 1882
3 1059 1808 1624
3 360 1594 1700
3 1056 644 1153
3 1159 428 2043
3 1603 1323 1871
3 230 231 2025
3 381 1585 1903
3 612 926 1349
3 1112 681 2107
3 1007 853 1697
3 1129 896 1233
3 869 1531 2084
3 362 1405 1939
3 178 179 1163
3 1608 706 1359
3 1270 706 1771
3 1086 1809 352
3 85 86 1297
3 1601 427 1918
3 1584 429 1786
3 35 877 1920
3 910 1628 1899
3 1552 941 1006
3 717 1499 1517
3 216 1134 1542
3 336 1129 1233
3 1487 697 1194
3 665 2007 2082
3 272 1997 1894
3 1182 1406 1153
3 296 1562 2003
3 1024 513 1882
3 1140 681 1823
3 261 262 1366
3 1499 1064 1517
3 945 380 1229
3 1585 381 1850
3 17 1608 1359
3 1520 869 2084
3 285 284 1654
3 233 234 1979
3 56 57 1449
3 711 1240 1495
3 1757 515 2056
3 420 1487 1194
3 652 1737 978
3 1548 895 397
3 336 1577 1986
3 1451 1050 1997
3 1737 1015 978
3 680 1742 1998
3 1808 1256 1269
3 134 135 1497
3 1353 822 1711
3 59 60 1216
3 333 1909 2101
3 412 1451 1997
3 1742 897 1998
3 382 935 1889
3 300 301 1798
3 873 288 1885
3 1117 377 1204
3 1897 1016 1802
3 1237 1897 1802
3 1693 1341 2015
3 1230 402 940
3 1879 1023 2022
3 131 132 1926
3 191 192 1905
3 1239 859 2096
3 1628 910 2051
3 891 1367 1716
3 206 207 1733
3 873 1336 2054
3 1384 902 1346
3 1354 1280 2037
3 1103 1100 2108
3 592 1603 1871
3 1562 296 1684
3 672 1844 1735
3 851 830 1338
3 614 1585 1850
3 743 1591 1277
3 911 1878 1204
3 592 1696 1851
3 529 1463 1959
3 1586 406 1518
3 125 3 1337
3 1696 401 1851
3 146 147 1311
3 1046 1265 1904
3 1133 735 1579
3 486 1380 2072
3 634 982 1787
3 964 895 1548
3 1038 666 1709
3 284 17 1359
3 603 780 1597
3 323 1191 1987
3 974 359 1382
3 39 837 1442
3 422 1159 1517
3 1533 570 1259
3 1075 495 2021
3 1878 911 1453
3 983 2076 1389
3 410 1091 1983
3 361 1027 2026
3 31 32 1528
3 1196 230 2025
3 597 1419 1441
3 902 1405 1346
3 1574 497 1789
3 309 310 2020
3 792 894 1445
3 592 877 2033
3 575 1030 1831
3 1863 359 2030
3 1076 987 1727
3 546 1162 2023
3 839 1574 1789
3 468 1520 1523
3 2074 591 1408
3 495 888 849
3 671 1741 2083
3 1741 467 2083
3 834 1829 1205
3 918 1296 1650
3 848 1718 1207
3 806 1653 2083
3 994 1668 1429
3 1829 925 1205
3 876 775 2004
3 666 1038 2027
3 306 307 1499
3 1487 420 1791
3 697 1487 2026
3 1809 958 2017
3 1100 330 2108
3 620 1191 1351
3 21 291 1996
3 703 1809 2017
3 959 1601 1918
3 1371 342 1521
3 274 12 2081
3 515 1205 2056
3 1734 912 1328
3 655 888 1994
3 458 1140 1823
3 491 1734 1328
3 841 386 2011
3 1102 274 2081
3 1296 518 1650
3 933 1575 1664
3 872 1666 1373
3 416 1683 1233
3 837 584 1442
3 297 296 2003
3 1038 577 2027
3 299 300 1735
3 806 1609 1474
3 492 1612 1927
3 866 1050 2090
3 1208 405 1321
3 704 341 1624
3 380 440 1229
3 1029 403 2073
3 312 313 1544
3 157 1119 1980
3 421 1483 1172
3 1255 875 1974
3 1224 1394 1596
3 996 692 1488
3 1483 1077 1172
3 1616 883 1052
3 1574 839 1527
3 507 936 2019
3 706 1401 1359
3 637 1738 1848
3 1055 1270 1771
3 317 318 1880
3 1459 1586 1518
3 817 1371 1887
3 1001 529 1959
3 1063 1437 1470
3 1583 855 1051
3 1871 666 1582
3 279 278 1276
3 789 1710 1289
3 524 1007 1697
3 960 623 1882
3 584 1038 1709
3 622 1227 1756
3 1591 1228 1337
3 1604 267 1292
3 598 1001 1959
3 1648 396 1592
3 335 434 2086
3 993 466 1890
3 303 304 1387
3 1088 1273 1754
3 348 1177 1142
3 400 1643 1920
3 1273 392 1754
3 1606 564 1202
3 483 1648 1592
3 553 1405 1973
3 1998 279 1276
3 155 156 1184
3 1401 284 1359
3 1603 592 2033
3 680 1070 2091
3 707 1056 1153
3 843 1779 1731
3 434 733 2086
3 920 559 1266
3 1090 618 1953
3 559 760 2058
3 203 204 2013
3 1159 717 1517
3 333 1029 2073
3 1710 688 1289
3 780 968 1597
3 484 1166 1716
3 417 1646 1641
3 806 1474 1780
3 384 1878 1453
3 273 272 1894
3 870 1046 1904
3 1213 1075 2021
3 347 399 1687
3 667 405 1824
3 942 1696 1582
3 1827 627 1975
3 1036 889 1888
3 1438 1236 1492
3 657 935 1554
3 927 1728 1752
3 1816 1135 1769
3 889 982 1888
3 401 1696 1355
3 847 1861 2069
3 258 259 1634
3 480 1438 1492
3 1154 1175 1179
3 525 946 1917
3 185 186 2040
3 269 268 1264
3 672 1943 995
3 524 1697 1429
3 521 1574 1527
3 771 1081 1494
3 1081 625 1494
3 227 889 2106
3 1046 870 1282
3 948 842 1792
3 577 1038 1203
3 1696 942 1355
3 112 113 2034
3 355 424 1379
3 255 256 1078
3 769 1313 1460
3 1585 614 1049
3 1749 854 1877
3 979 1138 1338
3 211 212 1717
3 399 594 1687
3 266 8 2047
3 1073 1048 1494
3 1011 213 1561
3 365 1508 1567
3 1788 449 1457
3 889 1036 2106
3 1725 886 1895
3 368 1572 940
3 835 1132 1967
3 816 831 1821
3 20 297 1772
3 819 1690 1782
3 1521 586 1940
3 277 276 1630
3 633 1788 1457
3 1508 805 1567
3 425 1360 1279
3 8 273 1461
3 1702 1432 1727
3 115 116 1783
3 1191 738 1987
3 245 246 1431
3 910 1899 1747
3 1167 345 1834
3 1723 49 1500
3 356 419 1348
3 946 525 1794
3 875 1133 1579
3 453 1193 2024
3 1976 906 1915
3 955 1487 1791
3 1794 944 1862
3 289 288 2054
3 1605 850 1420
3 75 76 1598
3 242 243 1635
3 525 1620 1315
3 226 227 2106
3 528 1794 1862
3 19 1558 1885
3 138 4 1107
3 246 247 1876
3 8 1669 2047
3 1484 233 1979
3 860 1089 1596
3 1751 635 1974
3 1180 367 1960
3 1510 16 2012
3 360 1762 1638
3 473 908 1991
3 1437 783 1470
3 1578 1199 1983
3 1723 628 1944
3 951 1864 1151
3 132 1182 1926
3 1943 906 995
3 42 43 2099
3 1431 246 1876
3 547 424 2049
3 935 981 1889
3 893 1548 397
3 1497 135 2045
3 630 1149 1968
3 354 1568 1203
3 1864 744 1151
3 409 1628 2051
3 775 1224 2004
3 135 136 2045
3 1212 1732 2071
3 284 1401 1654
3 909 1827 1975
3 127 128 2046
3 1706 517 1398
3 573 124 1060
3 130 131 1118
3 131 1926 1118
3 1223 521 1527
3 962 1807 1254
3 985 452 2079
3 558 1680 1740
3 134 1497 1891
3 433 808 1951
3 1195 459 2057
3 1807 444 1254
3 559 707 1266
3 1612 492 1550
3 1660 955 2064
3 518 948 1949
3 794 1612 1550
3 1230 344 2077
3 414 1808 1269
3 629 1076 1931
3 1263 1431 1876
3 1386 1652 1294
3 1367 713 1716
3 1625 417 1775
3 403 1792 2073
3 1819 983 1389
3 1767 689 1902
3 574 1358 1977
3 1157 1707 407
3 1358 1048 1977
3 1612 926 1927
3 133 134 1891
3 1751 626 1676
3 25 1636 1859
3 631 1089 1985
3 602 1933 1936
3 460 1660 2064
3 1670 678 1803
3 1690 1047 785
3 868 1196 2025
3 951 1151 2094
3 1058 1837 2006
3 1141 1773 2075
3 458 1585 1049
3 1774 906 1976
3 552 1767 1902
3 548 1923 1373
3 1773 653 2075
3 1933 753 1936
3 1621 637 2030
3 700 1473 1833
3 347 1687 1462
3 819 1782 1550
3 1707 1032 407
3 1560 813 1426
3 1413 1083 1818
3 1487 955 2060
3 207 1217 1733
3 1313 388 1703
3 395 1413 1818
3 982 889 1787
3 1171 1645 1812
3 982 1670 1803
3 1645 919 1812
3 1837 390 2006
3 1309 1181 2073
3 877 400 1920
3 1558 555 1885
3 581 1275 826
3 503 1268 1629
3 1585 458 1823
3 1647 355 1379
3 395 1706 1398
3 1268 1126 1629
3 948 403 1949
3 1734 491 2061
3 1903 1585 1823
3 2055 1059 1624
3 1767 552 1458
3 521 1795 556
3 386 1001 2011
3 1687 594 1407
3 437 1190 1999
3 1238 191 1905
3 402 1230 2077
3 1293 1647 1379
3 1190 615 1999
3 1800 770 1382
3 1327 1444 1678
3 1658 366 2041
3 661 1767 1458
3 735 1784 1579
3 989 349 1229
3 1743 1010 1938
3 440 989 1229
3 628 1723 1500
3 595 1183 1409
3 510 1320 1505
3 1001 598 2011
3 1683 336 1233
3 1495 583 1815
3 1320 375 1505
3 543 1701 1719
3 1701 773 1719
3 1690 385 1782
3 1837 671 1653
3 828 1619 2103
3 626 1784 1152
3 510 1396 1320
3 385 1690 785
3 871 1736 1711
3 1396 406 1320
3 1083 1865 2089
3 36 1603 2033
3 1200 979 2021
3 594 399 2009
3 1440 1154 1504
3 1428 1440 1504
3 1781 358 1988
3 379 1342 1183
3 492 1927 1436
3 1801 876 2004
3 1156 1495 1815
3 1275 581 1965
3 1150 1800 1382
3 1530 438 1703
3 1575 1671 1664
3 1781 574 1977
3 729 1289 1775
3 1018 923 1699
3 520 1275 1965
3 1687 369 1462
3 758 981 1342
3 1961 1343 1019
3 706 757 1771
3 512 1675 1450
3 1681 781 1144
3 554 1666 2092
3 1801 631 1165
3 493 1306 788
3 1820 699 1967
3 1186 1822 1821
3 369 1687 1407
3 295 1861 1886
3 899 1701 2076
3 1342 1160 1183
3 388 1530 1703
3 1669 661 2047
3 1616 739 1772
3 1566 1243 1924
3 1486 428 1286
3 1135 1816 1019
3 2065 468 1523
3 1817 799 1356
3 1245 1378 1496
3 494 1300 995
3 456 1961 1019
3 1652 398 1294
3 1386 1294 2100
3 1666 872 2092
3 1294 619 2100
3 1568 354 1992
3 297 1616 1772
3 1933 492 1436
3 527 1888 1803
3 926 1612 1349
3 1183 1160 1409
3 1816 456 1019
3 1863 646 1659
3 1010 1310 1853
3 1076 384 1931
3 1227 745 1756
3 926 1864 1927
3 787 1419 1948
3 644 1182 1153
3 906 1943 1915
3 753 1933 1436
3 343 1681 1144
3 1475 1535 1637
3 1045 1693 2015
3 1671 465 1664
3 1306 1062 788
3 681 1640 1903
3 495 1200 2021
3 625 1073 1494
3 1884 20 2032
3 681 1903 1823
3 1909 725 1509
3 1225 1507 1960
3 403 948 1792
3 1330 385 2007
3 1679 867 2098
3 866 643 1461
3 413 1909 1509
3 509 1234 788
3 1008 1330 2007
3 1616 297 2003
3 1826 1219 1968
3 1848 338 1672
3 1170 412 1997
3 1782 794 1550
3 897 1305 1998
3 335 1679 2098
3 1081 595 1409
3 414 704 1624
3 555 1476 2028
3 1982 678 1271
3 1943 558 1915
3 1292 393 1085
3 491 1505 1319
3 941 1627 1006
3 727 1982 1271
3 1864 951 1927
3 273 866 1461
3 1015 1119 2044
3 1651 361 2060
3 955 1651 2060
3 1148 856 1952
3 1182 644 1926
3 781 1681 1972
3 1840 734 1780
3 604 1852 1913
3 1852 616 1913
3 1971 899 2076
3 799 1817 1989
3 365 1840 1780
3 1013 1692 1365
3 399 425 2009
3 702 969 1523
3 1921 743 1453
3 1627 485 1006
3 1032 1729 407
3 1267 762 2072
3 990 1795 408
3 2014 465 1308
3 834 1205 1776
3 912 1734 1890
3 665 1042 2007
3 814 2014 1308
3 981 1925 1342
3 1042 1008 2007
3 1333 375 1586
3 1764 1252 1116
3 1010 1202 1938
3 709 1879 2022
3 1692 455 1365
3 1729 450 407
3 1096 708 1966
3 444 1148 1952
3 379 758 1342
3 347 1462 2023
3 1280 529 2037
3 1405 902 1973
3 1728 244 1752
3 933 750 1993
3 1022 1238 1905
3 1119 1015 1980
3 1425 1268 1446
3 1079 695 2062
3 1143 1079 2062
3 1724 109 1588
3 625 1081 1409
3 1438 1421 2008
3 456 1816 1467
3 1704 1010 1853
3 76 836 1598
3 1205 515 1776
3 1806 369 1261
3 836 828 1598
3 1816 776 1467
3 1982 527 1803
3 1435 1164 2001
3 3 1427 1277
3 2032 20 1772
3 762 1325 1424
3 839 1510 2012
3 330 1476 2108
3 761 1976 1915
3 1279 838 2009
3 1817 479 1989
3 616 1068 1913
3 757 388 1771
3 1068 443 1913
3 531 750 1372
3 821 1267 2072
3 750 1017 1372
3 372 527 1982
3 789 1788 1995
3 1515 421 1172
3 451 1665 2029
3 1811 571 1707
3 1462 546 2023
3 1665 1098 2029
3 469 1743 1430
3 1325 643 1424
3 1743 852 1430
3 727 372 1982
3 1353 761 1740
3 425 1279 2009
3 462 1452 1778
3 1050 866 1894
3 1288 2020 1859
3 469 1310 1743
3 1157 1811 1707
3 627 1668 1975
3 1452 1035 1778
3 669 1734 2061
3 1310 1010 1743
3 1791 988 2064
3 384 1076 1727
3 392 1121 1754
3 1785 587 2089
3 1840 365 1567
3 866 273 1894
3 427 1384 1346
3 1950 1074 1893
3 66 1950 1893
3 1467 776 1849
3 885 504 1496
3 422 1470 1286
3 641 1757 2056
3 911 1921 1453
3 1872 720 705
3 1824 405 1854
3 1814 383 2093
3 1258 1467 1849
3 156 1737 1184
3 1029 333 2101
3 1997 1050 1894
3 441 1840 1567
3 619 1806 1261
3 720 1824 1854
3 955 1791 2064
3 231 1362 2025
3 595 1081 1646
3 1927 951 1436
3 523 1764 1116
3 934 985 2079
3 1396 1122 2068
3 1444 782 1678
3 1510 839 1789
3 1668 994 1975
3 1275 520 2057
3 2076 543 1389
3 927 1708 1441
3 406 1396 2068
3 624 1774 1976
3 1768 242 1635
3 1106 347 2023
3 1362 868 2025
3 1925 1160 1342
3 1419 927 1441
3 1689 682 1778
3 278 1070 1276
3 341 1437 2055
3 1437 341 1984
3 1656 987 1978
3 1828 1008 1042
3 787 1768 1635
3 832 765 1945
3 461 1828 1042
3 1226 971 1694
3 1708 610 1441
3 1609 798 1474
3 553 1944 2088
3 1758 647 1902
3 689 1758 1902
3 743 1931 1453
3 1459 1333 1586
3 502 1311 1587
3 760 1639 2058
3 611 1096 1966
3 750 531 1993
3 390 1837 1653
3 1795 521 408
3 513 1872 705
3 1035 1689 1778
3 385 1330 1782
3 969 2065 1523
3 1330 794 1782
3 1992 636 1547
3 1120 1013 1365
3 1737 652 1184
3 1858 655 1994
3 334 1858 1994
3 1124 1673 2105
3 2020 310 1859
3 1268 503 1446
3 459 1275 2057
3 1437 1063 2055
3 1489 1656 1978
3 1283 468 2065
3 655 1858 2082
3 375 1320 1586
3 905 1350 2075
3 534 1403 1304
3 895 1601 397
3 1066 505 1991
3 637 1848 1672
3 1350 1141 2075
3 1320 406 1586
3 1830 541 2096
3 1410 1814 2093
3 1111 984 1328
3 574 1781 1988
3 505 473 1991
3 1407 423 1261
3 1535 482 1637
3 888 1075 1994
3 850 1906 2019
3 1075 334 1994
3 1474 365 1780
3 369 1407 1261
3 762 1424 2072
3 2026 1487 2060
3 811 2081 411
3 359 1863 1659
3 830 979 1338
3 235 1605 1420
3 1697 470 1429
3 1975 994 1797
3 598 1884 2032
3 1205 925 2056
3 2081 12 411
3 1558 1103 2108
3 1648 185 2040
3 1538 75 1598
3 661 1458 1963
3 1809 703 352
3 1828 461 2038
3 828 1538 1598
3 1861 847 1886
3 1236 1438 2008
3 984 1828 2038
3 1600 633 1457
3 1458 393 1963
3 658 1112 2107
3 805 2035 1567
3 375 1067 1319
3 485 1198 1006
3 1601 959 397
3 1070 680 1276
3 1922 480 1842
3 859 1830 2096
3 1343 1335 1019
3 687 700 1833
3 1813 456 1467
3 1541 984 2038
3 1335 1135 1019
3 824 1560 1426
3 600 1922 1842
3 510 1541 2038
3 1015 1737 1980
3 2035 441 1567
3 1382 359 1659
3 488 1226 1694
3 994 2006 1797
3 1150 1382 1659
3 1258 1813 1467
3 510 1505 1541
3 502 1435 2001
3 1505 491 1541
3 1777 565 1674
3 1209 1777 1674
3 1376 562 1179
3 361 2026 2060
3 1181 333 2073
3 396 1648 2040
3 1856 658 2107
3 1609 806 2083
3 1901 636 1786
3 1403 817 1304
3 680 1998 1276
3 1844 299 1735
3 732 1626 1593
3 682 1099 1655
3 1923 872 1373
3 1067 1115 1319
3 1888 982 1803
3 628 1283 2088
3 1740 761 1915
3 1931 384 1453
3 765 1958 1576
3 1958 844 1576
3 981 1613 1889
3 852 1743 1938
3 1331 909 1797
3 467 1609 2083
3 1460 1313 1703
3 362 1939 2102
3 739 2032 1772
3 372 727 2080
3 1775 417 1641
3 2047 661 1963
3 1085 393 1964
3 909 1975 1797
3 467 1741 2094
3 1701 543 2076
3 247 1649 1876
3 729 1775 1641
3 558 1740 1915
3 266 2047 1963
3 771 1685 1641
3 984 1541 1328
3 912 1111 1328
3 785 655 2082
3 1939 1370 2102
3 1685 729 1641
3 957 687 1833
3 867 1287 2098
3 1283 481 2088
3 678 1982 1803
3 1505 375 1319
3 1673 959 2105
3 1613 1439 1889
3 1626 660 1593
3 1990 582 2087
3 944 1344 1862
3 1944 628 2088
3 1344 670 1862
3 390 1331 1797
3 1168 1990 2087
3 579 826 2050
3 1418 730 1667
3 1509 462 1655
3 438 1460 1703
3 393 1458 1964
3 2007 385 2082
3 1058 1418 1667
3 1356 487 1347
3 1194 800 2063
3 765 1465 1945
3 1632 583 1495
3 1504 1154 1179
3 1074 1819 1389
3 1062 509 788
3 983 1971 2076
3 865 1085 1964
3 474 1785 2089
3 1465 551 1945
3 481 1283 2065
3 1424 486 2072
3 420 1194 2063
3 1778 682 1655
3 1311 147 1587
3 1532 546 1832
3 1619 448 2103
3 1240 1632 1495
3 2006 390 1797
3 449 1358 1457
3 1202 564 1938
3 462 1778 1655
3 746 1532 1832
3 385 785 2082
3 1458 552 1964
3 1261 423 2100
3 1168 2104 1842
3 2104 600 1842
3 619 1261 2100
3 1541 491 1328
3 562 1504 1179
3 728 705 1854
3 705 720 1854
CELL_DATA 3900
SCALARS Von_Mises float 1
LOOKUP_TABLE default
57176596.43845034 21610153.328072812 55023170.21051847 93708829.71515456 54956880.02148284 34876883.06049805 50549324.25057424 56793657.20392784 63060184.977125555 59170161.811075196 14725441.536951771 57639357.87164768 54991211.43929372 49399183.34309502 51080600.14344745 34727087.86371942 54721442.17000159 27205230.738855675 50795587.26048894 41532888.597799845 1227645.1833737295 35241418.11836216 3876532.211046462 56845944.697324425 15993732.774562357 57463282.58259946 49513590.89135155 56073901.925104484 1863927.1282225624 17505355.64023446 4320813.410483415 64323939.76514991 61399018.394297786 56768532.43921871 52669328.59654985 18020306.725790437 16397234.949220661 56143458.465034276 37479244.32622866 9272686.687983412 49822337.117987454 9070525.391961312 59970439.47271086 56766295.94154124 50876903.97802406 56035608.131457955 17696472.711424377 49094185.30765344 34551976.47400902 54254874.90818099 44850224.41010861 62332163.30709342 15882504.967108587 14377047.02455373 39495706.10811854 9434191.02452721 51297780.26046847 4333212.406286329 53704707.6271351 50711405.59352954 45690319.804264165 52844665.0343032 58444451.54340779 24951035.530022517 51040649.72674137 49639202.376830705 40087459.98637996 47587292.62724711 30181144.218558013 9348792.12150815 71191364.2353914 11267698.497522622 58805396.25433354 38845151.997925706 34462084.02045337 16161392.823463319 55352807.64498395 64745818.86321665 34230484.39481866 43518398.44045337 35651398.09869359 50062934.429521255 11215467.492181482 57621669.79548924 79558163.10254236 19964930.231855232 8904144.843934387 8839431.457045991 37393583.169831656 48929345.48643986 58401833.75573516 47612513.36675746 57467983.440844096 36161750.906043105 53050075.74049442 66653877.597609125 64030286.00066803 10923504.106902588 27914334.205598973 48944190.49013042 9589260.579760393 50100784.71081598 47917662.998491414 56578361.09380936 56714195.13266421 41655858.61851057 14069555.939164998 4658970.6813146295 31726469.36125675 68738351.87375987 55347633.355056286 13013705.686732654 39307745.81349482 37253332.978425145 49968551.61460038 72651472.79613733 52122449.156666264 57178688.75981233 28560661.530507527 17706199.240946196 58009411.04349181 43507628.8217431 30483291.18686979 50713044.023728795 31136289.897848874 5445988.001681918 50308696.891538896 24318186.83290894 10143535.580428135 9771509.410179742 57504405.119401306 9266054.193893753 36187983.64566558 23576574.05322887 53220436.02462001 30401521.748516105 52069700.017608486 38689138.09875598 55062526.5884737 32052920.598424606 32230488.197531894 35965500.936842695 55751977.7425649 53191752.38719646 95922626.62097886 50136283.157854214 5855244.179042174 34872083.76452951 35670956.76706974 45045271.01453738 28098314.403195288 3718795.720778842 21410895.980748203 15960440.423710106 40900750.673731044 44058700.647896804 8694076.607743787 36475179.52869385 36493309.25646281 56783123.71139401 21899360.80700824 58375156.43295759 41998594.87548091 56476016.65818143 6365417.603440281 15006321.295165777 20245685.501741864 40444752.990050904 51163358.01747864 29215445.23952594 49346822.77692928 36787502.41518009 53544993.43122728 36561309.36831524 6385163.630499703 77588330.77916515 50778663.48919833 10112887.469767723 9696400.892130684 54104371.73421358 40939253.55519681 8579438.755573127 56087186.25143929 55268291.21008286 59180977.75455042 47557583.48846485 47790239.1077599 31441817.666763656 32945247.883863974 22673605.353725456 56426371.45498948 55394013.912956245 51997938.09653413 41101229.06936768 50127319.51174436 33547461.06555997 57083555.080553934 29260145.054866128 51904006.24701727 50690075.2099887 12169549.883696487 61616758.623252496 56442950.8245595 39681300.07369535 3817917.6827236945 37924181.07514609 57178114.35482053 54346702.73866297 26559606.155857615 42741521.51010161 30937027.92565818 52020782.266636305 50500438.31455167 49578382.68515373 69883720.95229475 64464198.882614404 50491718.18801269 36890026.27260188 52027678.547685094 63943911.46337161 37433838.7604733 50217260.39565596 65682960.40136295 67018785.64273789 35681303.67209079 38341202.22789728 39399386.56068704 68671654.84088868 21720201.87509874 33552416.2031193 42378797.56983237 57268116.41147768 44432896.31593721 44603122.384018555 1066023.376393163 29037331.81783437 47429089.50100673 15895830.6453182 53611906.08637336 25982172.919219404 27884943.157707177 66975125.76630362 33458293.68211949 38831290.185425475 53048079.16921605 49039079.25705464 51605071.21625444 46137101.48798491 50150854.20207702 29232186.6865207 17928411.864291213 38323827.80924377 56977662.29045072 49080110.855955265 56644457.7220321 58921380.56475504 36926720.684126936 47256289.17351066 40005531.14065005 47880224.51879755 57407560.34977044 62594182.2752362 49434010.67282836 4047548.952439778 51668931.99332982 31398749.626460645 25590614.10635845 31696117.78719392 7280047.21575545 46340951.044186175 41654727.91562814 46918118.75133825 77529833.98061188 50905149.93138878 56791579.70473554 48365542.74940255 49007968.62766335 1827007.0079331934 54715276.75180583 27762350.834389165 46873015.515938446 47488145.503162175 22317210.285276458 51682693.68211019 57593023.9834126 54202701.816204764 47849344.2818739 34410946.57467122 61272453.888253585 2764663.1411853647 49339409.269271225 27762467.56577607 25228110.946876243 55468698.551274695 13503455.16316116 15932138.707881605 44218712.39078174 66855469.36247508 6832552.6720174635 35976080.09943971 36218548.14397899 40149700.59422824 30463115.305247407 28193055.2568668 692496.1892476965 3218574.344705038 853649.9076998665 7532582.548689175 33536975.16453338 6438408.993914129 50328269.43843259 55889323.95813373 4063421.774689598 45424472.58726937 56283312.73448779 48049017.31833515 49173009.08738712 51087738.75782775 32317960.004430417 23597857.169086415 50315251.63650247 22855672.550056763 6357698.902937126 14258552.283364512 53168955.832640946 49826718.80021568 56242142.88897057 5274579.8397574 63228444.52750891 37376071.455659 73636899.62191242 44500047.627144985 53118588.964179054 23200387.086093463 36997291.44741385 98709356.11284643 70658905.78035119 8797359.179600134 57524969.65159368 47235332.98176181 27791865.37551273 10254258.245523702 57352665.527628094 3491472.941002943 55444650.991681054 60858163.659476236 31084680.466312874 69080624.00152682 65564428.74189425 51653274.38940401 57849185.09811586 5244328.667816134 60681821.03358423 4201415.892357764 51177772.15261354 58345296.784096465 4254292.6266988125 4271657.519825784 30633739.660320356 58866733.06000836 51338066.76575586 53891563.3323249 10012799.269643215 32351235.55412596 51057546.03546179 33719245.39238918 43325453.87510128 23929124.74034616 13393533.812737335 13257307.321308497 51417879.56822691 882322.4163218775 11396847.35620593 46477032.63627022 13235337.682210505 765207.550588644 771212.4364149821 54230289.374572925 23868263.574156586 26280940.94344158 54703030.39957944 50076740.51901439 12068433.767411973 709460.4581303309 42873388.20082011 36372475.80301339 52238071.07639111 62634613.33995709 42286792.53631734 54307180.25943012 58522120.70957353 50634668.22399446 59605402.744822554 29577520.429061145 50855800.39765831 53427546.562073454 26566277.34824911 62358333.691469334 54878340.72359382 49810878.189238735 52509111.46620489 26323923.935667913 61130810.19873402 47066893.75608523 58592116.32437756 53334576.57633868 26080118.57213365 10182634.704932906 61844365.396777414 4884372.038308738 55626376.954244874 11477761.887595294 54531766.355842486 9971123.7231267 5322654.95897793 16871250.26907428 26070798.868189692 76161469.16293944 959897.5196869434 971978.8890873796 48986498.235988885 52702041.20546016 61116428.6509556 74302673.76461536 49282963.20637618 53957567.30247232 34856264.622182764 16341738.512712216 52383717.15779665 31783752.095817197 27605460.817452442 41050931.20663093 4545152.748969861 58621068.09994692 45696201.883637555 63062526.80578128 33332618.075822607 47579053.413159296 56170122.52700964 58436978.07651865 19986096.3660383 43204031.774105005 35815268.47705362 35872982.57899362 10607680.329744471 58059836.93727359 63798403.56467122 56297888.70272826 46425565.48096405 10947739.004661039 61151925.41033729 7471677.217035413 54568365.09011503 50839124.00952009 57601934.0604664 69177324.88239385 33232163.53184874 46463593.32797037 47689550.83420189 60471601.84730121 138643713.68206137 34757739.11095017 68857018.73952344 8224530.142701573 37671184.60978195 52196488.66311699 27201550.45289144 59035502.038483985 52546704.49627095 54274174.62187812 24077666.75641449 35713820.81551347 32844723.76494635 5908110.034456431 57231719.74927767 59768289.89521089 48780086.776511624 26818437.536609992 57904007.64707474 45789934.929268986 40499787.68572945 60251927.86414866 8226595.750801768 45912953.13246646 59503236.9623337 57655868.25603918 52341127.98180495 24331344.56524435 39193468.551896065 46977326.812719956 20305777.587099466 58982956.5273656 33689369.2850592 60814745.43794273 12844416.280405898 47147468.6830255 92307872.15666208 53426865.851142436 58482388.723115854 55698081.40739538 58259417.475514285 62198456.00319859 36066259.056006946 60635502.121070236 58304084.08538235 16380264.288227968 16380264.288227968 50668678.75968582 10941036.102569612 60499724.31290178 29483734.117076702 5684139.101488473 5755426.611873002 55281269.40999532 37283768.4473533 46186782.60045895 35710593.190572634 1455521.6496601684 6279163.01535018 42072553.91648518 23022808.688993137 16487071.03290112 41879144.75886622 52005609.38348955 59994879.219943196 50519122.83089099 37816382.9129146 16567334.206882386 55812214.32892191 40992784.65035117 48777325.22124437 57364067.97398117 55178114.757861614 59289687.84570632 145301775.76147518 11004579.936468344 41346585.294763796 62353943.023306996 15973618.182237001 46800751.84234053 41896503.72736488 40935506.8981494 66485202.53034361 59190834.116693564 47925219.77944815 12782584.351643251 36172251.46862473 58802446.54112542 52841675.68997082 69235896.49427545 33856749.64627816 52764783.00115757 54939197.70956983 58588899.48814012 56867169.810238674 11189638.992882729 51577127.14154693 25501132.2272284 30396881.524406407 59331390.30005275 50741801.089224346 49599004.72155478 49956161.64629332 59889245.06257734 48094991.011637114 55933364.24519314 81314582.78514941 66900750.85709769 22139315.531081896 14930783.568408994 58611125.86039318 57688347.04151448 57474321.9279738 10917411.048405841 20847594.90246467 16588417.784770792 54094820.19749647 51096406.268323556 4263622.696573127 51767147.528090894 60975456.672918074 35268009.44001098 43277738.05009987 46561679.39467026 51253278.37837978 16318284.91324092 61509440.80927113 22106340.380851056 50877774.51207861 58307201.30305979 13380311.361158848 56078550.803550094 72496064.09389098 35146508.17031014 26787068.492512815 43470616.04413337 54782018.12296602 48031817.116849154 35769751.5544926 31771058.64794443 42440944.57101815 48500006.46888037 67679463.50166544 99755441.11166984 20301865.317761082 29703551.51821251 50618289.65752871 44760934.309888996 25215346.082851075 32297354.10791073 38095135.25179655 56293536.056456946 44955060.75012175 28950116.010081723 54141526.31872184 26589460.432495628 28576471.819730304 27135886.349991135 37485538.69279252 48919279.31781886 26481654.402493425 51761304.6515688 26862592.327567533 25052665.976743706 32429534.95727087 56624713.88147787 4741578.713851175 77245215.58815421 83373691.58443876 25500516.09979762 52421396.05810016 28489056.954074774 61498841.641364485 58977690.767113425 54471197.798679784 49919192.886618786 17347288.14000152 29724413.7663681 63632429.90676908 18977424.541899946 31405923.975754183 55650284.4139257 57631315.720856644 58142459.07076583 2343450.8210762837 53263208.68360445 22036080.10204745 54633911.7751429 21901402.875498157 56180255.6749267 42103318.13828569 8392399.27710396 49076637.484529644 51793858.228763975 48808483.113316335 2188359.5905781565 36389528.95187859 24597218.92076839 52668861.4419095 65246073.26460923 46487821.3290524 23395332.04937909 57359029.98932337 111422030.49524234 47740758.020874165 55579576.71935382 58274373.41577077 33765109.30822579 63050507.31782997 55829955.16179885 64136452.40146096 30608049.81698806 57847934.03749338 29942170.225834288 48249553.43071666 24808806.48302711 32703847.67573413 1663729.05269311 20247148.361583292 15950986.895430194 46694772.971053384 37351850.563027084 25098476.905814197 60212217.18378672 56021117.96573202 49950797.44992845 55745205.189865716 57114254.09530073 64291817.39500076 88910057.06129473 57070858.90917483 60632613.14486437 18451354.597263113 22048395.511155065 40817366.3992927 50460983.530692935 62688410.75769543 55696658.35557407 18007787.38365913 61355611.44927481 33808036.863095805 39658434.70265815 48259106.02840864 55759233.72202576 39162188.42804357 37725059.388238855 75511104.43279076 5874484.036921527 63440164.07160287 56306509.694872335 73486795.11450271 58274253.8876874 63070452.270077385 56397761.78172632 17800503.56456656 58188437.3670037 46596753.404300295 32606340.65061672 53304682.177346975 55378898.47262643 23154773.53181589 4489272.978904252 8946547.057038674 103070346.42462443 51887119.111553766 59399943.39402438 50269097.827507645 26104705.729119543 48340143.78114603 12663061.296489712 26976076.204910662 11907421.99364349 54794976.26643163 63357717.572874986 61895098.57658213 51236079.19633874 88175630.22672427 23596331.610502467 31737127.805636335 57196279.430883884 785013.1803555208 14498511.935366748 56066332.005831346 46418171.111329325 13534059.931635207 23638936.08643052 63568001.21977784 51060215.23028067 8909698.487601459 63435896.86212178 17852445.842968795 17736665.951475345 30934470.85439664 77049660.4909533 57204118.375711866 39606212.575340495 23257293.420666974 57786172.68663242 53373105.21124224 21250347.69810808 21388184.492486883 44491722.638647154 34792000.97409545 41676442.831458986 52400547.35303006 57590930.635797806 31779000.18698828 64271693.44343676 120724212.78240767 10830835.885389298 66283784.03776654 46295516.828742705 55756692.56323751 23620058.73124467 23694110.96634265 35161085.20952077 56986405.73206285 14458514.044708619 59233350.298852295 37825187.114772536 46591946.71756123 28573638.974687956 53931693.54872916 31493547.19836809 3290488.4383947407 50091154.46512456 87803434.01742642 28637270.229741983 57109477.58109822 17524011.75028122 16968624.973094538 37072089.669733524 54328245.85695581 61207602.716966316 7050508.625942431 22155985.16624624 31208538.32928032 36527288.99097364 82071387.1909535 52944538.9854309 18395938.044674605 16598392.347280035 62021060.60877464 6272085.568316011 38072426.67126477 17616083.288927834 39655653.90012212 95725879.88303699 36725329.01538232 97570691.73417036 28585886.5335212 23604792.19192191 37086373.78502907 17606770.004546214 51725981.66898594 49766312.72484772 30297930.81997749 67362496.9514485 50547866.410350576 63061930.95900621 15594514.880034821 11786990.708411042 39292987.14787593 50011105.19690079 55216821.270946346 41399592.50123057 88148671.71775551 23549633.793570697 8770876.565537237 9467792.892574605 42489940.92601391 1333423.1561939376 36813822.20876631 46382055.50386186 37291552.53647159 25609254.62448042 71999548.4745162 67546642.78752545 85455483.9198713 59326022.91131171 32518448.725654405 40039166.9525524 52822558.25966085 60440540.500388145 81732034.18723439 46087207.20839159 70496332.13152207 15326132.547133291 44869636.7536484 60287646.142751634 31853641.055212315 49070213.45698062 52839368.95127222 56266352.38927164 59357547.065817416 3229943.463771789 55712971.48704673 28385215.87937779 56807910.64413126 34700474.01801465 32231293.754018225 51083973.14432166 48938688.10733574 54644095.89756913 34398041.686064154 57276454.77789188 36904339.50510081 59694243.069314644 56476564.146442 88625278.4193069 55695945.672228426 50248075.392260216 42690160.80067271 40790940.17247509 32295735.326150797 12765374.409822877 33536338.91029282 38822009.71434606 50469478.07636838 113361094.49660167 26377153.8974881 33665005.12281132 51687520.79539708 51801573.33975589 30273466.67260386 8387097.162334863 59503856.192320555 6705530.441348652 49162781.88550711 24136377.05621078 63862952.31827949 46634479.748715766 9428254.771889305 26314714.938979663 39523842.38894512 22057275.517179668 50943405.05517565 52988278.86083488 51188380.88695228 53919560.87906822 44292915.733878225 8016755.029864354 47957935.76182132 55901059.366013184 58573886.59235309 56761076.92984603 51224890.09891233 54558443.73145027 50708233.56386111 61551736.72096609 50857704.73362258 47857225.255774684 17050353.388166968 56440290.872915715 32661926.579709362 61150556.4409546 38535806.45510483 92589145.05540532 55164426.16411697 12165446.234731674 12063561.13015969 42154405.69457932 43174509.348213956 31581352.851765662 65481211.88691741 88282364.81466678 39244471.50703164 25037569.37772545 48379334.07723492 38122915.35665121 6393684.306890296 41207619.78619878 6660341.453760065 18163388.17506527 26968840.72458088 23527357.146178834 49735252.27535317 53626523.093056604 47994336.40644651 12539206.884656223 12414929.18702993 25889007.791793216 35413647.15875049 30655792.56720853 47282570.32161875 16109012.921416407 9277574.196971659 4709795.01007794 16758892.018979847 26136590.763366878 50916419.286145955 58286354.84543055 67776787.59161633 34633740.55533535 6418056.548171043 54264184.50296965 9327078.90414234 11729787.8728656 48397947.03238125 61955374.9537676 19468756.798777707 14006375.515808998 23091929.099991113 49754085.803832255 48401583.06113696 44558580.42154921 20825283.588710748 36961147.165003315 61491168.47659956 62554693.65156178 199879801.71315894 22401692.047097288 46976417.75628131 17299971.26791235 56059379.82515686 58976717.612077236 52677087.859092295 56895543.17933237 37736751.527056746 59035472.942027226 36403374.21873731 4792262.009596354 8405014.354172032 42699843.21878496 84559934.01754764 41684583.96995297 11956474.017551325 52783105.74159558 33481654.284636755 18270110.60088931 12855514.130428568 42720514.19000912 42783592.44716991 3460667.6433135457 57985230.231608 62908049.409300976 39356250.41070295 55184927.91078455 52776051.89800799 62093531.07252958 11982823.224322101 55356593.89423695 50560070.3399909 58828989.207106344 14686129.026972653 38662521.59668352 43174777.52707879 46781655.48413958 52918735.23702723 57800521.054505125 32531679.921600256 63240280.353802845 35050818.65257858 22647276.421942666 22736138.33082577 12639483.041803569 41614943.71172378 22849876.370021034 57799624.27415755 23732075.192961533 42403555.08794894 22922122.03379069 64167517.045379914 61863137.896652445 37016459.904964514 49959779.13813694 46317395.48545742 51393780.34243331 51462871.42733772 1162136.9682078732 85647210.21657982 99229926.68143973 47677232.992006905 30532002.875909314 31827761.216952883 55465041.49803735 28133539.838453922 80834121.24569853 37106933.898060806 12690329.087993395 46641652.67531472 16123643.761253372 42372814.12805643 44508129.24774855 20933433.299803093 49104889.3636861 82379851.0863891 52862789.072041646 48558375.33568755 40644932.72842354 48760733.23230009 62733859.486760564 34835458.26809582 57312998.736367315 52908567.58221256 19906203.86929326 45899504.655566305 54399403.849292636 52415347.957889415 47885405.554520205 33927051.24528029 40686985.87810156 2707047.2941867886 29669979.072803814 60841212.80796355 72139000.77308182 46171306.779395945 52375903.36970973 51027766.91582356 56155511.49411929 57344151.944980964 56114840.703386165 17525827.050259374 23969347.570950326 50123576.37380544 30224451.054707963 28338868.432401534 52624311.4719295 40579488.71502722 50056274.604228 20999611.272460308 9901471.737953119 50078468.97634762 10708756.835430745 10665985.294280097 43423478.603868164 45327770.360619046 61968522.699637964 56953276.967495695 48151569.34061982 49569535.955349565 61076637.84102699 67918703.25934699 41965423.284941345 68874694.22562939 40057435.9225213 51255608.62260765 4264101.897452104 46509203.77946038 29296546.81195268 15070422.330198316 9693347.52251117 128337950.74499571 32216802.41688547 50588091.24884363 34245141.42006966 23113053.824451607 59778007.6469255 61328902.493568935 59881939.38165285 44501866.15302756 35479025.76730241 52017042.58079239 17481515.466286585 31709189.46610923 28520401.147689283 1363899.9671195797 42859716.91453448 48234892.09064611 222822629.91788843 53009831.3813974 13610224.897475688 29994553.321253557 45946759.43007051 47447751.821802944 13759681.08069772 35185018.47198791 9783055.39834994 35096721.954288095 45508978.12579109 22205457.95168255 63521468.27653145 3458037.225564691 79071748.3128909 21818698.828306247 43329825.03609477 48423914.2514864 19089789.090970963 34415141.50183605 74933492.43325183 42150842.89087184 46296087.26199267 57749002.23950002 47440643.14863079 64712114.89703956 51491533.9698965 58550795.15440368 30113560.292729627 44934255.51663263 54737599.48921885 33550812.968967605 50966223.07165896 148112553.99809662 54778692.43899622 52861281.101464786 65851655.84553295 38101966.13187075 33281245.326741394 50681638.19670305 48424527.71584871 25147668.718552865 25312043.955253232 52474295.15817793 60651494.764489196 48107388.537537254 56739806.87941846 53611434.062025115 52783481.74058089 9754942.829878429 19349211.15579505 21192117.382663365 22269417.069103952 53675497.35137546 56827648.56235372 29914561.76457621 3910327.2841641284 55089129.49934619 62076428.2283193 41576224.65890262 18342561.321001515 52680832.674723744 45464181.10373079 36095650.39938469 47187221.735621154 39126998.6710194 10923779.677370662 44296273.79468853 48476248.07042929 20905205.21180694 54847257.4889596 41874764.96019742 46266008.798254386 47137555.43595047 52227819.73718094 45064696.2129533 19134424.78143855 54567082.25401841 55099383.759468384 50101530.41139115 7375832.410472467 19310920.545868747 46174560.43285609 18322625.519255634 34267789.98769273 47698449.97861647 54128946.6097186 21693381.07997315 47721282.02344251 989531.6704754893 13551887.486036263 32319620.90558391 52250969.04590985 57656412.93228932 72010595.89948541 42163033.230298035 24291786.47636404 48753399.47961569 37872534.20015877 72782906.73286855 57236152.740601055 58344287.271468304 10873892.762450267 62389536.306030884 58624804.99849181 51406466.527283825 48901448.52729356 3542237.6594768544 65133982.72804886 28038510.302618947 50000659.56403817 32915270.8423676 34864300.83424357 46554142.40126058 47167367.971343696 48846094.4098496 63151705.11155349 52346608.45906219 55634342.403361425 19511439.627431985 52107446.91518965 7844245.91354076 51207729.06344766 42220512.61629238 3532437.6867377637 49327571.24472777 5635132.011248636 47442597.27349528 47285195.513302945 67808659.23911165 15533553.022125259 76877316.39840849 13584330.737685021 46848163.20986268 48101426.859965235 25260505.678687774 59908377.02702148 56722018.06750683 53791839.48051395 50891760.35659722 33124317.48737526 54464597.335387364 12785595.820533438 154983687.17743438 75686490.77998586 60571522.300201416 31527826.06168604 50652996.83276025 4998404.927250667 5825749.801952977 51097906.98864776 47690192.74237468 20471434.58764176 50656570.81562843 55970294.14012412 29666331.73728427 24203346.495665092 22649675.18892714 16731083.901099471 56660892.79940844 69217.19708618533 71063885.75285143 41271424.597476885 43414974.22642225 49839466.81195939 49985736.945896074 53566323.84709687 50352079.0745917 22311847.20065329 43914832.908849895 36964479.90841962 33768425.84934646 36733704.82257335 49978837.90047367 58363781.905176096 47219642.86649557 3692656.380754745 55775144.29877358 22957454.175293695 103474479.20727825 17756246.90075623 19764710.803644173 57365237.600766726 46111714.894811995 17173731.74666835 51963022.3878318 24724646.25135346 61342266.67728741 40738645.379310675 33635490.53862085 38893139.80722528 44031574.49979875 42543474.387987316 36981897.05887788 46750739.03352728 24874688.104366846 69564112.71594973 41443123.18093891 108703086.97127943 34538816.424946696 19203491.053109627 51140721.281023905 29110065.50092532 4593768.700409467 25922343.160961464 51621360.747622915 34578454.973850064 58097972.03071654 20398589.46094485 20940959.02049981 51897986.669616364 58129077.03370632 54824562.768034086 55601244.12301494 22633546.92072892 50662557.28393883 48856892.60602943 41767212.985590115 45480356.2132517 130521084.28847982 42492273.011858635 18172467.975156385 59855807.18057002 42319144.00838116 40537804.316196494 56085271.96516286 50794694.20650799 50521593.97852349 29973336.49642476 59689482.78346267 28817385.80850741 25124970.438722514 50241619.88143912 49100215.86937884 51736840.024689 33492442.690062445 41787284.43119288 13653793.988268174 55639010.37913939 51688282.891291715 25813156.769084297 53279061.02035188 53813037.55407176 41342883.1726784 54108996.59034941 50591136.028587066 34320598.15625588 50476777.06798324 21257835.029422678 18886299.061877377 50489893.75787562 2704841.2647446473 18976205.28670623 45695068.048020974 53961534.49946905 37169993.76247727 54891693.25150995 28404266.867338575 53972205.308668695 30348281.98207272 29450623.64970761 17362752.65148457 82131428.76349835 59310566.53666844 57850928.11323812 23789077.814199924 50548232.86217887 34239156.11398844 8971594.342375904 31211666.697111014 59456458.64944046 34867468.98090461 56340655.93210327 65291463.959531546 47473450.67173281 41884862.50768372 26375152.98223534 40400763.39552149 56619634.67194451 6463371.96948794 557648.9780162217 14109020.172533462 26007342.40322029 45118575.72446014 52420490.401203655 35406307.476321675 42851002.75356675 21668043.52283589 38427681.1427462 21890123.75824076 50413481.57464435 55865659.364934884 50526481.0997965 38497897.058292754 36996298.342275165 34514610.94215351 35414264.81709238 52376325.74068161 55188142.878918566 6288154.468330788 12836927.91451688 53877115.490368195 4459204.56369985 54569918.713510506 6533940.875960058 56522421.49712118 38913733.68671003 61378736.800604254 32563828.805319156 34737064.49069894 32267956.565788474 27525457.06372963 54201550.96323532 46259531.133243896 19381169.996901814 54293432.74950992 60873476.39188384 59363669.124943815 50166864.161023974 58401586.10329018 57420798.708369315 33960396.50441376 35851063.87664667 37532708.02490871 47828114.96248323 6425792.868369134 14769349.504542306 50596222.16275431 61177418.1194073 47787844.012436524 48342833.90805111 42946111.31159417 49130801.98486845 63675331.81550985 43334661.32595264 274231.7182284108 60047943.04689676 54258370.79455825 4788039.255968591 56061267.7544349 2704756.376082546 6277375.9513744945 53588096.96380127 80732835.44129185 47678394.448846005 14552536.332542151 11253535.47113358 56568020.19329638 40585692.893059276 2332687.0143891866 54282738.45098017 54439159.51116735 16798817.609730415 16825238.418736853 72818320.47474726 19376056.450853467 72034182.57472141 53102886.87821442 47160802.97884444 57538917.50404323 39283598.8979247 64047109.52986226 4678397.337939719 59126109.76826571 42260209.87163422 31939960.423225366 102999417.31365342 45119745.11512767 40122808.455023356 58870077.63451631 60954001.44660596 49746446.2622499 40574206.5575282 30507386.12105043 19605725.28822615 24185754.083851907 37638740.8479501 31535247.548265204 50113537.53935835 3215675.0280376426 15778336.921663554 51859524.203004286 14418714.638155654 14393879.088057011 33376421.559793886 33376838.583341982 34164415.340706915 56035861.65995637 47219512.56654863 9293744.243114825 50104525.57664841 19349954.859502103 27143482.059575137 6417724.276546781 54852459.37949872 105002736.41116142 45731962.56435675 49730460.101606585 47874484.10835522 42983321.44167248 58898183.438025154 15231539.722549114 52242202.24008078 69283035.49955115 18535568.18371124 18917381.574129134 42203213.078001924 41509296.93497676 21863672.76872851 33618413.57999475 82568782.61342038 44342582.451843664 52855437.945850536 3666933.849263243 83046960.89109278 40190869.96134341 58595064.50726647 54781461.780365616 21209693.833715454 53684847.95560925 59252956.95389153 48456524.94784681 35075276.12158718 24411935.838104337 9447282.448158711 43741855.17326524 21603271.06100936 50324791.51673041 50078983.63415238 14783417.284808544 34855650.14228969 4960029.4312519375 59568827.11044049 36927314.999240234 55686802.09506729 26914264.462322038 27689137.231241655 40531228.44196049 51086568.98115677 57566092.82327192 68806858.54094549 7293156.707956402 27687583.00235404 22427201.401613068 6697514.197244165 27345474.93374681 52058985.668835774 52876637.31903844 42546235.35562501 14465300.590237517 22993182.58925852 49091073.829998285 162178.96943118595 89197826.45327862 51464538.47831821 50837196.121560186 58386040.26846784 87765099.21766682 51450710.1134485 59547747.394382074 42702161.58751733 60176386.54753804 52001027.041045904 55436059.46387384 49511660.68684607 42175664.462069936 56453893.59116695 60064385.12130251 44397115.93683084 54338352.4234236 59663315.71154929 41903522.84807721 56819527.733016185 52965774.670780875 37456570.99635068 62222422.847777754 47671318.17764669 6911484.237137295 23545597.635180794 3076451.9652747535 33874055.32039611 34484625.34848355 24723726.71416384 68914056.87316175 40138769.04865774 47933592.53122601 73189806.38928716 45226030.908219755 32182814.87326629 16345048.877795003 64061075.271065384 57619251.76163962 58618783.14158456 22613891.033794258 45398881.398210704 56497007.65095647 51074134.63350446 39604991.157822646 38137991.39907215 43828191.72499362 69065077.92491719 5723304.497217063 50238961.57143561 19958908.21122702 63238712.944954515 53907705.481767915 52886477.5384925 18985605.14766648 31370820.41225063 44753373.55617664 13557950.457173847 45632945.57541086 47078230.61329052 49863179.57668115 60467820.73364394 33138022.664063245 66691949.08990842 43255638.93346079 57164071.08582913 60207460.880770855 35699432.155712 59624729.89384267 61199675.97626897 42213540.085369416 36380026.51736525 73815738.07941337 54965377.56120173 36801652.14159708 35453774.356413014 42256518.58815293 29882398.646187346 49186452.47372859 43173298.13970004 23347495.83991341 41969409.937577575 59717389.98609065 67004130.548242606 34433623.56954227 29507909.769376457 38223899.42428849 45180833.65772099 68812024.497724 38309064.92364029 40702706.836101905 6966596.358029703 6885150.588091609 43833999.3658936 20830703.457462225 20230991.771143824 34037295.323772 53753645.473847896 57072643.054242335 26468123.330127828 53373212.770738855 59836696.78139671 56905101.19382172 48217307.767587215 53519152.11244605 30272642.364894625 11171173.625119373 20145400.306135293 11335386.197918776 12500788.391614795 12321388.763031 35599069.75405321 56463026.00618328 57626641.352899715 40285049.92826942 42156192.870798245 22345863.945367213 56292300.04291202 49516959.21478922 57982068.84617153 49728748.64077958 55864305.73900588 55892322.02292909 54412566.522919275 39271282.60425829 43903733.58774614 51743535.224140786 148124957.19470555 53606668.75838357 68667832.14972153 52602889.066667326 28900698.779153425 78796648.55642551 51567901.373740196 13834205.677855963 57537010.036001235 58098893.825643145 33812486.53829755 18718338.360081952 62821634.048219375 12813346.476460626 1602638.3957467398 46389694.57012988 40375819.058912866 74732670.74174868 54458587.360916495 12097577.959183924 12050322.643317845 57933958.82307963 41612497.30816574 38007712.60660536 76459018.91810223 51209173.32373687 35214586.030425355 45147617.896424316 59934456.00913973 49334682.57134599 38827470.24449425 69237334.10357764 18999796.517881885 56804892.25963001 3526645.1470104307 59717175.1721627 58453000.237767555 37336231.40519845 32541001.75607491 98226238.79426563 55519943.348962635 32136055.247930326 60169362.839423284 68797861.82907344 57330026.24906449 56950732.84352526 22621339.28684011 93752936.61309533 39801865.178619355 25808162.426577672 36566065.1941174 20735576.559035063 57295339.791850545 9495910.585328773 50720100.82295846 57321468.6828561 25379679.317256577 23754436.052791867 15740117.307950225 56785081.39878368 5746020.258771172 5852733.9781687725 12807443.561086874 51552808.24992326 63622537.3181834 45491563.83767125 123426781.42610876 36576220.103752755 35730493.69691716 47258952.356775306 66281019.00045065 46022123.47763936 30977183.854313377 31933349.675368745 37523687.88033518 46421388.351254314 1816847.427244266 30520806.68469824 22117207.247006718 45521283.92717281 31282899.831856567 59700276.20119201 52332661.52833348 55965700.28176458 51676897.39997623 5890433.5122767 46853303.727927804 38187380.38148715 51720227.75722792 59504707.16538392 66017881.41018077 31627723.452845316 46126925.24041604 6911972.165212364 35455826.91648589 56664030.762295075 34061099.56191051 33893492.26540104 73135989.49352288 54902214.81459198 34797121.05468851 63946139.13097628 43237220.35414562 54665352.92771292 54656626.074884735 49949143.8899013 13882145.55871171 41193970.62693825 3730952.376715873 10980910.978127563 24728728.91862975 56674138.796339184 41944447.81060357 56964042.7976961 38894987.93860116 54458999.735006295 54355746.29888899 39940471.39414444 38656272.79211746 19895836.86543935 57203017.061869785 70182705.16492476 47768875.98631087 76914261.56967704 65479308.487245485 26786894.20863373 33826234.82376037 55243945.74585345 42615881.60346224 48291232.67344573 43657176.07909118 51981426.14890361 33776202.72807046 80194245.3522426 50092641.039774746 49288984.34489511 40060515.22316235 31940845.547422003 52569726.33259705 31983744.875466593 56704097.80588527 51419624.96022783 16667949.477719314 42286317.39461346 11181497.803379105 65494673.58384101 24805834.17810699 46740237.61396027 23601183.10135904 12937940.186964093 65937572.57685572 25961828.680060074 116134490.05026165 50996273.96943127 56489315.85126 29575665.73695275 42582198.10736508 18786412.501542952 61327809.91344692 52677176.26033254 46682229.323310144 47432103.47576856 42106421.9119316 51047018.286776625 47601944.688700475 51802677.28930464 27339141.47840964 9721905.828715207 52643877.12327852 42678676.644429274 9908780.045951342 46780423.58772165 21795612.38617771 41015750.112528026 56517369.851642914 52561651.93546274 24958421.82650314 51625929.44785208 54687379.684410326 6800802.872297051 13817595.302866697 123985609.98599814 45060045.48759139 90594883.16622213 52973621.002586715 16929662.244019974 16991822.53397363 60096889.75840442 130449854.73338836 13177995.551923038 48148340.913324654 64298911.99158635 37321541.85610119 48795291.295028016 26525695.06522288 31924324.473616112 54869572.769114 37463628.364935316 43634227.607517324 46910695.03716177 30031993.388087798 34424193.75921184 47523051.37011353 17138164.66512048 57422172.47421967 53571814.642086774 50706807.177549265 6827731.567465693 62866013.73890559 46724500.42479335 55341669.952611454 2568157.6149233887 61779888.613581695 27432034.25512661 29013719.917814273 29689270.65592619 46936048.41025528 47566606.635442324 44793905.01409681 40988904.68621096 35462560.11446167 62159575.72568621 7321053.167020253 46524454.727394015 66814358.9337779 57424339.00814745 35723988.202243306 53565516.15976579 38223924.75377993 14035636.720011668 28015020.8175308 48033746.67861619 12875246.88100506 44649165.036325395 20596015.51698352 16406477.67896722 65742534.578351624 50258266.563437685 43281586.18113068 60702498.28617622 29645586.768331803 8082190.494169831 1975259.5968563627 5982867.374032201 56356765.85765302 57004483.42016633 32440382.415812023 54908214.37985332 54805669.84556505 37173568.54716328 32298286.32139932 12895029.71317668 59254913.26366823 58593477.288488 87497179.1585827 73859615.6035578 58845621.93522483 36859615.06619928 50162702.62280086 59810837.75609045 66246847.85537912 30770240.483683903 5990109.6957819825 41338747.425346285 167261301.94993478 91831645.76310983 80470161.69720668 72347939.66185981 18005384.77574403 59665790.949042164 42604741.93773835 58062610.93242567 58565660.8926971 28079988.52356889 40022160.50207292 59105658.71229738 43370765.658753194 54411417.280020714 52222146.407024205 51070968.67222937 56828098.40117192 58200022.139197364 57406010.273873866 52031307.80966124 41163618.310461566 52412180.71933654 60553332.19482573 8929219.82811571 54474870.91555616 46191841.91748652 41889980.390913434 39158023.513712615 31495062.039493196 50066598.75207402 34516411.891022675 46255747.045369245 64259882.25414213 52268477.4738224 17083386.843029402 26717306.583067488 40701319.18104524 23029263.65847711 41410611.873598926 23949870.441294584 51885566.66496877 14623234.350629041 63810567.75746681 49775015.95623523 23104337.668651912 24609425.106151767 24385173.749714326 19432566.15473221 27411524.359240472 24047652.323933993 55988829.857043795 57256937.10331869 28893584.51763021 48586291.80870284 55561454.94635648 40578716.940874316 41027225.98712553 42035957.64551072 53408374.136944495 48888044.58527812 61400618.82228455 50661940.4444499 49604794.17515908 57158608.11087779 35353479.59297187 72238742.28242324 12661386.655016847 82062028.05349433 66436183.28693333 32321702.606502663 48368653.4194197 22781975.06861184 35548503.741997786 5700800.727982057 53500127.642537035 47746285.02067001 43043643.80392816 41356374.913093984 9996269.557913745 13370628.806581205 27709551.102293324 107852921.95014499 30458384.81337801 50266569.63662944 28481775.575710855 57976972.1141918 33548092.26537089 19227315.17870437 59903301.58316862 48350848.79254389 4516021.135226655 4541911.028569802 45446123.254874945 36369377.919811964 20730396.353644844 39527755.957467355 53902006.69389769 45583754.71084927 28061668.81238709 73259107.55126806 28690611.06346079 52310351.196316026 41216861.03504569 53972177.99679872 58473440.31706435 55818382.374842495 58254097.343745574 52857257.361783735 70838479.70777543 34172212.71061642 104264636.41726674 57180595.46882976 46639279.39619881 18994021.52164941 30048997.23344824 50372212.89731475 51697002.794343434 49818779.737538315 52233760.90438714 22688395.710601777 43809435.70964769 106504237.6407061 41956181.81098548 53067316.49031065 36034061.33177361 34079427.53308148 53865262.84847994 46072318.58992411 34966574.833591394 22191261.268609554 60626584.167712346 4408205.95387343 46398501.07062277 38184928.74840192 45764609.58597864 48810821.86601012 36881880.1405774 35451327.59138981 10273140.220798947 10319237.192729149 38614065.0465865 25567819.482691213 49426476.510776184 44305315.48196473 33783874.48648368 41162446.51559308 52033302.07612671 54481485.10069639 54923301.68092159 56572883.25365821 49034888.779828705 48284128.76259467 66283882.190373614 8099783.872351589 33330280.306917842 55285411.94740821 37489193.03282216 28876312.64447986 63690720.84979175 57977877.21785286 14293016.383146109 38794659.80108539 4447864.923533638 49249600.32413991 37681783.83817092 4345928.469342492 38527453.81325633 58038856.00214266 52586965.800455734 33662594.44120479 67575366.5048941 46064964.704122916 69123479.06928942 49600844.85700398 13170948.053778904 116776914.98646967 21198153.115553997 51845786.93950778 52538233.23259706 52044367.24157932 45910979.3452897 10162163.680038312 34414823.686909765 53583433.89683145 58602286.033982396 31181071.663334906 17372049.45378225 53342986.49011323 120778867.3169165 42717856.09661651 2751708.716166667 2714469.0038679014 47509773.616327 24078383.339116447 30600294.544851106 62181304.05578774 2977380.475012822 90301909.9240324 45547623.49153856 19849437.844173454 54686018.199720226 10185682.795859318 55387820.64832445 45300924.49286454 52593613.91313251 50339345.35141828 6512693.790140005 55153957.80696588 41132197.595605455 66176116.14925142 77281881.06072794 73525379.15545313 51176186.65031218 58075255.57510827 42081149.35623385 51809103.021709055 32413218.63940156 13638811.029392535 14829993.356719423 22288959.43407805 1808285.4773862162 38513438.240912266 31310512.169074465 11780054.916666996 15607427.52504183 55302810.03209873 54980269.36593012 26836000.80760784 58970813.35035487 29174497.656366184 98094046.28345262 54723367.9161142 50861432.331371345 52479279.0421275 58006765.40781739 35055196.3273209 2777032.177358055 91206824.18761893 46810662.738676995 45428013.99545823 44970812.643398836 42444947.784342386 23375403.62344423 35370801.09995879 63517615.79108509 54346312.21312233 83465845.56035787 50899610.69881368 64744846.43430922 28915660.353919383 37381738.63041143 45070287.62250292 25686140.81846668 10285562.104860999 50712201.01650133 39674496.95886962 64249132.32353366 57803156.42880416 18243626.49733263 57290045.575380296 55107053.81961939 44422283.36286697 25855892.383635264 61473347.33942141 105705907.9106442 56886926.500174984 100076316.81933843 32707184.72325695 45826836.14283977 35378096.131027155 28173263.089561734 18104776.3915956 8526205.701894473 4407311.820754313 67134401.68605012 13840803.547871834 58047148.96102598 22705542.552795958 5455340.305618184 5149453.362227532 53311865.30926198 34894312.0176933 51493097.64591725 10403560.230827225 43755693.80497901 62317649.39651088 58388362.8591051 51911382.03629351 22920142.73833679 56320791.72983359 56578884.74981889 13783356.198709598 20421513.306960877 20286778.60244068 87836974.63829425 40698567.00347633 39758393.26602127 2865582.543279093 34595438.629157595 27017717.537809856 50008087.09823038 60926413.94887578 20150244.939277813 46314374.45063634 57972063.24343761 52084515.42494594 61656771.71970613 71350379.23789176 5728738.994310881 60167900.72095425 58114383.57965032 37811850.25571436 32609444.541610196 28281339.477466546 6386734.835510944 6620681.205559205 60154606.37516724 13228421.473367114 20205099.790305953 21271851.05754088 48523480.25683629 24389392.56579794 73876221.21574977 74980709.37524033 24273827.31004673 52098052.237399995 64664585.51185015 72153382.66950552 46972988.300775014 5790010.182458924 38434467.35662996 34116233.372196354 48808439.088632524 34007515.01036696 32277301.32852067 16993199.31358879 20200115.920902893 9175846.33074265 52763860.47927363 31124014.44810144 116924101.92242573 51816923.108842015 55611407.536542214 49406873.25799815 22188284.362343658 39386001.4982178 18346442.99415084 61019664.37530152 37533736.51146723 9324185.775809843 50230984.96718746 8115282.024246728 8188384.509232885 38989918.167809024 57515663.42628208 57784235.345200434 7944767.537024221 38532144.544256054 63540151.412683785 18591793.06847889 47895617.966445394 19240023.880849145 58198453.183598906 44724959.78027073 49646915.223945685 46012330.7437578 20732091.805710588 51938200.48055281 32532699.87976339 52102339.689583 60451295.81140209 53998730.456918366 61007362.877429605 63640076.91012035 18870399.876342896 49766019.55294254 115126444.19390196 37992742.90329142 70913070.82807586 57206555.90934021 51195394.266402 30836615.913830116 54770247.74423253 44600250.1687541 57243549.81140176 53901487.6313592 33815282.329352215 64493911.5841324 3599451.074106582 6934213.388406869 47867794.29333254 64320041.01537441 45932209.93247587 15935376.850422762 46527101.78502598 26621539.791108545 51153599.068270184 56607365.41499251 2031205.4677610248 50337303.92715088 41328332.130031236 43175532.54065236 61671003.29715875 57466245.762199566 102515725.53720887 4538844.51680487 55521659.62785385 47813279.85506168 49938736.397129156 33591154.11441621 42566282.13425302 41728859.392574824 65633462.647813044 17833373.830705088 40648223.39976204 50240819.740655996 179672638.85780063 1580722.2780297433 35221663.47132937 35553657.71789234 32813324.963149507 50858423.30158928 32062088.246679816 27915127.061080795 13504234.01737305 59465326.82599348 65398840.08401827 46243188.46035953 41970224.35713572 5910787.707362611 67197148.69917952 53761205.17700757 35395427.48391579 37168702.3811144 152139488.1229367 61790617.8146817 52756735.54166938 42948540.23592261 58620013.98661089 56956363.75638196 58669080.663718864 58760497.4280561 21850592.27392319 53633007.32928871 52625876.44361804 10651768.43317818 60148628.54904173 69802727.61867028 56393704.78611853 38968517.4325849 91869786.82446449 43927097.72763371 55386884.68042366 5753814.996601321 48557318.53947175 32903970.32552767 43373980.691992775 29009089.76511543 29348262.206735954 32127544.4928988 23354312.230001803 22879571.852887955 2902826.435882492 44410483.47558336 91833715.24593572 47199552.48464426 19979885.02590765 15241977.007013706 36775640.60579287 63700341.06407137 33942772.80066591 47833099.591496214 57741059.972831726 41231341.844409324 47028943.311713025 56374943.25911073 49413221.58911091 60583066.53428875 50857957.9429563 110590772.43111002 59757842.88745855 16648730.532606779 22331235.902439468 22155624.607793428 43579189.6894999 46028183.622889146 25630015.881806735 45830012.14143441 43235980.61436569 56912693.36865381 56631426.66370817 55512006.569199234 33168180.990430593 36627984.70937359 56895539.67957599 18805200.47879544 39092324.80808081 59741482.96439529 49825708.61544702 53383014.47905056 44383870.42553775 12751137.498124437 51844230.30798177 58119674.57848063 47382594.924640395 48555685.87821872 3646852.909642181 3687832.5717250467 8403401.998107526 35169667.25665919 50512166.140789405 28775254.41337666 8560509.396608507 30857935.178482123 100972621.363938 13574760.258444816 7102583.87580739 50203868.585192606 33368732.018175177 32928463.21335545 58719472.67848299 49096534.24389966 6839421.45233918 6903277.799476662 25729780.698293664 40692881.3285159 8347585.225695838 48725626.56000995 21519108.61740103 67091654.69227746 18315196.7410776 44370076.551588595 58872657.23671141 61439005.13125034 13532659.657418583 64018315.73390401 41893464.44094127 45992760.80480497 59119053.1187768 62000854.704442814 50336547.55501478 70947306.79931964 39224914.00671796 57146088.45021114 44963620.056778684 58475985.592651814 52097910.458752 40273362.21169087 49672929.78144243 52498612.16028674 60625688.61254786 42901071.99932511 33467686.392430678 35971265.69591645 65758215.661764644 72986588.08462237 20321469.977630522 54198914.05623246 33548290.319558933 50206315.91648593 12363051.844270548 12083676.86194015 48560091.937132046 56307880.47046683 52093028.534690276 29681805.522103187 61743118.40425439 39832106.45672471 35482570.32941544 60578699.3251024 35044720.270922996 53647014.343225606 37609093.844663315 41393967.4673329 40829061.877511136 13733370.139160791 47240484.94413641 22251151.596688792 9893605.4388901 51705968.15042473 70068904.26589456 25346693.20347877 4879264.591727943 45212122.17720393 35572246.27373099 56668298.59112413 39082895.793632455 44451145.033336684 56228732.32469153 3511735.0816985643 48508440.19265403 3406709.2256218786 3296947.1131731207 34486632.43751488 38003098.560827225 28917580.720744584 54005855.62386375 41626812.48539964 13444160.279677505 13220405.329520479 71890826.03124858 32198407.75476108 45178167.450198606 34873876.63005587 45955202.23176986 10224292.460999284 22273436.965331987 18099598.617776778 44304772.92822288 20963984.912547324 39660380.1182203 69097457.09197117 55621352.38039942 21665271.79505076 780402.9848740731 41151433.18402187 3166436.9213505373 77177525.72724448 53131550.5346498 60738326.4219475 49132590.22813389 53709662.87899339 50557028.35187473 47394192.64099221 56177884.79645843 39440352.17740721 45463639.31457084 35327189.431027785 56094810.36431953 3570558.6967183016 7115767.6628060145 58241173.10294233 55405301.44625383 32959673.592601538 52016971.44171835 36413950.29037998 27650570.84560262 38894556.52183516 104439930.49432668 37299520.36816814 19668219.84099387 19700201.345902648 49714044.64242487 59479783.95091823 32038961.144233063 22394586.145740665 33474319.48567 4541565.242465178 4584717.123534365 19823970.005906336 42325462.32403936 3266663.305779358 38134595.39824225 41733131.32080263 48792886.08067076 15605036.521215608 32257810.84528042 34085109.545929745 12955116.87701895 3174388.153315005 68086775.62368026 13667460.83407651 64224308.199729204 29410967.017203566 58011180.62946571 50241125.377191335 13106135.27764699 128844592.69465357 14395869.779941535 40607173.68596518 14785037.454528796 37023267.521895155 48121803.203851655 37926196.8010362 50583059.05667212 32980830.53879659 41047252.64114177 50497998.60642171 65876533.77215641 56110840.05469571 32074487.37669966 34685609.61025127 105896681.67885444 40601024.31712571 48564002.76797382 120309473.98691931 58955422.35774024 74822384.51110815 53524376.13732221 49080725.03557646 35000066.93653508 13545090.112929378 58361623.46064382 46730170.23997061 40002871.69256648 16228465.537598878 47653517.49420746 14925794.03318176 104447501.66313422 15018515.329223484 14674008.949500237 26407824.897667877 24485825.751172148 41181968.23113308 27914476.332985803 22798373.493308727 42437153.82269983 50717380.077207126 54973800.070002094 30511729.48101081 45543264.69059959 7147634.222784444 39585459.970685706 48518726.2810414 49003408.146877795 50824594.37981333 48420734.6673855 46426591.42304634 55050981.85959117 53396978.45184929 49399213.97887682 18805222.14659577 54859698.7854556 4624921.715522662 15095605.118096698 46662245.14490434 55985197.296915375 46654273.17973236 35497212.436161816 38325413.34274747 58431086.874038815 17751259.46920893 34631652.0283373 27919498.63383833 44978756.64671049 55609263.68534059 1929862.2300811496 25327025.899256486 57949665.357940964 88320805.04430921 19960337.945584852 49625670.16768711 41189003.021187104 16991972.930034693 5132918.840753215 35791956.37771906 15461493.32135585 22873391.673834573 70228395.07598457 33572463.847337194 48393686.4318227 64098382.375508256 42518629.09355537 31843455.929589927 37607822.93334788 19332870.382369842 43067590.752568714 57662097.74621099 12309337.69771766 35970707.09779755 50838286.553855 7076571.303920231 54371476.408698805 36834886.978723265 56469432.603859425 41415796.140096076 26973567.86841714 30335108.426741276 44067267.503606305 18586174.835165456 35850765.004668415 38703235.01141315 53282903.34931011 54697929.05830222 37337424.537558325 55569184.0194147 58362779.37434234 7147064.907791219 30817046.550697036 20481619.937031243 20775691.00591442 37191592.66064142 40414439.39162422 9412682.630904762 56678287.686414585 61282115.40729186 4190365.648605961 4212498.569793316 20825960.467029374 121872192.66183226 5723201.28915888 4604332.731854175 19912435.828076158 55187971.3226532 68520765.10182844 16638681.296122335 20283354.97471306 56882168.09949734 39922019.12218246 26138367.504542246 55333957.89561428 46972480.86393931 27384450.292130273 4773204.546558825 60429406.51562905 24329965.06413453 49951795.79084181 38299450.27523784 28155692.91044812 32580815.233483937 52010086.689324364 15055133.354236064 25330903.156254936 21463280.9307286 37561341.04963213 31277906.833910678 38039696.96600739 54196488.99344774 37439156.36170215 12114962.420208432 55954376.55624621 4823421.290338699 11883811.345611067 40952090.49383288 16613539.70730368 18253392.13427118 45392398.09986856 16431003.126086911 33697353.777146585 59362641.754968494 115602281.18532139 50341494.793155 83994256.35821353 13707564.615937127 19217431.17787474 60555536.19050635 1062755.041526739 36597844.605524324 54956173.75794582 35439621.177650094 34673582.85777618 50995578.55816661 17321021.34264822 48819937.816937424 72285139.34113672 30033651.602349207 30545431.6492744 60222274.066907585 30718912.093355197 18874362.81492947 48747562.38516305 31191012.859115116 38867900.6031272 37775773.21591922 41319203.774508305 18990152.436043523 51444587.30093372 5244919.594334938 5294111.915587516 6261105.283596658 35986885.72155394 54529613.417793624 11938888.355343306 45028270.10682183 49480264.804159455 5642197.629500621 46155605.88332907 72874557.26133573 36668206.70868306 41763994.671932384 72560611.50437884 16214067.67881679 52167647.61157659 43444485.784825 49353083.347037576 64169084.895135224 57257761.81241467 40380990.61964802 62061167.649498366 55778951.640712984 57563335.05436286 55868588.00420369 31828349.754578717 59333550.122043476 106032003.25108571 68787844.70236945 58779226.44122944 37089769.73534761 40183500.007418886 52500316.78764708 74149672.64417426 41092986.53703385 30817513.111630995 44807367.42964249 26500047.730958294 74208329.6510898 35686075.12312146 5461229.614386643 55425575.03842752 47350386.97183444 43593853.334884524 48231185.85302843 19995775.633330457 50496339.15430278 53810247.569354415 13320787.401743788 47808926.42781037 47151570.917652234 43881986.60252821 52122818.936236605 38548530.672931224 22993198.154794447 49913683.973300114 41512913.814936176 5334006.565381994 48378617.00853039 20056444.715405826 43557079.04610343 42952383.66583129 32670275.02884682 54885509.30451953 42422512.73479252 54178599.574365675 51701007.850410625 83115626.2080161 53655435.92123424 27347483.56745246 23087503.290608823 23236834.968309667 53778294.81807198 55344963.0288229 48169365.408913255 57165384.089134574 76045790.51303017 142532203.26341888 17037701.716475543 60849826.67063296 89762083.65196523 71034904.48014885 38190265.80733672 22769436.32547496 31216135.058475442 61441379.61689296 21943394.622511443 2551111.738951419 2580927.43357415 20047995.25840956 66607268.55272125 40472523.73412714 48048349.87316531 28494054.054871663 5199239.041505101 26457563.901551038 19685698.54032391 19427708.56616132 43355053.88988555 36542874.57838298 34144052.607767865 53265223.97293853 100504429.14783087 62169814.144011244 46519610.91434708 123513230.03477423 92370986.42407951 49902569.90163081 14982123.245792586 56838053.85290524 36099076.657421224 16084960.927420372 39923343.41758162 28763113.22472241 47363879.78164225 57233053.13512764 47000040.85462695 30096403.33669554 49748291.5133029 43617452.4891008 42820196.6125984 245659405.51765236 46774472.18921912 22886433.9360816 17770324.661731295 44768530.91698313 51267857.63935495 50146034.049827196 17526595.56527262 17571313.05318202 17774215.97184729 17622164.76408453 33652457.926117495 51705676.35473809 26198142.72336327 57670288.33406086 114423690.51336426 20773442.743122164 13358050.89180786 42921803.708171226 20448341.997002844 50704775.02066226 39097675.4906146 40042986.087708816 36964048.690256275 58175776.170513764 34054422.96354457 2641499.852453423 27675718.94372327 54789350.530055285 53042481.51869077 26945219.91593328 39956777.67382586 41264872.50606747 19072286.19017543 36853172.06558647 52071683.22740747 9891123.538574625 31245883.06734298 3254549.543968162 59988886.28761648 26083196.109728344 36025917.745646395 54558208.4576493 59120885.987211555 44804175.43901081 3952659.2470153472 38645343.234576896 79387700.31750143 2644078.8899634317 44373583.38009067 31504347.351464998 16559888.848393511 37912017.28497582 40389331.186276756 58419829.67273616 41441383.46890198 36515389.26339797 70420564.76348177 30207997.937751126 45787092.24117957 36086739.114882775 19768993.866322022 46481134.219960414 31398997.73775136 50783295.628559746 37912249.09070851 51943502.70425643 27221454.69758486 16240542.549104577 23613048.93532787 18228949.709608275 44277238.60542718 24728810.57868667 34270942.84697079 18375615.138677645 33179629.974375993 40922863.35257165 18085856.77172301 36138600.85966513 22640981.104892746 38884562.71083751 23122326.38173647 23645341.521230802 51399593.70847878 51157170.430115275 20039051.841192607 58176757.451371275 53828021.05264061 39411548.1575773 39763634.409917675 11837566.596566996 38560842.36823247 40641700.53907558 20134065.047425605 45524084.26492054 10562853.925965924 20115105.337355066 69588101.48313075 44123749.07061356 55084413.56648976 36228188.384509064 53808322.69677122 47558082.554171085 41868582.957839474 21911284.44191232 5250069.067657369 44845675.1226856 4630958.397166864 82919826.6113558 104581903.30699772 33763712.33010093 49458735.68543919 35303661.872163 15811730.394600753 14853569.179241812 56575897.50301135 28729654.597516876 69917310.63304786 57305694.860678814 45153316.550629795 50243427.95666088 52956408.720275015 36414214.8830174 31456729.4212491 57795396.32866929 59811573.54251476 27977272.464642692 38509199.643427365 51484964.75933573 63995705.56713863 74539368.092892 26217775.70673481 8387299.357855256 69031181.1697238 20568646.80978527 79407819.99804649 34826965.08714007 54173641.05363923 19550518.857656024 50106972.58781638 46308143.35481091 19620447.683758873 19272307.307309333 57576404.67426504 39746532.479845315 21030973.186800513 50463328.71548449 28498133.277124144 17524587.456780326 20889089.132297628 20715075.445323665 46205525.73125508 28005661.163119663 46224122.42189621 31883555.516877618 49447800.74485313 35296813.1416231 24078891.84004829 42272672.597775966 39785000.346708834 51566887.01732107 46551621.631487966 56497051.12959987 43944587.25371561 46312777.23712106 8942340.48336229 42110787.01653127 44572383.38799718 22609349.302315 29976466.54603907 89234065.79417446 50065859.58436115 18472021.57416724 48300664.59657722 33985614.18288794 18125396.718662944 20897439.18976975 40993836.11807514 7609265.563920973 92337673.66056232 50858102.266152196 49316293.35609342 48520762.14949321 35876030.90537101 38882249.76477292 46312170.4940602 50883974.54979029 53295664.08673982 42454769.541142374 17367974.102886114 28726401.968445443 37386433.548919365 51432002.67393566 60349677.53975959 33145593.456236184 60926752.976469986 64639987.73536509 65816275.25878151 35398644.89097285 34083112.714255214 55057252.97808328 112657934.51760523 40155664.715665616 54971452.60841457 50227775.594816536 45318056.25703444 56356864.036487065 20366633.355984233 76107397.81863707 36261836.286619276 56737882.46155487 19473492.237143215 29376825.26055855 25793854.325143352 91039601.3281512 33157650.63509129 31991509.250866573 50552532.4079317 49415806.56305187 23793716.86493207 13726339.677943844 62282997.197543435 37620782.52264564 38152162.89845985 21529880.726086672 38151087.62843697 18740592.136593655 26374588.93946713 26459430.92013179 72837338.43491344 3818259.053240754 19700682.859732598 42278149.445239194 50333756.222381905 29044132.440396313 31140772.997115258 17587939.75666258 11720874.356970664 57655377.94510717 60455190.60167801 21123900.92171073 51123982.57593056 16609244.881374428 25789541.48474769 5381481.491492922 50506355.08639342 45870633.50326548 34520935.1663819 24820555.886431746 66270005.42476837 40594528.71658501 73533988.63852781 18871838.089200635 53634570.23054321 51874822.820973516 54795907.552287675 27109127.86555053 4189598.697458709 55684646.59195984 17026426.12923067 18591700.67480493 54539301.476494074 48344377.5486431 18199192.301051393 18048053.30488786 41518853.81521707 47604674.74163495 19488729.796163436 15492893.98739533 38104580.2572862 53911050.503867604 48203316.746202566 56890102.5110139 58841262.30749134 25414005.917911787 67425468.85120335 35095982.89056791 36316098.84006652 53442028.02717868 33585313.17709316 51289884.846468896 54086204.76880656 52159963.194434375 40175363.91953931 8900373.405380875 27016331.54821335 51649728.661824614 10020383.433787148 13154245.106070057 23136476.352040667 74525858.07613416 9705554.093956033 56486942.370848745 54780808.96027061 51880193.314465165 54352991.24417145 12727384.158546835 22241749.600323822 737925.4822506509 35338793.16983066 56743844.10560038 48421119.92426442 57838342.84855742 48669504.889402725 91688725.78718951 39790507.702826664 49399141.33770363 38952866.614003584 52449642.95705942 53163763.459345736 5514455.825537389 31453465.257160846 38935814.29146704 38342400.38607741 20288796.565632373 49965781.78721348 5226028.004251673 21397540.768439338 22271061.428676028 30211875.625656992 56053315.99948197 53096241.3331671 68369594.63145478 7361033.820184927 106927935.55501722 51970733.34037314 48175382.36555556 50724547.95822637 49028963.78236381 9539724.019568333 57141564.36565358 39622185.20259913 6942958.803980162 6883708.370516076 34338135.52119681 48220879.30171756 38575071.63917291 92629952.01912113 48989788.87073019 51534681.95830908 6103494.606633616 56748699.1803635 18679311.219963096 48645153.755390875 42233239.66280322 48812874.41870068 36431864.93964367 48104891.11297033 2005270.3080945087 32957213.048833393 58682050.42933138 26717289.16513383 53652685.020580836 37827120.406036936 64694212.19887176 58622191.42472675 84356436.56465325 64921604.473376125 60609213.79361969 60742423.68931753 59628655.48641589 5961701.573671477 58662035.6675467 73704673.8544948 200640636.03756297 43738814.2739609 74268088.39207445 64486161.98631477 23364817.816692773 23098406.290053654 7056782.478081466 60642360.104815975 31404537.47691951 26572282.8916978 48992880.84915152 39482352.43285472 7520790.264256108 49142317.04170167 55114664.96088276 37852743.239704736 32447865.476720408 41100568.52835484 10009108.584501142 55617015.76420072 43438339.05147336 96732504.45152608 6997601.042998612 42551196.230791256 50801678.61252776 37800822.500037044 26584391.74174299 131443436.57747056 43371996.765425 26525673.489716474 68476058.57426503 43190909.92975945 54851308.86655914 40918755.575121135 49963010.818294235 49791080.54293668 49786120.01788589 38759431.12896803 51881127.8534076 32781470.93669773 80209410.64101952 9228419.91223732 107343461.22298662 42104576.4658969 41037110.22199622 48458271.91868751 79079450.53009418 38951167.76523866 49814319.09825042 35679045.276821144 73572682.2497976 26597463.65591021 44202648.579534955 5153568.618744773 51684868.15872029 55002844.68313454 37420232.74849016 57486045.862313546 42191966.50145063 49397057.38773731 50603677.303317256 50680905.065503396 49522060.07242441 84569720.19497694 30813663.15431583 246685306.1769162 31213439.189145554 46353998.767045096 90593166.49403669 15641895.90992076 48957692.573846996 32010761.235038333 49722214.66866128 48876909.0026123 59031774.020714745 37936306.04918022 40373053.13835756 50209089.47927787 14531109.90444546 56412316.62596923 47617524.161693186 31788440.818978723 50472259.96217547 2997671.4968315093 48981704.11428702 48965516.85934255 23037826.400864825 52618110.1404337 68449480.96750228 56605236.171439685 21105161.01981593 53745597.366074994 10730039.176455202 5282358.529132603 16750214.004293203 1957067.8670572755 51716286.94907856 36821894.82426084 18625338.75030044 62455248.16741764 66595068.75937401 59002395.84269678 40817784.76382471 15476713.830671545 53827965.099777415 57143160.28757155 37276864.37362252 56408244.71452257 32173823.511516657 70866565.91905743 52023858.386674345 38339843.44654009 14691274.150707826 7234153.519643601 59242284.70361769 58694452.56327469 38864182.9985733 11926116.316559356 60699450.13271244 36059297.752751365 43090690.55401215 17360821.319700316 59235209.62555183 22613221.871099293 39381103.01622226 54236554.25377639 37981120.40642104 3125115.991371605 54221104.63117422 56756688.20647724 16286457.372833233 31375469.674303345 59726412.42975372 56753719.67503785 57149198.03133891 55918314.0575077 49386250.67649214 48714154.966197476 58698898.45834655 29988174.00606008 55596968.19074198 49258627.38780024 34161549.97255136 56636037.2158033 52399713.5509677 19079475.59064268 52116704.0319265 4619905.381360816 47903018.06286392 48476673.65921775 49060970.99406992 55642281.34748654 48563492.93351154 22076475.157168105 59313364.70254181 98341019.02970785 37196144.47989941 18649472.584370624 57310991.43451627 49848010.111332245 52067385.404000856 43767020.10603468 83329376.66558415 5545612.809397244 56057557.98838014 53026973.99090723 30260318.478131905 60458158.86191119 39863085.6237221 19247099.504819892 29052422.1142122 59426821.382543914 5180517.60007613 5224204.720243972 9029903.929285843 12831797.727588456 56606079.71364863 54670293.09487646 25579827.1945879 45330449.96326399 20669821.87820713 64854827.009949476 36506416.11219485 52381162.84909536 4818590.827310863 22242185.240909662 56780720.96563059 40966562.703849755 50828481.40752232 7246998.721414071 5907121.046503439 21758226.210625127 7099604.271263882 50487036.87215385 27060808.794084527 47876542.029458255 17260522.408275414 50826715.404884525 54848721.31115764 53272395.93003036 34585515.541748 55267536.54142004 29781273.728433605 65964371.97423342 50258444.56031325 47469889.92528289 45835629.20309318 38201890.20368457 47504308.65197515 39684709.24709614 61870759.23072021 49448952.16014637 57257296.24169171 58891355.91613176 32026377.399788238 51261874.32893042 51929838.181707166 45606432.88620889 38319611.83650557 36104483.33857207 5155177.61430193 40033635.068854935 50519586.407488085 55217469.397668235 18592882.904887773 37598653.67408386 57614438.182228245 50513541.74676259 66435013.86916744 5217822.499645173 33159631.454469103 17217808.698534846 48906942.03737139 16848469.06098587 55270915.683487155 54363891.68216854 62414571.941178046 56669648.313106 17927533.18478632 34778038.864227876 72190579.48491278 56636049.8505925 22998757.53062102 29210006.050859712 49472701.42464058 30830169.17704631 41999135.71407706 65475617.908494 84096322.38813594 43287236.79373169 56561076.15664393 39499617.3542112 53970810.223371424 50311747.583006956 50523134.38375551 56027528.44338359 25843679.293772865 53562460.800445765 58406946.98279623 4097219.294255398 7802077.435107231 46489166.547451556 20772739.005514223 49037044.43429167 26165565.998613864 42616522.60230766 56282128.70905048 37927418.77066567 54791866.923729904 51333318.092689805 55836326.47684178 55139544.35816311 51741263.44971895 57827734.511470266 69470954.18652697 54409727.29794619 33532581.092169035 57324399.08487252 44047142.26993748 34277388.31954419 39110315.91177728 55410406.694615945 14689508.887662927 13464957.06328423 19327908.8007133 48032223.72436794 56069213.733994186 58135738.771266356 36502914.35442843 55579228.923585325 57697536.20123593 56952456.81470122 46499340.48223247 53142967.976430185 57410081.52388011 50719212.240178354 55336446.75391627 59034051.32740482 34027083.12979641 2504318.2054269924 58228353.03459388 51513720.08844378 20005520.776748165 49684920.30353653 37584093.14465663 14244972.117192714 30786553.523438033 46718236.199064955 62120197.47851565 38074523.34302337 9411964.669015285 15826991.305494763 50482503.74822453 22131340.704061486 50396665.70111072 54987191.01422272 21711850.562441416 54717915.30219537 27159972.88272247 49669934.07996734 18736072.26097588 50984900.12542382 54657241.31109391 14737231.326643785 50988856.078469284 53890984.77763533 26390593.480034582 53276210.7339839 26191261.89772325 35865844.65972154 7532059.205198169 38782738.194520846 6343075.941532898 107383820.78827523 54486123.39186316 53075804.063425094 64771353.9104147 35249741.32420824 58197003.334856905 54569642.104638025 59858054.84595254 26996057.85947897 18247574.95940797 53954525.27259809 54228959.747316256 8650569.815388773 27186218.736989837 59371064.06203191 59239916.0788713 50219758.86503671 56348667.25964251 44868804.30903387 42169984.43336537 48178172.79072529 44737448.10939266 30612906.85033407 103158030.51768857 51076786.058624454 44195762.19592652 38215242.488557525 10427953.115582898 53634761.62491062 5463151.11809372 44166198.73917598 72825925.95168917 43757072.72210984 53686299.39042489 49102730.055266894 60646282.89435215 52054036.547574356 55507853.71525654 42483212.630722016 42963648.31089939 57518536.66810714 117152948.52059841 57209949.18479327 43296905.34706555 55498433.74762585 39902388.36142833 56450121.69835575 9954217.547213439 42883786.55115358 55194298.29065545 48409578.81764101 36208036.20750752 5629296.016287226 57500701.42229557 52231864.33831629 9545304.83850387 52070284.966885194 53882904.21128607 46013290.55723857 53190826.004736476 58815690.37470552 45112375.99008441 50030474.99944978 11800786.374437062 43829217.06232634 38003967.25111905 41807622.54930089 58737694.3725007 50219279.539756164 18565085.22452835 44119005.07409631 55388359.39636858 51192646.27250445 46453126.303411745 36581446.264281616 39690278.67771174 49438248.668578066 5482282.278651743 50313125.53298083 50995961.65018813 58228847.11853851 44302731.07488971 50440853.83562982 51460035.35335209 39304430.02693238 116766141.45058282 56258226.86623462 72074051.24640094 59468291.17659687 7940557.722738286 2792512.723141276 50643833.074854866 57811357.429651916 60474129.878991835 81359277.96845834 39601046.71675674 28149009.109638017 29469076.128875792 60430699.54070239 56653599.57468102 32619477.722467043 103719465.08277556 53895302.787582874 49436891.56235583 26584929.50882241 11775266.922629897 61744261.84981942 51028769.638531044 54276091.67972055 50984236.23930096 52510744.390268594 2229468.64328728 24345180.296225302 57367702.6731292 56062606.81557054 32404930.4347171 53122101.308493495 65584117.11924089 47588895.09409458 58051907.337636136 16636907.695626518 37814804.26940982 62172180.37880805 63933119.95129213 50125821.150409244 59362651.218740605 60502051.79738226 33537972.543294676 53403162.14519045 59470092.23723142 23067209.567668825 56490812.36871708 54186612.57805782 48158940.523428224 72434000.69581792 40677516.91044079 49130862.41668817 57976382.30965449 27879488.919140063 37650896.21139329 6134608.822292794 58034505.33744765 29678966.954887513 52236105.73779422 46201877.393157706 50659992.798210874 54189732.973940924 54730635.80010591 35890146.05105324 58826203.50162243 55405248.202898696 42835464.93531823 53229183.06557719 34500739.20082785 59426846.98838245 53425760.554297425 35788606.76909522 50172057.396509 55543483.57675888 49764765.30550887 56604127.12221331 50194335.35160851 50251833.04779481 49067557.67003177 60885328.1245256 38621513.86708982 50155852.290212795 41068678.592403196 50344650.79405373 48977710.95603219 74810491.56499326 8036373.099646285 34463553.97118862 62617992.035461284 36168647.26184606 26575355.349344302 59433909.02609674 14175715.287080081 9420356.34776021 35754145.21678933 36993269.54842444 45662903.29685649 44850201.179151066 56391498.62437578 53516478.71154213 60634121.154053286 50023465.909561686 19480765.599838365 24638377.35096673 35592592.81120224 39097904.33155328 53363608.05643807 75761120.10818224 72450321.9211213 63196536.066769876 49166228.454159915 56339430.15941162 37825340.12671471 52864268.56817288 34915749.861195885 72978761.28302503 52588671.34883946 55025858.644415125 54403793.526095495 49581810.61340895 25633439.205494642 51966573.7897048 48407932.68245335 54836606.44524722 9088194.985060232 21201557.887335267 57976278.649176724 37054705.93367467 56578594.89150487 63659479.28808781 54627233.445777 59793331.69056399 8625829.094394146 58932707.32460452 57205121.30136618 55890745.59838109 51064131.619295664 47244384.48575014 38225559.93490078 23696966.909934506 63069304.410099454 50016854.70597698 45838779.72820359 23203499.559797224 43932883.58649168 46523549.06967661 58802786.412783735 48118458.0804829 57317275.57177006 58001050.71765158 56772843.735027924 63429555.288249366 52854801.69675115 47170017.062674105 12424673.612204053 26903972.583549447 39215731.654052295 38764236.95111924 50303411.22833848 24443518.356078986 58299733.131390385 54001144.286476895 54556242.14766414 49990160.6992132 54299773.65672513 35127504.61359081 22739795.729231205 50096823.71935283 61532142.10892297 4982653.487090961 57590547.63014839 58570253.7368686 4965132.269533288 55234331.394554086 48644291.33349083 36435468.55630979 34818072.27027836