# vtk DataFile Version 2.0
Really cool data
ASCII
DATASET POLYDATA
POINTS 2245 float
10.0 25.0 0
9.999999999999998 2.5 0
15.0 2.5 0
15.0 12.5 0
20.0 12.5 0
20.0 2.5 0
25.0 2.5 0
25.0 20.0 0
13.21875 5.0 0
12.5 5.71875 0
11.78125 5.0 0
12.5 4.28125 0
23.21875 5.0 0
22.5 5.71875 0
21.78125 5.0 0
22.5 4.28125 0
13.21875 21.5 0
12.5 22.21875 0
11.78125 21.5 0
12.5 20.78125 0
23.21875 17.5 0
22.5 18.21875 0
21.78125 17.5 0
22.5 16.78125 0
12.5 15.5 0
20.0 15.5 0
20.0 14.5 0
12.5 14.5 0
10.0 24.63709677361402 0
10.0 24.27419354592701 0
10.0 23.91129031775874 0
9.999999999999996 23.54838709246676 0
10.0 23.18548386794702 0
10.0 22.82258064299358 0
10.0 22.45967741670554 0
10.0 22.09677418897655 0
10.0 21.73387095986818 0
10.0 21.37096773248194 0
9.999999999999998 21.00806450811888 0
10.0 20.6451612807928 0
10.0 20.28225805407666 0
9.999999999999998 19.9193548266023 0
10.0 19.5564515987474 0
9.999999999999998 19.19354837138494 0
10.0 18.83064514499617 0
10.0 18.46774191704055 0
10.0 18.10483869087001 0
10.0 17.74193546347678 0
10.0 17.37903223681661 0
10.0 17.01612900940379 0
10.0 16.65322578413419 0
10.0 16.29032255642479 0
9.999999999999998 15.92741932834607 0
9.999999999999998 15.56451610131936 0
10.0 15.20161287375545 0
9.999999999999998 14.83870964642377 0
9.999999999999998 14.47580642010495 0
10.0 14.11290319369939 0
10.0 13.74999996694269 0
9.999999999999998 13.38709674181718 0
9.999999999999998 13.02419351686376 0
9.999999999999998 12.66129029367583 0
9.999999999999998 12.29838706999966 0
9.999999999999998 11.93548384555825 0
10.0 11.57258062117281 0
9.999999999999998 11.20967739572134 0
10.0 10.84677417031325 0
9.999999999999998 10.48387094675739 0
10.0 10.12096772123179 0
9.999999999999998 9.75806449698064 0
10.0 9.395161271231192 0
9.999999999999998 9.032258046482013 0
10.0 8.669354822118947 0
10.0 8.306451597138944 0
9.999999999999998 7.94354837200364 0
9.999999999999998 7.580645146620729 0
9.999999999999998 7.217741922905391 0
9.999999999999996 6.854838700199402 0
9.999999999999998 6.491935475456518 0
9.999999999999998 6.129032249693084 0
9.999999999999998 5.766129024955096 0
9.999999999999998 5.403225801332082 0
9.999999999999996 5.040322577682138 0
9.999999999999998 4.677419353225353 0
9.999999999999996 4.314516127429037 0
9.999999999999996 3.951612901263398 0
10.0 3.588709677867029 0
9.999999999999998 3.225806452333023 0
9.999999999999998 2.862903226670315 0
10.35714285661005 2.5 0
10.71428571213589 2.5 0
11.07142857046827 2.5 0
11.42857142735092 2.5 0
11.7857142850142 2.5 0
12.14285714287573 2.5 0
12.49999999995663 2.5 0
12.85714285391503 2.5 0
13.21428571211111 2.5 0
13.57142856468173 2.5 0
13.92857141917294 2.5 0
14.28571427871344 2.5 0
14.64285713891684 2.5 0
15.0 2.857142857852235 0
15.0 3.21428571521503 0
15.0 3.571428572726516 0
15.0 3.928571430603533 0
15.0 4.285714287978719 0
15.0 4.642857145514987 0
15.0 5.000000002580401 0
15.0 5.357142861368146 0
15.0 5.714285719647869 0
15.0 6.071428578485179 0
15.0 6.428571437049889 0
15.0 6.785714296048281 0
15.0 7.142857154135942 0
15.0 7.500000011102228 0
15.0 7.857142866965729 0
15.0 8.214285723560286 0
15.0 8.571428580253976 0
15.0 8.92857143590683 0
15.0 9.285714290295818 0
15.0 9.642857145775196 0
15.0 10.00000000179977 0
15.0 10.35714285775001 0
15.0 10.71428571439413 0
15.0 11.07142857145955 0
15.0 11.42857142775673 0
15.0 11.78571428532397 0
15.0 12.14285714320719 0
15.3571428591223 12.5 0
15.71428571719138 12.5 0
16.07142857423201 12.5 0
16.42857142974857 12.5 0
16.7857142846084 12.5 0
17.14285714112862 12.5 0
17.49999999772317 12.5 0
17.85714285297952 12.5 0
18.21428571083795 12.5 0
18.57142855939082 12.5 0
18.92857141386655 12.5 0
19.28571427430228 12.5 0
19.64285713574168 12.5 0
20.0 12.14285714165368 0
20.0 11.78571428436058 0
20.0 11.42857142737726 0
20.0 11.07142856955135 0
20.0 10.71428571316279 0
20.0 10.35714285484745 0
20.0 9.999999995955926 0
20.0 9.642857135639455 0
20.0 9.285714276871845 0
20.0 8.928571418674213 0
20.0 8.57142856231663 0
20.0 8.214285703660536 0
20.0 7.857142844508807 0
20.0 7.499999985406642 0
20.0 7.142857130003156 0
20.0 6.785714275659092 0
20.0 6.428571419530735 0
20.0 6.071428563699761 0
20.0 5.714285706611115 0
20.0 5.357142850049079 0
20.0 4.999999993527312 0
20.0 4.642857137101577 0
20.0 4.285714282125578 0
20.0 3.928571425551149 0
20.0 3.571428569906041 0
20.0 3.214285713520577 0
20.0 2.857142857692707 0
20.35714285650163 2.5 0
20.71428571178895 2.5 0
21.07142856795603 2.5 0
21.42857142687388 2.5 0
21.78571428441634 2.5 0
22.14285713997626 2.5 0
22.50000000002168 2.5 0
22.85714285703133 2.5 0
23.21428571221953 2.5 0
23.57142856194335 2.5 0
23.9285714186928 2.5 0
24.28571427764782 2.5 0
24.64285713873408 2.5 0
25.0 2.864583333579086 0
25.0 3.229166667418379 0
25.0 3.593750001170938 0
25.0 3.958333335039145 0
25.0 4.322916669051911 0
25.0 4.6875000031225 0
25.0 5.052083336528115 0
25.0 5.416666669875903 0
25.0 5.781250004033231 0
25.0 6.14583333738102 0
25.0 6.510416671422698 0
25.0 6.875000005290905 0
25.0 7.239583339506053 0
25.0 7.604166674125976 0
25.0 7.968750007979722 0
25.0 8.33333334199249 0
25.0 8.697916675860695 0
25.0 9.062500009671076 0
25.0 9.427083343134518 0
25.0 9.791666678332678 0
25.0 10.15625001249001 0
25.0 10.52083334768817 0
25.0 10.8854166811516 0
25.0 11.25000001496198 0
25.0 11.61458334738459 0
25.0 11.97916667946025 0
25.0 12.34375001292369 0
25.0 12.70833334511499 0
25.0 13.07291667765324 0
25.0 13.43750001088538 0
25.0 13.80208334365493 0
25.0 14.16666667353327 0
25.0 14.53125000442354 0
25.0 14.89583333573303 0
25.0 15.26041666500421 0
25.0 15.62499999488256 0
25.0 15.98958332836045 0
25.0 16.35416666104326 0
25.0 16.71874999219373 0
25.0 17.08333332471754 0
25.0 17.44791665847009 0
25.0 17.81249999193352 0
25.0 18.17708332505002 0
25.0 18.54166665810869 0
25.0 18.9062499938851 0
25.0 19.2708333296615 0
25.0 19.63541666578485 0
24.65909090697006 20.11363636434331 0
24.31818181387862 20.22727272870713 0
23.97727272112545 20.34090909295818 0
23.63636362933978 20.45454545688674 0
23.29545454074166 20.56818181975278 0
22.95454545175678 20.68181818274774 0
22.61363635870555 20.79545454709815 0
22.27272726938004 20.90909091020665 0
21.93181817642107 21.02272727452631 0
21.59090908415283 21.13636363861572 0
21.24999999070893 21.25000000309703 0
20.909090898365 21.36363636721167 0
20.5681818062032 21.4772727312656 0
20.22727271532826 21.59090909489058 0
19.88636362288735 21.70454545903755 0
19.54545453222531 21.81818182259157 0
19.20454544067146 21.93181818644285 0
18.86363634917439 22.0454545502752 0
18.52272726008306 22.15909091330565 0
18.18181816691119 22.27272727769627 0
17.84090907624678 22.38636364125107 0
17.49999998161302 22.500000006129 0
17.15909089129634 22.61363636956789 0
16.81818180107666 22.72727273297446 0
16.47727271035784 22.84090909654739 0
16.13636362113641 22.9545454596212 0
15.79545453028867 23.06818182323711 0
15.4545454400335 23.18181818665549 0
15.11363634812483 23.29545455062506 0
14.77272725866684 23.40909091377772 0
14.43181816866006 23.52272727711332 0
14.09090907805834 23.63636364064723 0
13.74999998745307 23.75000000418231 0
13.40909089754563 23.86363636748479 0
13.06818180839043 23.97727273053652 0
12.72727271853859 24.09090909382047 0
12.38636362812021 24.20454545729326 0
12.04545453791708 24.31818182069431 0
11.70454544876188 24.43181818374604 0
11.36363635991656 24.54545454669448 0
11.02272727049761 24.65909090983413 0
10.68181818161208 24.77272727279597 0
10.34090909059876 24.88636363646708 0
13.12245575810983 5.359375001489979 0
12.85937500007252 5.622455758928196 0
12.14062499745613 5.622455757501361 0
11.87754424071326 5.359374999451498 0
11.87754424189017 4.640624998510021 0
12.14062499992748 4.377544241071804 0
12.85937500254387 4.377544242498639 0
13.12245575928674 4.640625000548502 0
23.12245575866386 5.359375000530365 0
22.85937499942928 5.622455759299569 0
22.14062499843458 5.622455758066268 0
21.87754423944776 5.35937499725959 0
21.87754424133614 4.640624999469635 0
22.14062500057072 4.377544240700431 0
22.85937500156542 4.377544241933732 0
23.12245576055224 4.64062500274041 0
13.12245575835722 21.85937500106149 0
12.8593749974183 22.12245576046061 0
12.14062499962912 22.12245575875594 0
11.87754424065191 21.85937499934525 0
11.87754424164278 21.14062499893851 0
12.1406250025817 20.87754423953939 0
12.85937500037088 20.87754424124406 0
13.12245575934809 21.14062500065475 0
23.1224557587305 17.85937500041494 0
22.85937499688295 18.1224557607697 0
22.14062499958506 18.1224557587305 0
21.8775442392303 17.85937499688295 0
21.8775442412695 17.14062499958506 0
22.14062500311705 16.8775442392303 0
22.85937500041494 16.8775442412695 0
23.1224557607697 17.14062500311705 0
13.0357142863834 15.5 0
13.57142857334916 15.5 0
14.10714285783675 15.5 0
14.64285714470339 15.5 0
15.17857143070267 15.5 0
15.71428571720997 15.5 0
16.25000000702564 15.5 0
16.78571428904744 15.5 0
17.32142857412979 15.5 0
17.8571428511085 15.5 0
18.39285713616606 15.5 0
18.92857142211578 15.5 0
19.46428571101452 15.5 0
20.0 14.99999999601014 0
19.46428571160309 14.5 0
18.92857142040583 14.5 0
18.39285713577575 14.5 0
17.85714284336419 14.5 0
17.32142855637984 14.5 0
16.7857142655791 14.5 0
16.2499999775787 14.5 0
15.71428569556309 14.5 0
15.17857141150299 14.5 0
14.64285712475407 14.5 0
14.10714284117721 14.5 0
13.57142856006613 14.5 0
13.03571428124737 14.5 0
12.5 14.99999999867727 0
22.39911386523296 15.02787351071946 0
11.41665351269391 19.47325099219535 0
13.50604103476437 20.24332817025187 0
21.28609918190908 8.371915985499014 0
20.77438502064365 12.5321182072488 0
23.66698209856584 13.79090434318895 0
12.40963980605322 16.44998245723993 0
15.12295866835606 21.38380048057971 0
11.78949283981224 12.5249487226823 0
19.26085121128391 20.38701660414594 0
12.24383029308131 8.530762489724518 0
15.96828850385863 19.609411024288 0
19.99594546417832 16.42543574953211 0
17.52207818863038 20.77031077392179 0
21.5970963521996 7.09363992864678 0
19.11509669356569 18.87901705575766 0
24.34472111153836 16.37221013459978 0
16.01662028896542 18.32261666994512 0
14.20959869246478 5.386433400254754 0
21.58351831210006 15.3912796264492 0
23.12368836319525 12.80852432537697 0
11.64844161042909 17.63202753524647 0
10.83838747665957 10.9738195997894 0
21.5310583602842 9.582167786770775 0
12.48026216803453 8.383405097739612 0
15.047577940554 13.47129608575386 0
22.7155182671255 13.19897467317233 0
24.32553464916268 12.24652783025824 0
17.91165544907354 17.45923490805529 0
21.07962514386822 13.34249562627836 0
24.11264862317747 7.635213039544782 0
22.85916721681476 15.88973814057112 0
11.71862155474674 13.68448865686562 0
24.35772635123654 18.8140450796962 0
16.23447795802281 19.13849960468882 0
12.86687700870633 19.52113304073272 0
18.62840159639574 17.566149245571 0
22.48451384740014 15.75529079137561 0
10.93604639915237 4.587898389422545 0
12.49893301306056 6.71608241486005 0
10.50566720563164 24.20552929253412 0
12.31347629795949 23.1912677926532 0
15.93267946882734 16.9775462419605 0
13.42877612900485 17.05514886548308 0
22.12768535010348 14.35914035448375 0
10.65735941165071 11.34096139423199 0
13.41970696523683 9.634897898948722 0
10.51478938444238 7.278245667884825 0
22.43135705783073 10.82613535752807 0
22.48191789905509 11.80306383552816 0
13.70829834053223 18.6435905795286 0
13.4824414082998 22.54681663307661 0
11.2694435602412 8.425563272850935 0
13.75760487891261 8.392857151907137 0
23.38593014991237 7.156455609856636 0
23.44889807957045 18.51566765679723 0
11.21649665967707 18.28629030395535 0
18.16096901938695 21.56947341561438 0
14.38975901273214 16.68101675701332 0
23.14174705495423 14.98129261637119 0
16.74983368485285 18.98504325696072 0
21.29956469722673 16.8798364947556 0
13.23836196554609 5.938537831856476 0
13.90663107800322 6.123042932461899 0
20.55579075780885 5.903540790347536 0
20.65904720298841 3.207638684512527 0
23.4111205695547 9.652717980503807 0
14.68149942307187 17.75599140238191 0
11.73055352944354 11.69729953922247 0
17.74243510065071 20.38639625696171 0
13.43179168018225 22.92278552527256 0
15.19512167354008 20.36487189795057 0
10.57107680202365 18.78285323941096 0
17.91554715435079 20.95065949164542 0
23.59061536872408 15.42389141128693 0
24.47043720160961 9.64149705983122 0
10.52413748874346 21.84632998433344 0
10.81738322285322 22.55560217287537 0
12.49210898916285 10.92006345343397 0
18.57428853566909 20.40778015617953 0
11.64915627719742 18.84429097887546 0
13.90428344009801 17.54886643775891 0
12.71246825321676 12.54194707895462 0
23.45132073539277 16.28312683169851 0
16.41464405890549 17.6054339838203 0
10.85105016555717 12.78394962633131 0
18.84601246545192 20.02795573383784 0
10.63794806566203 8.228856400302364 0
21.48537851162089 17.56781685369311 0
23.81782603558445 3.680141624941627 0
24.41025721182351 4.01967373225097 0
10.73887263497763 19.71991065725205 0
22.37548929788927 13.21952555819541 0
11.09439732509939 6.12384431110242 0
23.00291029262785 19.41892729285716 0
14.24474362871933 6.817270850132006 0
13.40453292144814 7.104400530536429 0
20.73107129709959 18.26634251662205 0
20.55739042616563 6.395257999033646 0
22.22327189525746 18.84214439881658 0
23.72330747731004 19.07799855716588 0
17.56375755459549 21.4323446129071 0
10.91754582789125 16.25396855014075 0
16.52395017165697 21.27639602768287 0
19.84264627688107 19.58416761929912 0
20.93745757230832 4.587851117927208 0
10.96721341206283 11.97017233178714 0
19.36448779436222 19.2343568298369 0
19.32320991357104 13.80324053970303 0
12.49679063031576 18.36447458529878 0
17.30780517556487 19.69782297872501 0
23.07324262122592 19.70477887698862 0
24.04572183490475 12.84637210469524 0
23.01470623990302 8.378674130379 0
16.74463758586727 20.27811989482917 0
24.06450586216421 4.587995913341886 0
20.78376792797122 19.46002647811561 0
15.66337221034173 20.4519006015663 0
17.19435192316037 17.7340494450713 0
23.99328853359479 14.77642509362357 0
14.09075256308211 13.29338443491857 0
18.91011561022835 19.26891883766943 0
14.17480246624283 19.7336097354824 0
21.79687166505619 13.58491030686137 0
11.39181658514342 21.39189682357442 0
24.03738966771549 18.15162263357849 0
22.16906868121604 19.50012690080597 0
23.42481206457625 12.03357172393556 0
21.53922407375306 12.03685362140499 0
11.22838256907166 23.12254639581524 0
11.24614984518616 15.38306448753742 0
10.89672207521857 21.35131565435125 0
18.50797772009856 21.07742441073376 0
13.32749640627845 12.26786010874651 0
18.13094024657331 19.44205612056389 0
12.9303909252546 9.642784412845465 0
24.327993759958 14.11881932811411 0
15.84329439824038 13.54190933488033 0
11.25027873316834 11.02822578301733 0
19.72307486767956 20.91502916643993 0
12.51526284218367 11.88539459844034 0
17.02208545153932 13.5883793562974 0
11.28408962914465 21.79760167015474 0
10.70767769195125 3.141051271018841 0
11.65745945447873 16.79005774485321 0
11.15286021816875 13.55894727475566 0
23.72763408498895 10.82566966799889 0
13.46775595043283 3.093378741127478 0
21.81779139892526 12.85535610889002 0
11.70099329677676 20.39530124238353 0
10.81571552691795 5.370664444594581 0
23.76833714896046 16.05921114767374 0
11.83040323531018 18.23334632368401 0
11.72350710384726 3.858497412296766 0
11.88857180008353 13.23051152272681 0
23.72902475234888 8.416232526013559 0
21.15120499295978 7.809370996949926 0
23.10514971685434 6.27370299087802 0
24.15574326260701 9.168115823798399 0
23.33005266902146 20.10302559914848 0
23.90579873878966 6.123666530541888 0
21.06236990682496 14.38387842211094 0
21.93536955047178 8.29710043396087 0
22.49716553263222 8.39285713298854 0
19.78458972459305 20.15593720761432 0
12.6522842689492 13.26451826421953 0
13.38955653597098 10.70970043564154 0
19.99455507981208 17.29806227266737 0
11.68277466198525 16.04558347583698 0
11.75039120529217 9.289123244936857 0
12.02237914067417 3.383241008880392 0
11.61092274195252 7.138592051985406 0
20.32742955082085 20.42387068848243 0
12.50079335904567 9.915340161746625 0
11.90257677949302 7.880764250770982 0
10.86170180796567 9.18873981754269 0
11.61458895869581 9.630270355867026 0
19.22892414737938 16.61961749327721 0
21.42510266227866 20.72730632580803 0
24.18896089163171 5.372894961604478 0
22.50163780539262 6.716484130166019 0
13.51512586919918 21.84083270611632 0
20.85017564015505 11.4940895634102 0
14.12501242773047 20.85684518132923 0
21.21517867402174 10.75632560676697 0
22.12990274376662 10.01575515699756 0
20.83558069268553 17.3867134772925 0
12.279564454044 19.95812118160145 0
24.15554028581822 10.07334715013965 0
22.50515778249521 9.420470826431641 0
13.02879377012694 11.28174431368462 0
11.05202902007358 20.46370966743478 0
24.07298926570294 6.467151079281821 0
14.85400836291794 19.69710120817705 0
20.94118504122365 8.737835832476836 0
24.05662195019292 16.96103511864301 0
13.76622928817489 10.90025208949922 0
22.78096816160684 10.76347622817106 0
11.81773464771935 23.65224274116568 0
15.06925448356382 18.93485580526973 0
13.82840460079334 19.97661873612233 0
19.15921086845316 19.70997869434543 0
16.71063233157581 18.25421983509558 0
12.68752619881394 7.554078765746103 0
22.31315635573576 7.542887819374726 0
13.57351828273056 19.33223817126499 0
14.22616447411165 22.33758437679039 0
12.89642702306406 7.065299593392769 0
20.86845116696011 16.41084874637602 0
22.02788151181666 11.70492552663384 0
15.865263543351 21.9711435923161 0
17.89558706469582 19.04355497667713 0
23.08663376475721 10.32129184311631 0
17.76740300207352 16.71572091437882 0
13.36732094139362 12.98219981206858 0
19.42500804169351 18.8580195409593 0
13.14651908756546 10.38307002133383 0
20.83672500595047 10.03694242519928 0
10.52091312198744 4.92353748305683 0
23.26702592560697 5.86475278736007 0
14.45709082539411 12.12713379901442 0
23.11303599825466 8.886985845636355 0
11.71422781981827 14.18408143690773 0
13.7977930677616 3.669238322351598 0
21.16923832202373 3.702206932548281 0
22.09509649214093 3.432026451219446 0
18.51840717592713 19.7238833390537 0
23.77402306962033 19.73533647343145 0
22.24930056243515 20.22397720698844 0
21.69609639697068 12.4091781516178 0
10.58906135258683 4.019447055400758 0
14.06254242806951 4.58785111851593 0
16.04606386245326 20.27048061038265 0
20.43778943363482 2.943574133929802 0
10.5371103944715 18.54396064561947 0
12.91214888226937 3.437457572070339 0
14.29236131540711 3.159047203051299 0
11.18190901216554 3.6802925058758 0
23.03511402706247 13.47892019782252 0
10.64550229095615 15.01759676444324 0
22.50722834172416 3.089870411694401 0
23.06116063739386 16.19876789950354 0
20.86208724791332 7.584909589639644 0
20.92825955505017 18.8503963731003 0
19.82142856787083 13.5 0
11.82632098471978 11.00498528503099 0
14.35383584768132 19.10485869560272 0
10.88444506743508 7.635142645359578 0
21.56567821552637 18.83549236733979 0
23.5538415385732 14.40102010373534 0
21.09333227956061 6.122946312838915 0
19.26284482588009 13.12429435086304 0
24.21433425474196 6.846766542363806 0
11.58349957486042 22.49469775947869 0
14.42617990009826 10.62252509270753 0
13.72372812466748 16.24688462387993 0
20.74844237342891 6.805929868421561 0
21.80368425200398 6.37413322270452 0
14.13301089667232 7.60441394153207 0
13.19631170047853 6.374206468270394 0
21.46690504700066 20.19616970671221 0
10.92151774628944 17.43033780403808 0
22.88488340703358 9.819008242589376 0
16.77751054096146 22.02583579002135 0
24.23135605140028 15.457091917535 0
14.44417481225157 5.903603833673717 0
19.21289107405988 18.52954945975138 0
13.8967617480127 21.60084378807156 0
23.09136857886719 7.876186226685764 0
23.09040916581899 11.2857400967982 0
10.81425077116406 6.874614369414514 0
14.09378865537527 11.79741247395401 0
12.67775160865897 6.21760694411183 0
13.72373488607756 6.63658300341565 0
22.65370254711687 19.31585641671569 0
23.27635564568214 3.85840952285091 0
24.31581011101708 13.50686820235479 0
14.4400727633883 6.402979927751741 0
15.6530052919347 22.55530037507188 0
21.28471957389529 11.26219729106462 0
10.97252807128852 22.245043876642 0
23.94005686219131 12.02931616867684 0
10.62242189380105 22.81695402845278 0
11.80031496842679 23.06728648949483 0
14.14799703172141 12.42483112768782 0
18.69220024875286 13.58837935758354 0
21.65362654841258 14.74813051576221 0
20.36755068586869 20.98973003275547 0
13.48086920622472 9.014128181244173 0
13.23549852304792 17.89028064174084 0
18.37936988303909 18.38178596928613 0
11.89451682819679 6.275062684524863 0
15.00533395704849 17.09255720624927 0
22.3050639207493 16.2838834251737 0
22.93610176505877 12.23473393119705 0
14.40024438104887 4.016242750583601 0
22.97748221777376 3.383127237127884 0
19.22819453193625 21.28992306048622 0
12.77086957436759 23.71424044785712 0
10.63584785342835 18.01053043965592 0
20.59034932494248 4.029348922003527 0
24.29234547877685 3.141096155228536 0
10.88336658957868 10.21873768750543 0
10.59809725006973 10.75773938194764 0
14.53871385641767 13.9101611083593 0
20.79036442637871 5.386382700926761 0
20.93969895433506 20.63352240035566 0
21.4072113110361 4.209178007027099 0
21.2477326540504 15.97387706076116 0
21.85513405280569 10.71740291545667 0
10.64582587719249 16.81443419928893 0
14.51964854782339 11.52852698024791 0
11.4129786674077 10.13384298777634 0
24.58000174356504 7.810073296147582 0
10.57295906298955 20.82661289445582 0
12.18087775093774 7.248824557433204 0
20.49152560933888 7.912555897573991 0
21.87390452179099 8.841801966060343 0
15.52890661615018 13.01974074892156 0
11.90294442138671 16.43908918222074 0
11.32127058160246 14.8220572342038 0
11.70985981117375 20.81716751932849 0
10.40449636691264 2.9037904409452 0
20.74232650326876 15.62665836764916 0
24.58935902177649 9.238997043407267 0
24.3002958766115 19.49723968689223 0
17.28269021038436 13.02203855497644 0
22.40348181371509 8.880793747058696 0
20.35342389913691 11.66181621666784 0
23.05888817470049 15.58643545634158 0
24.52144090668059 18.27598219018859 0
22.95467493590543 18.90501677073174 0
14.14310218301009 10.1068956077753 0
21.27718992483517 13.99016073708314 0
13.83219710270407 13.88673922321485 0
10.52293472488558 23.39682058160391 0
14.1369767559611 9.171086135479737 0
24.63256963481378 10.32146494753008 0
20.27343465964869 19.90691400980724 0
13.88090944098061 5.34179299449729 0
10.62742267666531 13.33810547292228 0
20.84142931342832 9.078814666017225 0
21.51774109692876 19.5269795036483 0
18.73440889431573 21.54358293856636 0
23.51723723364163 18.05109949416502 0
15.27540509174471 16.37877064533125 0
13.07777056630657 18.84485167964281 0
10.94865901420275 14.4822346187791 0
21.34421747270917 12.51959681202107 0
13.60598431194463 22.25617585619715 0
10.47174973736053 19.40094381808277 0
19.59692615295587 21.33845537114848 0
16.64173411481437 19.63492976308258 0
11.27124393971375 6.64498220777933 0
12.78780843215447 9.154408596682268 0
21.50755119392352 10.21513355676096 0
15.07687325945052 22.40325703526478 0
23.58737641929374 10.16783360063851 0
16.01175651108633 16.21559701225047 0
10.83440420809481 23.84338512871404 0
12.93844022053531 23.32764687892151 0
14.37412597608824 18.33924354693261 0
11.05360857345798 2.943488979534907 0
20.4546278694969 8.83116085151905 0
24.47259949516261 8.743996957500919 0
21.00640106016432 6.843150582651718 0
11.78990606076798 14.91930317122079 0
22.49715871539149 12.57485914254856 0
20.49468644802638 9.582209011226444 0
24.15259968138859 11.5874002559577 0
10.47548060689506 16.09114402265768 0
11.43382017505352 3.126369537010315 0
10.61686611056301 13.93145158032107 0
23.45896895717163 16.67122600017866 0
10.38767667637504 21.31340505931145 0
13.36936183660877 7.758308398669477 0
18.10048253938174 17.96013263999213 0
10.46194955831912 3.592809895593184 0
22.0631180859594 12.18872955446944 0
19.75920459966773 18.24522609423261 0
19.07335151865674 18.15409879874298 0
21.34075922948812 8.966100543268736 0
11.82112041715332 10.42967983245677 0
17.01929223322536 21.51977232416291 0
20.59998235221276 8.294861288818808 0
11.89009645369544 8.911910674242325 0
12.44860462775428 19.62517459047059 0
19.3506749647895 17.545112487555 0
12.95720895998405 18.25434416266036 0
10.81018045747864 18.98564309725242 0
13.07426960280573 2.965187994519638 0
22.64510985219997 3.389631478521469 0
21.23749822346154 5.059033041415306 0
13.08380520761136 10.96112183840474 0
19.20578967939584 15.80378853510421 0
13.51774206216809 20.79148427018941 0
11.40046147912553 12.93293397385739 0
14.80002214181545 20.81633657761761 0
11.33094607543663 7.906334660133252 0
15.35585693520323 21.83348075024981 0
13.24451738250251 11.49565371030755 0
22.10150996323129 7.062193858511768 0
18.4124370066242 16.94762679871292 0
11.23824097059789 11.53227213059779 0
21.79392746789625 11.30026851926247 0
23.9366781461931 9.62431954586059 0
14.38241014046636 11.20443350658971 0
24.49148197673313 7.274554710721737 0
22.58787814361356 10.3368055585086 0
15.76722747207833 20.8896520370909 0
10.58612976623955 9.711416910210888 0
13.68461936191035 10.36083170255298 0
11.23591441553822 5.045671181599849 0
17.88283261615297 13.34754481112354 0
12.18686667753078 6.488395208018068 0
17.44164963496835 13.89008620859283 0
13.7569369719777 9.299433049169195 0
22.95389235303851 14.20263388365458 0
21.76169949863593 5.93848521964598 0
14.19680574010382 12.01995137369186 0
20.72503998086848 12.8998970867036 0
12.42932661485813 17.32460372881213 0
21.63383160171414 7.730557005752577 0
13.05573020694775 16.37052449981987 0
12.06263353074443 10.31386526623347 0
12.13145334718516 12.79664346030818 0
20.31987886410834 18.95124249516768 0
11.36375161734486 23.99486074908771 0
18.51912731287654 19.02986195289686 0
12.23203935526432 19.06536249025698 0
18.94104824910731 16.11406170464771 0
21.89763632597846 16.21400287979512 0
12.23330340741319 6.094875246136368 0
22.73938685395716 7.885262476143134 0
24.44916279659669 6.31919520377304 0
20.28900740417893 14.16970546923237 0
16.90923095692024 16.35705614440895 0
24.63633337790045 15.41039934273872 0
20.37325963337221 6.929249402107525 0
19.43153070014099 20.00861306181343 0
24.55663247091171 4.40848556631521 0
14.84272969264478 20.09428674929261 0
14.55642586532915 2.937789434074022 0
23.91558917971885 9.002912909074377 0
20.0058459115005 13.96562836333275 0
20.34440185765923 6.196004380684354 0
11.19783935834326 8.745144116568666 0
14.69438682115791 21.95889318805161 0
23.97731914512922 12.45302332402818 0
11.03508514822868 8.133473530123174 0
21.60922533145743 9.182792834048213 0
23.36644881264373 18.87237384859262 0
23.30744476891621 6.913500301015801 0
21.38960680264542 18.19238726781531 0
16.30824459762382 21.81049207300294 0
13.75843067653215 11.35332175929578 0
22.99942940700094 18.50283182534947 0
12.24390268025219 8.873278059367975 0
20.53993905977983 10.41953565304015 0
17.34635973807923 16.18532317899414 0
20.02315084604213 19.23778814324339 0
22.30626757588034 11.32255440584261 0
17.86657712563237 19.78270079676865 0
15.73031913712042 18.94244279168937 0
12.44759768328619 3.73310128208552 0
20.50764542039645 13.87752963322786 0
20.41384439122466 13.0877165990511 0
20.43237251729384 9.949778088690486 0
24.38331699032104 17.60152915620085 0
16.37375474947642 18.63358833606447 0
12.04597905040468 12.06995430146755 0
12.24021891667476 11.39723514796626 0
11.32770937372115 20.96933648571003 0
19.38672490371592 20.74233110542808 0
14.63528545906005 22.79533671256432 0
12.12760951618185 9.449050886104462 0
23.65240621470365 17.18677816539449 0
17.07559955132406 20.81895296333101 0
24.73113206576501 17.60238757125277 0
13.8544341665973 16.88265722207345 0
24.50358604125676 15.0048320498846 0
10.29913689088215 15.72208602934159 0
23.27172714298939 19.1926783265815 0
11.71438031881491 17.20064292456859 0
14.54760237726385 13.40460393429833 0
14.06137960739374 22.95102208793995 0
14.3635996285433 8.197799208211896 0
21.92405617111881 2.966203258652046 0
10.2901688599785 7.046780958818382 0
20.64744417797374 13.45372658766126 0
20.25133064990131 4.151344626340778 0
10.65249170857891 4.669130634552955 0
24.0857249800309 5.763852775968907 0
20.47424671256171 3.59666220411052 0
21.65600804242688 2.755764024451667 0
13.93525453077649 12.12390266309735 0
21.09255356556145 2.961706133368504 0
12.45679158946235 17.64468547314565 0
23.25451627394047 9.9883450168655 0
21.51830790004608 3.101918344623791 0
12.53049963307378 6.053186153164827 0
14.74683886863307 4.14879836611204 0
15.45771193267869 19.85321985823893 0
15.51039259825882 21.47693368886775 0
19.82142856787083 12.98405612181365 0
11.19887115863934 10.56613610625412 0
10.32190664231156 7.760587014422237 0
14.73162871633786 16.10314383920758 0
21.6675806093825 15.81667813752325 0
11.73323363814537 5.864982310841933 0
24.36446387682964 8.22574858759853 0
17.58922688651027 20.03690608190453 0
20.01582311335672 21.22579042326942 0
13.5979579524786 11.98617243591419 0
13.57836149741081 4.362398223847312 0
11.54759881070609 7.520532423451769 0
10.50906609773051 11.70643611496595 0
11.06071711748867 19.41539113513844 0
14.66711354780901 22.38238210368047 0
24.37417381935611 10.63476439640837 0
20.06646579819492 17.62563967508325 0
21.36219493288982 7.515859546300311 0
24.7082719020337 8.135061876682453 0
17.22245200521432 20.18904219550447 0
22.60775261590222 18.63969970357926 0
13.13002353121265 8.4223248285604 0
16.42857142937082 13.87244898555864 0
12.99692473750766 11.98273383963762 0
20.62641469028412 10.89892135421153 0
16.92677350711356 19.90310792241644 0
14.16292931110923 18.71514116979719 0
10.47144592252554 17.56527213531337 0
12.71776295077473 16.81749025287359 0
13.91673361887942 9.669175250070385 0
20.65180070254228 14.93281359326805 0
21.82450191095459 19.91611099063634 0
19.18015360548106 14.13369674963741 0
12.06114860379557 18.64078397056187 0
15.49031171972437 17.65168563226505 0
11.63798125107916 4.514498578272967 0
12.12647990300174 22.67312636052676 0
10.35266049309576 18.25122570734214 0
22.09008968814194 15.47448608249911 0
23.56603242193007 3.126307191929895 0
13.1146707107139 12.63996276201484 0
24.53807940882242 3.592869679456253 0
23.94636311296898 2.943556763292346 0
12.79257336252453 20.21404083734014 0
19.48925333534577 16.10109243576915 0
24.59537830847955 2.903728659453811 0
13.7443904030916 12.73092568512995 0
18.12013323449646 20.21614832383755 0
21.21610109071821 9.919291040109293 0
20.87805170999605 4.993765141018352 0
19.67340005482783 16.86523697221672 0
18.43376456043205 16.27246559188467 0
22.81833895356221 7.248412827548115 0
13.62767525123146 7.550106574854715 0
23.57898860399773 4.354902864776858 0
23.35357675628529 3.496561447249037 0
11.08572840444388 19.73253962406509 0
13.29031975639027 3.907148831387958 0
12.33693174728982 10.40505155875072 0
10.4613479175076 4.408638576423821 0
23.38498533407941 2.817459425979387 0
24.54433346681224 14.52349149880829 0
10.32276985043825 19.72076443288552 0
17.68512095215511 18.26660424902689 0
17.31552993115296 21.97513604081482 0
10.6320498295182 15.65880735330482 0
13.16838626314496 6.802763316125761 0
24.19224541916816 18.46009095697879 0
13.50568073368069 4.750745222075596 0
22.54547706924523 14.26201374258936 0
12.843468140767 22.74368642737829 0
24.4322222622275 5.808406535820517 0
12.40525597007525 23.64813440421005 0
23.48085780928759 8.749639699301854 0
14.4676161823436 4.940357485764595 0
23.8762382760664 14.14110138399996 0
20.85109937959801 20.029030582939 0
11.434022431928 11.68121070816768 0
11.0882405176762 16.98845140093095 0
14.18635117972359 3.698954173839846 0
10.67809491455133 16.4581726765937 0
13.81308222955493 7.878377915083518 0
13.65703708774736 5.594888800211336 0
11.1205284357293 9.318157527017291 0
14.60790578843611 12.96997781282955 0
21.34293083255797 5.594801007556243 0
13.94263488237033 18.03211323840827 0
14.4604202688478 21.30090625168786 0
21.52129004447323 13.24168294061749 0
10.92184683658257 5.752761616067583 0
18.87412566314585 16.98768487030845 0
13.09025786447024 7.482488368850106 0
22.10436833738878 11.06243167509893 0
21.4450894095891 4.666514207154832 0
21.07240656127586 7.142192617773473 0
20.94739204116485 8.405330449691242 0
23.37483949974964 8.175665172539825 0
11.34323047529304 5.595381899711854 0
23.06924722429813 11.65001216674157 0
11.59998303551273 10.76495779426529 0
23.03744841059874 2.820180741544141 0
10.54982709922682 6.344635254626905 0
24.65224351212438 5.357610122900034 0
21.07863897336415 12.02235107252711 0
23.65706565902769 5.595019337870336 0
23.60862886410693 12.54084945781035 0
22.74732590575891 18.37772122286726 0
20.53237329061232 4.940314224260474 0
20.5032330283646 12.05746014170476 0
12.72511904344799 12.20149776980124 0
14.53737224623691 4.382863248528153 0
23.90520891297438 7.128038925521762 0
12.84994570392399 9.968183382217987 0
14.43447009718834 9.645209889021292 0
21.07638600013613 12.9730170616444 0
13.399757452894 11.18526368590374 0
22.18856514789895 19.85000090227518 0
13.19299099677527 13.78507120942102 0
13.90744643443513 2.961706133678531 0
10.30699285478027 10.28940049751718 0
10.38815401799747 15.36854334108001 0
23.41965607408176 13.54020462171162 0
19.96892337395596 15.9625906031935 0
12.49267391659506 3.089916093951515 0
14.05637841264246 5.757180542732552 0
23.7487084148244 17.57841848028628 0
24.16149269244884 3.699035532339905 0
12.12920864847684 16.89604356372769 0
24.30321225950103 13.15005124652275 0
13.91523784950255 7.164185867952141 0
10.87465735180431 8.793099441729922 0
23.88513436619407 11.46825799162317 0
20.32139279756343 8.529055814156495 0
21.69842068733996 14.18867563106158 0
22.45782640529573 13.85871934293543 0
13.83032771122013 23.37254036933483 0
16.40472666174269 13.12032318521547 0
13.70065368780841 21.28351149983181 0
11.64626339112195 3.49664800333051 0
20.77555554263055 2.853519773433208 0
11.20621490406508 7.542594916898135 0
14.71867316305147 9.46428571803552 0
17.03320557526395 21.83784928769373 0
10.92164850451803 14.84109313480521 0
17.61540720948582 17.83689432225983 0
18.52858857181053 21.77873169381068 0
24.31521351456513 17.1719345851152 0
22.7492966009899 6.919388728019102 0
20.9438160218328 5.756555513645296 0
10.31362933120033 13.20753282341524 0
12.19955627396529 11.10162494582194 0
24.12667867042015 8.781208781640586 0
12.29144273019408 2.807035361661905 0
20.31204961816206 7.604333379187178 0
23.582880593826 13.23865379323452 0
12.74040476299976 23.06171316415299 0
19.7190471765535 18.9729107219302 0
10.3486566675926 5.352945751090559 0
13.43340156773075 8.185830142008454 0
11.18571785913915 4.716406617752405 0
17.19977540721126 19.20882663430625 0
21.97910087328888 13.2328810167142 0
11.52340210887048 22.06492059670269 0
20.76706799043713 20.91863963173902 0
21.27303908555481 6.636509386673304 0
11.15762307682261 23.54119607381832 0
14.45307416722611 8.693444644053635 0
12.13194428179316 7.609548287067152 0
11.16000694390458 12.7211624385416 0
19.96475862696984 20.53257650959183 0
16.50612162802346 17.04458400558457 0
12.90490453363219 17.30807942263668 0
22.77778134555361 20.16169755462709 0
22.76717186716018 6.094461081183449 0
21.83140568246559 19.56571024512569 0
10.89771026579814 12.34546007551707 0
21.07307012325096 20.27044429009305 0
16.29911041505283 22.35269440445807 0
12.61393416400328 19.91830582622622 0
11.95505778118762 6.797412193807906 0
11.39141775675202 9.109087005955132 0
20.23668152491918 18.46470083028035 0
10.49982850777726 22.42325744507992 0
23.63818171876713 11.37784692701938 0
21.50813522461921 11.63483482507575 0
22.68221528117775 16.4857991982698 0
23.63860489279718 9.069421507143268 0
10.93720527498333 23.24835215940919 0
22.53233891623615 3.720643811951499 0
10.76542864071488 18.30473381760334 0
22.8971570239882 3.937430248142527 0
23.97965479526684 13.24891086528011 0
20.24281261920649 13.49844738243235 0
13.44679057520083 18.91205016592305 0
20.54730146806374 14.41964388108138 0
24.29502034725903 12.59576465111623 0
23.76187493946236 6.640843202566896 0
17.05644416840251 22.23062789316487 0
22.59849142324693 7.469767158556547 0
23.43205412330483 14.76898373667349 0
12.28930030069725 13.83028299387943 0
11.61956450941261 8.184053934096626 0
20.29740407965675 17.82424943233929 0
22.18876815040775 12.86083910105588 0
10.34987313160483 3.27431316159995 0
20.8507286909414 8.078836533786605 0
13.76379871082135 5.046055672803822 0
21.53262889362802 10.57949285968113 0
24.65962157153819 13.21234140893975 0
16.45426854832131 19.97723260293299 0
20.44219979323679 12.43119710398435 0
24.79640944959409 2.742451713541707 0
11.45766003825319 10.45690129240909 0
15.31617807363376 18.30957376158409 0
13.02142515135705 8.951131054458548 0
14.66964345357355 8.424775171231444 0
14.49980077015383 20.27644252676632 0
12.0277666940652 14.53815965692297 0
14.7175598356904 8.100114383811066 0
20.48264299647687 16.9048277521295 0
13.41374802529936 17.49864446107785 0
18.41916817833627 13.03664624275589 0
10.67133328683489 12.03996688976986 0
16.1549039055431 21.08331693836765 0
10.34908477290394 16.52253311214006 0
14.48670492684329 17.24484275252379 0
23.8976893431528 16.51013309879805 0
10.89501913331608 15.90267027848106 0
21.52488330219435 8.132313246839294 0
21.29621640948167 16.44449999557153 0
24.61266044185513 6.708018248760021 0
21.82771841466195 6.790006840171984 0
15.95094934688606 21.45226638903314 0
18.32017670063122 13.89343365893288 0
23.3423167127964 9.149597865407264 0
13.19795385996802 23.58065357758187 0
16.65432330929578 21.65002685651998 0
23.76430172650576 5.045820899630158 0
20.42962063803152 19.3544150765727 0
18.83110595044501 18.53766513767835 0
12.87186504526995 8.679400475885071 0
16.71458834159828 20.943527405244 0
22.17766888819767 8.607376158558363 0
20.327584726635 3.261077676567941 0
20.84429163754004 16.00678912810424 0
10.52740667987183 8.750966406652662 0
11.0665129166312 4.101070546604526 0
11.66932939583983 5.561577455150051 0
17.2659562409113 21.21588297394658 0
22.59328441105213 19.00856419766435 0
10.54836899411639 12.3019583609892 0
17.65774804073878 12.80089785230248 0
23.15534364727891 7.318535248124596 0
10.56363848120888 20.26237044592757 0
14.07545663276466 21.22305336483259 0
21.84990089741648 3.279082087964131 0
10.92887474031966 20.96276343421901 0
19.29625882768072 17.11200617416908 0
23.86304843546542 18.62157576986882 0
16.2814006958754 21.5048984285044 0
20.41527718292395 15.25001849802023 0
11.39881401034562 6.945275716535947 0
11.17350141530913 22.68628398558459 0
10.30086598258411 9.913662978020549 0
23.25852706636444 14.24881489941454 0
14.55455609633517 7.806568949085976 0
23.6657497742486 7.896031687185545 0
11.77595888535446 4.269924579427749 0
14.80858923275032 20.47266849368248 0
24.48100011121178 4.923353591530053 0
20.18400637360261 3.03571428560668 0
15.19358115327603 20.96691866171719 0
11.97580088612429 8.392289534789578 0
14.33767938081391 10.32556971759607 0
10.83835408085338 3.699103230009262 0
21.57999764892133 8.477674590943588 0
11.4213140181398 4.355012659678257 0
23.66747478934406 20.12404408882334 0
13.80664691799389 10.01456297119347 0
22.2577603468565 3.994504706182999 0
11.2298395860739 14.13202227611781 0
11.46054551794962 11.968854208012 0
14.46491333484092 23.11279058277262 0
13.47862822777359 5.275383410220496 0
10.30145628232824 12.83602198916568 0
24.12339655437538 15.82498285534328 0
22.76541032410297 12.88867485331371 0
22.15869556472771 15.91993585676224 0
21.86239822393411 3.921638502793916 0
21.78156805933244 4.261002705219871 0
23.50602513590222 4.746934324271785 0
22.04542820485136 13.95614757161617 0
24.70519615851924 18.71639518804663 0
11.2722842313589 19.97819850241209 0
12.77924898240534 17.80178995923104 0
18.85355422900524 12.9624903908972 0
14.69826212964586 10.17132481256377 0
10.37176186929465 13.63496052920129 0
22.73358122436071 11.06952115095237 0
12.06982668727965 9.151348104538798 0
22.17383049793564 5.959524131462365 0
22.25351270976985 18.47441731214995 0
12.74440985262165 11.35690412910164 0
13.82537783699926 14.22529219087473 0
22.32298695156518 6.217908980654253 0
11.67873787727524 19.98166111140512 0
13.64852307629922 13.45369251495941 0
20.18702371882134 12.78503767756431 0
13.02003686637863 10.6503902824302 0
21.48089480315529 10.95993306540787 0
14.50437081913014 7.256921748076389 0
12.09300506328033 19.45736694857394 0
14.0345786551875 10.58094089325541 0
11.960637011314 10.00004709884986 0
22.09817199996372 12.51526500433875 0
17.42067785198786 17.40887570518726 0
16.90187180465591 19.4510687226168 0
10.66995755791975 23.15825863956066 0
20.36754960972683 9.194743669421674 0
24.67988328412914 17.24917337727836 0
10.73451106195065 2.836247873685376 0
11.92469543896362 11.37856994791044 0
14.47628316065827 22.13646463459198 0
14.31532433444266 17.75158537884733 0
24.19587951565115 4.360472646949103 0
10.38196384962738 11.04600142446749 0
12.14256315872659 23.90265967937818 0
21.98606901495471 9.354244478089575 0
18.28361507006959 20.73025279339657 0
10.56833981136015 5.805578199714237 0
12.69516551788867 14.01524910802346 0
14.61624463694324 6.878331714245315 0
13.81796804876281 8.743900034063671 0
11.95748198855117 22.43047379462169 0
16.39561921990842 20.73044730046804 0
18.94081202759745 20.79508417920408 0
23.12609782304343 14.58842063077041 0
22.23914992128691 10.46983267968191 0
17.20862682352355 17.05611955590857 0
12.56550759767052 7.142643906638912 0
20.5073679593626 7.264241788215971 0
20.44116322850089 11.31817870413567 0
11.52779943787547 22.91003762248666 0
11.02251624229401 13.16274190498074 0
24.47142692250627 12.88328499640742 0
17.20813717782327 18.21616145174017 0
13.10495059110963 22.98743198774858 0
11.49507503511423 11.33313938979231 0
12.16698736912186 3.980367980931457 0
24.47651064405274 11.19449947505292 0
12.90316180768531 11.62874546892523 0
10.36165304252814 6.685072258627703 0
12.23427420220938 20.4790514215231 0
12.18697067161649 15.96183157351162 0
13.20892334348633 20.58912788478362 0
22.14775327372243 8.037897145159869 0
21.48184974802683 17.23580034718153 0
12.74529365312483 16.03693916933463 0
20.8614284996997 17.84550781274227 0
14.31746779955453 21.86699886984547 0
19.33097674723873 21.59650548128529 0
24.49644331359111 15.89721173762548 0
14.32866218292873 5.640773719577239 0
23.27744195094712 12.3962402162962 0
11.72997110749632 24.04930354007539 0
21.22776779478657 20.54029059239575 0
10.89924764165056 11.66770810976728 0
19.51045473097214 12.8342608436049 0
21.03435979662596 9.559862008070079 0
24.59246005437484 17.90081867238099 0
21.86366060759445 20.55268489636333 0
13.78825481440171 15.86557531559903 0
13.86039497278109 20.33899855318884 0
11.49415665128297 4.746935045843042 0
23.47882016496566 5.275146623449229 0
13.7861112607786 22.64443702448702 0
18.14312708631343 21.92539036077091 0
11.80048789889007 3.144174943026467 0
11.21953799004271 12.40632657459972 0
18.79433822444462 18.87433491506983 0
18.17284499814852 19.88939997689349 0
12.83413896470147 8.026239616388631 0
13.24562846108154 4.277813102772209 0
15.78207188997016 19.97704307061968 0
24.70670796452367 11.47100458739328 0
16.02216888673455 22.57963046352407 0
17.33171379890826 22.28551144354452 0
23.24577459777429 13.88477749651368 0
23.80759863013509 7.532160297424298 0
23.47473966634851 17.43546908244029 0
11.1146436495103 9.671970611291451 0
12.26339965113429 7.892331958929503 0
10.58747880869727 12.6264511791671 0
21.25535751679332 17.84429858428059 0
17.98006384517337 12.97713982583745 0
16.13532770898772 22.0396430995912 0
14.13485899153218 8.526024722746156 0
21.55134700248666 16.20592751031855 0
23.51908484629942 10.53572856347001 0
13.46506167094722 23.33455332585032 0
22.59355391330849 10.60037613885848 0
23.68351250648568 12.22359349647012 0
19.43900839780468 13.49702716087362 0
21.15818203596847 11.02187643820196 0
14.78189479230601 21.17069510251583 0
13.01676709339771 19.88780162657825 0
14.14073801969804 8.865187575863914 0
14.19065832025444 4.355532059970258 0
24.234449924273 6.0631165310681 0
24.0766941007155 10.85707538107869 0
14.05491240493542 8.18256643372313 0
16.46623606152119 15.9822610810199 0
22.7137396921208 14.63440802988054 0
17.34512018859034 18.60127593910907 0
13.21748245887264 9.837662637712205 0
13.05302435114283 4.085791620699127 0
18.75169086521105 14.0596511401029 0
18.19377874907056 18.74047576060336 0
24.53976216439854 16.92309723761558 0
16.25593628367302 13.52936984975046 0
22.18277155629878 6.51326339842192 0
20.43561233123464 17.41090295813162 0
15.35939481943816 13.91188655198224 0
20.5782883455185 20.67548331195847 0
20.20255661514747 11.2695569113468 0
10.33153668135358 23.05934913096791 0
21.87439992731496 9.716378643138508 0
22.51243114585367 9.77750083635321 0
10.41143658143353 23.8064922341273 0
24.12714411337997 19.12887694946475 0
11.80401860242882 19.17952917778199 0
12.25191709317862 8.238867465635405 0
23.28378956373353 10.84417125807764 0
21.89809002419284 18.84158136657068 0
10.88437081177099 17.77223861978182 0
15.72695710531602 19.31957931736795 0
10.30456548769975 10.65525586067614 0
14.63932658336282 10.89520110746872 0
20.08084639070587 16.87266988896207 0
11.54159882010009 18.05144241871368 0
23.66498833645365 12.88372950849249 0
20.80283958946378 13.17865684169424 0
24.03984113097272 17.38800527136968 0
11.11334524931555 7.184480557445386 0
23.04545438301463 6.797751056992222 0
14.69231664301661 6.56119666369629 0
22.4966919945082 15.41625208666851 0
11.38849048558641 20.60729356405308 0
23.68050708644351 14.92334864636674 0
14.12001551443414 4.990816140760778 0
11.25540080569827 15.86669250628833 0
23.04610068549769 9.364536828377615 0
12.79884809912985 13.64219435262419 0
20.78821516834399 4.343453119760239 0
10.34940118415282 22.09956316235964 0
20.18602401803436 4.46428570961362 0
20.46105720991986 4.385034660071389 0
13.60808842737043 17.84018676077682 0
17.63375821426047 21.13847262739748 0
23.34549320282763 15.89343958270616 0
17.64072423634522 13.13902318219911 0
14.6464802262951 3.275555543922251 0
14.0258496963408 3.386095772817298 0
21.19895417313554 3.313648820345585 0
22.79173711952144 19.89473289861472 0
21.38245600869041 6.901350232660111 0
10.29088518447627 9.5743567227603 0
14.53829386626345 3.592553565800602 0
14.51052740245662 19.89777533726943 0
12.21305847557532 17.83423803188556 0
15.18335942462076 22.91590221776355 0
24.77127614304566 15.07294375109514 0
20.43596662919817 16.05705449626931 0
11.52113781671959 5.275319702940634 0
15.40484708248362 22.25164003101467 0
11.96250737186875 2.820224859794934 0
22.84586273357531 3.105658938603514 0
22.70851097087755 2.80703112566716 0
24.65509918459221 12.54961500019208 0
13.15332577983973 19.18567026621608 0
10.34427860832882 20.5508003666026 0
23.68757469836235 5.903503700579766 0
14.17586958003464 23.31908879156159 0
18.61189448107922 17.99977700113161 0
21.43124712329186 14.4475406445517 0
24.50999816240097 11.82304654165567 0
11.84498876969503 15.483222734326 0
20.76095785483801 6.146369878551614 0
22.1643291356743 3.68260150567016 0
11.00253748787392 16.6087834987411 0
22.20539582223648 13.56167928944199 0
17.80322505676707 21.92359279310334 0
14.66774840481501 21.56611204535979 0
14.43195590914512 6.657426474411484 0
11.38929567737626 9.79261681249848 0
18.43929750690031 20.09534823296053 0
12.85224889567795 12.93964370472489 0
21.88118715667118 18.51683860784625 0
10.25395219741726 4.167959291535512 0
14.72502692787718 11.28921740834383 0
21.88329472609366 19.16642696901678 0
24.06497082936736 8.448033606175944 0
23.03748349004515 3.684508597089401 0
24.69526912873178 5.651535563696648 0
14.72004970402998 9.128547397799386 0
11.22766793686094 17.7985774911929 0
24.2653858432138 2.836214194847151 0
10.31532400240049 12.07372902806945 0
13.43432729101988 12.61892572325765 0
24.7578772960431 9.606804304846019 0
17.55933127437601 21.74199814597545 0
13.78664855577719 20.99975033742194 0
24.05777356727545 13.79495222191467 0
18.439606542277 21.40254655308132 0
22.18275809855118 3.160709236777724 0
10.47491720213683 14.39228981598132 0
13.88314172263624 19.00258455943997 0
21.64756901354031 16.58057947794168 0
24.60261353935111 10.90541758392645 0
23.49197425684341 5.016975461837793 0
11.32047820342862 2.777467759186207 0
13.4407510257699 19.82280778871745 0
11.29590544391763 22.34795562750284 0
18.19501291874995 21.17145150944362 0
10.2979373766492 21.60598414140469 0
15.33018987132529 19.29808360689061 0
21.25839676204961 18.88976588331024 0
24.43125036086778 5.532568867109852 0
11.12598636673393 5.352462271243663 0
24.26720660529751 15.1695871710739 0
20.34301867331169 10.60890890635642 0
23.39243482830733 19.57550914335031 0
10.34292556905994 8.497339695042589 0
23.38579575534614 15.59160971537483 0
21.1917284531644 19.83873947851597 0
12.95872562195846 7.78447997858202 0
22.22716854902352 9.572535480625188 0
12.55771225855334 20.44625441789535 0
12.25120434792912 6.918639404654753 0
24.58745590930855 13.81895088402089 0
11.04857395020915 24.22573019520365 0
14.05315419022807 19.37547416365727 0
10.29063806080171 9.232483996064946 0
13.19000436295035 22.4275879254035 0
19.61452405665857 14.11806723361838 0
24.59991304101889 19.10970218190035 0
22.55052625217347 19.79684259168572 0
13.54427726603653 18.23102902489824 0
15.52506209550994 22.84496406140339 0
22.24784830350005 6.828246427461027 0
13.93348646656465 4.104566799886129 0
21.90577084106308 3.593468860712464 0
21.60456679979705 3.56651353345938 0
18.61354047232389 20.75832330027795 0
16.78171445993164 17.82988020895349 0
13.98663482872371 6.850949909340565 0
11.46043337503081 12.61492268812724 0
20.18749318917016 19.62029336257278 0
24.24420323632645 7.891573553876196 0
23.44995165341615 7.518602882178621 0
24.6846934967638 14.21613955329701 0
12.50818997971928 11.53404533836764 0
11.36689812373446 14.46011162471965 0
22.83463676281291 10.46814137451085 0
16.82656233679489 13.02589973354478 0
24.69856245622849 10.61011115550564 0
24.32225833688977 13.80989765910112 0
12.49359135827218 11.23210842911158 0
12.7548937494012 10.53191577990427 0
13.05779851158132 3.693730617877728 0
24.16316315384118 11.22986135617323 0
21.90668770690147 20.25286881031577 0
10.64357689370084 13.01928703097039 0
23.77216825730704 18.31895057626324 0
14.70398366802784 10.52121206403969 0
20.48939630338492 20.11031356259357 0
15.99766902130814 12.99559749973587 0
14.16684873153777 20.4887076510868 0
10.26168862843652 24.09274193184289 0
11.09808272274488 4.411617038948952 0
13.07158937545723 16.78214913563009 0
21.11900917418965 5.344312682313978 0
13.34021055254177 5.601437337032745 0
21.24441372741524 15.12846575688649 0
23.1894790951653 18.21028594749927 0
20.88105488838938 14.05373149436854 0
23.78999541517235 13.52332180211165 0
23.93322968453032 4.100639601284663 0
14.69617585909064 11.88488459217036 0
22.20204218982668 11.9260765058851 0
20.91979335694547 10.43951348512666 0
13.67527744685906 5.909322181562612 0
11.5081147208852 5.016981482595881 0
21.25711779594147 19.19917888994622 0
12.83039412166364 3.94228465750428 0
21.83905363496249 7.467660010798362 0
14.32875474348884 3.4329915615896 0
12.12723638555333 15.58404305181817 0
15.98792210107439 15.81579364591939 0
14.84998636565594 23.04849555839141 0
11.61496227081241 2.817480279385812 0
21.09313979114188 8.942699723821496 0
10.59906406606041 10.06136114051567 0
11.44767023632234 3.699849075465946 0
14.60449681435614 5.515877101647936 0
20.39557697893664 5.515587172036469 0
10.25891576333555 6.355540609867765 0
21.23402303880802 18.56355770118573 0
10.28933979199273 20.07518246514898 0
16.87561830800196 21.23742642514789 0
11.61818993495697 7.820449503807107 0
16.58669439826716 22.59222078774528 0
19.55925971013018 18.57621462296932 0
10.75893320363803 19.30840246732686 0
20.96915825098367 14.76027365492073 0
13.81401753228522 4.727981222387705 0
18.65813162225797 13.26306753715972 0
23.98064435734843 10.56920158077134 0
10.92443210104847 22.9362934964221 0
10.36576530871104 24.47693793291809 0
10.25318159753454 23.39930658142258 0
17.60198105325174 17.04012018540138 0
15.09895609987824 20.67595028672959 0
10.26569349692397 3.854945969894429 0
11.20823357402702 18.7864450600507 0
16.60997673795889 12.76728702964477 0
13.15401908317102 9.23677103944904 0
12.50834683033022 12.87000659426242 0
13.81412611315294 19.64814971904888 0
21.27857698731302 9.663027095815394 0
12.54083031631855 9.491516009916465 0
20.95596751352845 13.70207912696547 0
22.60558748816391 13.52827565339247 0
20.64127477485864 11.17364454488644 0
23.82939147089249 11.14909286289866 0
20.6004795164258 10.1714117360238 0
19.74330285005976 17.72289566778537 0
17.46521947136638 13.42129834321541 0
21.16998699065575 11.64355124711757 0
13.41827908005574 10.06764315814226 0
23.96009969059056 8.126530561907622 0
18.93571840500336 20.44019729689493 0
16.90692973658044 18.60177859942092 0
21.16344319909892 10.23108127107118 0
20.67138704623925 5.640516544239015 0
15.08329862002613 12.95439213885055 0
23.12121081452757 10.60275883720274 0
20.22055991390041 2.720559914355949 0
24.33728668972418 6.585282768544672 0
24.13067387495873 19.85371082290441 0
20.29174129682922 6.572676205569798 0
12.79545478250293 8.333652265826691 0
11.41294565229675 9.420664544835802 0
24.27207193334648 16.70155727890672 0
14.74091341002137 5.881054638224948 0
14.81396993236965 4.464285716746855 0
11.37828323020839 7.306790883724813 0
23.92999297667208 19.39993932679984 0
22.03842505599204 16.55474127742455 0
24.40179592124143 11.46116244324656 0
10.30922895574956 20.98917321706504 0
20.87441990951722 15.23013960192781 0
13.44958132193459 9.385005960593668 0
13.42699093519075 3.54683999124926 0
21.0468399907646 4.073009065659487 0
22.64612346828114 11.46035524455462 0
23.97764255599689 15.15289675947679 0
14.91576225553753 22.66163796817404 0
13.29212375346486 11.83203764851748 0
11.31261905377189 5.903782437729597 0
21.89211571638119 8.57858477651266 0
12.73423337299113 3.675708182061927 0
11.36842550492364 16.42417111203325 0
11.928810131434 23.30771453284042 0
11.32947212948627 10.78452165425937 0
20.52669523154902 2.68908873234386 0
14.77944008593585 2.720559912828533 0
14.46428570881514 2.684006374580512 0
14.81091126746089 3.026695233598605 0
12.21814477623333 3.606022398683225 0
10.83470518130394 15.35703998928017 0
17.3095162205687 12.70626016574502 0
15.17393838093657 19.96759278110472 0
11.51893310502843 8.747355607599514 0
13.9009494716036 4.414633394791721 0
11.69110838779359 10.21432142732567 0
23.13805787165291 12.0024617048534 0
20.60480441950045 18.65694452603444 0
12.72941795031215 19.0563374950442 0
23.12516177580261 16.58928943756971 0
23.04009747374987 13.1184510133584 0
13.9527220275651 22.01769391135778 0
24.31756033774739 18.05164265491111 0
23.1776503446046 7.618705413868327 0
20.88818586903148 3.474835076789605 0
22.7453846494859 8.692625904633235 0
24.42968702024102 5.209136664578558 0
14.600074957577 12.44871142383248 0
13.73261075661206 23.01831473757271 0
21.15315992772765 20.92402038959377 0
16.91923335555413 17.36187368423604 0
22.74901760574056 8.226069663173316 0
10.38653436070559 19.06946243172981 0
20.25915391888094 5.880169322675847 0
15.8017742852735 17.38118654043701 0
15.62952531987827 18.08088559879881 0
12.82562818078181 18.62038863572071 0
11.55858309239564 23.32946395348936 0
12.51161395549133 18.01165841808074 0
11.70369859346886 8.527080087620728 0
15.77715985250299 21.20767225939867 0
14.40529406021878 8.460510936560782 0
23.00877397569673 8.638792590254821 0
14.42117306841237 20.99902491503657 0
10.28381201468081 5.072978635485605 0
22.77703080326535 15.25602133214757 0
22.80362235304684 20.45527692649361 0
23.94614226562217 7.829969962162917 0
24.71544901993157 9.929635987749286 0
13.46843770644861 8.575213127058554 0
20.9142214623234 19.72812107665062 0
21.18398254272676 15.58895521362023 0
12.46924131036818 13.58431142325399 0
20.26805094548005 20.69703407687548 0
15.01738622633647 21.7383303069171 0
12.36948285451124 12.57451023101207 0
12.46087450805362 19.31156052860059 0
14.1357546262646 11.50072082435648 0
17.5776348862049 15.85849989304885 0
14.73352640877152 7.118813063073135 0
11.09765036178166 9.023758834022841 0
12.40001781428685 9.176868984315497 0
14.70776155477755 9.811422118149837 0
12.14057043656146 10.70583915216121 0
20.5969726923819 11.51449708989442 0
13.74508920849796 6.368512995651433 0
12.95033346295709 6.211544738994777 0
13.07627201911577 14.11958219655389 0
24.73481776552443 3.856162435902434 0
14.70486502728542 4.722245323045367 0
13.06950656258844 17.63324849649355 0
21.87474128907579 15.06789839948171 0
11.35472083108706 17.3530341231366 0
20.91175427753818 11.13606584532987 0
23.36362372703753 4.518378293420341 0
22.59341096993339 16.10393432348051 0
24.35530015336429 8.507162359518905 0
17.93684530928818 22.14128074868347 0
20.57268092743063 17.69973927675605 0
10.94069185369645 6.486726837668257 0
13.59129667242405 20.52886174696164 0
14.08154646257815 6.504591530223401 0
19.52804209913817 19.62974030844651 0
19.14564453108795 20.63183451329418 0
13.33625413963922 16.01953631234436 0
22.86238480254564 7.609346015835258 0
10.36132144797444 17.13638399734427 0
10.34344345570675 6.010413357595764 0
20.72922097934752 20.36514008615541 0
14.8239462214466 12.77476385578946 0
11.88136986549606 15.77079223023371 0
22.58607807935752 4.01290372157424 0
23.3308919399613 5.561350778682479 0
20.80216213249445 7.329056654766398 0
24.33559970866328 10.96779532096846 0
24.68161034038471 19.76848992525821 0
23.70817310483176 14.64265024588117 0
20.23853544217937 7.288136336984095 0
23.40912154456531 16.94827213837702 0
16.24194129100051 12.75736299326995 0
10.65419385587265 21.52540755491682 0
20.91526482405421 6.498441539837573 0
16.0568636708564 14.01017918842632 0
24.76208371161421 18.10834613860462 0
18.34684734363695 12.73903449149991 0
15.43564349309108 17.23779229958373 0
20.76084132765701 11.80805624001821 0
10.29199085380993 17.93476048733164 0
20.67090179858227 7.057526787268794 0
18.05533033825908 16.00283137252552 0
11.13877865433821 20.209013524136 0
19.97883202273953 19.88496011548202 0
20.62365586755052 17.1721655918045 0
12.45349606349054 22.86256338898443 0
14.08538111124088 12.88675597051174 0
10.64118139070456 8.512311048812174 0
13.52307438578766 6.18506715469727 0
23.80794302229924 17.95074969615175 0
21.47700175736044 6.185160130549682 0
18.57680335901273 15.87757473068954 0
10.81529445511268 7.295413248689859 0
22.04920823987813 7.703833188411738 0
21.04091908747764 16.68416583859311 0
15.53435275354735 12.68604016830068 0
14.14265206954848 13.66901014929171 0
13.63715870220755 7.266137709390602 0
23.13134259372355 16.86165090239277 0
11.57690733052369 21.13754007487844 0
21.30739241124063 14.74461887591299 0
23.87638868494617 5.349049413349663 0
20.32131664637022 11.00272884867991 0
11.34456600989967 3.435638098942655 0
11.48220290199498 6.163184190613067 0
21.54317523783414 6.561682620631439 0
17.60042048401084 19.73690784156271 0
15.22244608496853 19.61832534658535 0
23.60928058425855 3.963460898531185 0
11.64563287088138 9.914493653207119 0
14.1997763697785 7.345121216982652 0
17.64634232961766 19.42192651126971 0
12.4131617064803 12.26908189830679 0
23.36758119113306 11.5006569978108 0
16.05804437070979 13.28497211810939 0
19.42098918525438 21.05243506179981 0
23.51799758706806 6.1629974516459 0
18.02337857730646 17.01202767389206 0
10.91222991887481 10.5871912647668 0
22.70601701084685 9.131440960315956 0
11.9920503291644 19.80219872600125 0
14.00475414072218 18.39496285221711 0
22.51991596410956 6.3944964146272 0
16.96627131093164 14.04672706222914 0
11.42364157140624 17.0211406090983 0
16.44726540967669 21.00842191794064 0
19.63115162638526 13.77996813943732 0
17.97081578299496 20.60415711588446 0
13.03571428301309 2.695909195043192 0
20.23675544435193 7.964746579797942 0
16.68708593236921 22.31323970961811 0
18.14358486931601 13.19740389025794 0
11.05906465542795 19.13744847766578 0
12.47883888252626 6.381017134126095 0
14.20272037651593 16.06145564177084 0
23.90262560411408 4.411562301785125 0
22.80833460842622 6.479721106492866 0
13.63099914053427 6.911476261506508 0
22.47141099178453 12.96000076295144 0
18.2197805191246 19.08980495656499 0
11.33595989785379 19.11598745125355 0
11.03724753406238 3.341847979845526 0
24.71646129607111 14.79323736211514 0
24.08688566646708 16.16151467522488 0
14.90754262447113 14.10925468380842 0
12.81637618958675 6.514596676092803 0
23.96274955638009 3.341794578429909 0
14.32872114276694 22.69149029679954 0
20.781520942171 12.22289764312945 0
12.46422768207456 18.73910004037698 0
21.58685362374611 8.815222279506889 0
12.64379835634973 8.922457538733596 0
17.85714285031339 14.06498105623528 0
15.9939186064428 17.76035726737183 0
24.15432507259017 14.43691400836187 0
10.71623096604893 7.914018069072794 0
14.69362718122281 16.91509387698424 0
14.5140357869801 19.46867386485765 0
10.84570703300639 9.527170921602847 0
14.94204442561325 18.44967004810889 0
10.28929642489135 7.40449126117807 0
17.5980487417531 22.15476518668707 0
18.6964811613406 16.60950871026236 0
20.85066482289137 3.80441154542011 0
11.31375982332978 8.162356349300998 0
22.83435660574957 13.85124378238235 0
21.20147121732338 9.284944274773228 0
19.41082692094261 18.30148864564869 0
21.85820919359617 7.980340204024869 0
22.43283080169647 7.141366636293232 0
21.18524533038312 4.772578542658417 0
20.2214702783021 8.798729726820854 0
20.29214126596364 10.23459460151191 0
21.41583513336786 12.82957303638682 0
10.89045625677312 20.11291918192229 0
22.52903648236409 20.43540740062582 0
18.29227483760144 13.4282846813149 0
18.03571428190872 12.69818993561667 0
23.28039440153892 13.27102278224926 0
24.66537281731965 16.59394593465194 0
23.65314338231069 18.80235545053299 0
13.88765688315788 7.468057204299282 0
20.66536569513554 19.09672392289012 0
21.23043049232607 8.656154714110698 0
19.89368807497932 18.60704428907264 0
15.37622033123927 16.8193916571595 0
20.12944221789271 20.16333759693256 0
23.07231376455967 20.0059116348912 0
22.75570852018889 19.60892546554116 0
24.40071848593493 7.553287554720777 0
17.90145193281438 21.32316528456652 0
23.81469496886777 4.716462363937749 0
15.45486517535316 20.13794140602811 0
20.87885894901421 16.98643661225033 0
13.19575799984514 22.7148449286657 0
15.11328598859233 17.95958544069877 0
13.80752408501713 11.67200052364932 0
10.90546156717776 21.88853970534646 0
10.30158603298051 4.750999485594265 0
10.70285043684525 17.17847194458072 0
16.47198805749239 22.06172136490688 0
13.19075900584814 8.692238424567494 0
10.88793916586738 4.983385244249644 0
18.30506818239051 17.66176321249778 0
24.1133014971905 4.983859844618497 0
23.22751836747854 4.267653701707903 0
11.19423051275089 12.13798610033131 0
21.52139383091086 5.275338689321924 0
20.43674538252975 16.49693141473909 0
20.0384892973205 18.84673729593885 0
20.23554001647963 12.22830897909455 0
21.86935939909695 10.32594365465475 0
24.74243429238536 15.79599606763637 0
23.67947616992292 2.777464676240326 0
14.0313655200709 11.15294472712859 0
22.49299738990397 20.07387979515838 0
22.45592522100772 8.643413235809708 0
10.21405887002284 19.38175210011716 0
23.65411195178173 11.74298360976485 0
17.70707200213869 16.33292158866921 0
23.19236280878014 18.69897252536776 0
21.08568520102286 12.64560530013093 0
21.26770082787822 10.46085478535516 0
24.03580847218293 13.51851327291531 0
22.39728525060607 12.16989457017837 0
24.65827592260391 8.484736329323887 0
12.39159293178581 20.20637542708097 0
20.05775826722632 20.85373033123973 0
12.19230986946184 14.16793058570045 0
16.39522627773406 20.40759123126847 0
18.95939525754115 17.36817389505762 0
12.11306750707195 23.54683210840649 0
12.62818536006108 23.38636889975391 0
23.87049590527927 14.44132970798569 0
14.23917187439132 2.82682303004681 0
10.19585822933687 4.4814996048955 0
15.4348716266336 13.44696224008165 0
10.34584161215106 14.73904319371194 0
14.47471493384059 20.6620518498014 0
11.58450619501789 18.47376650930684 0
23.96922230827925 9.913439277029559 0
13.14153776196092 7.184657090286573 0
22.19106725649206 20.56629202251731 0
22.87339772417923 12.56141675665026 0
13.34139022492382 2.754171546400454 0
14.73707542318908 3.851518937165258 0
21.35337390057286 2.763877700488792 0
10.2081488239658 11.75403223336554 0
22.23440505986231 8.276661342390288 0
19.4494277021985 18.00235425254714 0
21.73235006681161 18.18565817300889 0
24.71707009979443 12.12316351298538 0
24.72575220697624 4.116185431594867 0
15.62119502190394 19.61545102409377 0
16.04183357489497 21.75534981296283 0
23.72181743965979 16.87404469501313 0
12.58348843041631 10.26713399799442 0
16.35317436579322 16.57338736016051 0
24.72056056956184 8.929310558585415 0
11.60557595038635 6.599065979364944 0
12.98777767785155 12.32833143366682 0
14.88016632362896 13.76144047284043 0
10.29275636382906 11.43828153065419 0
23.40339024485569 6.602390744418488 0
12.43322220270358 17.00131745354102 0
21.7851490972008 10.02575790506786 0
11.104094318917 6.864649716161992 0
24.65004885373937 3.275483230048279 0
24.06018774399422 17.78997750847459 0
24.26120967938047 10.33620592084505 0
20.29598005931919 5.16407718835984 0
14.70403252824104 5.164096474234448 0
10.56510214675092 7.009867727409723 0
21.7858872120228 14.49053311032609 0
23.36537930956372 13.00845925559037 0
15.57944363562398 15.98786294344981 0
19.00082670394126 17.76429269418809 0
24.03374644946566 19.62155657750698 0
10.33650187384708 8.108466857997094 0
19.07976307840477 21.60414896575732 0
24.19332934714559 9.794494843547024 0
11.39045523505974 3.96369757346426 0
14.43420136378169 8.990675641640388 0
21.59172255937629 17.85473435189667 0
11.51025293806725 11.02537349383638 0
12.35306178682508 3.390744899783841 0
11.48059897057212 13.31984615426918 0
24.66163753736258 16.16013389260283 0
13.61395556579911 3.963538226309346 0
21.46353822630649 3.886044434317803 0
13.08014000573561 13.34495406683321 0
12.87689200847412 22.43497362144048 0
13.15961971690761 3.269260139841709 0
20.57727469167806 19.75351521103222 0
11.63770963019201 9.014369133183456 0
13.22025528254095 19.51768697509105 0
10.57385466932719 9.381657219313816 0
12.82645415135423 5.959345015499778 0
22.35796741207296 14.62332769240579 0
10.82494972450722 13.61320077931601 0
17.05435227119398 13.25278656486867 0
12.71706882120411 2.816260281839531 0
22.28266498727223 2.816400710150258 0
11.84403489537873 7.325779117486846 0
22.09749739315043 7.344953896586905 0
22.46963438874931 6.055118022939604 0
11.77800874626131 12.86275839673687 0
20.72390873768988 16.69867961669235 0
13.43764457527116 21.16223785195416 0
18.83689941368792 21.1816155841639 0
19.59192167239721 20.45691727583892 0
22.29612129289705 19.20610563147746 0
20.7598629769803 9.356438854244743 0
14.72555410056477 8.775977952739499 0
16.04244152664648 20.65611242981381 0
16.52272182365593 14.20605349671204 0
23.25608860979634 15.32147416300917 0
24.80527221431762 11.79825931172347 0
12.75736193738696 16.5094766913071 0
23.80794509218864 8.731357718121247 0
15.22127451171542 12.73915615197704 0
12.28776185694917 13.18458816966047 0
24.04282943464814 18.84550940092625 0
17.03692801837499 20.47280271937908 0
13.44590001179104 14.1362658424936 0
20.33247740450024 8.200602329473135 0
20.95897153774896 21.11243338394786 0
15.36940316064604 18.70408401967277 0
13.14198650121534 20.22991179417062 0
22.29410425737395 14.10900525290618 0
23.82416454514863 12.68099359875657 0
14.89271082826731 16.64195879215058 0
14.40583274801288 7.523795132738013 0
16.34356193054969 18.02977360996243 0
11.19627736407981 22.06881229526974 0
14.63290288182499 18.80464277172309 0
23.08760955243117 20.32781474692136 0
11.20014039246383 16.16312826882426 0
12.86359319925502 20.54478968637813 0
21.30349715467025 11.88088425634745 0
14.22149764275907 10.87080080788375 0
20.29513020643418 4.722204214781233 0
15.0078503661368 22.07861159089219 0
12.26666240708346 10.10725672108264 0
10.590327156707 7.547982984434562 0
17.34418698353424 16.65036312021269 0
10.93387697849905 8.457041510132438 0
22.15750234232803 10.76895065694139 0
23.4855414008481 11.13584585349863 0
12.64359276965209 3.390639339128501 0
20.66674779590137 10.63071820895722 0
10.27124641961417 16.82854122046225 0
13.56758786487514 9.83825817053606 0
23.886756870322 15.46510039151329 0
14.65589542349915 6.200077957670036 0
19.84831997783063 21.44903167583535 0
21.07900381865344 12.32486738226978 0
12.07169068436264 22.98205477154913 0
13.76822885963966 13.07404769406318 0
17.86672122047517 20.123585652582 0
14.88299713656356 13.13285937020108 0
10.28258451039808 22.65441076259055 0
12.08895015964911 15.21327753895855 0
13.14716112644593 10.1193895841889 0
24.65589863717101 6.012711182440357 0
19.69047228765149 19.30979447852079 0
23.37705748272369 7.815998391441501 0
14.24145501816007 6.153765645562869 0
17.92057795891661 13.71082779404279 0
10.7594786796788 6.072333499319063 0
21.52432066775158 19.86732595318782 0
11.37188559423485 20.27252960197077 0
10.32995933718967 14.09535851529204 0
24.70591313224855 7.103211853133836 0
23.4704183180874 15.10078894024671 0
24.2108645615231 11.91165606081387 0
23.6636684626642 9.850815117090908 0
24.69944149324237 4.715076722755415 0
13.65519529523477 2.764337588090186 0
14.21328162158046 7.891147537705455 0
20.09231513311027 17.98496209928065 0
22.85596874377417 10.14650180241413 0
21.16300235068672 19.50252744880531 0
21.54453222190196 9.855578513787545 0
23.89399713925133 9.2975035149276 0
22.43561540691521 19.54630965141686 0
17.0709046905909 15.88953769796631 0
10.28271025068283 12.47202999202897 0
14.85605225544698 19.27554458701882 0
18.27290684602229 17.32352226773886 0
20.90457319918572 10.78671164605132 0
20.23508301266979 9.738382387749112 0
21.53181573545956 15.01576628730563 0
10.80711761397819 4.360324628570629 0
23.19939660827769 3.144112637066035 0
12.51139613224352 22.55400733863889 0
21.55171671164197 18.49801174008573 0
18.82136538680187 19.62686262801704 0
12.08198413534376 12.39487212322834 0
12.77706413748926 11.08277755997805 0
10.67812334033217 22.17638939110613 0
10.761153320085 20.55347149774592 0
24.81343148484239 3.046875000498663 0
10.84924943689283 18.66184131572536 0
11.04947842532399 11.27856942812067 0
24.316906357896 3.424066732979271 0
11.48885829324705 15.63326123882747 0
22.0184563509661 14.70917840577119 0
11.88885585076592 9.672231834695584 0
18.87166983997527 21.77581273496446 0
14.74493468779153 12.21662993152595 0
24.35179349172862 4.663207380918361 0
13.28316630680666 22.11307116272015 0
12.15888829155293 11.66644598144124 0
10.73026470673875 24.4086858385796 0
11.4812769015446 23.71217692023861 0
11.95545635619971 3.66495536082447 0
23.96791627779576 20.08234894178217 0
14.10980608698937 17.20222731274982 0
23.34942659665312 11.77940233860648 0
22.10447615522286 9.060917595815733 0
12.77705714316184 10.79583973670985 0
14.15985259937691 9.478284168727487 0
16.73185151215127 13.77870079598449 0
24.7571664295855 11.14126766849725 0
23.45520935859737 17.72083745600808 0
13.13203395975087 8.061253852686985 0
23.93627282424015 6.800033691195144 0
11.1872413691739 10.2984085443488 0
23.67789342068217 15.73280796353029 0
21.05685509129415 18.18468296628191 0
12.23427554223031 9.750405769208186 0
14.33228698689752 13.08657965299803 0
11.71375361770815 12.14177549826512 0
23.94696388849359 11.74054351262428 0
19.11696512066813 12.78227244108257 0
21.55356628536726 11.33905374315497 0
21.38941037372973 13.61460119456513 0
21.58610401872631 4.444464464455487 0
24.722812301392 19.43442339515739 0
15.42910694316976 19.02848575565002 0
23.65674008384314 6.941220945411448 0
20.3148922152139 15.69019383483942 0
13.25999564814033 18.58437570806229 0
14.68974540848839 7.505774141589407 0
22.42706533747315 10.11291944034874 0
15.0075411964335 17.50438651943108 0
12.16658509520516 18.17041829626306 0
24.69716374214376 7.430763945814022 0
10.30504607739957 5.644649876852556 0
22.78050247441043 9.524855255427008 0
17.76687330676425 18.65221820645052 0
13.69697468603038 12.36010195196079 0
21.25437303845712 6.368408218450651 0
21.56417770494195 19.2084719037934 0
21.32485332367983 5.909309777881396 0
12.4918019132362 10.6245879100041 0
10.80557020058 23.53159223262615 0
11.8500694124182 22.75822867301025 0
12.03284625302016 20.20586807456979 0
12.76211086786776 6.833359527325011 0
10.89893397740128 14.13686118577001 0
11.30340673497427 16.77351685200215 0
24.34682406874862 16.10652779031736 0
11.94929248444257 7.072048544458101 0
21.61947055622087 13.87471807985298 0
24.40157896491695 8.991992722781479 0
15.77058733864314 16.5703487194342 0
22.77131762838406 11.92080985234354 0
24.19582924031418 7.282555161413617 0
21.65976604495377 5.601351548130182 0
20.31854976565638 21.29655842775007 0
14.40843581630931 9.958511350806873 0
12.80878375573363 3.159059341523021 0
21.99510592021041 20.75873817495039 0
11.95557642157307 20.6018688404281 0
15.70981555664583 21.75365529532921 0
20.64901579514594 21.19203435271548 0
13.91579567723882 22.3434265646806 0
20.21969646806901 11.97839491228116 0
21.83116440881255 11.94073614466594 0
15.69937955723755 18.54028193126241 0
11.1322789438551 23.85960978730046 0
21.72809609122184 20.77671433482898 0
14.17778733580027 20.11653793904057 0
20.08198790431605 13.17962120549284 0
13.86338194892035 20.68136985639444 0
10.28604190229325 15.05303855264357 0
21.78934611366212 11.04839503716572 0
23.51402887196607 14.08059433007918 0
15.81277468689258 22.7869197251388 0
21.19731671255141 4.441000391877041 0
15.84744350249227 22.25397525038464 0
15.25164860703864 21.60813630665359 0
14.07357741308288 22.5732893501019 0
12.15375880750787 3.105889527849842 0
19.61163835543398 17.30866271487871 0
11.81838356579713 7.622670191591842 0
12.69734012728533 9.744091213778459 0
20.90772724049195 18.5274149749186 0
15.50232593974865 21.13619224363391 0
13.66280483193825 10.63943387336952 0
12.1832086092756 14.8443135098533 0
13.45468760686904 6.562449930235486 0
21.61252562275729 16.95046465527286 0
13.48097689976064 16.57068988477735 0
16.33161810900285 19.58525611865737 0
14.69984841319007 18.10625399696969 0
10.27230936056968 18.65335870672774 0
15.08158120382252 15.89395548559773 0
12.06634903234953 17.49121931237444 0
24.40984996235865 19.92122026895053 0
24.20875326525512 9.468311054254892 0
11.59010489066728 21.74380565922985 0
10.28631578316552 8.934009340163593 0
20.31663279936257 14.75406497314115 0
18.02512508608215 18.4002433650718 0
18.53719088679862 19.36699346345915 0
23.1267659777131 9.64056372638616 0
20.22209038535225 9.491352788095483 0
15.30448488538628 22.59917275516089 0
16.72709983246785 20.60857358575329 0
23.28948203651538 8.518845813040913 0
23.00497512291311 10.97135672651698 0
11.67616843901952 14.58216897606622 0
18.15643051689658 16.55685049174082 0
22.82584370157429 14.95769051935853 0
16.19013373398324 17.28529183694802 0
23.61040648536505 19.38312013935305 0
20.79972628761266 9.741423780637158 0
14.35711475856701 11.79640579963009 0
23.65534520825815 3.435563120986799 0
12.39862303252612 7.470513815280989 0
19.59688075043283 16.5028456626988 0
21.35735534914221 7.242269652072093 0
13.49171441806891 5.018046076274978 0
13.69578215741469 3.349481021252048 0
20.2631853374811 3.855471149582403 0
22.73453079624146 15.57698789147228 0
20.46708057249342 18.03500529734171 0
16.57573622115799 19.33545157520371 0
10.66731372479297 14.69445150554416 0
13.98104991550417 16.50739442858342 0
13.38613334630951 7.391368663043746 0
20.50849858095898 12.74719333491043 0
12.25277071901355 22.40036995910545 0
11.55125227782921 15.22381805347243 0
24.45474869563736 15.62858548825349 0
11.45148791415546 24.25959407860879 0
14.80877629561051 11.60714285654037 0
24.74255042303704 6.352357297297241 0
17.85428750223496 21.62783975612886 0
14.34717828643734 4.66327756276418 0
20.64871419293578 4.662103746303148 0
11.1293062301789 10.00130593769864 0
11.75695199633806 19.6267125649886 0
19.02966873364437 13.41779938599669 0
23.89689529957514 10.22421972850962 0
14.17022066925785 14.1034558886652 0
17.13725842291509 18.87432438747166 0
17.39990640366766 20.45565506199078 0
16.30972753527226 22.6245750494786 0
16.67565571999598 13.44079785758441 0
11.14224286698026 21.21803372992847 0
19.60273433569442 13.2289628977933 0
10.96261186397594 18.04151376183121 0
11.03935626739811 21.587286302617 0
11.09165138795716 20.71131492983256 0
10.18597320704792 3.044354839501668 0
18.5315938326476 18.71562789100416 0
12.62313439045549 7.832916468925229 0
21.58958284499716 20.4954005514069 0
24.35033831448441 14.76353506455127 0
22.04993356500716 6.21150698988178 0
12.54138450833455 8.117902145574178 0
12.02435014889442 5.890566835869072 0
22.9760362622654 5.890253067361449 0
14.28303967754699 21.52435682292347 0
10.64069368260433 21.14269898338848 0
24.73207094191928 13.54514371737055 0
11.07507630563449 10.80567969422638 0
16.01091033816452 18.71548586673003 0
13.52348896559656 11.59852396534572 0
22.04809510847952 11.42764738761105 0
14.42115194636794 5.199516120532502 0
20.57846929304858 5.200025285320379 0
20.94789532175865 19.19751516530641 0
10.56101540307812 19.97822943662728 0
22.44484538025971 11.09154163547327 0
11.88308518339297 17.9052062028865 0
10.56806616347355 9.055774947701234 0
17.29284546825418 21.62049723091676 0
11.2731408834358 6.377959818569297 0
19.17002546998427 20.97643660549636 0
23.63318326158813 7.278487649212067 0
12.09208781859498 13.56903565111686 0
23.73269223288405 6.375825131256056 0
11.85551283849803 10.71312093227651 0
23.59526471476882 9.396337913640686 0
10.65258766440606 6.629104254087765 0
12.55038093391451 3.999854490919328 0
10.75703632377098 24.11209942819166 0
11.05117435312949 7.842098450476797 0
13.97580106156374 10.29726288388653 0
21.12100450376743 17.17503581161579 0
21.50214623895231 4.945171058017837 0
22.41198004061613 7.796854642174137 0
22.27451573556009 11.6037011866284 0
16.87342901889146 16.84056397841855 0
15.43029805524826 20.7508309113239 0
11.48530502909568 19.76688053813304 0
11.05869718137828 15.63358930895321 0
24.74370535016076 18.39704744914064 0
24.71136574842001 5.084532599708441 0
20.66940394017264 8.704304781749578 0
21.59601097381489 7.377225080383928 0
23.33838747957002 10.31514586655634 0
14.14487353879299 9.812106539599132 0
14.42881543521012 9.309810143906166 0
10.5771385533382 5.526145872299185 0
12.48800403511177 23.92373488307987 0
24.81803735151809 14.00096011362653 0
17.48463309734055 18.97469750756136 0
11.81556337565785 22.17644989146758 0
13.41199406932835 10.41846576439131 0
15.61375088238566 22.00920654247918 0
13.52765776717614 21.50143975040423 0
20.62055146442772 7.587413341219762 0
22.45986832336499 8.122718922932462 0
12.86456590349639 7.320007661581298 0
11.08675478023266 15.10744494395705 0
12.00130947266381 13.88716386489402 0
13.64274853220095 9.56574096669897 0
12.00265178386857 8.11766142884442 0
21.09818264717628 7.437671375523053 0
23.42061463517436 19.86556113793407 0
20.76037761606232 7.820333001861517 0
24.7679727443263 12.88682020729653 0
13.22162884709346 20.89270563541051 0
14.43737118702444 12.74831204346908 0
22.35447680608778 3.412580482639117 0
21.84922536339849 7.151781866131616 0
13.52339821811548 23.59788385669761 0
20.26988592318047 17.1402787102011 0
24.4411589163051 7.033060591790427 0
19.82142856787083 12.70908998313477 0
11.02388612132385 13.86029725551898 0
23.04570898295521 7.069683148400205 0
22.99386375564352 8.108371533784208 0
20.5592221594804 6.656733686922836 0
11.96185121742534 18.93156792880229 0
20.93329014641215 3.171343080984072 0
23.68242842923442 8.153614986911636 0
10.24140061621268 21.8573426457539 0
12.01146578132442 8.647064169149024 0
13.73252700399473 17.22022158002909 0
10.84937670402873 9.857345138050922 0
12.54104396702192 8.6571373373998 0
15.7885954885847 13.23766072096482 0
18.74999998662868 12.70836442437949 0
21.96428571219628 2.69590919638722 0
16.96428571286855 12.70836442144615 0
15.84809732890492 12.74312356837134 0
11.19887555252161 11.82273947922384 0
23.7214976653014 15.18574306777275 0
22.80755899266238 3.618167222398722 0
22.67123941718109 12.30836602218859 0
10.5723625083974 5.2049429051294 0
18.99863966543676 13.82122158440016 0
16.9095423852558 22.48734540431545 0
13.21801859582381 23.23100067758898 0
11.3866723784506 13.78994717573916 0
24.41454370172294 10.03641192881739 0
21.79049773130921 11.560625833135 0
15.26851626223111 13.19957833864396 0
18.60608378929381 17.23379789855415 0
10.68314145992877 3.423918333076905 0
10.24171997945662 22.34464591134357 0
12.9281920119828 9.3784248320338 0
19.69719184992864 19.87444899319701 0
22.33821957837184 9.194674629126094 0
11.49651750391971 12.32985523572488 0
21.17824128195831 17.50567385375082 0
21.34720876324609 12.2511587202081 0
22.0280144204348 4.133417434287485 0
12.89852259490525 10.3188774878522 0
13.87583553267581 9.037739957822017 0
22.33204276034051 16.57900682922471 0
21.12183213875443 8.1480471014054 0
13.36398885020969 4.520041815677736 0
19.15101042648046 20.10171907376748 0
23.42025325105722 12.73436841207098 0
24.80026115086303 16.90432630933963 0
18.28074437449019 20.43266777412784 0
10.20379757851301 2.741981867055856 0
21.74483025216531 9.446082590775497 0
22.89525986593833 19.16820860091009 0
10.60071936117727 10.42828097215481 0
13.18806707890514 9.551227574944736 0
14.30297077381208 7.066525896107752 0
22.66275789785556 9.983925222868091 0
23.30372416135172 9.43385529056782 0
21.86333778733524 16.82079092989089 0
23.55214177856855 3.699692164441594 0
21.27328408046136 13.09669216623177 0
11.70393259366294 6.910478897230461 0
21.04451319467721 11.35799034565624 0
23.40827072343355 20.33844855349773 0
16.10563059062144 19.87478193674201 0
20.5899068208048 9.047873089721257 0
24.49089339289879 18.55471558670337 0
POLYGONS 4166 16664
3 716 648 1041
3 89 90 1156
3 180 181 1342
3 848 377 1202
3 997 455 924
3 424 997 1039
3 202 203 669
3 654 89 1156
3 47 48 863
3 195 196 645
3 782 649 1954
3 72 1368 2048
3 528 787 951
3 181 881 1342
3 1163 782 1954
3 445 1531 1537
3 1199 459 1237
3 367 1241 1014
3 1453 1234 2091
3 665 969 1320
3 601 934 1501
3 1235 402 1534
3 446 1045 861
3 51 52 702
3 616 882 1986
3 483 1062 415
3 373 908 1765
3 849 333 892
3 908 373 1766
3 693 922 1159
3 1357 334 1862
3 1258 469 1608
3 718 367 1014
3 465 859 1504
3 1316 40 1444
3 510 238 1535
3 552 616 751
3 493 665 1320
3 613 359 780
3 1531 495 1537
3 1759 198 1792
3 1018 614 1895
3 465 845 1986
3 666 953 1142
3 1062 705 415
3 917 385 994
3 1615 314 1625
3 1295 573 363
3 1062 527 1789
3 749 905 1699
3 941 1199 1237
3 845 465 1504
3 1248 749 1172
3 1284 451 1502
3 601 1268 1882
3 307 839 1668
3 1453 478 1234
3 954 99 1768
3 825 166 1079
3 171 828 975
3 104 1303 1297
3 1258 357 1770
3 846 1218 1822
3 1124 1125 1823
3 707 917 994
3 444 1180 964
3 1229 785 1964
3 808 527 1278
3 226 227 1381
3 1366 147 1706
3 754 488 853
3 661 1295 363
3 905 970 1699
3 93 94 1311
3 961 808 1278
3 176 177 936
3 540 640 1065
3 500 1189 651
3 357 1258 1795
3 880 316 958
3 1351 56 1906
3 709 86 1040
3 772 186 1911
3 917 707 889
3 720 441 1544
3 527 1062 1489
3 322 747 1686
3 1069 320 1686
3 809 345 1084
3 184 877 1801
3 859 472 1186
3 74 75 838
3 814 663 783
3 892 333 2144
3 1161 635 354
3 625 1123 1581
3 325 326 1258
3 590 917 1715
3 470 1183 1938
3 1084 345 1294
3 1025 388 1937
3 538 1527 1195
3 602 1279 1626
3 1189 338 651
3 226 1381 1128
3 1180 444 1031
3 469 1258 1770
3 156 770 1603
3 488 754 1064
3 394 273 1418
3 282 750 2004
3 377 1161 354
3 1264 31 1456
3 1017 758 1743
3 1218 893 1822
3 1125 639 1823
3 67 68 955
3 1123 369 1581
3 339 1107 2034
3 417 1011 1004
3 787 528 1748
3 827 616 1986
3 388 1460 1937
3 797 776 1028
3 648 716 1859
3 848 1202 1058
3 1045 684 861
3 1758 699 1150
3 461 1001 1023
3 693 1159 2041
3 831 1388 1299
3 627 1386 915
3 1130 720 1544
3 603 827 1730
3 947 584 2003
3 601 1882 1647
3 785 1229 1817
3 1103 1112 1815
3 1208 334 532
3 749 1248 905
3 717 789 1135
3 1268 601 2057
3 706 37 1496
3 649 1078 1954
3 119 120 1340
3 771 496 1844
3 1386 555 915
3 1388 556 1299
3 890 1739 1642
3 625 763 1123
3 1368 1081 2048
3 9 764 2109
3 424 1039 1672
3 664 1114 2151
3 1009 13 2110
3 789 717 2188
3 1458 403 2143
3 1227 506 1003
3 863 48 1592
3 30 31 1264
3 1154 151 1705
3 1183 735 1938
3 815 963 2044
3 274 841 1083
3 1107 339 1240
3 551 281 1598
3 385 1168 1555
3 835 339 2034
3 377 848 1796
3 1168 620 1555
3 1130 621 720
3 997 480 1039
3 91 694 1156
3 534 801 1867
3 827 845 1730
3 600 765 1591
3 13 281 2110
3 392 996 1152
3 617 1069 1710
3 747 473 1473
3 878 179 1342
3 614 1018 409
3 538 1195 1158
3 485 1103 1815
3 869 412 1773
3 616 552 1533
3 274 9 2109
3 451 2106 1365
3 479 722 1778
3 819 831 826
3 553 1287 1653
3 403 449 2143
3 58 1133 1906
3 1739 607 1642
3 696 1759 1792
3 1638 1793 2126
3 592 867 1407
3 1069 617 1252
3 473 747 1657
3 963 753 2044
3 51 702 1060
3 622 708 1319
3 763 625 1494
3 303 808 1225
3 1241 1357 1862
3 325 1258 1608
3 302 1021 1525
3 432 814 783
3 1381 657 1265
3 669 203 1401
3 1330 1226 1488
3 1502 451 1365
3 682 1538 1449
3 1797 1650 2130
3 116 1101 1978
3 313 314 1615
3 56 57 1906
3 1907 194 1982
3 268 269 1376
3 850 779 1876
3 1001 461 1543
3 1249 899 1985
3 365 1381 1265
3 917 889 1715
3 808 961 1225
3 673 1700 1846
3 729 1107 1240
3 1082 562 1110
3 1114 865 2151
3 970 1326 1468
3 694 703 1675
3 569 1082 1110
3 1078 659 1954
3 1718 1017 1743
3 875 878 1680
3 589 750 2107
3 612 1098 409
3 731 835 2010
3 394 591 1572
3 748 668 1956
3 731 2010 2159
3 479 954 2070
3 632 825 1697
3 1098 612 1358
3 865 748 1956
3 722 479 1826
3 831 819 1091
3 591 394 1622
3 345 809 2094
3 422 1423 962
3 1423 421 962
3 1049 1693 1729
3 750 589 1624
3 1202 438 1058
3 480 997 924
3 472 802 1947
3 506 1227 2167
3 371 1175 1374
3 660 144 1260
3 564 449 1219
3 801 349 1867
3 876 546 1332
3 488 574 2168
3 765 600 2182
3 546 1824 1332
3 710 1758 1150
3 1226 919 1488
3 1703 512 983
3 122 123 1132
3 1052 2018 1304
3 392 1152 2074
3 392 366 801
3 1175 371 1994
3 1729 1693 2041
3 186 187 1911
3 1608 469 1255
3 1538 721 1449
3 484 869 1773
3 372 1264 2135
3 681 513 1527
3 334 1357 532
3 1089 1316 1444
3 489 1280 1670
3 1370 592 1012
3 809 1857 2094
3 739 1907 1982
3 478 1268 1234
3 800 1205 1528
3 899 1249 1181
3 620 1168 2220
3 316 25 958
3 341 771 1844
3 1168 385 1232
3 512 1703 1385
3 578 1869 1922
3 402 1235 2204
3 1328 1195 2111
3 268 1376 2082
3 839 390 1668
3 1005 471 1844
3 527 808 1789
3 1372 1163 2214
3 812 769 1365
3 623 841 2109
3 631 863 1270
3 288 16 513
3 400 802 1967
3 442 996 1645
3 382 1383 1655
3 300 22 1192
3 912 1370 1012
3 256 257 1306
3 1551 391 1850
3 869 441 1683
3 1383 922 1655
3 551 489 2110
3 899 1181 980
3 37 38 1496
3 56 1351 1771
3 199 200 656
3 1015 623 746
3 471 805 1844
3 461 1098 1178
3 779 1195 1328
3 306 307 1668
3 712 1075 1319
3 867 592 1904
3 845 827 1986
3 748 620 2220
3 682 423 898
3 1171 1843 1389
3 874 351 1577
3 663 856 788
3 238 239 1535
3 119 1340 1847
3 1638 623 1793
3 513 599 1527
3 320 1069 1252
3 747 322 1657
3 558 418 1331
3 281 551 2110
3 1543 461 1178
3 636 327 2092
3 244 683 1889
3 150 151 1154
3 841 274 2109
3 802 472 1646
3 418 558 1931
3 738 643 1563
3 808 303 1604
3 1802 800 1528
3 528 1148 1874
3 615 1543 1178
3 1098 585 1178
3 680 561 1707
3 953 666 1858
3 1593 80 1983
3 933 925 1364
3 757 340 1932
3 489 1650 1797
3 1263 517 1372
3 390 1061 1952
3 776 576 1028
3 661 1551 1850
3 1075 622 1319
3 884 549 2063
3 1204 884 2063
3 1142 953 1824
3 472 859 945
3 719 1783 1810
3 332 874 1577
3 691 1264 1991
3 533 453 439
3 243 244 1889
3 574 488 2170
3 1888 112 1281
3 1709 235 1776
3 1700 1204 1846
3 643 738 1335
3 1181 450 980
3 526 673 2148
3 1264 667 1991
3 156 157 770
3 566 873 1025
3 973 599 2160
3 158 777 1486
3 1639 1067 1301
3 190 1898 1339
3 444 1027 1276
3 790 1366 1706
3 1011 1214 1004
3 1011 417 1228
3 969 665 1999
3 451 1284 1602
3 327 636 1678
3 1748 528 1874
3 770 1176 1603
3 302 23 1021
3 546 1142 1824
3 1832 332 1941
3 802 400 1947
3 840 640 1557
3 1179 728 1820
3 235 236 1776
3 1067 346 1301
3 453 347 439
3 561 480 1707
3 764 623 2109
3 1027 990 1276
3 824 940 1635
3 1964 1443 2033
3 1194 429 2073
3 814 432 2062
3 423 682 1449
3 340 757 1840
3 399 1061 1980
3 956 571 1516
3 785 1443 1964
3 489 1009 2110
3 1279 602 1800
3 521 1372 2214
3 517 1262 1372
3 791 768 1920
3 683 471 844
3 873 631 1025
3 468 911 1348
3 7 229 1601
3 1326 424 1468
3 109 110 1440
3 160 161 1441
3 1758 2002 2200
3 1074 448 1827
3 513 16 2160
3 1234 689 2091
3 811 390 1952
3 758 1523 1716
3 1268 478 1882
3 841 623 1638
3 1287 553 1070
3 367 1524 1315
3 332 1248 2060
3 599 513 2160
3 640 540 1080
3 755 1590 2039
3 1177 660 1260
3 70 71 1378
3 9 1831 832
3 1341 593 1578
3 1136 13 1839
3 695 1154 1705
3 228 7 1601
3 489 551 1650
3 1219 449 1726
3 659 1531 1653
3 1007 753 1798
3 946 627 833
3 632 1292 822
3 1843 464 1389
3 1691 578 1922
3 1430 278 2134
3 90 91 1156
3 195 645 1982
3 179 180 1342
3 1351 704 1995
3 282 13 1136
3 732 951 2116
3 9 273 1831
3 366 343 1271
3 863 593 1270
3 971 261 2176
3 1523 575 1716
3 715 1072 1445
3 476 1508 651
3 281 280 1598
3 275 274 1083
3 1149 756 1521
3 859 465 1794
3 1194 2073 1584
3 718 519 1654
3 965 1391 2233
3 858 1608 1255
3 1353 393 1065
3 1141 481 1905
3 332 1577 1941
3 593 914 1578
3 60 61 1120
3 183 184 1801
3 667 1264 1456
3 1619 872 1929
3 2148 673 2243
3 146 147 1366
3 1264 372 1414
3 702 901 1063
3 1098 461 1454
3 623 1015 1793
3 1172 391 2060
3 273 394 1831
3 76 820 1694
3 585 1098 1358
3 750 282 1136
3 1072 435 1445
3 1381 365 1128
3 593 863 1733
3 768 791 1879
3 764 9 832
3 853 488 2168
3 39 1316 1496
3 488 1064 2222
3 86 87 1040
3 1280 489 1797
3 1827 670 1393
3 668 748 2220
3 13 1009 1839
3 688 850 1876
3 43 44 1538
3 839 307 2043
3 1129 1141 1905
3 260 261 971
3 1524 1683 1542
3 825 397 1530
3 954 568 1298
3 855 446 861
3 1929 872 2079
3 441 869 1981
3 1074 1827 1393
3 1061 624 1980
3 697 930 1614
3 1254 982 1489
3 214 897 1396
3 1804 162 1875
3 917 590 1913
3 108 1805 1575
3 874 369 1123
3 880 509 762
3 929 284 2139
3 773 1052 1304
3 321 322 1686
3 320 321 1686
3 757 486 1840
3 584 947 1961
3 278 11 2134
3 1147 718 1654
3 376 969 1127
3 19 293 1188
3 143 144 660
3 11 277 1184
3 1248 332 1832
3 678 1524 1542
3 1607 1000 697
3 663 814 2230
3 761 1147 1266
3 627 946 1243
3 1292 632 1289
3 1508 500 651
3 298 1333 1784
3 466 794 1645
3 623 764 746
3 982 527 1489
3 855 442 843
3 1590 587 2039
3 605 1587 1391
3 16 1842 2160
3 795 366 1271
3 460 1020 2014
3 77 78 1187
3 466 558 1216
3 99 100 1768
3 166 167 1079
3 103 104 1297
3 170 171 975
3 960 918 671
3 543 466 1645
3 921 984 1417
3 794 466 1216
3 472 1947 1397
3 1061 399 1159
3 719 1472 1783
3 951 787 2116
3 553 909 1070
3 1524 678 1315
3 1455 29 1414
3 442 855 861
3 864 1007 1798
3 616 827 751
3 971 1235 1534
3 573 1021 1581
3 887 1615 1625
3 909 1022 1070
3 656 200 1345
3 763 1353 1233
3 93 1311 1436
3 1308 540 1742
3 902 2037 1671
3 779 850 1158
3 561 460 2014
3 936 177 896
3 830 398 1910
3 1610 1230 1711
3 2002 626 2200
3 115 116 1978
3 850 806 1681
3 1499 555 1822
3 1500 556 1823
3 115 1978 1565
3 954 1298 2070
3 825 1530 1697
3 428 902 1671
3 737 1910 2132
3 43 1538 1751
3 1882 1019 1647
3 679 1351 1995
3 485 1184 1103
3 933 841 1505
3 828 831 1299
3 1303 627 915
3 1026 607 1739
3 490 656 2046
3 689 830 1910
3 954 479 1912
3 825 632 2071
3 831 828 1780
3 627 1303 1779
3 498 528 951
3 1001 1543 1949
3 1248 1172 2060
3 656 407 2046
3 711 1472 1914
3 602 1626 1806
3 769 812 1307
3 1009 489 1670
3 1159 413 1952
3 1278 800 1802
3 551 940 1317
3 1557 640 1080
3 353 1341 1578
3 758 1017 1523
3 1141 1129 2144
3 286 1026 1739
3 1184 277 1103
3 893 1499 1822
3 639 1500 1823
3 468 1348 1402
3 922 1383 1293
3 359 613 1909
3 367 718 1562
3 901 956 1516
3 562 895 1334
3 114 115 1565
3 300 1192 2038
3 434 702 1063
3 1074 758 1716
3 961 1278 1802
3 903 1094 1409
3 835 731 2027
3 841 933 1083
3 284 14 2139
3 538 850 1681
3 1391 427 2233
3 1165 1593 1983
3 448 1074 1716
3 283 282 2004
3 1898 907 1339
3 838 75 1694
3 940 551 1598
3 273 272 1418
3 952 867 1010
3 359 1321 1785
3 202 669 1554
3 540 1308 1080
3 725 498 951
3 186 772 1786
3 1186 472 1397
3 338 1189 1193
3 458 952 1010
3 1061 1159 1952
3 702 52 813
3 665 493 1421
3 1118 817 1681
3 2003 584 2178
3 1092 1935 2101
3 67 955 1272
3 1797 1975 784
3 457 903 1409
3 1752 613 1237
3 806 1118 1681
3 57 58 1906
3 1143 836 2179
3 1379 289 1946
3 446 855 1857
3 1017 429 1523
3 246 247 981
3 836 1143 2019
3 1585 685 1800
3 895 562 1927
3 772 422 1786
3 849 423 1449
3 955 68 1099
3 609 1888 1281
3 932 487 2056
3 777 430 1486
3 1473 745 1902
3 385 917 1246
3 486 757 1855
3 369 874 1282
3 1797 1032 1975
3 963 476 651
3 963 338 1798
3 459 1752 1237
3 192 193 1066
3 47 863 1613
3 270 1455 1948
3 397 825 1079
3 568 954 1768
3 477 1179 1820
3 562 709 1110
3 468 897 1688
3 1501 934 2002
3 95 1835 988
3 1836 175 1313
3 1264 691 2135
3 1021 573 1525
3 1376 759 2082
3 925 933 1505
3 787 1563 1730
3 1914 1472 852
3 354 635 1652
3 782 355 1700
3 293 292 653
3 1131 583 2090
3 999 619 1259
3 1524 367 1562
3 1133 59 985
3 1820 728 1840
3 1353 763 1494
3 820 379 1694
3 422 772 1160
3 338 963 651
3 750 1136 2107
3 877 422 962
3 1758 381 2002
3 686 1466 1567
3 1731 1606 2100
3 599 973 1090
3 925 482 1364
3 353 1578 815
3 1181 534 1390
3 882 616 1620
3 11 1184 2134
3 1419 351 1557
3 154 155 989
3 307 308 2043
3 645 842 1394
3 842 645 854
3 863 631 1613
3 475 694 1675
3 2014 1020 2207
3 874 332 1282
3 1117 400 1967
3 487 909 2056
3 74 838 1812
3 1629 650 1854
3 740 1173 1979
3 758 1074 792
3 922 693 1655
3 1426 549 1479
3 1831 394 1572
3 728 1179 1004
3 1227 2066 2104
3 753 963 1798
3 1101 116 1054
3 333 849 1674
3 363 573 1581
3 705 1062 1789
3 878 633 1680
3 351 874 840
3 705 1525 415
3 1194 1229 1964
3 1569 714 756
3 37 706 1360
3 374 1540 1611
3 20 303 1225
3 642 914 1733
3 1336 458 1010
3 99 954 1912
3 166 825 2071
3 828 171 1780
3 1303 104 1779
3 1467 361 1971
3 709 562 1459
3 645 196 854
3 354 1652 2114
3 747 1473 1902
3 588 697 1614
3 1427 394 1418
3 1742 1055 1274
3 1039 480 1150
3 258 1118 1435
3 344 880 958
3 458 1336 1845
3 1333 298 1137
3 750 1989 2004
3 601 1501 1134
3 683 244 1196
3 416 1006 1536
3 717 1519 1545
3 940 824 1317
3 344 1308 1742
3 657 1381 1973
3 384 1037 1545
3 338 864 1798
3 1311 94 988
3 431 1333 1137
3 1007 1130 829
3 1006 374 1791
3 488 1041 2170
3 176 936 1313
3 422 877 1574
3 1064 335 2222
3 924 455 1971
3 1519 384 1545
3 511 824 1635
3 1485 657 2045
3 951 732 522
3 1525 573 415
3 455 997 1326
3 1336 431 1845
3 1645 996 2156
3 1321 701 1495
3 708 622 2050
3 1147 761 1562
3 1531 445 1548
3 880 344 2067
3 714 1569 2131
3 602 1585 1800
3 1731 408 1606
3 981 247 1212
3 711 1017 1718
3 499 886 1274
3 1891 373 1509
3 753 1007 829
3 863 1592 1733
3 1587 427 1391
3 1406 1185 1495
3 972 1400 2096
3 1793 685 2126
3 1131 1057 2193
3 1101 818 1913
3 1173 517 1979
3 1258 326 1678
3 908 1162 1765
3 914 593 1733
3 1131 2090 1452
3 152 153 968
3 1162 530 1765
3 1235 971 2176
3 344 1742 1274
3 401 883 1661
3 1057 1610 2193
3 701 1321 1909
3 741 449 1848
3 701 1406 1495
3 450 1536 1151
3 48 49 1592
3 1396 1375 2155
3 966 507 2124
3 1321 359 1909
3 769 596 1365
3 818 1101 1054
3 1517 658 2195
3 1719 374 1611
3 655 1557 1080
3 905 1248 1832
3 1081 966 2124
3 513 681 1946
3 476 963 815
3 468 1375 1396
3 362 1224 2003
3 658 1400 2195
3 923 1090 1549
3 1265 657 1493
3 650 1629 2196
3 1032 1797 2130
3 1531 553 1653
3 1062 348 1489
3 1224 947 2003
3 1189 24 1193
3 531 1693 1861
3 50 51 1060
3 387 1094 1714
3 486 1820 1840
3 748 865 2166
3 1057 1230 1610
3 886 499 2030
3 984 921 1989
3 918 960 1427
3 1412 650 2196
3 288 513 1946
3 1249 1985 2156
3 508 1330 1488
3 717 1545 2188
3 1438 634 2231
3 1353 1065 1233
3 1352 537 1029
3 246 981 1943
3 901 702 813
3 509 926 1696
3 350 960 671
3 799 700 2063
3 984 637 1417
3 405 1164 1359
3 1813 675 1843
3 153 1859 968
3 1842 973 2160
3 650 1481 1854
3 1092 646 1935
3 955 1438 2231
3 811 2039 2076
3 629 1813 1843
3 699 1039 1150
3 2096 1400 1834
3 1094 387 1409
3 86 709 1459
3 1675 569 1110
3 549 799 2063
3 38 39 1496
3 926 509 1093
3 1847 1340 1816
3 154 989 1663
3 882 546 1344
3 708 899 980
3 339 835 2027
3 258 259 1118
3 549 884 1479
3 351 840 1557
3 1308 344 958
3 16 295 1842
3 1721 443 2169
3 710 561 2014
3 1132 123 1410
3 407 656 1345
3 1308 655 1080
3 333 1674 1266
3 1333 431 1269
3 1179 417 1004
3 450 1181 1390
3 238 510 2017
3 1608 858 1849
3 1674 412 1266
3 421 1680 962
3 1164 464 1359
3 342 789 2188
3 886 344 1274
3 811 375 2039
3 65 66 1161
3 987 696 2000
3 531 1361 1922
3 911 337 1348
3 490 987 2000
3 761 869 1683
3 588 1607 697
3 1030 797 1421
3 918 1427 1418
3 330 27 1166
3 1910 398 2132
3 801 534 1478
3 1132 1410 1109
3 914 642 1325
3 1989 921 2004
3 585 998 2157
3 1295 483 415
3 976 579 1626
3 621 1130 1576
3 877 184 1574
3 429 1017 2073
3 999 638 1535
3 1410 586 1109
3 899 708 2050
3 1115 1124 1324
3 930 1599 1614
3 2026 1310 2159
3 943 1804 1875
3 1805 910 1575
3 558 466 2051
3 1279 976 1626
3 372 1455 1414
3 580 1333 1269
3 430 777 1323
3 1386 846 1822
3 1388 1124 1823
3 997 424 1326
3 509 886 1093
3 431 1336 1269
3 1306 257 1435
3 1247 768 1791
3 1161 66 1272
3 856 663 1085
3 657 1601 2045
3 1783 712 1810
3 58 59 1133
3 677 1809 2001
3 455 1127 1999
3 343 366 2040
3 392 801 1478
3 659 1653 2214
3 423 849 892
3 1324 1124 1387
3 1227 1003 2066
3 449 564 1848
3 1336 580 1269
3 994 385 1555
3 390 839 1865
3 952 560 1407
3 1675 703 1637
3 875 1680 2065
3 1023 1001 1991
3 1285 563 2086
3 437 885 2087
3 373 1619 991
3 1061 390 1690
3 857 994 1555
3 537 1315 1029
3 580 1336 1988
3 1536 1174 1151
3 867 952 1407
3 1538 682 1751
3 334 1208 1586
3 221 222 1155
3 1693 1049 1861
3 573 1295 415
3 1460 388 1773
3 700 1154 1846
3 1333 580 1930
3 1030 493 1450
3 1007 375 1056
3 1112 1209 995
3 434 1508 1325
3 405 345 1661
3 1096 317 2049
3 1462 686 1050
3 1460 412 1674
3 847 730 976
3 1126 890 1725
3 55 56 1771
3 793 1501 2141
3 1501 381 2141
3 1947 803 1397
3 690 1247 1791
3 673 526 1437
3 1072 715 978
3 1127 969 1999
3 535 927 1371
3 707 927 2077
3 263 264 630
3 839 677 1865
3 412 1460 1773
3 1591 765 1034
3 704 1351 1906
3 555 1298 915
3 556 1530 1299
3 1085 606 1845
3 787 1748 1563
3 22 299 1817
3 1107 729 1458
3 1426 790 1471
3 672 1179 1833
3 1668 390 2076
3 1776 1206 1407
3 560 1776 1407
3 730 847 1446
3 247 248 1212
3 494 1111 1064
3 208 209 1314
3 493 1030 1421
3 122 1132 1568
3 70 1378 1302
3 969 376 1807
3 1162 266 1200
3 1229 1194 2216
3 504 1005 1720
3 549 1426 1471
3 1386 627 1243
3 1846 1154 2243
3 189 938 2147
3 592 1407 2105
3 1644 965 2233
3 762 509 1696
3 992 1448 1718
3 481 1141 1993
3 1888 609 1901
3 960 597 1901
3 655 1308 1976
3 360 708 980
3 1519 1016 778
3 1357 537 1464
3 366 795 2115
3 1922 1361 1641
3 1341 353 1275
3 866 1030 1450
3 1112 995 1415
3 533 418 1931
3 743 1475 1114
3 416 1687 2061
3 856 431 1137
3 614 1261 1895
3 1112 1082 1815
3 366 392 2074
3 349 801 2115
3 966 1081 1621
3 1090 923 2111
3 145 146 1636
3 783 663 1754
3 1263 521 1984
3 866 1096 2049
3 718 1147 1562
3 39 40 1316
3 1725 890 1669
3 904 846 1451
3 411 418 1477
3 480 561 1150
3 21 856 1137
3 1367 443 426
3 999 1535 1860
3 1388 831 1091
3 1001 691 1991
3 418 411 1331
3 563 1285 1451
3 1524 761 1683
3 1423 890 1642
3 393 1353 2038
3 395 960 1901
3 926 734 1696
3 691 1001 2016
3 897 214 1676
3 1670 1280 983
3 1440 110 1490
3 777 396 1323
3 927 535 2163
3 594 1263 1984
3 814 1367 426
3 1034 765 2140
3 1127 455 1326
3 256 1306 1384
3 613 780 1237
3 620 1462 1050
3 351 1419 1926
3 665 1467 1971
3 1005 496 1720
3 1017 711 1914
3 160 1441 1539
3 491 1721 2169
3 210 211 1044
3 345 401 1661
3 460 561 2217
3 146 1366 1636
3 380 529 1134
3 857 1487 1960
3 694 475 1156
3 755 1193 1590
3 640 840 1233
3 1102 1395 1224
3 158 159 777
3 400 1117 913
3 857 1076 1487
3 1258 1678 1795
3 633 878 1342
3 1431 754 2149
3 1455 372 1948
3 1111 335 1064
3 766 524 1244
3 1133 672 1833
3 486 364 1820
3 996 392 2093
3 586 1273 1874
3 1101 1913 1866
3 1006 416 2061
3 610 1310 2026
3 652 679 1398
3 1451 846 1520
3 324 1608 1849
3 626 1199 1777
3 352 1122 1777
3 1766 373 991
3 1022 909 1853
3 1466 505 1965
3 509 880 2067
3 1273 738 1874
3 524 492 1244
3 1430 1405 1251
3 111 112 1888
3 1165 1903 1593
3 554 1116 2205
3 187 188 1911
3 703 694 1356
3 1026 286 1597
3 1169 585 2157
3 1713 1254 1489
3 993 81 1550
3 679 1116 1398
3 370 1736 823
3 79 80 1593
3 1585 937 1903
3 878 875 1747
3 293 653 2009
3 22 1817 420
3 929 2025 1972
3 213 214 1396
3 1502 596 1887
3 512 1670 983
3 1039 699 1672
3 595 1072 978
3 24 304 1193
3 725 951 522
3 686 1462 2212
3 669 851 1803
3 1336 1010 1988
3 1527 599 1195
3 373 1765 1509
3 1845 606 1919
3 909 553 2056
3 1691 454 1377
3 1013 1221 2026
3 546 882 1892
3 1661 883 2227
3 530 1162 1200
3 1736 370 995
3 425 1585 1903
3 611 1020 1474
3 851 669 1401
3 684 1045 2040
3 1076 857 1735
3 1006 1791 2142
3 530 1200 1949
3 676 387 1420
3 694 91 1356
3 1194 518 2216
3 179 878 1747
3 504 1411 1594
3 525 1922 1641
3 1395 1102 1900
3 364 486 2129
3 570 1223 1699
3 704 1133 1833
3 197 198 1759
3 597 1888 1901
3 830 544 1915
3 821 797 1028
3 505 1466 2032
3 1120 61 1921
3 1700 673 1437
3 768 1247 1920
3 1448 711 1718
3 431 856 1085
3 2150 1234 1482
3 459 1199 1522
3 1745 641 1043
3 1121 483 1963
3 1911 188 2147
3 686 1567 1685
3 396 984 1323
3 391 1172 1035
3 60 1120 985
3 1843 675 1349
3 591 902 1679
3 466 543 1673
3 1341 388 2099
3 1501 793 2122
3 1067 589 1256
3 699 1122 1672
3 364 554 2205
3 887 762 1696
3 447 1738 1725
3 1340 120 977
3 562 1082 1927
3 620 748 1498
3 296 676 1420
3 754 853 2149
3 1327 1695 1346
3 702 434 916
3 683 844 1889
3 387 676 1409
3 2025 639 1972
3 1719 624 1865
3 188 189 2147
3 1835 959 988
3 1738 447 1945
3 265 266 1162
3 1089 1708 1935
3 1508 434 1871
3 572 1836 1313
3 1208 532 2018
3 1010 867 1904
3 897 468 1396
3 1687 1540 2061
3 28 271 0
3 1375 608 2113
3 1187 78 1442
3 1405 893 1251
3 1000 1607 1987
3 648 2161 2170
3 894 1569 756
3 815 1578 1658
3 889 707 2077
3 1695 900 1346
3 648 989 2161
3 1046 944 1682
3 1166 1036 1558
3 1049 1729 1541
3 1913 590 1866
3 984 582 1323
3 418 533 2224
3 1084 433 2125
3 337 911 2023
3 1319 708 1737
3 595 1033 1664
3 1729 870 1541
3 537 1357 1829
3 1002 1847 1816
3 674 1010 1904
3 389 1724 1359
3 696 987 1582
3 555 1386 1822
3 556 1388 1823
3 45 873 2042
3 124 125 1273
3 319 320 1252
3 322 323 1657
3 807 1466 1965
3 594 830 1915
3 1601 657 1973
3 1259 504 1594
3 1423 422 1160
3 1007 864 1416
3 756 714 1521
3 1708 523 1935
3 1087 136 1711
3 376 905 1832
3 679 652 979
3 190 191 1898
3 974 502 1950
3 221 1155 2226
3 1223 749 1699
3 413 922 1293
3 922 413 1159
3 885 437 1704
3 628 891 1338
3 286 15 1597
3 533 439 1588
3 911 581 2023
3 409 1018 1934
3 432 1265 1493
3 1615 887 2059
3 1116 679 1995
3 1700 355 1465
3 1015 746 1374
3 1791 768 2142
3 374 1006 2061
3 593 1341 1270
3 713 782 1700
3 348 1713 1489
3 1179 477 1833
3 746 371 1374
3 543 1645 2156
3 289 288 1946
3 1244 907 1898
3 582 984 1989
3 960 395 1427
3 388 1341 1275
3 464 1843 1349
3 934 601 1647
3 266 267 1200
3 835 1068 2010
3 2015 349 2115
3 847 503 1837
3 1263 594 2234
3 41 42 898
3 496 1005 1844
3 1118 806 1435
3 2018 454 1304
3 1200 759 1949
3 1193 304 1590
3 1116 554 1398
3 1159 399 2041
3 1903 937 1593
3 592 1370 1904
3 485 974 1950
3 612 409 1934
3 1016 1566 778
3 82 83 1732
3 1472 711 1783
3 891 607 1338
3 708 360 1737
3 1082 569 1815
3 972 1412 1605
3 1675 1110 2210
3 419 1812 1689
3 336 1046 1682
3 1122 699 1777
3 1487 1217 1960
3 216 217 769
3 1370 674 1904
3 1809 690 2001
3 687 1745 1043
3 629 683 1196
3 1351 679 2075
3 15 285 1115
3 578 1691 1377
3 632 1500 1289
3 344 886 2067
3 1068 835 1546
3 635 1161 1272
3 1812 838 1689
3 874 1123 840
3 421 1423 1642
3 4 1046 1143
3 656 490 2000
3 109 1440 1805
3 1441 161 1804
3 1145 516 1043
3 1183 400 913
3 1349 389 1359
3 676 296 1959
3 869 484 1981
3 962 1680 1939
3 28 29 1455
3 846 1386 1520
3 1124 1388 1387
3 1167 113 1565
3 289 1379 1825
3 886 509 2067
3 1699 970 1468
3 2051 466 1673
3 775 1022 1853
3 586 1148 1109
3 677 1719 1865
3 1027 444 964
3 608 1044 2113
3 1378 71 2048
3 2097 456 2100
3 1310 688 1876
3 310 311 1247
3 1261 667 1456
3 480 924 1707
3 1306 1435 1503
3 1493 657 1811
3 1379 681 383
3 308 309 1809
3 864 338 1852
3 364 2129 2165
3 81 82 1550
3 1133 704 1906
3 425 925 1505
3 1173 740 1236
3 521 1263 1372
3 203 204 1401
3 641 1145 1043
3 1072 595 1734
3 970 1127 1326
3 479 1499 1826
3 1383 621 1293
3 471 683 1649
3 681 1379 1946
3 1381 227 1973
3 674 1370 1916
3 1010 674 1988
3 789 1567 1135
3 348 1062 1677
3 2039 587 2076
3 270 271 1455
3 788 856 942
3 276 10 1209
3 766 1244 1898
3 12 287 1126
3 698 652 2058
3 72 73 1368
3 1173 641 1745
3 8 279 904
3 927 707 1371
3 45 46 873
3 630 264 2154
3 375 1007 1416
3 386 1395 1088
3 1791 374 2001
3 1370 912 1556
3 1563 603 1730
3 1211 817 1534
3 461 1023 1454
3 817 1211 2028
3 1314 209 2171
3 720 621 1383
3 449 741 2143
3 82 1732 1550
3 1062 483 1677
3 1880 384 778
3 124 1273 1410
3 1717 1111 1684
3 337 1223 957
3 375 811 2189
3 506 1037 1446
3 1142 452 1630
3 477 1820 2205
3 1688 897 2106
3 402 1211 1534
3 1013 2026 1231
3 1587 605 1571
3 824 492 1317
3 786 1072 1734
3 902 539 1994
3 507 966 1566
3 1134 1501 2122
3 966 1880 778
3 733 1067 1385
3 324 325 1608
3 759 1376 2016
3 1843 1171 2127
3 1036 1166 1762
3 361 924 1971
3 347 453 1215
3 1059 741 1848
3 1009 1656 1839
3 2040 1045 2242
3 731 1310 1876
3 797 1030 767
3 683 629 1649
3 1376 691 2016
3 672 1133 985
3 503 847 1492
3 944 660 1612
3 577 986 1157
3 619 844 1761
3 752 336 1755
3 1068 1059 1095
3 1059 435 1095
3 1591 888 1088
3 397 565 975
3 565 397 1079
3 568 774 1297
3 774 568 1768
3 1405 1430 1507
3 474 456 2047
3 19 1188 1373
3 727 1190 1586
3 1038 1914 852
3 1448 992 547
3 1259 619 1559
3 330 1166 1573
3 529 380 1236
3 521 1653 1984
3 1406 701 967
3 381 1501 2002
3 1037 506 2167
3 1223 570 957
3 559 1485 1951
3 467 1466 2212
3 205 206 1220
3 1189 500 1596
3 1020 611 1970
3 456 474 2100
3 996 442 1152
3 1466 686 2212
3 1122 352 1526
3 1653 1287 1984
3 532 1357 1464
3 600 932 2182
3 335 1111 1717
3 534 1181 1478
3 622 1253 2050
3 844 471 1761
3 456 18 2047
3 638 999 1259
3 974 703 1213
3 1436 1311 1213
3 827 603 751
3 53 54 956
3 936 896 1928
3 192 1066 2084
3 647 1003 1837
3 875 891 1928
3 1076 1050 1685
3 1050 686 1685
3 204 1354 1401
3 809 1077 2055
3 1643 1149 1521
3 1935 523 2101
3 1078 649 1506
3 986 803 1157
3 1155 1254 2226
3 1615 2059 1753
3 502 974 1213
3 1181 1249 1478
3 754 1431 1627
3 2025 929 1704
3 948 467 1250
3 1667 764 832
3 1129 1708 892
3 891 628 1928
3 630 908 1766
3 1462 620 1498
3 721 1460 1666
3 687 884 1917
3 1082 1112 1415
3 544 2150 1482
3 1199 352 1777
3 271 28 1455
3 299 298 1784
3 210 1044 2171
3 135 136 1087
3 1820 364 2205
3 667 1261 1153
3 1627 536 2140
3 1007 1056 1576
3 1241 879 1014
3 117 118 1051
3 1286 500 1871
3 734 926 2209
3 500 1508 1871
3 735 1183 913
3 1466 467 2032
3 467 948 2032
3 539 1175 1994
3 944 1046 1744
3 948 505 2032
3 841 1638 1505
3 987 490 775
3 836 2019 2098
3 654 475 1040
3 1190 334 1586
3 890 1423 1669
3 487 1337 1853
3 597 1440 1490
3 113 114 1565
3 518 1194 1584
3 1289 1500 2025
3 911 468 1688
3 624 1061 1690
3 1191 494 1702
3 499 1472 2030
3 201 202 1554
3 1703 733 1385
3 1492 1279 1097
3 1493 559 2062
3 1299 1530 2185
3 915 1298 1432
3 1896 1322 2080
3 1376 269 1948
3 17 289 1825
3 932 445 2182
3 1429 674 1916
3 2037 1622 1571
3 932 600 1900
3 1650 551 1317
3 1551 332 2060
3 1188 293 2009
3 806 850 1503
3 715 1084 2125
3 199 656 1792
3 1314 359 1785
3 633 881 1801
3 583 1131 1969
3 1348 337 1422
3 691 1376 2135
3 1337 987 1853
3 517 1173 1745
3 1185 1406 1600
3 1526 570 358
3 380 1173 1236
3 1361 531 1974
3 1191 1627 2140
3 1441 396 1539
3 294 19 1872
3 18 456 1633
3 121 1568 977
3 1395 386 2128
3 1887 1121 1963
3 263 630 1071
3 698 1896 2080
3 535 1371 2104
3 1466 807 1567
3 1205 800 810
3 453 760 1215
3 391 1035 1908
3 799 549 1471
3 950 752 1755
3 1624 1639 1987
3 1579 514 1469
3 802 1932 1967
3 788 297 1420
3 1857 809 2055
3 432 1714 1856
3 1824 497 1332
3 65 1161 1796
3 1109 1148 2137
3 1037 730 1446
3 653 804 1283
3 850 688 1503
3 1472 719 2030
3 1577 351 1926
3 760 2051 1673
3 570 1468 358
3 465 876 1794
3 924 361 2238
3 2056 553 1548
3 674 1429 1988
3 1182 402 2204
3 1469 514 1570
3 776 26 1380
3 347 598 547
3 561 680 2217
3 1453 851 1245
3 1090 515 1549
3 501 807 1942
3 1067 1256 1385
3 519 718 1014
3 1679 902 1994
3 925 1165 2153
3 1869 531 1922
3 910 1285 2086
3 885 943 2087
3 1814 407 2206
3 591 1622 2037
3 818 1232 1246
3 508 501 1942
3 1234 1268 1482
3 327 328 2092
3 1138 1186 1397
3 32 33 1261
3 998 585 1358
3 1232 385 1246
3 1502 1887 2198
3 798 821 1028
3 482 925 2153
3 478 1453 1245
3 1046 4 1744
3 714 935 1048
3 494 1191 1782
3 908 630 2154
3 2106 812 1365
3 1435 806 1503
3 1180 1314 2171
3 1624 589 1639
3 1525 705 1632
3 1211 402 383
3 1175 647 1374
3 1108 1037 2167
3 907 824 1363
3 1155 800 982
3 1426 516 1924
3 923 1328 2111
3 1460 721 1937
3 1419 1557 1497
3 387 788 1420
3 790 1426 1884
3 1461 133 2195
3 407 1554 2206
3 4 1143 2179
3 1440 350 2118
3 475 654 1156
3 1005 504 1559
3 637 1441 2119
3 824 511 1363
3 548 498 1144
3 77 1187 820
3 1826 1499 1405
3 883 401 1893
3 1170 1059 1848
3 1285 350 671
3 637 885 1417
3 1148 586 1874
3 888 1703 983
3 1273 125 1335
3 657 1485 1811
3 453 533 1931
3 1102 932 1900
3 797 821 1467
3 1148 528 2035
3 1622 394 1427
3 881 633 1342
3 743 1148 2035
3 998 474 2047
3 750 1624 1989
3 25 317 1096
3 2019 576 2098
3 598 1448 547
3 505 948 1790
3 937 1187 1442
3 1253 1985 2050
3 1475 743 2158
3 1265 432 1856
3 1920 312 1564
3 681 1211 383
3 1929 17 1825
3 359 1314 1031
3 1049 1541 2015
3 1184 796 2134
3 1257 518 1584
3 482 1736 1364
3 483 1295 1963
3 1612 939 1682
3 1569 410 986
3 580 1988 1362
3 1738 511 1635
3 409 1098 1454
3 316 880 726
3 1959 961 1623
3 338 1193 1852
3 1247 690 1434
3 851 1453 1803
3 791 1920 1564
3 1170 1848 1763
3 703 1436 1213
3 676 1959 1623
3 1042 1285 671
3 291 998 2047
3 885 724 1417
3 782 1163 2229
3 498 725 1144
3 677 839 2043
3 896 875 1928
3 1708 423 892
3 265 1162 2154
3 333 1266 2089
3 1440 597 1198
3 1273 586 1410
3 396 1441 1480
3 693 1869 862
3 1086 1011 1228
3 1516 571 2164
3 712 1319 1810
3 1736 744 1364
3 278 1430 1251
3 514 1474 1612
3 148 799 1706
3 308 1809 2043
3 692 630 1766
3 478 1245 1470
3 592 2105 1201
3 1563 643 2064
3 1073 1738 1635
3 30 1264 1414
3 479 1778 1912
3 632 822 2071
3 826 831 1780
3 833 627 1779
3 1044 1180 2171
3 516 1426 1756
3 1932 340 1967
3 898 42 1751
3 630 692 1071
3 350 1440 1198
3 1441 637 1480
3 1168 1232 1242
3 1245 1406 1470
3 1012 592 1201
3 532 454 2018
3 1066 766 2084
3 310 1247 1434
3 559 1367 2062
3 536 1627 1838
3 2066 535 2104
3 454 532 1464
3 2124 507 1830
3 1235 1071 2204
3 400 1183 1157
3 581 911 1767
3 208 1314 1785
3 865 1114 1886
3 1474 939 1612
3 652 698 2080
3 1487 1076 2191
3 411 1477 1389
3 1266 1147 2089
3 1348 1422 1757
3 1713 348 1821
3 127 128 1424
3 844 242 1889
3 1066 193 1907
3 463 1606 2112
3 390 811 2076
3 814 426 2230
3 1988 1429 1362
3 1400 972 1461
3 614 409 1454
3 223 1205 810
3 685 1585 2126
3 780 359 1031
3 1612 660 1570
3 2129 1036 2165
3 1485 230 1951
3 799 148 1925
3 746 764 1667
3 971 817 1318
3 788 387 1754
3 1472 499 852
3 800 1278 982
3 604 1679 1667
3 577 1569 986
3 377 354 1938
3 1021 23 2221
3 705 1604 1632
3 652 2080 2164
3 992 439 547
3 162 163 1875
3 1190 294 1872
3 107 108 1575
3 1211 681 2012
3 294 1190 2172
3 284 929 1972
3 1579 860 1924
3 615 1891 1509
3 876 414 1794
3 873 566 2042
3 444 780 1031
3 571 979 2164
3 1165 925 1903
3 414 1646 945
3 1213 1311 2029
3 666 1142 1630
3 935 577 1818
3 856 21 942
3 936 1928 1312
3 1143 798 2019
3 1199 626 1522
3 902 428 1775
3 805 341 1844
3 497 1855 1463
3 19 1373 1872
3 1094 903 1856
3 800 1155 810
3 1475 2158 1897
3 1407 1206 2105
3 1288 1166 1558
3 1485 559 1811
3 542 2026 2159
3 68 69 1099
3 1848 564 1763
3 689 1910 2091
3 539 902 1775
3 1254 1155 982
3 546 876 1344
3 601 1134 2057
3 1148 743 2137
3 1009 1670 1656
3 2091 1910 1774
3 194 195 1982
3 1316 646 1496
3 900 1033 978
3 439 347 547
3 1193 755 1852
3 1382 952 1919
3 700 799 1925
3 361 950 2238
3 502 1213 2029
3 652 1398 2058
3 1858 330 1573
3 254 1221 2095
3 1656 1140 1839
3 1653 521 2214
3 703 974 1637
3 1099 69 1302
3 244 245 1196
3 353 2044 2123
3 1928 628 1312
3 414 876 1332
3 663 788 1754
3 1606 706 2112
3 974 485 1439
3 212 1375 2113
3 711 1448 1701
3 869 761 2184
3 805 471 1649
3 884 1204 1465
3 517 1263 1979
3 891 875 2065
3 1314 1180 1031
3 1752 1019 967
3 219 220 1713
3 1880 966 1621
3 329 330 1858
3 1033 595 978
3 607 891 2237
3 1166 27 1762
3 1190 727 2172
3 952 458 1919
3 998 291 2157
3 935 714 2131
3 1246 917 1913
3 1619 373 1891
3 1679 371 1667
3 1162 908 2154
3 2152 668 1816
3 1386 1243 1520
3 1736 550 823
3 1429 2120 1362
3 950 361 1277
3 884 687 1479
3 36 37 1360
3 1187 2133 1806
3 1205 223 1609
3 500 1286 1940
3 1230 1087 1711
3 1918 737 2132
3 1831 604 832
3 1140 1136 1839
3 1368 73 1812
3 1477 1171 1389
3 2133 602 1806
3 2166 865 1886
3 132 133 1461
3 571 956 2021
3 1256 1140 1656
3 1161 377 1796
3 1163 1954 2214
3 368 1319 1737
3 693 1693 1869
3 928 380 2122
3 554 364 2165
3 1985 543 2156
3 1607 430 1323
3 1057 1131 1452
3 125 126 1335
3 1587 609 1329
3 738 1273 1335
3 577 935 2131
3 1295 661 1369
3 2120 575 1362
3 824 907 1244
3 1053 554 1762
3 872 1619 1891
3 906 1825 1728
3 609 1587 1901
3 2054 1306 1503
3 73 74 1812
3 427 1587 1329
3 487 932 2186
3 1197 1121 2081
3 2158 548 1897
3 1285 1042 1451
3 1508 476 1996
3 382 1352 1029
3 724 1741 1417
3 1119 1042 671
3 1741 921 1417
3 918 1119 671
3 95 96 1835
3 174 175 1836
3 932 1102 2186
3 604 1667 832
3 1400 658 1834
3 555 1499 2070
3 556 1500 1697
3 1121 596 2081
3 840 763 1233
3 233 234 1870
3 235 1709 1552
3 850 538 1158
3 584 1066 2178
3 843 401 2094
3 1970 1145 2022
3 1796 848 1781
3 1164 411 1389
3 356 1487 2191
3 625 1021 2221
3 524 1032 2130
3 1568 949 977
3 1794 414 945
3 1284 1502 2198
3 650 1412 2192
3 441 720 1542
3 1037 384 1698
3 272 8 1119
3 14 283 1741
3 89 654 2228
3 304 305 1590
3 474 998 1868
3 1319 368 1810
3 738 1748 1874
3 782 713 1684
3 1030 866 2049
3 1262 355 2229
3 1105 1738 1945
3 1163 1262 2229
3 2080 462 2164
3 345 405 1294
3 10 275 1309
3 495 1531 1750
3 3 1533 1944
3 730 1037 1698
3 1917 884 1465
3 1060 702 916
3 280 12 1210
3 449 403 1726
3 608 1375 1402
3 649 782 1684
3 387 783 1754
3 903 365 1856
3 980 450 1151
3 341 805 1589
3 64 65 1796
3 744 1736 995
3 1221 254 2024
3 736 1970 2022
3 1531 659 1750
3 1187 937 2133
3 1066 584 1484
3 1627 1431 1838
3 439 992 1899
3 443 1367 2169
3 713 1717 1684
3 1020 460 1873
3 783 387 1714
3 682 898 1751
3 94 95 988
3 736 928 2117
3 175 176 1313
3 819 826 2194
3 1778 722 1662
3 675 981 1349
3 1538 44 2042
3 766 1066 1484
3 881 181 1047
3 292 18 1633
3 576 776 1660
3 1738 1073 1725
3 744 1309 1364
3 1652 634 1962
3 1309 933 1364
3 245 1813 1196
3 1192 393 2038
3 512 1256 1656
3 1204 1700 1465
3 1113 559 1951
3 205 1220 1958
3 994 857 1960
3 1052 773 1104
3 1210 1073 1635
3 940 1210 1635
3 1378 2124 1830
3 1388 1091 1387
3 1046 336 2078
3 412 869 2184
3 1180 1044 964
3 1262 1163 1372
3 928 793 2117
3 1588 439 1899
3 430 1607 2183
3 1192 22 420
3 234 235 1552
3 981 389 1349
3 1013 1664 1447
3 688 2054 1503
3 332 1551 1282
3 939 1873 2217
3 429 1194 1964
3 1869 578 862
3 560 1709 1776
3 769 217 1746
3 121 122 1568
3 1607 588 2183
3 481 653 1283
3 230 1485 2045
3 792 1074 1393
3 1202 377 1938
3 619 999 2011
3 262 263 1071
3 1044 608 964
3 1212 1327 2085
3 471 1005 1761
3 436 792 1393
3 315 762 1625
3 1223 337 2023
3 516 1145 1239
3 821 798 1277
3 989 648 1663
3 855 843 2094
3 1071 1235 2176
3 817 971 1534
3 255 256 1384
3 75 76 1694
3 760 453 2051
3 140 141 1203
3 1227 1267 2167
3 347 1075 598
3 1145 611 1239
3 287 286 1739
3 355 1262 1917
3 277 276 1103
3 742 1099 1302
3 279 278 1218
3 285 284 1125
3 562 1334 1459
3 749 1223 1100
3 662 903 1528
3 355 782 2229
3 761 1524 1562
3 1257 1038 852
3 944 1612 1682
3 1825 1379 1728
3 1752 967 1968
3 389 1212 2085
3 773 403 1104
3 116 117 1054
3 780 941 1237
3 216 769 1307
3 599 1090 2111
3 781 419 1689
3 1016 501 1488
3 346 1067 2175
3 776 797 767
3 1375 212 2155
3 903 457 1528
3 46 47 1613
3 380 928 1881
3 53 956 813
3 26 318 1380
3 1283 523 1905
3 1786 422 1574
3 817 1118 1318
3 1375 468 1402
3 1032 524 1961
3 464 1164 1389
3 1477 418 2224
3 578 1377 1352
3 1019 1752 1647
3 1315 678 1029
3 1067 733 2175
3 81 993 1983
3 781 384 1880
3 240 2011 1860
3 690 1791 2001
3 1619 906 991
3 1045 446 1763
3 298 21 1137
3 1130 1007 1576
3 225 226 1128
3 445 932 2056
3 1123 763 840
3 1927 1082 1415
3 801 366 2115
3 528 498 2035
3 334 1190 1862
3 596 1502 1365
3 487 1476 1337
3 196 197 854
3 581 1172 1100
3 433 1084 1294
3 1205 662 1528
3 1499 479 2070
3 1500 632 1697
3 1424 128 1944
3 498 548 2158
3 1232 1002 1242
3 1272 955 2231
3 1519 717 1828
3 626 1777 2200
3 938 189 1339
3 906 1182 991
3 410 1569 1990
3 1037 1108 1545
3 1569 894 1990
3 501 508 1488
3 533 771 2224
3 1016 1519 1828
3 564 1045 1763
3 681 1527 2012
3 349 1687 1867
3 662 1205 1609
3 873 46 1613
3 1527 538 2012
3 260 971 1318
3 1371 1217 2104
3 92 93 1436
3 177 178 896
3 326 327 1678
3 553 1531 1548
3 985 1120 1408
3 1377 537 1352
3 596 1121 1887
3 1383 382 1977
3 231 232 1113
3 1397 803 1403
3 1827 912 1411
3 876 465 1344
3 253 254 2095
3 492 824 1244
3 2198 406 1908
3 242 243 1889
3 695 2148 2243
3 1790 1404 1990
3 1183 577 1157
3 218 219 1821
3 1129 892 2144
3 925 425 1903
3 894 1790 1990
3 1051 818 1054
3 1423 1160 1669
3 1421 797 1467
3 1499 893 1405
3 1500 639 2025
3 1592 49 1885
3 1585 425 2126
3 1591 1088 1529
3 1172 581 1035
3 197 1759 854
3 768 1879 2142
3 1179 672 1408
3 463 2097 2100
3 437 1289 2025
3 62 1343 1921
3 384 1519 778
3 1481 650 2208
3 1030 26 767
3 1203 836 2098
3 128 3 1944
3 1607 582 1987
3 953 1166 1288
3 543 1253 1673
3 50 1060 1885
3 117 1051 1054
3 1762 554 2165
3 1182 692 991
3 1412 972 1648
3 646 1316 1935
3 1536 1006 2142
3 678 1542 1977
3 71 72 2048
3 1316 1089 1935
3 1065 640 1233
3 611 1145 1970
3 341 1477 2224
3 608 1027 964
3 469 1770 2192
3 741 1059 1546
3 807 501 1135
3 395 1587 1571
3 1172 749 1100
3 501 717 1135
3 1681 817 2028
3 398 830 2052
3 185 186 1786
3 1199 941 2225
3 476 815 1658
3 1114 664 2137
3 1595 1481 1894
3 830 594 2052
3 670 1827 1411
3 837 1652 1962
3 417 1179 1408
3 84 85 1334
3 1340 2152 1816
3 483 1121 1677
3 207 208 1785
3 1279 1800 1097
3 297 296 1420
3 360 980 1151
3 987 1337 1582
3 1174 1536 2142
3 97 98 1778
3 164 165 822
3 172 173 826
3 105 106 833
3 353 815 2044
3 2073 1038 1584
3 499 1257 852
3 879 1373 1760
3 1542 720 1977
3 722 1826 2007
3 729 1240 1549
3 1014 879 1760
3 716 1041 931
3 1091 819 1350
3 406 1850 1908
3 1230 1057 1665
3 1045 564 2242
3 1332 497 1463
3 1991 667 1153
3 577 1183 1818
3 1770 650 2192
3 1719 677 2001
3 1315 537 1829
3 352 1199 2225
3 617 1710 1452
3 1023 1991 1153
3 796 1184 1515
3 975 828 2185
3 1297 1303 1432
3 1606 463 2100
3 1687 416 1867
3 1890 939 2217
3 1975 386 784
3 1026 1024 2199
3 389 981 1212
3 1473 473 1834
3 397 975 2185
3 568 1297 1432
3 561 710 1150
3 501 1016 1828
3 32 1261 1456
3 113 1167 1281
3 567 1826 1405
3 1377 454 1464
3 419 1368 1812
3 382 1029 1977
3 492 524 2130
3 442 861 1152
3 251 1033 1222
3 219 1713 1821
3 1252 2202 868
3 761 1266 2184
3 419 781 1880
3 1714 1094 1856
3 228 1601 1973
3 1115 285 2218
3 1826 567 2007
3 629 1843 2127
3 557 1091 1350
3 1587 395 1901
3 870 1729 1980
3 1000 1639 1301
3 1254 1713 2226
3 2090 617 1452
3 2044 1305 2123
3 429 1964 2033
3 1111 494 1506
3 1155 222 810
3 587 1668 2076
3 33 34 1895
3 401 345 2094
3 1957 1657 1849
3 62 63 1343
3 297 788 942
3 1476 842 1337
3 1278 527 982
3 1693 531 1869
3 1567 789 1685
3 544 830 2150
3 161 162 1804
3 2202 440 868
3 108 109 1805
3 570 1699 1468
3 724 885 1704
3 254 255 2024
3 1164 405 1661
3 452 816 1630
3 214 215 1676
3 1021 625 1581
3 1460 1674 1666
3 821 361 1467
3 2011 999 1860
3 717 501 1828
3 1121 1197 1997
3 534 1867 1390
3 673 1846 2243
3 1050 1076 1735
3 1526 352 1808
3 1075 347 1215
3 473 2096 1834
3 242 844 2005
3 475 1675 2210
3 2088 634 2190
3 1710 1057 1452
3 981 675 1943
3 842 1476 1394
3 355 1917 1465
3 658 1473 1834
3 491 1113 2241
3 861 684 1152
3 770 157 1486
3 1220 1321 1495
3 1002 1232 1547
3 193 194 1907
3 1949 759 2016
3 1232 818 1547
3 1680 633 1939
3 1262 517 1799
3 411 1164 2227
3 844 619 2005
3 391 1551 2060
3 589 1067 1639
3 858 1957 1849
3 1167 1146 2233
3 1664 1013 1734
3 218 1821 1746
3 2095 1013 1447
3 902 591 2037
3 909 487 1853
3 642 1592 1885
3 870 1687 1541
3 1569 577 2131
3 1001 1949 2016
3 1887 406 2198
3 26 1030 2049
3 664 1109 2137
3 41 898 1444
3 605 2037 1571
3 1536 450 1390
3 1071 692 2204
3 618 1577 1926
3 947 1975 1961
3 311 312 1920
3 494 1064 1702
3 1060 642 1885
3 427 1167 2233
3 1040 475 2210
3 1400 1461 2195
3 1186 732 1504
3 1551 661 2072
3 721 1538 404
3 642 1060 916
3 452 1142 1892
3 762 315 726
3 804 653 1633
3 1275 353 2123
3 956 901 813
3 1230 745 1296
3 603 1563 2064
3 582 1607 1323
3 595 1664 1734
3 1059 1068 1546
3 1724 433 1294
3 709 1040 2210
3 653 292 1633
3 524 584 1961
3 331 24 1896
3 505 1790 1877
3 713 1700 1437
3 1436 703 1356
3 1837 1003 2031
3 1104 729 1772
3 1537 765 2182
3 875 896 1747
3 365 1265 1856
3 1639 1000 1987
3 1142 546 1892
3 1409 676 1623
3 76 77 820
3 1184 485 1950
3 1541 349 2015
3 1348 608 1402
3 946 833 1491
3 408 1731 1934
3 822 1292 1291
3 607 1026 1338
3 1041 488 2222
3 633 1801 1939
3 559 1493 1811
3 1626 379 1806
3 1731 612 1934
3 793 928 2122
3 567 1405 1507
3 416 1536 1390
3 1555 620 1735
3 1801 877 1939
3 1247 311 1920
3 1325 1508 1996
3 1183 470 1818
3 26 776 767
3 578 1352 862
3 597 960 1198
3 1905 523 1616
3 525 773 1304
3 1261 33 1895
3 984 396 1480
3 1861 1049 2015
3 771 533 1588
3 40 41 1444
3 641 1173 1881
3 143 660 2013
3 1051 118 1847
3 503 1492 1097
3 1252 617 2202
3 1696 734 2059
3 405 1724 1294
3 520 1803 2091
3 904 279 2223
3 773 525 1518
3 859 1186 1504
3 1002 1051 1847
3 1713 220 2226
3 1016 919 1566
3 1867 416 1390
3 1357 1241 1829
3 481 1993 2009
3 960 350 1198
3 1803 1453 2091
3 637 984 1480
3 1173 380 1881
3 798 752 1277
3 473 1657 1957
3 919 507 1566
3 433 1724 2085
3 518 1257 1618
3 830 689 2150
3 1940 1286 2145
3 1118 259 1318
3 1577 618 1941
3 431 1085 1845
3 1461 972 1605
3 1065 393 1628
3 1052 1104 1772
3 91 92 1356
3 870 1980 1611
3 1241 367 1829
3 178 179 1747
3 456 804 1633
3 716 931 2148
3 1712 1526 1808
3 388 1275 1773
3 52 53 813
3 1579 1924 1239
3 150 1154 2053
3 804 456 2097
3 85 86 1459
3 920 1595 1894
3 919 1226 1692
3 1687 349 1541
3 769 1746 2081
3 1008 1709 1749
3 1041 648 2170
3 515 1090 1347
3 585 1169 1992
3 796 1819 1883
3 1200 267 2082
3 723 1024 2174
3 1107 1458 2143
3 1687 870 1540
3 1243 563 1520
3 1759 842 854
3 1176 770 1614
3 906 1619 1929
3 1709 560 1749
3 541 2014 2207
3 1146 1167 1565
3 1056 621 1576
3 2018 1052 1413
3 1530 397 2185
3 1298 568 1432
3 120 121 977
3 707 994 1960
3 1113 491 2169
3 843 442 1640
3 139 140 1969
3 1790 894 1877
3 171 172 1780
3 98 99 1912
3 104 105 1779
3 165 166 2071
3 1038 1257 1584
3 759 1200 2082
3 770 588 1614
3 1343 1086 1921
3 752 950 1277
3 1708 1129 1616
3 54 55 2021
3 1821 1197 1746
3 583 1203 2098
3 276 1209 871
3 1152 684 2074
3 1126 287 1580
3 198 199 1792
3 580 1443 1930
3 354 470 1938
3 1169 872 1992
3 1085 663 2230
3 1646 472 945
3 990 1027 1422
3 1601 229 2045
3 1328 923 1240
3 1821 348 1997
3 739 2003 2178
3 803 986 1403
3 184 185 1574
3 743 1114 2137
3 462 1940 2145
3 692 1766 991
3 1188 1993 1760
3 1993 1141 1654
3 1077 809 1445
3 432 783 1714
3 2037 605 1671
3 437 2025 1704
3 222 223 810
3 1691 525 1304
3 339 1328 1240
3 687 1043 1756
3 1408 1120 1228
3 1096 655 1976
3 802 1646 1932
3 1745 687 1799
3 1167 427 1329
3 2006 1132 1109
3 296 20 1959
3 1543 530 1949
3 664 2006 1109
3 451 1688 2106
3 139 1969 2193
3 1298 555 2070
3 1530 556 1697
3 1331 411 2227
3 1394 362 1723
3 645 1394 1723
3 622 1075 2103
3 653 481 2009
3 931 526 2148
3 230 231 1951
3 249 250 1695
3 361 821 1277
3 1091 557 1387
3 525 1691 1922
3 514 1579 2240
3 1993 1188 2009
3 69 70 1302
3 1624 582 1989
3 395 1622 1427
3 1064 754 1702
3 752 798 2078
3 211 212 2113
3 745 1230 1665
3 587 1590 1207
3 672 985 1408
3 1481 1595 1854
3 55 1771 2021
3 860 1579 1469
3 1166 953 1573
3 1075 712 598
3 956 54 2021
3 1679 604 1572
3 1195 779 1158
3 1784 1333 1930
3 159 160 1539
3 620 1050 1735
3 1154 700 2053
3 1443 785 1930
3 1140 1256 2107
3 225 1128 2146
3 1671 965 1631
3 435 1077 1445
3 1208 2018 1413
3 798 1143 2078
3 1154 695 2243
3 24 1189 1433
3 1993 519 1760
3 1476 487 2186
3 223 224 1609
3 1044 211 2113
3 2146 1128 2244
3 1984 1287 2052
3 1664 1033 2203
3 1033 900 1222
3 1102 1476 2186
3 59 60 985
3 1978 1146 1565
3 458 1845 1919
3 1592 642 1733
3 1024 1324 2174
3 306 1668 1207
3 1253 543 1985
3 237 238 2017
3 1003 647 2066
3 1120 1921 1228
3 250 251 1222
3 883 1331 2227
3 49 50 1885
3 594 1984 2052
3 611 1474 2240
3 809 1084 1445
3 1419 1497 1450
3 240 241 2011
3 955 1099 1438
3 816 636 1630
3 257 258 1435
3 403 773 1518
3 1221 610 2026
3 1275 484 1773
3 399 1729 2041
3 1683 441 1542
3 1048 935 1510
3 937 1585 2133
3 1113 232 2241
3 887 1696 2059
3 1879 1174 2142
3 685 1793 1097
3 110 111 1490
3 227 228 1973
3 1872 879 1862
3 510 1535 1201
3 1707 924 2238
3 660 944 2013
3 1068 1095 1788
3 1012 638 1594
3 1092 463 2112
3 1177 1469 1570
3 1115 1024 1597
3 384 781 1698
3 417 1408 1228
3 1186 1138 522
3 1535 638 1201
3 588 770 2183
3 1352 382 862
3 888 1591 1034
3 781 730 1698
3 785 1784 1930
3 1145 641 2022
3 245 246 1943
3 732 1186 522
3 1638 425 1505
3 1784 785 1817
3 1689 838 1878
3 370 1927 1415
3 596 769 2081
3 579 1689 1878
3 393 1192 2138
3 760 1253 2103
3 631 873 1613
3 1238 440 2090
3 66 67 1272
3 1261 614 1153
3 762 887 1625
3 1590 305 1207
3 1240 923 1549
3 1585 602 2133
3 436 1588 1899
3 1149 1643 1942
3 1033 251 2203
3 833 106 1491
3 164 822 1291
3 540 1065 1628
3 1748 738 1563
3 457 1409 1623
3 97 1778 1662
3 826 173 2194
3 1643 508 1942
3 492 1650 1317
3 879 1241 1862
3 314 315 1625
3 147 148 1706
3 1070 1022 2132
3 1479 687 1756
3 569 1675 1637
3 1507 796 1883
3 15 1115 1597
3 1190 1872 1862
3 507 919 1692
3 912 1012 1594
3 1027 608 1757
3 780 444 1864
3 1761 1005 1559
3 976 730 2136
3 1024 1026 1597
3 1680 421 2065
3 1668 587 1207
3 2059 545 1753
3 1253 760 1673
3 1857 855 2094
3 610 1221 2024
3 591 1679 1572
3 941 780 1864
3 1578 914 1658
3 1256 589 2107
3 1160 447 1669
3 524 766 1484
3 1813 629 1196
3 463 1092 2097
3 635 1272 2231
3 704 1833 2180
3 584 524 1484
3 1942 807 1965
3 1203 141 2179
3 2013 944 1744
3 1149 1942 1965
3 1620 616 2173
3 356 342 1267
3 454 1691 1304
3 566 1025 1937
3 500 1940 1596
3 367 1315 1829
3 1724 405 1359
3 207 1785 1851
3 634 1438 2190
3 1703 536 1838
3 939 1890 1682
3 1157 803 1947
3 342 1108 1267
3 262 1071 2176
3 1221 1013 2095
3 204 205 1958
3 80 81 1983
3 931 335 1717
3 1216 883 1893
3 526 931 1717
3 1024 1115 1324
3 836 1203 2179
3 1092 804 2097
3 655 1096 1497
3 898 423 2121
3 1918 490 2046
3 733 1703 1838
3 435 1059 1659
3 1785 1321 1851
3 1028 576 2019
3 737 1918 2046
3 647 1175 2066
3 61 62 1921
3 794 1216 1893
3 1835 722 2007
3 819 1836 1350
3 880 762 726
3 1209 744 995
3 1302 1378 1830
3 1497 866 1450
3 1538 2042 404
3 1310 610 2054
3 1870 234 1552
3 1476 1102 1553
3 959 1835 2007
3 837 1048 1510
3 1072 786 1095
3 1595 3 1854
3 2002 934 1522
3 1836 572 1350
3 1073 1126 1725
3 1703 888 1034
3 816 357 1795
3 142 143 2013
3 734 1651 2059
3 148 149 1925
3 400 1157 1947
3 1111 1506 1684
3 1042 904 1451
3 259 260 1318
3 816 920 1894
3 1253 622 2103
3 1411 912 1594
3 1168 1242 2220
3 1686 747 1902
3 1119 918 1418
3 1257 499 2177
3 921 1741 2004
3 189 190 1339
3 1506 649 1684
3 688 1310 2054
3 626 2002 1522
3 2020 515 1347
3 858 1255 2096
3 1645 794 1640
3 1250 378 1886
3 1475 1250 1886
3 112 113 1281
3 1285 910 2118
3 792 436 1899
3 943 885 2119
3 157 158 1486
3 78 79 1442
3 1813 245 1943
3 706 1496 2112
3 1533 552 1944
3 1056 413 1293
3 1840 728 1392
3 1096 866 1497
3 1391 965 1671
3 201 1554 1345
3 360 1151 1457
3 519 1993 1654
3 1554 407 1345
3 1443 575 2033
3 350 1285 2118
3 730 781 2136
3 885 637 2119
3 1174 1879 1457
3 882 1620 1892
3 1343 848 1058
3 1325 642 916
3 496 771 2213
3 1496 646 2112
3 834 1219 1726
3 1693 693 2041
3 29 30 1414
3 612 1731 1868
3 582 1624 1987
3 1622 395 1571
3 340 1840 1392
3 1708 1089 2121
3 1533 3 1595
3 1283 804 2101
3 470 354 2114
3 23 301 2221
3 386 1088 2181
3 660 1177 1570
3 272 1119 1418
3 1805 1440 2118
3 720 1383 1977
3 1441 1804 2119
3 269 270 1948
3 1741 283 2004
3 305 306 1207
3 435 1072 1095
3 1641 1361 1787
3 771 341 2224
3 191 192 2084
3 1203 583 1969
3 744 1209 1428
3 1731 474 1868
3 634 1652 2231
3 1647 1752 1953
3 535 1175 2163
3 643 1335 2083
3 1335 126 2083
3 1126 1073 1355
3 374 1719 2001
3 425 1638 2126
3 1837 503 1998
3 687 1917 1799
3 1099 742 1438
3 1916 448 2120
3 781 1689 2136
3 4 142 1744
3 859 1794 945
3 1070 2132 2235
3 1124 1115 2218
3 1175 539 2163
3 646 1092 2112
3 1209 1112 871
3 1346 433 2085
3 442 1645 1640
3 255 1384 2024
3 1783 711 1701
3 890 1126 1580
3 1059 1170 1659
3 1650 492 2130
3 1086 1343 1058
3 992 792 1899
3 319 1252 868
3 423 1708 2121
3 1242 668 2220
3 1025 631 2099
3 1859 716 968
3 735 1202 1938
3 575 1443 1362
3 559 1113 2169
3 1429 1916 2120
3 1620 452 1892
3 457 1802 1528
3 140 1203 1969
3 1620 2173 1966
3 432 1493 2062
3 904 1042 2069
3 1879 545 1457
3 371 746 1667
3 1557 655 1497
3 1657 323 1849
3 575 1523 2033
3 621 1056 1293
3 1670 512 1656
3 1674 849 1666
3 804 1092 2101
3 507 1692 1830
3 564 1219 2242
3 1095 786 1788
3 1209 10 1428
3 12 1126 1355
3 1819 959 1883
3 641 928 2022
3 2014 541 1425
3 920 816 1966
3 572 723 2174
3 1134 529 2057
3 846 904 2223
3 1334 895 1769
3 624 1719 1611
3 84 1334 1769
3 27 331 2036
3 661 363 2072
3 149 150 2053
3 1366 860 1636
3 897 1676 2106
3 571 1771 2075
3 1149 1877 756
3 1676 812 2106
3 777 159 1539
3 1138 1397 1403
3 710 2014 1425
3 968 716 2148
3 35 36 2187
3 1102 1224 1553
3 695 968 2148
3 153 154 1663
3 608 1348 1757
3 357 816 1894
3 901 1516 2145
3 337 957 1422
3 1494 301 2236
3 957 990 1422
3 123 124 1410
3 14 1741 2139
3 313 1615 1564
3 295 294 2172
3 249 1695 1583
3 1772 729 1549
3 818 1246 1913
3 34 35 2211
3 928 641 1881
3 1003 506 2031
3 1097 1793 2239
3 1266 412 2184
3 1540 870 1611
3 1018 1290 1934
3 1175 535 2066
3 1184 1950 1515
3 1915 740 2234
3 1338 1026 2199
3 1965 505 1877
3 111 1888 1490
3 970 905 1863
3 363 369 2072
3 1149 1965 1877
3 8 904 2069
3 560 952 1749
3 1454 1023 1153
3 1995 704 2180
3 1376 1948 2135
3 302 1525 1632
3 614 1454 1153
3 1195 599 2111
3 241 242 2005
3 1651 360 1457
3 1206 2017 2105
3 1125 284 1972
3 1855 757 1463
3 485 1815 1439
3 2017 510 2105
3 1308 958 1976
3 1218 278 1251
3 495 1078 1782
3 1789 808 1604
3 1695 1327 1583
3 1078 494 1782
3 1443 580 1362
3 1627 1191 1702
3 952 1382 1749
3 2090 440 2202
3 1182 906 1728
3 557 1324 1387
3 1642 607 2237
3 64 1796 1781
3 536 1703 1034
3 1170 1763 2055
3 1093 719 1764
3 579 976 2136
3 701 1909 1968
3 2042 566 404
3 371 1679 1994
3 1290 408 1934
3 705 1789 1604
3 1354 204 1958
3 1924 516 1239
3 1256 512 1385
3 600 1591 1529
3 665 1421 1467
3 689 1234 2150
3 229 230 2045
3 606 1085 2230
3 1895 34 2211
3 1729 399 1980
3 1523 429 2033
3 369 363 1581
3 504 1720 1411
3 779 1328 1560
3 1716 575 2120
3 1202 735 2197
3 933 1309 1083
3 481 1283 1905
3 946 1575 2086
3 1875 1292 2087
3 1224 362 1553
3 638 1259 1594
3 872 1169 2079
3 1876 779 1560
3 1575 910 2086
3 943 1875 2087
3 1210 940 1598
3 1220 1185 1958
3 858 2096 1957
3 1763 446 2055
3 44 45 2042
3 2006 664 2151
3 1114 1475 1886
3 745 1710 1902
3 791 1564 1753
3 1651 545 2059
3 1309 275 1083
3 299 1784 1817
3 18 291 2047
3 928 736 2022
3 1353 1494 2236
3 1035 1284 1908
3 1564 1615 1753
3 280 1210 1598
3 360 1923 1737
3 536 1034 2140
3 948 1250 1897
3 816 452 1966
3 1169 290 2079
3 796 1507 2134
3 1311 988 2029
3 1969 1131 2193
3 1078 495 1750
3 1741 724 2139
3 1313 936 1312
3 1056 375 2189
3 1720 670 1411
3 905 376 1863
3 408 1360 1606
3 1360 706 1606
3 438 1202 2197
3 988 959 2029
3 1507 1430 2134
3 386 2181 784
3 1328 339 1560
3 724 1704 2139
3 659 1078 1750
3 1724 389 2085
3 572 1313 1312
3 1398 554 2058
3 563 1451 1520
3 636 816 1795
3 1178 585 1992
3 317 26 2049
3 1704 929 2139
3 1117 2215 1740
3 1354 851 1401
3 959 1819 2029
3 740 1979 2234
3 301 1494 2221
3 723 572 1312
3 368 2209 1764
3 1290 35 2187
3 992 1718 1743
3 1197 1821 1997
3 1765 530 1509
3 1053 27 2036
3 857 1555 1735
3 1727 393 2138
3 1051 1002 1547
3 1084 715 1445
3 818 1051 1547
3 615 1178 1992
3 1473 658 1296
3 336 752 2078
3 1819 502 2029
3 236 237 2008
3 995 370 1415
3 376 1832 1941
3 1367 814 2062
3 548 1144 2219
3 35 1290 2211
3 291 290 2157
3 1127 970 1863
3 628 723 1312
3 92 1436 1356
3 1144 1404 2219
3 1916 1370 1556
3 381 1758 1425
3 896 178 1747
3 1090 973 1347
3 835 2034 1546
3 447 1725 1669
3 1677 1121 1997
3 131 132 1605
3 1758 710 1425
3 530 1543 1509
3 989 155 1603
3 448 1916 1556
3 926 1093 1764
3 1087 1230 1296
3 17 1929 2079
3 820 1187 1806
3 1646 414 1561
3 290 17 2079
3 200 201 1345
3 21 297 942
3 1948 372 2135
3 1176 989 1603
3 1709 1008 1552
3 1678 636 1795
3 1909 613 1968
3 239 240 1860
3 118 119 1847
3 1343 63 1781
3 494 1078 1506
3 1835 96 1662
3 174 1836 2194
3 1588 436 2213
3 1224 1395 2128
3 2161 574 2170
3 343 2040 2242
3 1243 946 2086
3 448 1716 2120
3 1292 1289 2087
3 6 182 1047
3 267 268 2082
3 1568 1132 2006
3 215 216 1307
3 949 1568 2006
3 798 1028 2019
3 895 1927 823
3 88 1 2228
3 137 138 1610
3 1160 772 1945
3 31 32 1456
3 129 130 1629
3 79 1593 1442
3 930 697 1301
3 1998 503 2239
3 615 1992 1891
3 1077 1170 2055
3 722 1835 1662
3 134 135 1517
3 1836 819 2194
3 484 1275 2123
3 1933 725 522
3 447 1160 1945
3 168 5 1483
3 5 169 1483
3 101 2 1512
3 2 102 1512
3 1927 370 823
3 376 1127 1863
3 1859 153 1663
3 1771 571 2021
3 563 1243 2086
3 393 1727 1628
3 1289 437 2087
3 848 1343 1781
3 1992 872 1891
3 1093 886 2030
3 1742 540 1841
3 1177 1636 1469
3 497 1824 1288
3 1384 1306 2054
3 434 1063 1871
3 1824 953 1288
3 1373 879 1872
3 1487 356 2108
3 1334 85 1459
3 959 2007 1883
3 1636 860 1469
3 930 1301 2068
3 1692 1226 2190
3 1350 572 2174
3 1119 8 2069
3 1081 1368 1621
3 1368 419 1621
3 1975 947 2128
3 518 1727 2138
3 1898 191 2084
3 1 89 2228
3 386 1975 2128
3 1217 1487 2108
3 631 1270 2099
3 758 792 1743
3 1055 1742 1841
3 2026 542 1231
3 1985 899 2050
3 181 6 1047
3 380 1134 2122
3 1424 552 2064
3 638 1012 1201
3 1776 236 2008
3 433 1346 2125
3 10 1309 1428
3 650 1770 2208
3 1138 1933 522
3 315 316 726
3 1956 668 2152
3 464 1349 1359
3 2010 542 2159
3 1809 677 2043
3 185 1786 1574
3 1371 707 1960
3 1210 12 1355
3 155 156 1603
3 1732 895 823
3 828 1299 2185
3 1303 915 1432
3 554 1053 2058
3 958 25 1976
3 919 1016 1488
3 550 1732 823
3 729 1104 1458
3 1921 1086 1228
3 1217 1371 1960
3 406 1887 1963
3 537 1377 1464
3 670 1720 1617
3 491 1870 1721
3 979 571 2075
3 1720 496 1617
3 1689 579 2136
3 1870 1008 1721
3 847 976 1492
3 531 1861 1974
3 2034 1107 2143
3 741 2034 2143
3 1777 699 2200
3 27 1053 1762
3 795 1861 2015
3 312 313 1564
3 436 1617 2213
3 474 1731 2100
3 851 1354 1600
3 462 2080 1940
3 217 218 1746
3 523 1708 1616
3 1354 1185 1600
3 1727 518 1618
3 2057 529 1482
3 1104 403 1458
3 1223 2023 1100
3 912 1827 1556
3 1896 24 1433
3 1481 2208 1894
3 1778 98 1912
3 822 165 2071
3 105 833 1779
3 172 826 1780
3 1066 1907 2178
3 616 1533 2173
3 1810 368 1764
3 1268 2057 1482
3 795 2015 2115
3 680 1707 1755
3 318 319 868
3 989 1176 2161
3 772 1911 1945
3 309 310 1434
3 1911 1105 1945
3 504 1259 1559
3 328 329 1139
3 1746 1197 2081
3 731 1876 1560
3 323 324 1849
3 1361 1271 1787
3 662 2146 2244
3 734 1923 1651
3 1771 1351 2075
3 408 1290 2187
3 998 1358 1868
3 973 1842 1347
3 1980 624 1611
3 1360 408 2187
3 1110 709 2210
3 975 565 1511
3 565 1079 1106
3 1297 774 1514
3 774 1768 1513
3 1366 790 1884
3 508 1643 1330
3 1643 644 1330
3 517 1745 1799
3 914 1325 1996
3 356 1267 2108
3 1426 1479 1756
3 860 1366 1884
3 745 1473 1296
3 1855 497 1558
3 1057 1710 1665
3 993 1550 2201
3 1652 837 2114
3 961 1802 1623
3 1474 1020 1873
3 1710 1069 1902
3 1873 460 2217
3 1550 550 2201
3 1567 807 1135
3 212 213 2155
3 877 962 1939
3 1267 1227 2108
3 1063 901 2145
3 690 1809 1434
3 1063 1286 1871
3 792 992 1743
3 224 225 2146
3 1226 2088 2190
3 842 1759 1582
3 1759 696 1582
3 610 1384 2054
3 1842 727 1347
3 151 152 1705
3 402 1182 1728
3 900 1695 1222
3 1394 1476 1553
3 1802 457 1623
3 264 265 2154
3 290 1169 2157
3 523 1283 2101
3 550 1736 2201
3 63 64 1781
3 1738 1105 1532
3 1736 482 2201
3 1384 610 2024
3 698 1053 2036
3 511 1738 1532
3 209 210 2171
3 947 1224 2128
3 1220 206 1851
3 961 1959 1225
3 1707 950 1755
3 1566 966 778
3 1053 698 2058
3 261 262 2176
3 233 1870 2241
3 938 1363 1532
3 545 1879 1753
3 1011 1086 1058
3 644 1048 1962
3 303 302 1632
3 446 1857 2055
3 1752 459 1953
3 1321 1220 1851
3 1048 837 1962
3 2147 938 1532
3 1358 612 1868
3 1363 511 1532
3 654 1040 2102
3 1219 834 1787
3 1105 2147 1532
3 643 1424 2064
3 96 97 1662
3 173 174 2194
3 834 1641 1787
3 83 84 1769
3 1554 669 2206
3 1870 491 2241
3 410 1990 1955
3 976 1279 1492
3 438 1011 1058
3 413 1056 2189
3 182 183 1936
3 2153 993 2201
3 2215 1214 1740
3 251 252 2203
3 1770 357 2208
3 87 88 2102
3 144 145 1260
3 1801 881 1936
3 220 221 2226
3 1340 977 2152
3 126 127 2083
3 482 2153 2201
3 2005 619 2011
3 100 101 1513
3 167 168 1106
3 169 170 1511
3 102 103 1514
3 2080 1322 1940
3 206 207 1851
3 106 107 1491
3 163 164 1291
3 248 249 1583
3 232 233 2241
3 369 1282 2072
3 1018 1895 2211
3 141 4 2179
3 252 253 1447
3 1055 1727 1618
3 1271 1361 1974
3 1535 239 1860
3 1282 1551 2072
3 1112 1103 871
3 42 43 1751
3 131 1605 2196
3 428 1671 1631
3 1739 890 1580
3 727 1842 2172
3 538 1681 2028
3 2053 700 1925
3 388 1025 2099
3 1923 360 1651
3 2105 510 1201
3 135 1087 1517
3 2203 252 1447
3 742 1302 1830
3 343 1219 1787
3 692 1182 2204
3 1963 1295 1369
3 1610 138 2193
3 1809 309 1434
3 1518 525 1641
3 362 1394 1553
3 138 139 2193
3 1164 1661 2227
3 465 1986 1344
3 1103 276 871
3 1042 1119 2069
3 1629 130 2196
3 1374 647 1998
3 287 1739 1580
3 133 134 2195
3 130 131 2196
3 134 1517 2195
3 1125 1124 2218
3 990 957 1712
3 1274 1055 2177
3 376 1941 1807
3 453 1931 2051
3 137 1610 1711
3 696 1792 2000
3 1792 656 2000
3 1015 1374 1998
3 2208 357 1894
3 1931 558 2051
3 661 1850 1369
3 301 300 2236
3 1710 745 1665
3 742 1692 2190
3 613 1752 1968
3 129 1629 1854
3 1218 846 2223
3 1309 744 1428
3 570 1526 1712
3 403 1518 1726
3 1077 435 1659
3 1879 791 1753
3 1073 1210 1355
3 1732 550 1550
3 1105 1911 2147
3 1444 898 2121
3 552 1424 1944
3 1664 2203 1447
3 1727 1055 1841
3 957 570 1712
3 434 1325 916
3 499 1274 2177
3 757 1932 1561
3 1817 1229 420
3 719 1093 2030
3 910 1805 2118
3 1804 943 2119
3 754 1627 1702
3 987 775 1853
3 170 975 1511
3 1079 167 1106
3 103 1297 1514
3 1768 100 1513
3 2063 700 1846
3 3 129 1854
3 285 1125 2218
3 795 1271 1974
3 893 1218 1251
3 986 410 1403
3 805 2127 1589
3 699 1758 2200
3 639 1125 1972
3 406 1963 1369
3 136 137 1711
3 1426 1924 1884
3 1940 1322 1596
3 977 949 2152
3 1888 597 1490
3 132 1461 1605
3 1204 2063 1846
3 1406 1245 1600
3 279 1218 2223
3 1008 1749 1300
3 1206 1776 2008
3 1981 484 2123
3 1890 336 1682
3 1310 731 2159
3 712 1783 1701
3 1706 799 1471
3 1688 451 1767
3 790 1706 1471
3 2127 1171 1589
3 1128 365 2244
3 1474 514 2240
3 1749 1382 1300
3 2048 1081 2124
3 574 1599 2168
3 1378 2048 2124
3 383 402 1728
3 693 862 1655
3 414 1332 1463
3 906 1929 1825
3 725 1933 1955
3 1644 1146 1866
3 396 777 1539
3 1599 930 2168
3 583 1238 2090
3 590 1644 1866
3 1543 615 1509
3 2046 407 1814
3 443 1721 1300
3 1918 1022 775
3 737 2046 1814
3 231 1113 1951
3 888 983 2181
3 1518 834 1726
3 520 1814 2206
3 490 1918 775
3 502 1819 1515
3 1043 516 1756
3 2209 926 1764
3 515 1772 1549
3 1605 1412 2196
3 723 628 2199
3 1379 383 1728
3 983 1280 2181
3 2077 927 1775
3 428 2077 1775
3 1833 477 2180
3 1540 374 2061
3 1579 1239 2240
3 1170 1077 1659
3 1734 1013 1231
3 1143 1046 2078
3 1075 1215 2103
3 1276 990 1808
3 362 2003 1723
3 526 1717 1437
3 2003 739 1723
3 1239 611 2240
3 514 1612 1570
3 1367 559 2169
3 1990 1404 1955
3 1717 713 1437
3 766 1898 2084
3 1008 1870 1552
3 847 1837 2031
3 1827 448 1556
3 1036 1762 2165
3 581 1602 1035
3 1117 1967 2215
3 1602 581 1767
3 2180 477 2205
3 1986 882 1344
3 1040 87 2102
3 451 1602 1767
3 1305 1981 2123
3 1270 1341 2099
3 1504 732 2116
3 1672 1122 358
3 1238 583 2098
3 786 1734 1231
3 342 356 2191
3 776 1380 1660
3 789 342 2191
3 1722 1382 1919
3 336 1890 1755
3 576 1238 2098
3 845 1504 2116
3 847 2031 1446
3 1498 378 2232
3 1185 1220 1495
3 486 1855 2129
3 1462 1498 2232
3 675 1813 1943
3 843 794 1893
3 1593 937 1442
3 606 1722 1919
3 36 1360 2187
3 2129 1855 1558
3 2040 366 2074
3 1882 478 1470
3 1208 2020 1586
3 424 1672 358
3 1722 443 1300
3 1890 680 1755
3 1144 725 1955
3 1290 1018 2211
3 183 1801 1936
3 1255 972 2096
3 445 2056 1548
3 25 1096 1976
3 1896 698 2036
3 569 1637 1439
3 2173 920 1966
3 1630 636 2092
3 1516 462 2145
3 1850 406 1369
3 727 2020 1347
3 838 1694 1878
3 1151 1174 1457
3 1793 1015 2239
3 1694 379 1878
3 1305 2044 829
3 2031 506 1446
3 1136 1140 2107
3 647 1837 1998
3 2065 421 2237
3 604 1831 1572
3 2010 1068 1788
3 444 1276 1864
3 1644 590 1715
3 1280 1797 784
3 600 1529 1900
3 1327 1346 2085
3 1322 1896 1433
3 658 1087 1296
3 1088 1395 1529
3 668 1242 1816
3 1284 2198 1908
3 1529 1395 1900
3 1468 424 358
3 666 1630 2092
3 401 843 1893
3 462 1516 2164
3 1029 678 1977
3 1815 569 1439
3 1838 1431 2175
3 965 1644 1715
3 1276 941 1864
3 421 1642 2237
3 679 979 2075
3 733 1838 2175
3 1425 541 2141
3 390 1865 1690
3 941 1276 2225
3 519 1014 1760
3 669 1803 2206
3 1803 520 2206
3 1449 721 1666
3 1545 1108 2188
3 1560 339 2027
3 440 1380 868
3 1865 624 1690
3 938 1339 1363
3 1819 796 1515
3 1339 907 1363
3 849 1449 1666
3 719 1810 1764
3 1122 1526 358
3 1024 723 2199
3 1978 1101 1866
3 1431 2149 2175
3 365 903 2244
3 903 662 2244
3 2149 346 2175
3 939 1474 1873
3 381 1425 2141
3 1775 927 2163
3 1602 1284 1035
3 426 443 1722
3 410 1933 1403
3 539 1775 2163
3 1331 883 1216
3 1052 1772 1413
3 1087 658 1517
3 794 843 1640
3 1932 1646 1561
3 1983 993 2153
3 606 426 1722
3 684 2040 2074
3 1165 1983 2153
3 1281 1167 1329
3 2044 753 829
3 1088 888 2181
3 213 1396 2155
3 1089 1444 2121
3 1171 1477 1589
3 609 1281 1329
3 1933 410 1955
3 740 1915 1399
3 1915 544 1399
3 670 1617 1393
3 1626 579 1878
3 379 820 1806
3 379 1626 1878
3 1982 645 1723
3 1917 1262 1799
3 739 1982 1723
3 452 1620 1966
3 2023 581 1100
3 1011 438 1740
3 1477 341 1589
3 2073 1017 1914
3 558 1331 1216
3 1790 948 2219
3 1404 1790 2219
3 515 2020 1413
3 1695 250 1222
3 493 1320 1634
3 1537 495 2162
3 1933 1138 1403
3 1019 1882 1470
3 889 1631 1715
3 520 2091 1774
3 1631 965 1715
3 1617 436 1393
3 972 1255 1648
3 644 2088 1330
3 765 1537 2162
3 1956 949 2151
3 1373 1188 1760
3 2088 1226 1330
3 419 1880 1621
3 865 1956 2151
3 1022 1918 2132
3 1185 1354 1958
3 1941 618 1807
3 2162 1191 2140
3 648 1859 1663
3 1146 1978 1866
3 2020 1208 1413
3 1494 625 2221
3 834 1518 1641
3 1637 974 1439
3 862 382 1655
3 891 2065 2237
3 1618 1257 2177
3 1850 391 1908
3 152 968 1705
3 1176 1599 2161
3 378 2166 1886
3 1649 629 2127
3 1861 795 1974
3 1599 574 2161
3 743 2035 2158
3 853 2168 2068
3 1971 455 1999
3 2168 930 2068
3 697 1000 1301
3 1214 1011 1740
3 770 1486 2183
3 1250 1475 1897
3 1116 2180 2205
3 2035 498 2158
3 1301 346 2068
3 1320 969 1807
3 605 1391 1671
3 1486 430 2183
3 805 1649 2127
3 1692 742 1830
3 392 1478 2093
3 1676 215 1307
3 1450 493 1634
3 1478 1249 2093
3 1245 851 1600
3 1238 576 1660
3 1337 842 1582
3 1229 2216 420
3 644 1643 1521
3 1652 635 2231
3 1907 739 2178
3 2216 1192 420
3 1055 1618 2177
3 545 1651 1457
3 765 2162 2140
3 1950 502 1515
3 467 2212 2232
3 771 1588 2213
3 628 1338 2199
3 618 1926 1634
3 1004 1214 1392
3 1910 737 1774
3 1219 343 2242
3 953 1858 1573
3 1924 860 1884
3 1800 685 1097
3 497 1288 1558
3 812 1676 1307
3 634 2088 1962
3 237 2017 2008
3 950 1707 2238
3 1108 342 2188
3 618 1320 1807
3 1975 1032 1961
3 1048 644 1521
3 2039 375 1416
3 1324 557 2174
3 1215 760 2103
3 900 978 2125
3 728 1004 1392
3 1212 248 1583
3 2017 1206 2008
3 1286 1063 2145
3 680 1890 2217
3 1416 864 1852
3 1346 900 2125
3 1897 548 2219
3 2212 1462 2232
3 1959 20 1225
3 368 1923 2209
3 948 1897 2219
3 1772 515 1413
3 1923 368 1737
3 1877 894 756
3 949 1956 2152
3 714 1048 1521
3 348 1677 1997
3 755 2039 1416
3 1327 1212 1583
3 503 1097 2239
3 881 1047 1936
3 968 695 1705
3 978 715 2125
3 1267 1108 2167
3 2156 996 2093
3 665 1971 1999
3 931 1041 2222
3 335 931 2222
3 2207 1020 1970
3 1047 182 1936
3 736 2207 1970
3 2228 654 2102
3 1380 318 868
3 1069 1686 1902
3 1038 2073 1914
3 1498 748 2166
3 1926 1419 1634
3 378 1498 2166
3 1255 469 1648
3 88 2228 2102
3 967 701 1968
3 440 1238 1660
3 934 1647 1953
3 1937 721 404
3 1406 967 1470
3 967 1019 1470
3 594 1915 2234
3 1438 742 2190
3 1604 303 1632
3 1533 1595 2173
3 145 1636 1260
3 1923 734 2209
3 552 751 2064
3 949 2006 2151
3 1249 2156 2093
3 1250 467 2232
3 1211 2012 2028
3 755 1416 1852
3 731 1560 2027
3 2116 787 1730
3 2104 1217 2108
3 101 1512 1513
3 168 1483 1106
3 1512 102 1514
3 1483 169 1511
3 1981 1305 1544
3 441 1981 1544
3 911 1688 1767
3 1227 2104 2108
3 1512 774 1513
3 1483 565 1106
3 774 1512 1514
3 565 1483 1511
3 1954 659 2214
3 1242 1002 1816
3 2012 538 2028
3 107 1575 1491
3 1875 163 1291
3 1422 1027 1757
3 619 1761 1559
3 979 652 2164
3 1636 1177 1260
3 1287 1070 2235
3 445 1537 2182
3 438 2197 1740
3 542 2010 1788
3 1575 946 1491
3 1292 1875 1291
3 2007 567 1883
3 557 1350 2174
3 241 2005 2011
3 1782 1191 2162
3 845 2116 1730
3 1380 440 1660
3 1146 1644 2233
3 1617 496 2213
3 1967 340 2215
3 1129 1905 1616
3 331 1896 2036
3 127 1424 2083
3 378 1250 2232
3 149 2053 1925
3 566 1937 404
3 2034 741 1546
3 1858 666 1139
3 2197 1117 1740
3 990 1712 1808
3 2052 1287 2235
3 2146 662 1609
3 2020 727 1586
3 598 712 1701
3 398 2052 2235
3 1599 1176 1614
3 1231 542 1788
3 1424 643 2083
3 567 1507 1883
3 1271 343 1787
3 1116 1995 2180
3 786 1231 1788
3 1399 544 1482
3 529 1399 1482
3 142 2013 1744
3 1404 1144 1955
3 495 1782 2162
3 737 1814 1774
3 2181 1280 784
3 1015 1998 2239
3 1522 934 1953
3 426 606 2230
3 1721 1008 1300
3 459 1522 1953
3 1814 520 1774
3 914 1996 1658
3 1320 618 1634
3 1842 295 2172
3 2077 428 1631
3 541 2117 2141
3 1732 83 1769
3 300 2038 2236
3 736 2117 2207
3 889 2077 1631
3 2117 541 2207
3 2117 793 2141
3 2132 398 2235
3 1595 920 2173
3 1076 1685 2191
3 1685 789 2191
3 1628 1727 1841
3 751 603 2064
3 1141 2144 2089
3 253 2095 1447
3 2038 1353 2236
3 1996 476 1658
3 329 1858 1139
3 2144 333 2089
3 540 1628 1841
3 1392 1214 2215
3 2088 644 1962
3 1448 598 1701
3 1818 470 1510
3 935 1818 1510
3 340 1392 2215
3 1382 1722 1300
3 895 1732 1769
3 1419 1450 1634
3 740 1399 1236
3 1399 529 1236
3 617 2090 2202
3 666 2092 1139
3 413 2189 1952
3 414 1463 1561
3 2096 473 1957
3 2149 853 2068
3 1979 1263 2234
3 1463 757 1561
3 346 2149 2068
3 2192 1412 1648
3 2138 1192 2216
3 470 2114 1510
3 2114 837 1510
3 1036 2129 1558
3 1117 2197 913
3 2189 811 1952
3 1276 1808 2225
3 518 2138 2216
3 1808 352 2225
3 469 2192 1648
3 1322 1433 1596
3 1305 829 1544
3 2197 735 913
3 2092 328 1139
3 1141 2089 1654
3 829 1130 1544
3 1433 1189 1596
3 224 2146 1609
3 2089 1147 1654
CELL_DATA 4166
SCALARS Von_Mises float 1
LOOKUP_TABLE default
47681853.55455686 1796109.184932004 1803036.4181286993 47595859.42209842 54614929.203914896 50493379.30474477 52844291.97446121 2549740.2359992075 7269556.589458223 46567471.71148654 47209377.08625829 48049517.05140659 48356756.04821539 2550874.6076408336 46531705.45465934 48944385.75131043 45784104.66606429 55075740.15552062 48285255.359544195 44057215.44322893 45762390.42724658 10821635.086693294 35141748.61540777 22585381.850199364 55172748.18274485 16226965.876345355 24536607.604286734 40042314.52827606 20645651.136326574 41085139.58979482 58409752.21856899 5860562.288707861 55220634.69867204 53925514.77716665 25809514.429866698 57453130.56738173 48043794.40425387 53451808.92426548 48479201.28054207 48951691.979923606 48702980.822452374 14923646.177324172 53975465.11903338 53069180.32598385 16365673.244501643 48800807.738822855 53385502.264868304 41533534.35189209 34233499.37518474 30257074.276581913 46720713.77810197 53972061.089840464 22602790.797645267 28028049.167999774 46003930.28252834 29325238.9974369 47532236.616272256 4897664.661992044 5581710.4884787835 4979000.448794094 5804543.159917733 17837313.043990266 17521293.748542894 2389499.9882435706 49832649.78652463 49443675.54102395 11150778.776673356 32945382.824998673 12592800.485339202 52987723.80721567 49750878.732780226 16503008.01103904 29952037.46452413 34789261.77610518 16875585.165363446 34709907.83825714 31545856.3715026 22255779.51999601 18491941.323462263 124536243.5750011 36844742.62787652 5733699.257296263 16940177.25924626 49881556.44738334 43267436.64967499 26269931.758729238 15642392.23352421 14056213.659942491 39741904.3300225 5749797.320461192 53257584.11975851 46407306.10954042 36572671.429811545 44372211.63660252 48222979.21068885 15427301.81264771 5091920.721029569 48681061.18979126 48477581.883389965 45915889.55493542 26836650.79101419 24803914.27311165 46844985.469771616 36398225.68280889 2609024.8810262815 51250519.2732921 18150611.671804693 43569635.12683682 49605102.88768209 69199503.53751867 69201116.09721045 47674443.45737029 6264249.429187362 34773611.610785365 2855125.4026129064 11152684.521191573 49167080.7720842 18760912.72714633 35965180.982962854 45346802.576843634 47920458.433450304 52716342.80676266 30711830.357684437 111723396.74756755 47144994.8959241 46649651.48031721 39255318.82101979 49779996.2026358 244959.20690565815 40615943.40694963 3832982.2647428275 12930921.278671313 43761144.584022716 48464607.360661864 46729644.01805139 46347723.417467855 20626942.303649075 16819562.55942497 54968891.71606643 21844210.055470675 48678199.17585452 45258924.01570439 19438073.34799169 47416847.37112786 49026865.759504095 42018618.7889749 14615206.308519796 5838916.631715745 16989618.01213944 10983348.606314395 48017412.36740662 67537834.87624386 44933074.48350503 48038735.19341589 67525794.38903975 48968677.374531046 37635271.16205443 51933805.78063909 4730328.17915796 3850661.8257699003 49195689.96748028 48290219.465237826 33152028.59799301 68837539.27489774 30843101.983480424 68845761.40529512 48349405.12416426 31429831.236914933 47110510.14338094 48391972.10046103 43834386.34139839 51972057.71615128 4830173.195092686 35058836.05833558 50366500.988361284 51580446.71041895 78971159.14087315 36847302.647403434 36020225.633374915 23385419.629389286 4832903.829093025 14927941.73191281 30369910.558627535 3225174.8843800123 38966446.391705394 49521561.50614814 78988610.28925543 35502588.00250898 16891812.394645903 16584462.766117953 47150606.677243635 36377578.63931871 38073710.85773597 2963963.122263206 48564614.24778028 58452018.9255539 28623621.17929527 21657079.799521085 15779387.409562754 34431084.907276586 11010362.62971954 43637132.73358115 1878488.622475467 23825742.935427222 57269958.67403458 7323201.983455612 82227568.07782817 41424413.03695697 3983062.8190646395 52022338.501525916 48008745.40246885 28742850.162691288 29439005.33812494 58386591.46625839 45516649.36630984 45285605.05604611 38774219.187878475 43866694.18744587 5621019.518307907 29268615.9772907 4339541.415773152 41072946.106614 5976819.0468684 49261345.17672597 10296588.059367605 48188334.75294237 36922377.242030516 13080388.912450083 47826601.08823625 38082124.752004825 6608550.360425252 14580336.12305636 47549682.50925367 33052064.637020864 6614557.707012797 64632791.395399764 16705941.50721995 33737201.561077535 64664047.0090553 48053104.730212815 29445764.7672635 8872285.509196252 13073596.282270757 15822441.959526446 47890096.88856108 15576329.722826531 14771528.536572129 64398511.199945 42998602.88596577 13099952.182495834 14621204.764702354 38392237.31107952 64377613.106162325 47353441.22877867 59395240.787594855 52417461.99032618 50915552.66722049 57238132.96307212 57283530.93711472 38724813.14686647 34934515.80745401 61702123.175961465 48556855.02284993 50447688.23964379 67352053.07548828 49740493.79712091 48123588.395700336 57082297.46199205 49590198.76883194 44868432.709201016 38259189.69221597 37827020.36901123 57151440.004365064 37405262.273058236 12870025.993807249 14763351.782555485 30278583.9248346 37439257.61913377 2786351.049797118 25396861.62070219 56791702.81958848 25286072.201181293 60292177.500874676 34065324.526803955 39095979.11317664 44203100.079732426 47019293.88206935 12660213.394303562 36967612.84282664 48074535.79895911 204298245.095469 46481155.11152192 48213380.22134047 57016745.25764869 43018883.6581761 6238081.813809579 29596983.370640695 8624869.113330755 31529564.72913531 47665351.95820796 24130830.20407568 46034067.7913011 45824742.0666566 66317516.75871886 16692026.811009524 51248858.451530606 50826592.76585699 38135514.059797645 44800118.45702655 31550890.875242487 31932593.415621888 25219160.64794964 6744029.728156752 44383355.87262375 43636198.37276088 66334632.9117159 41700021.28677528 15271513.040972197 33716493.99259798 50131786.97822254 60359041.82550195 51272832.63998618 6181807.768663432 27922454.098956905 30154666.88423581 46376912.85465873 22853136.544792466 53005254.80862423 48105228.7254297 29639650.115806065 48125189.4820861 13567645.730353938 60632893.32712349 61928568.22600901 48327629.29686246 59286316.06541124 25819401.939866405 13255539.086225323 15698015.315410526 44418685.94669237 68860745.90822601 4779294.14054689 24166591.793396395 67233502.1345947 50178621.7891229 68878133.63595094 54172359.617214516 40319271.802529186 47444235.45280993 30386797.448644437 13186639.053308444 47873782.3385543 5957194.506913168 5156603.4782658275 64812794.021296024 57918751.94824402 29840434.69749929 38858097.31804759 54258100.681158945 59250656.34661642 45327627.16500163 36740704.64833153 142926390.17421648 7987680.920526276 50646118.01455157 48469253.657420196 47337764.351788424 66343835.96829316 55270885.691593885 62429086.10173482 9979041.572758513 2216748.3873608247 37483336.60778275 73999419.85021774 47495213.34408365 36973952.25610264 31130802.33610495 47749059.58637217 46677856.65734796 36817819.94121888 48342791.49455986 4483882.391778015 41117905.00747397 23223378.29482129 35852280.666977175 37111965.108219385 55458502.68347263 29882545.932791676 46294396.45301752 53337977.83781872 46202921.76968708 44857990.37594194 52067029.759903796 23285962.599353895 25301576.523074813 47262789.07450867 42740777.74943192 58838519.31593811 60398030.15987542 19278043.818377946 51785066.84795564 17014704.56686986 45661472.22654414 34280918.51812935 54218955.01958594 43376863.82471652 62879054.21605113 69046317.56582914 44338234.22551045 38687531.39091622 14435684.69812206 23614254.638057474 22853181.011519574 32753357.038665034 52208654.355309784 36208647.77066323 26931081.496966626 10040717.641170263 69047509.71062294 49340376.297806025 46298972.17158761 45042232.251135804 32375320.643376406 63058259.44683737 19072298.47753683 41696099.138882734 1783114.4027259143 44367954.59521504 21111397.873011574 21077699.059124336 46817840.00603336 27122046.323895328 31502023.348189395 47033649.92728576 36437628.6090838 26655192.854338195 46522047.93655741 66095134.082362875 47209693.30262885 51359835.690843455 13365311.232353333 34633788.3044331 45553185.46216434 41448466.11822035 55777063.99630995 48996900.53253502 63721567.35962568 21492074.92326382 63671703.8748159 49488709.81031448 3133503.753237007 66095860.26218383 35271517.1283776 47457094.87959702 39677498.86678992 16176301.743113957 16095386.532982117 52641285.7383427 44003307.85327603 38101379.60853532 6098675.282743689 45267964.71845136 6108194.689843945 35966563.57767073 74650503.36262125 49910424.62907526 74708928.16596165 35369246.88784725 16197091.500500448 12186820.072958352 20803764.202527124 43371218.21494292 18119818.143222094 94814997.89306858 94754554.07451199 48256342.88879477 56357613.07619628 35584118.83480297 57482482.05048994 48033612.97947966 11488864.509060564 41168967.04309321 58222991.40601815 16941059.343591478 13561268.97662228 43367301.34321607 4875799.649961653 3995425.7695403327 30469160.105901994 48306748.43761399 56422820.99225836 2253787.4525177553 18777680.939012222 6121074.725330169 60342476.91481894 14502358.53407232 72632528.17124459 43624361.0455378 18531735.72936841 72614340.20602857 37879127.77699465 5603789.652022015 8293589.90080299 35366474.05827051 62689192.2675967 49121950.64315534 21950099.77090684 48404089.83044516 4823930.185268918 60245987.62026512 33351601.235709634 47911428.47199638 62625565.391294606 26807677.399444092 26757070.675277 28940655.22636732 52323991.843532324 8770532.359389106 47371852.66048179 5844716.342600043 4152518.5072847614 40711116.89995859 46464493.76559404 41198094.377386846 34215095.58049285 34212015.26067559 47884504.87617641 30103865.807354875 52514149.86886053 19173876.687172465 47605005.88323969 19165217.763383158 5309527.131977756 89644582.62893234 34604850.637908526 44900517.76707788 16005757.289843444 16005757.289843444 52932303.68260177 48899338.694610216 39752226.05349522 53919796.79867815 39006713.03144984 76820136.28080374 68607873.85875024 32942857.872036077 14280676.56422915 47892358.59230248 48741269.15406726 47988262.72288715 49258080.99560441 14804121.859585008 15008118.27424421 11540086.541907629 41169637.011227615 38008058.97570878 62231353.07395583 40514738.24247879 41251430.54103057 38787189.72662513 48868447.79923016 50818646.69498118 37942136.73319258 50458094.11705028 38059665.099789344 41517973.1201663 6534246.52849794 4863882.18568868 4696808.758431732 6303035.555486205 39221937.55715987 41998939.9660015 39302217.984405264 41098321.624960855 52243335.07310713 38348849.27797292 58370395.239360824 49082919.49230896 47735677.92216757 48864601.11823036 842577.5399542951 36211869.40343188 43692884.170128755 48190311.0930898 8775976.925313978 53527614.39990163 56395959.30482784 47672084.4210559 50170760.17265764 6740844.198724342 20771664.557972237 91539600.78533013 55485294.28787838 25543608.820156112 52580175.54153764 20736001.94007995 46738218.44461674 81222536.3079657 46224398.86424095 45968564.29681304 22063243.068757873 7696128.863905253 13708590.308191575 44004609.4313418 2818734.2984371227 10284657.854449373 54173606.517688766 47459385.88200906 27653843.259154093 46687916.51057908 32924404.193558972 2789685.4568975247 56742089.92948056 8331251.006583392 12796828.729794744 2625503.9636042845 48768763.31600898 47111809.15950221 7088505.886738632 10311993.081673328 7248445.666428091 10140863.843765933 48336568.608707346 7966536.623010913 11701896.125493282 49590622.53146988 51517717.74537436 46366658.457824886 46831348.54542171 62206190.44016641 40169386.524852246 16377903.23473207 56671404.84697857 21120413.0354032 22522840.476788033 27093837.519433532 49048138.12020106 32780105.08323559 36170449.4854119 4270306.636594211 13834567.862372212 46127880.117263466 43731498.54352196 51440464.44291231 53565870.44420553 19427751.815269247 16242925.975881843 43845945.45710769 56426016.77845157 8069538.262518774 25781324.92696153 15721225.3180973 19800904.901365023 29197134.641958404 70458971.14350879 49715844.466663465 26514880.523723736 45579420.11773013 30524891.72486173 29172436.228676893 93998300.52987434 30623448.849109277 45249431.79679566 70483633.26227881 93990263.19545676 17716918.48596982 52941896.93968835 51101701.721709706 48169327.21586096 48626045.252242036 13519657.26857002 52533040.51107341 41997626.290449485 17219425.20071837 37412987.806684345 21839878.257059317 58698449.21364399 18888189.537693493 46237993.973503344 30045098.70723298 48518151.62612151 55303400.42554448 16693281.913193518 46907331.30607582 21775527.953677528 39766056.1173843 105284757.67829734 433306.8319561409 36662160.422648326 24880875.402056683 65429868.49207354 125826738.72372557 49629946.73940108 14880068.18607144 16529582.504865011 33765850.96529864 48624272.26035772 36321161.14010898 48692938.97956339 36080093.8668977 33672968.20204211 48448457.2656177 56568193.04343949 9908749.835356966 53001893.65845064 26753510.189911943 39411626.94280761 47812315.552563414 38368625.60624394 14384091.542180603 1048811.9318754089 7711151.00010428 6082201.073258448 40769154.24897166 12779413.278735824 45428235.497888215 44596480.52459789 28598051.924728956 28518396.17488304 1961334.7660483993 41771507.67746962 8763901.887484899 53276574.52962311 48001344.31370628 56686051.87440939 47908797.92746232 46650429.32992786 92707785.14767368 88584380.59447303 57615424.90799287 50382297.81392577 40427220.176546775 46341595.77139145 17036145.10023072 43852340.70453186 14953704.804033596 31779582.8496768 66708103.87716282 12846658.232153447 45720157.22503269 48386022.43479745 18752141.04051192 33300695.496447343 36839591.592281274 27446209.038886394 36995424.24013393 53024544.08125613 50695072.54938853 10395249.240912005 46000667.41069606 27382509.538355418 47607932.95306229 46715095.48513914 12180017.182301505 3120544.8091288297 47598996.66458034 4437536.386260059 50158996.58861509 48364003.45922319 46556045.5887599 29465996.217019834 44631056.33048189 33081039.808111444 43263639.26571302 47984346.81613123 66732355.06718487 45136519.61833315 52499512.764849335 38524489.960836425 46964028.71913719 39814391.87607924 25086597.022763856 28452538.831918743 3104166.743605112 8887296.382507827 18839860.81465957 11583028.940565202 48500078.52271897 18375277.154313184 31277137.904808756 43703694.79523435 5728220.247872056 12371543.568711134 12946533.808521196 9993231.898406668 12976693.475128574 9996039.967640812 71924941.70634726 10144668.641965605 47284354.64899032 48152285.57298806 23439292.704734817 45377069.291244745 69967050.38939208 87385873.71648093 54073091.39786927 14148604.12915647 151501808.71307245 14582242.487590043 13204304.826867266 69979767.62213221 44802912.00634441 63863768.14633052 33000492.3620266 48802695.82710633 53296757.63546169 95459825.77857211 1107951.4281701685 49098120.034904964 39292562.53608024 26704686.529329266 23172350.83836855 42703654.996808246 31378783.347652208 48036731.10574219 26642513.006462157 10219298.947225891 48622549.37856305 61551482.81968518 48797641.8065938 36820588.81834313 3333207.320070801 49931507.125098094 49957139.69986119 50750908.64550748 16704244.169596834 39157600.80355319 52628231.243910894 46285812.96842224 49220733.42661956 48442152.931004606 113801319.55470042 48723164.57493013 47443169.16882582 21466451.958032377 57254901.86577571 37065272.41268056 88631094.79512747 25044139.790921766 39661571.654909715 8602271.491610648 46965387.286384195 51998030.09838109 30556261.23371392 53126591.419040576 81549360.31396176 47369420.98521222 44110931.69654925 9908469.61522341 22340656.662146684 14330148.032339944 61970315.810564116 48497821.30030613 18738055.122288182 4604981.265753079 104291473.65823421 39854341.433940925 95516588.74772608 50491844.76724477 37091665.19252805 50167187.56395289 35104523.675626025 1127770.0387840185 51302376.201325774 47951706.508336574 51866455.27652146 34717374.607144974 46404113.55423458 50028382.36152564 30807449.60048306 38849518.20583773 23793349.307773497 48099657.13383656 28888260.85537014 25414074.15835927 51391251.51773014 47752743.143201515 41523166.16651127 33950590.41987078 10178756.87035954 34190850.53472021 52947881.79168633 47516953.5905648 38313001.41966113 48715793.039821446 75466118.54264095 39251062.816384785 16705239.809694605 27826348.031717837 50349458.688875064 47953595.56470452 67376127.06538962 87186844.8758098 52370719.74759929 52344995.224027514 25084397.70003012 6174540.5448576575 37196705.94726364 48107191.5529207 48966501.97806818 48354179.24902105 21332183.310830675 48681506.61727269 60644199.63127427 15891101.893463608 69541952.72144325 37770981.12849172 50166106.17136801 37742403.093000926 45089975.74870204 60546974.36610274 48012285.410561085 47513254.62782006 24994511.845546138 29748731.83036551 48254436.19865672 36979765.98468411 57111154.13412581 48501807.75435045 32077579.45238699 23796184.35266648 10051781.837670797 8107290.150372486 48564580.4122587 16541977.613237154 85538114.25783558 48409390.399785765 46513363.06951317 60214247.79898708 40686628.39894383 32569379.561622176 12320519.22542619 46637967.09941787 9735502.224367298 148493019.51856676 91110701.82527375 17690443.934987787 52356872.24261051 48784860.45062486 49476283.51760742 49091004.04420543 43230201.80587992 7571274.598744875 43417997.00220551 36122008.63507773 47237597.35076776 9253710.17994314 40824735.455951944 8137702.05757086 51435691.17426625 49274074.263870314 116904052.19197208 41403675.21828287 48641564.18353848 48675945.1699518 41104029.85362632 37249351.49339443 48314606.49496095 46154230.46182064 46878876.65120101 79134044.42607741 53244713.8576386 77106143.98616768 47453526.76211345 37781360.704348676 48834615.23761409 5545918.503368626 53277592.897271425 12207240.804153377 18274535.41040843 47736544.30737212 44070036.48882729 10079009.796725206 32894135.37216777 55752463.004341014 48055764.090223566 42952160.08993754 22661278.031448573 47283914.1712004 31608055.949897684 18541054.92299027 18513526.382053662 39368617.75038122 48755820.420130454 1455770.480327958 7234451.956173026 39897551.15114428 14475807.747486537 2027760.3220637606 45743591.53640991 85082197.02327448 7117939.1592552345 17859805.98955182 29271336.3101394 48302437.83985631 47131916.35296056 1235342.1826832509 52956332.17159209 40460839.87925213 28576111.028126348 49766987.36404285 38320738.5408844 34154409.45699818 47014355.0100588 38012515.93462864 12865472.955539303 52432772.566445984 35016914.6217433 6715470.47126933 48913385.785876356 31393182.292944193 23517189.044412058 3388700.13314609 3344582.842504495 3577792.83384298 25191672.862742383 25223379.99739743 32394223.809303507 34940906.276271015 49142793.988430314 49102516.904596165 14874337.614043135 38038816.68564287 19642069.427379604 27690608.53193003 60395272.54300864 37162389.303828694 37463100.75765419 13640913.473994479 31784785.887519922 49821062.5882623 5510107.915533799 62522458.060193725 43219470.02535446 22504815.382505033 2051255.9477066558 41909558.61599939 18368517.653329417 48489862.815867394 38041380.2679698 49909003.60337691 22451233.578203633 38247136.63208026 44793364.324314386 45305887.302040316 51189339.571859404 28763264.528037492 48058583.825786114 39500679.81084311 42324370.70877106 52355543.29824722 51715452.22195155 34022096.26280513 30285065.988978755 36430607.11496929 52058374.33065292 34102771.51119868 8218926.0634248685 6397824.500487454 34480084.20957832 47820763.316652134 41503534.617528625 35482087.896747366 50016492.873635724 39328154.642055206 33860136.51150932 33083669.26677015 24064779.167052288 50446766.59734226 61997662.49447777 48808920.0191331 59524724.52485227 71529916.21304391 48824113.61891345 48539095.6062739 32716114.18484809 16571200.728082012 16904218.423586667 46804952.0117251 48032840.460869744 19869563.540617153 48685192.98756407 21019248.342207912 28674346.99175705 47242123.83878533 85399879.40675515 37110140.8630688 63114929.05292523 39958261.08725428 41024448.87290388 87152680.16921686 46363494.532088436 48366721.57930142 52247975.67902059 37338546.23557286 39029357.40097249 29141762.269230053 59119074.921952315 26295593.95271411 40827166.374849 47755639.61456986 33364364.58199044 18660998.629039954 13363344.195784863 13739650.915873326 34652689.92329777 36720360.51622389 47732760.06639766 32302718.64317201 59454840.32419342 56011471.49526211 45732353.32137929 32752392.174481038 52524301.56271835 20129209.800068263 26286128.63491634 22696999.47549143 46154386.17517984 54509252.68070034 55102661.02862109 24520530.534477234 54968206.25534286 10381726.092520941 2837969.0324166724 40896021.6988215 23017244.932247333 47015774.95510616 13863127.059356999 38615985.64374304 42683668.35311303 71515966.60788825 5413990.200501113 51865594.99544362 58613385.23621944 29753421.19863696 34977091.56623885 53684275.9038867 45886922.60643756 32237446.433314625 52164420.15359296 43686517.38817509 23720722.487234186 49382451.20100727 48357420.13740095 18910852.257797606 63509646.048931725 40993609.05248532 43710878.59778471 29702284.88321835 9536451.913262932 59945050.8008952 45560032.104967065 58541341.88311278 54573926.08983578 44388739.5010684 49883362.993545905 5989352.263003288 42278738.63061933 8369381.280693739 49801791.95200683 31990253.132194206 49091076.99810991 49523341.848516025 21738418.911085855 5987638.50712604 51394382.30134942 1539288.398505591 48624561.147014946 42081840.77468076 40357627.48933322 47991277.761723086 37114769.62443072 48193818.379840076 46380467.183810994 31800526.13351018 29313061.480747335 27847837.502960384 26558483.917038757 9239373.937091505 44779190.95436833 44865655.40176876 17403303.472317554 47995173.272283666 48191905.93067857 118942566.77418897 47437524.01383082 45278858.438243486 14219045.57875707 32045476.060598943 34329549.48065268 38610763.29008716 13971569.121413395 6256061.692378595 36470859.97895804 14412522.53854207 41544927.975602016 20811084.925448142 35166479.58368986 25131313.08905249 27586929.15150539 42120105.1441283 6265590.228373849 68254776.55131827 17784961.601869103 31790846.551715694 58485736.61191601 24363516.249768488 58686891.16422159 48980912.39666945 42982032.21530476 48005618.93991898 49565420.27607068 48280912.8908831 50629954.782692455 14131137.242660072 29118769.481697362 17273032.688837286 20677700.021634586 48066057.08968941 47246037.538523145 35174588.0170758 57329572.213663585 45729920.89627701 22125892.54544085 23161483.330519766 45603522.860479094 47377191.05478271 51548030.30483968 35489343.29827016 49090854.39631655 30045377.93220971 12996244.920829467 40655496.03234431 12077234.39106491 33571659.53666539 12076303.227258455 43874934.11958491 42330154.64940466 50237103.464327745 51992947.292528264 36686668.48378886 36728784.307727665 48753803.57247741 35109715.4772933 45674871.17335759 107137430.1397979 48200773.7069326 44055542.9666376 47631692.98162046 30946446.42686127 44946724.471420065 44847382.580349654 46283769.669802725 45129606.701680236 43920220.83347908 4646081.73887349 18757732.97924927 48640477.083133474 41053874.26736775 13514759.399897963 42352190.731299974 53088257.179711856 59624082.154706016 38077759.73233059 26095939.950113814 45092581.353095144 59610122.58655222 46529941.080733284 40106926.41715908 65816323.94712487 23087793.226089388 48584396.872601904 19728901.529150397 48057566.51222867 77558424.93852353 51028314.44470555 52598335.72196235 7778225.529806209 61016183.784267366 33984724.727049224 15475837.129145894 31265376.55192594 16777257.875194326 32472780.20405771 25085628.634338256 27890900.394330867 33002349.131175883 2161756.667893596 32325535.826163042 53493421.0949043 22766225.78268091 47677249.507323444 31374541.184038464 66380.09109781297 52011592.04568339 36946287.92115094 13777270.377619604 51809588.89603084 46570273.668314025 48570809.7857996 19913976.69540014 51299911.09211364 47273000.50649917 46728118.66228978 69707059.6522704 74996294.08169112 35458450.49040183 47464715.28708882 42684672.019296296 42122182.30338352 46457758.062427886 36983963.99287728 51698082.34325933 45096186.79496866 35515368.18177226 52162821.598732546 47906755.34373342 18953302.56486951 47897124.5621797 48008158.79852255 13777171.119738547 5634596.57655657 21876028.531584565 49811662.95492367 132306.24975573033 13257570.296185547 48244912.37382979 45596404.49239587 3374410.69665304 42655236.85976782 19788195.451685864 42404415.90960114 48329224.60069288 34690472.024798304 72796470.94306588 24034347.134031646 30541985.101516332 27724049.813946508 15455204.731061973 40214135.67811752 28662752.317952882 42122043.295447655 41141360.79303548 23250145.312328734 15847480.031760396 37840627.4256061 42450005.71333406 29432441.444029126 17388713.469165217 13211413.331407584 46925247.36531036 31807396.918484785 47028457.85143465 58704219.26615025 31947848.025246758 29960939.960724026 16496593.251365637 47312201.98733791 34729358.76251067 41318162.70554674 58748723.35706465 36890975.597091325 3343101.7863321514 34192240.604940794 46488197.658758454 46490509.25238079 26999120.61968274 54737352.19170883 45427916.56828374 19774244.486823805 31772235.74814238 35768413.67934003 52423619.62747797 45194586.26979809 27122600.28755537 48093776.32159251 20170536.47836399 48589892.748858236 13572747.1534658 44201876.430968255 31068651.00220495 37877161.94547468 38642062.60085928 24734317.011642743 4468505.623044096 17186679.034368567 48121115.88084742 14200921.601149675 53218744.25676725 4566808.037162869 43565712.699123 13681804.728332687 28727494.686563693 8963353.477910282 47358716.94183174 84600680.11473215 44888311.582766525 50688079.99970582 61434057.35315073 25294073.85589711 27856744.32099204 44723133.01982165 61695342.525029354 30515401.73874645 35408602.11837173 45773787.05982508 19892348.32650599 100781480.53850836 34783053.09706545 48215935.841576114 46849398.17494282 6701103.833199864 13701360.828260385 107612119.75302088 48653419.4104201 23006189.35621173 22960254.588610534 43992353.950633444 49216004.48571957 55054654.18219237 35087195.30598546 40263165.32035512 9002403.281990977 579855.3688657992 20691183.379954662 12964235.457885843 42362897.34991735 26071680.49544516 104170025.62817915 37462281.6699447 42520599.63199228 47923965.44546317 48196267.671607755 30339831.871095516 46811220.18726618 54533337.76239068 48364424.86641508 26077088.0902783 30009445.224542975 28402112.000872996 9252091.13474019 61832040.303394 24882928.877989773 8858028.75231822 21819585.54976676 26795966.846215557 44480981.34642611 55597592.17041476 16854582.540387645 38431438.4238577 47231061.641824074 44362590.06016163 45695607.86050741 54097910.20281537 44525164.1952305 41422893.40823686 41334747.797576524 10603513.059477676 43589154.92470229 54460742.36284434 15774893.217230033 2789967.937132576 21899050.40257657 19557002.0329095 48697328.32432507 25523593.953479424 38569104.88999755 261543.67363288306 72249470.08133294 48007067.80258171 38651178.140175425 48157999.06248655 31213343.40266699 48273896.56811102 44076562.114378825 47976009.873701036 52041474.6469316 19141482.983398393 25370837.466339562 43865374.835337125 52313842.77216027 28753689.69156441 30075000.447811615 47719632.656072006 18775076.82100688 5715201.204543071 23662268.395944502 56120998.67546111 45108143.23827038 35244141.209517166 18713583.9657128 12944543.391783975 48285310.36138114 48743445.50841436 47894809.9775793 36904200.56346513 40181934.3239164 50282998.00499308 48579189.36382433 40959974.780506104 40670249.64282402 17384073.856616955 34522652.02551005 51823938.27075828 47298093.4310657 35541942.788413174 56855215.17659685 48066506.725585476 44156972.08959588 48014762.558722354 56694157.366253264 5522026.815837798 9071445.798647806 54889706.99841003 72439992.5139753 68020993.53411171 38839681.48758174 35063891.43784228 62673032.76735553 37237043.497690715 27626863.51651114 87341680.11852048 61220751.88574846 5779942.028372393 39858678.173858404 51926954.10288225 52334187.23185413 49534276.343103774 58887047.40088871 87808332.25017616 36079388.10379366 37777201.94054241 53550235.54836502 3245227.170453504 2775789.3944999846 2831641.201478055 2588853.2072614436 29355937.516170178 32123697.19717464 65583780.680873856 66499487.2571027 51366049.02457989 42975912.51109045 49616183.73420689 67051041.953161016 44698621.256425485 46472991.4746863 50358981.60044853 46429724.67929512 50539252.332595505 34248396.93595871 4261380.485102846 48200187.58765276 56660269.030878454 10451235.89835231 45118272.42168104 24549255.70592433 38059013.02662403 48346073.45764507 42861050.83633683 46401022.15032745 52207688.95756547 50114838.0714054 48224807.68496847 33968602.700459614 40325254.96810398 53508110.052125625 24039310.19409247 47683589.53986948 11915383.513960715 21887005.339067243 48729486.22440268 33402953.423885006 21841173.57579264 36926328.82545919 53792685.9791454 12014293.875558967 48897240.93398643 48624409.211333446 52473330.28209708 40801111.33430615 48174355.108448304 38661983.34865731 48083330.527824104 50263773.416607566 34914527.724256225 47891060.58042533 10895201.406423353 39667899.62814094 51699936.43524741 22404419.88564515 48052820.3290107 62772044.24056936 40092179.85070675 11110217.49753904 23768343.982497714 48171054.84618161 34050393.27592418 45481720.077600636 20413995.96193568 45519583.38799694 44646593.22494328 176009.88693782248 51320915.295216575 56118409.231242985 69575916.90889896 43122329.63118291 7809311.811904405 52241609.718328744 42817104.786059916 57110786.862683766 48098671.74394679 6394777.815477622 58520316.48312322 8298244.129812469 48813781.63964565 48129362.77373793 48087060.81407464 57104728.751152955 64343276.44312021 48172555.949427105 58089048.10525834 48319463.5414385 92118754.41849494 2965406.3865236556 62366816.827460475 20430975.84798401 48200083.90981976 28644726.163597632 41088244.08582778 35235014.76785884 17732712.472767573 39448819.361862086 34917082.300038904 49767354.642423354 68270133.97052749 51990088.17564923 56951669.176360264 51294476.28847019 12743107.5827386 5013418.628548173 9447629.065503143 8782475.245687803 3119785.6991514796 33331117.605212316 49483331.07138889 23137319.857479695 57658744.50020879 49998768.60529772 58078605.74680048 5558761.948776341 79250406.5648366 27218482.249836594 42715770.37465914 49096161.19870537 55411299.90288341 2969992.323098703 87244975.23074237 40693663.65562918 3674565.434494093 48096252.55009822 44441822.95978118 50945435.525181964 41190099.6462863 43649084.16009092 38095999.25860663 51082006.56701585 28583383.342328936 81292658.07844533 59975261.47307486 48741232.0076557 51843932.36109923 18720464.621562712 20356531.474532012 22854873.97632809 52511960.19573488 48381282.34193012 11685073.780635945 42124701.63967187 14530510.495424645 50343342.4401964 90428244.85435003 57607546.07505899 46928970.94263663 52760082.630171396 64206389.17588571 37710469.47668515 22552580.76119577 65531185.37112133 47737699.50155064 47685414.17155315 50092772.506245695 48154859.683336005 24711543.445798755 72516567.5647531 15527762.309403645 40123479.546118766 40268612.1697126 58203088.591499396 70885427.73230186 48101659.27436573 17030194.997406203 5003920.248466115 50524250.67137155 209792153.78767788 45280748.95556812 61405420.53630329 49318452.4535286 41772492.29770156 48248721.53250888 58905191.49185544 56333362.97436595 58942342.207321696 32055901.659659848 40723273.860708825 20698405.882475466 20593169.2754789 49893275.45432169 58429620.074154876 47890335.84223381 48174812.00673734 45898431.59760172 30513870.473946687 51440224.90190058 13756443.678072888 13552521.12129257 48006586.33835959 19211826.039935622 102949410.36887373 34389148.72411737 48944471.190860376 107346881.50873215 48344695.96570808 49713604.438647665 22699896.37546888 37809717.72334728 19795251.824454866 55271268.09910291 58366736.11992813 50536785.27096736 19117955.967040166 56064934.53579868 50036375.665253095 32130573.327097937 23456616.52620219 47393442.85074669 31673587.34065277 29968187.925595783 14020418.417377157 73177315.24182759 49765076.685614 44584414.35422021 49837601.259106845 125165021.70722105 24989953.197424307 2252839.582162211 46076498.95706748 24888115.84919379 34483819.19679998 48373793.61956124 41797750.5178786 9381675.925684808 43444367.41790791 36025382.96688488 28409184.459903028 28280257.933251612 47471838.008795194 55866809.95120095 48416717.013409846 3047614.5701747597 43319713.95831673 49844998.985167794 89239528.35492112 47565617.00221478 59407685.861240864 2250249.842810741 47711330.40259864 10688522.97571263 59410987.17705648 12277748.20633805 119222917.6248976 40571945.424433745 48202065.68711895 39409407.18655423 43616128.32303732 47871714.45148141 14311149.270432105 34518424.51672011 26359214.6770612 43878701.144643724 51621071.73645641 36108677.96853617 32625533.223909196 48689126.09716711 28418485.744075026 6703848.138348329 58060658.3042386 49385175.92379328 12154204.674730938 28295403.15161849 14217361.802933512 121666651.56498851 22317210.764370065 52204016.34079108 27442092.481397133 49882050.75652423 34687819.758989595 35935726.26379404 11056340.64948636 36373168.60081535 34973780.73299762 18013518.69264559 34922998.95634846 46431747.843138464 48560016.94308582 28600402.719080597 11109570.734455459 37611558.223076016 23398711.677254956 48002182.41224343 32701384.712354667 48667576.87662617 32634954.498218726 43222796.79570639 44923766.453369044 21482643.574446864 55259353.489210024 34821609.605321504 43280487.59637944 50070087.03311909 52346219.03798212 27475215.6581261 15315811.833144886 48102587.66397026 39881491.43470405 45582060.65632244 34776748.17499374 1678406.3832901763 16887536.359653305 12290302.010773443 17066249.895349547 12528089.950901475 54957584.13489685 45483810.205509044 51704219.85865042 27942227.84420808 21145157.13518123 32894798.586662907 32812385.95340663 47979890.567089334 49649347.65564928 34362657.729041636 49171624.77852669 39764310.287721425 28052635.081081472 18913375.560818408 52769736.16475607 52890252.96672913 51636333.74378533 48245993.241928026 5014102.279625951 49694207.60462786 33969371.645205416 55249126.07480951 47866708.414258614 49704828.267895706 18254633.12896427 49530368.553188846 45408899.15389831 48996641.26888942 44244607.52525709 49483421.211218886 51047506.76869437 69652964.15502852 42177095.365921974 20577362.12922422 36990528.97786229 32571979.190158844 19826794.576906726 34168758.29359509 13153147.479899352 17920184.901425634 52088913.35267533 51861200.22799485 50408101.91928808 59238535.48463694 6059570.151841184 51461306.73839467 62228700.380821854 10907541.77966727 49686974.51997532 69232611.2772896 24838524.644465994 62349451.0771629 49257885.00694348 48092985.07062226 63807566.500974365 33104518.601869166 25217189.726017375 39856562.807483144 14225181.041584972 70866465.21560648 14166319.285459759 25610343.68750667 79991503.51882704 7820455.004722321 47211986.5161762 14687434.159405176 58414627.26594371 20904787.865601886 47997611.43564878 27337874.8954236 39698209.31359403 57320532.28271132 18389352.301464107 53548091.255146146 48775012.794694245 48792731.81697311 18309449.319957316 105388482.15839793 46501908.71491006 55338919.63983449 45845187.40091406 62982518.564620644 70835268.13460752 14394953.9382572 25064851.983116847 47938385.502287515 36274414.84619954 85370292.22921148 7482295.798826831 31079209.514081493 49200150.61481798 37881706.20255604 47395548.164625876 55530525.048357435 35889787.82629344 60373110.724087715 45590233.98024888 47889737.08387629 62130480.14671787 48150489.52375595 44759953.43412328 21868810.539320234 46943443.86216756 38184629.29423475 50539360.69624937 18789004.28394882 50521735.09130709 78116281.42079386 22306836.89307476 32360221.67904173 65360180.9292961 35334403.41278065 62059440.687351845 46392567.03634739 3185586.8803944266 48629518.727747105 73446438.80836327 33306287.12180481 22182072.018569466 62935875.47874914 65489613.01216003 21455183.702439252 1205671.1134066738 55321062.721915975 43025870.090746 43349343.46916751 55062881.931140415 46988570.6863361 44781589.27402468 3202328.701416349 52790886.80159474 47207045.255948536 62343083.27039427 47975738.22926406 49291598.6011169 41254521.20028444 1377196.2220539965 122404698.6450398 72453293.96120268 13828003.572447693 18515599.860372998 48648707.92766274 48151662.5686635 19939109.23535618 60250875.05777593 25225578.364173986 48205312.78647827 18552826.568698484 20640679.864722505 20665250.76317505 87902731.79594867 46514894.87116107 15379524.158004208 43370479.57201369 2627464.3361163978 5522025.945921097 65518126.286937095 48120834.84569423 65339904.914090656 65299676.78231703 47344828.46480776 48562524.8291655 43673835.417525105 47794416.91068892 44256924.06114142 27003636.519633647 62237838.54533502 48018536.662409894 46783918.20315386 51330499.01200172 40488033.58168953 44375806.30675268 40602290.6943273 41430116.25769328 42197175.278924085 79978909.09888147 50266167.75427345 42090636.49737415 48497854.356408894 48696775.38595598 13858315.825706659 17479778.095611222 39794565.59289096 37810844.56034929 29544451.77370504 21789301.892395087 42222034.82492738 23475541.409210335 47534454.976005904 45790505.24119079 48764649.40156764 40246928.81959875 48134257.081098996 27581733.58919683 10886563.077294277 47036034.55634009 34088196.998150125 34006686.567245536 49358429.713305905 49181946.34204387 41702678.32772838 41694303.03340096 48743847.69614826 62141536.5481923 40841986.55092447 5082176.676606063 15729770.311985448 28061279.057945747 7682544.861307992 10350896.871860825 19510572.7552635 27250885.421080276 43965026.85465275 42900384.4535684 44115561.13329416 47462401.308927506 47023356.36123095 49817460.60121411 24726002.683271646 51688891.37130852 48793754.63298969 57920794.30637915 17228843.037695482 25422070.961101215 45325042.21433801 48928525.99314491 96538050.00526306 96076802.64528483 183834.98544046856 36677732.65381146 26000366.741732154 53902410.90181637 47827726.41802277 47198018.05779565 97020615.60037902 45998643.62057142 20497409.96750285 45739901.42772164 17931401.209703535 45294857.58572105 97234497.20254771 48455426.3421649 52726418.9556219 48906200.42736889 46711227.79990447 13471163.083950358 97374152.15525219 37741870.56401832 47333939.020705275 47284940.16722261 39400955.74337687 10893551.892871447 40985475.0312362 49116112.9678121 48200798.571283154 27536855.392413653 31728223.93930479 44802751.343714826 48111055.659990355 40616360.92906104 42956632.94426486 52591651.12232192 37661903.15229046 18510421.23664184 47802706.71006863 51325731.49040167 43220674.69611563 28528954.17131415 42042824.71660698 44458480.265138246 41945525.0390224 23851032.99670832 23832221.931124974 57657777.02108995 24640184.48137116 40250086.4185889 182334.51407153325 85081382.42793272 113423316.28775948 27460325.83112571 34051927.47057456 48144899.891125105 49278934.192150824 63139124.78419427 55505208.05991923 60144216.58486579 47064874.842124455 9865712.286203478 54011317.91950628 49841973.26696688 40335901.49327132 34011667.6364873 49207160.4796347 48139893.73090613 9342567.808927394 92239042.73464486 42822747.155661955 52791062.903466925 45886382.92798115 44810151.883656755 35928534.980619065 41853917.377504334 15931541.823399387 22716078.88042202 53753982.90809208 38199195.37412093 27902281.802386772 2940233.6405033185 56307491.00781033 20218950.645921588 43457636.24441161 23119784.039316792 50221081.6871582 49442253.824654326 45655894.873559915 65447399.05978697 2269384.979352386 30091840.956440702 47504941.12612692 56860283.340984605 30467309.25175616 49137920.475203 55052087.76180102 55253124.72217979 37595540.68089981 75010272.80574483 33344913.02639236 45708604.347059764 102508913.41817428 46193032.95362556 37034795.70915873 14066359.993437132 14478140.70530448 30457770.537395976 44626003.21327404 41354641.39521972 166365911.59920985 50843150.411593825 42377056.47248706 44176956.515771784 10669804.04192385 45904344.20068094 11689350.566778263 48682011.53426704 9583274.364865081 8431591.35259418 12549861.561710767 30424470.954305895 9255940.024859713 46691226.81334461 50107200.41929659 52365450.529224925 57140708.375466816 7607647.721766694 48880016.46779969 51239647.982919104 41348913.966488846 47228504.20327735 46785189.50411087 51262023.645229965 34545954.961249776 47274618.81363191 48196770.137998976 55327589.721404865 133401739.53905647 55977698.6579073 14836976.733296245 13075495.073326053 43732808.04473593 24298755.072596747 76650406.8921155 49068212.98572844 12573500.993205374 16849061.71418249 45603017.48606519 49165757.14705723 46438098.93003019 42151414.771329775 46730392.642278336 47571986.26422493 48958270.859691836 55522605.816636704 26138705.42292558 47984477.5402813 64808309.941160366 29256492.86480987 16338196.57100194 39483786.956845224 39374803.02814705 43631473.21221603 16632169.58784445 48841892.328754924 5373150.632527717 18245592.940166913 34473664.897789 48056204.7412679 63848939.12391132 32273100.914672658 47954527.574805744 47851861.76250172 24445343.572255094 42245780.614136204 10010834.760493236 3826697.921046129 13605412.892456416 43994303.62169047 48047930.41401042 47846518.64318896 48591050.12966138 48585159.53527182 45239591.85691227 26228675.645009372 21941112.4340159 49022535.87576679 49310606.850513905 48767484.194225095 48117586.21280321 43333033.45902098 48413483.70406945 35747122.340465836 27413026.791229095 34370784.61805272 8362054.653972958 16385035.112977786 30136642.051561788 4007732.758381658 51426748.20327845 24436412.476152536 24397949.264987953 14661517.185131269 48257656.66782954 42222723.3001627 48184803.9772044 23317913.862475432 45941203.63481979 7455558.514209019 51017828.14345601 36945959.14868905 58026074.97353886 39340280.09507997 42702154.60656824 7565879.559044984 73694682.34871475 48553474.36102784 48596722.28353022 49377392.01743388 65752442.10552872 46978093.28366977 42837854.95369893 48572657.40513918 47577487.52259011 18273037.570112303 76613790.17409362 4748864.761126819 24551391.52398221 3331046.2963102693 48656917.96570332 52244454.21481645 21600580.2633575 47685454.76752907 32385985.772269726 41650059.32660214 23427855.306595977 23422467.991316218 45338387.94996543 48319225.980817676 29868484.275747135 177894349.855019 108370621.79456763 49005944.11113514 49229588.0337792 76428698.39006989 41872275.66363698 5058729.744923241 47274129.65585458 52510282.34027039 8134794.495967978 28567762.71069145 25492959.672512874 33363538.14162903 46998183.76317383 48711558.71937576 28470310.585669715 27596107.65947749 45118720.7355608 46703817.63958826 49637610.535477296 14968652.703789411 37183387.87079228 48372062.870945536 49218778.744305976 21282305.93438076 48521040.5418838 25430956.37295913 46403084.39630994 11622102.511338798 43987726.38672293 23889517.846831452 47716251.77128361 42646990.43244958 46350128.50614674 34262316.44741674 48143500.58732759 43528586.06492207 11482044.548639528 48113921.5430569 25453614.10353234 58940336.561948225 49926581.873799816 97518519.29969984 38508237.61429008 48203769.15051377 32991733.245561354 24484491.013717536 11184496.363085927 24657507.848511513 11434552.064856876 28575512.642702885 37478276.94055444 63996305.40245129 61829089.83502753 45979603.308216855 17874682.7587095 34063441.508622326 59213961.23894264 47601436.87330202 17998923.826256182 9838973.532052027 67410148.52911313 38119069.20340074 66042247.32619063 5885476.261358437 48730072.67558286 21460478.74529061 29329708.66837962 51607496.43371315 45103279.410204515 45984670.928542905 4109604.601924028 28381791.90259508 7334258.618602129 8056902.538912159 24486931.342826437 32866852.34638304 62567309.98130103 53723207.14896995 25366150.4962599 58793773.259327605 31089376.324254006 2682142.2052715183 6026684.655629263 54140349.58479957 48258756.209554516 8571079.82910721 39806686.18413699 17399086.36151346 48790086.79303072 47516132.693053775 46860780.10846604 48714070.74319081 38985144.35600587 47528200.10815276 46383080.376926266 23444438.994002007 45591942.56807814 47942277.57733427 20533712.240326405 2744224.5767921475 45979635.67166811 21223315.882025212 54971099.73648347 21748857.790933415 45889354.33094547 34723757.35874786 53370549.95311863 43557726.22224331 58363191.0441749 35451986.03358545 14794714.15602705 48453779.445719436 22684806.039464533 33895253.931868434 17458758.06387952 38736454.210931204 11583401.31135263 46331405.033071674 84171116.33602144 48072156.32296442 24196848.84867237 40613754.78476845 48728909.92044203 46270990.95992504 15781906.253163503 56054845.90357048 15742541.501318088 35644585.68849224 27253643.79898083 34816199.74357444 47049630.39859977 49789114.08817588 59671607.44357744 40053488.85988088 34700564.59229449 83231195.72464378 64105641.92437074 48422946.25821056 32409607.841685593 34393636.641967915 48667879.5083709 48836338.65812997 42894755.73581893 44908442.93983991 25013155.32387924 64711080.715131834 4942708.585155257 48195482.325123735 55007465.86870977 61687051.09249609 47432199.34907095 45973617.954107136 32906634.222853675 4681454.572802104 36619442.10512943 39911893.84119107 52969211.07338884 47812558.29654057 41771864.523324974 8146880.069714264 47408722.707514286 4948677.10873672 45290238.75890917 43984252.79503646 62758595.05261218 5231087.939345058 59256225.004852265 13698698.787489634 44088634.51765786 40693891.342556775 50619609.94842951 39671777.40157781 59306403.77529165 48070590.03411308 1070155.7907417852 33417266.1986688 48757193.54429248 8217063.031803338 15174190.3740283 139580985.44470572 48021451.30715516 27337980.24192014 52806291.96612016 36857165.538513325 9143443.149256814 22866788.57154672 49506002.82501791 32021187.178710718 49560986.625184454 7023873.0419043675 45412971.87213386 5584202.9188743215 42099397.0117536 51463513.56567798 8503512.885174861 27027715.965977065 2041039.1041898052 57441611.26105949 73326750.42908114 60852294.95208903 29579394.526729785 26406423.693081595 48398825.09284039 47462623.864760466 45773773.7728972 38496415.766259626 32569605.943942733 49019284.81301271 8008418.850956968 64694403.5585256 47071123.593337685 6517817.153614643 48245038.46682953 47655894.69695993 15429899.855530849 52472727.3685607 37978827.89303251 50241358.084413484 15440576.108842112 10492453.62035191 52803523.246602155 59252534.03107518 29288939.014537558 41746701.934320204 13814926.316423647 35569666.61699082 47894906.03687826 13717734.174724834 18138714.545671128 13708024.630521774 13650894.882190732 48281180.31828726 5593194.60053111 14027492.20589551 44711695.68179707 21320467.96287104 43763919.67620826 17568511.06300709 33536301.714064915 48561588.98972866 8022535.176118089 30177722.5309692 11046742.009608239 48606766.38360088 231146431.31638318 45445121.87951817 32863527.719410274 43309078.31756124 41852136.31898247 13399829.104055734 32775589.1773721 37345347.88811014 38233029.20800597 23881356.26660782 43820438.49241407 56346520.74188241 48014123.24073547 51911126.950834535 30144072.01116325 54459584.47254397 44810924.14931771 49251996.59291488 11090092.507907651 42407292.270527326 53542532.918081135 47915401.6137438 44212649.494017325 48184250.8137801 34248424.61958143 54893961.54595592 69494987.6034874 33065472.084246866 48527379.45628234 32960591.57559713 44347881.25436191 108597830.61048828 15872214.010069992 48023071.703759514 46712566.62139623 58992633.589469865 46354848.87751026 9028629.194821768 5777051.532012791 20735245.164153073 18917684.80644328 37761472.182712175 37151988.80725738 43646182.48872152 13904846.717193652 33693754.00088661 54177735.41957426 13913152.495791411 35295414.920779444 48222677.648097515 42185536.31400046 31957892.19706786 30300286.3331078 47614952.448658265 50506559.449481755 37006490.21158108 8425293.304074148 39638139.70475921 48010154.62047139 34471808.03812456 50278358.10820045 13764495.004605439 47123629.68372364 39928097.71602402 13825243.927009681 32975064.82435604 11795430.881663404 35227595.36751802 35962418.79516612 33715922.933357425 23275203.0305179 47973386.85495498 44501789.85181537 38446504.37724374 22108152.368968032 47121186.05054219 42463706.42954532 43115266.68977311 48557935.02035256 5562788.428452634 5323783.187830423 49263835.4327357 50096402.86876317 13281974.084475767 37449321.45967584 151465000.90378812 48376809.22263981 13663411.105226783 13805731.29564433 8260632.301048893 8081676.720263867 52818236.02968201 13880526.086693384 45510618.75975021 45657937.14580092 92970014.83127749 42923251.49828959 37393322.95735001 49476975.453296326 92137759.24742308 11121191.387948846 37309942.81229378 11133186.080793465 49600347.485271975 6740974.485647114 47933171.08987458 21399031.22784522 42093584.91254871 54736437.52296093 41860558.21247467 2044419.6058293912 29568145.0838702 34557756.84024775 44689342.664006844 50342305.453751884 8391982.643963464 47807504.69270406 16569863.49543669 23848765.24713723 69310455.9185084 59133261.05848984 37013242.062735766 27917862.23488989 53234658.52365137 23917566.82934942 15731689.962919692 45064371.87641828 34279199.29609758 44850764.72223087 43468333.79786302 65860162.72719895 53862272.071181394 44789137.63748255 42151906.19260271 48253079.737102665 74488883.06180413 14085377.570431776 48264604.08040758 37290600.56721578 109979601.00736907 6780730.677795426 10223683.895232959 46254278.27811349 47447816.27766203 46443268.40605074 42919827.901823 69574354.6756315 47888899.52891706 8324183.65339704 55544442.83742988 88847480.5895264 15430252.401930055 41941628.46788312 48033619.06359593 71200766.07811035 49152717.23284101 57244979.81986353 57254037.939901404 49878042.944524616 105715697.19938757 60086766.514255464 51606468.97415378 34836685.88370663 41364934.88180606 36289693.34850249 31572797.747377113 50343378.84128776 65315669.76489015 50149152.28111775 30008072.65925224 62546889.25991666 28862814.871647153 9919106.75918957 25304440.983478155 48599746.128637 49616096.79432693 8013066.385601997 62515165.6831081 2654824.7303680177 51276015.40802276 40896069.713005506 49269946.521069214 123177446.42616943 49144714.578745395 29671415.94337754 61956457.49599653 48675330.52618207 1899110.4196603717 54360062.40275046 7055585.851344939 46530519.477149256 41895483.39407316 46013372.040312625 48659331.058771655 41890899.95895415 44460259.26459166 18866850.15354963 3771325.5920423428 24988038.493840706 30954052.210719056 39056839.07975336 57830773.60505216 53849064.51368607 43998235.17052917 52075253.71679443 40468248.36516336 9422930.438661778 45763278.618350625 45257088.485729136 43114749.95639265 18092430.976712454 73572169.73130459 48685361.93896258 34144112.63017857 19887228.235730853 38456758.33166967 33468624.51300687 33709622.96094759 38112363.6294046 44983073.87347404 48386224.4004699 42936625.6415376 2925040.8298766343 61867486.41330279 35146120.32858649 53558237.270151 25357505.43344394 9708091.51739609 60671375.87805322 47867146.21234655 72956855.99094738 56180281.927313656 35787435.69789377 39611688.267120324 26189484.298916537 49768680.55735004 32870151.59751285 48798905.498232126 43269299.15411445 51070564.75128207 45727737.067838304 42034327.71370478 45774210.88625553 53531046.774009354 48782628.452327594 21416173.488474786 43782975.567400694 69338425.07450788 51052972.44654657 55637631.002906665 22183477.651425023 46236386.99212574 23174743.576979686 39888364.10388537 47280832.70462451 47829988.478628434 40979017.98594065 18273378.04477597 80842748.23555459 49039105.011613876 10297977.049840303 61637627.09546278 35631986.41644598 35975338.03193223 46100567.06047304 39754573.965987474 48137017.82115716 45414910.78566648 14278401.42156247 14245419.493226398 44060941.42445896 46694471.64632221 17976646.00436636 25162087.209642947 25203114.944316763 48139760.09821142 55675930.90815591 58552691.32724393 58465618.209578685 54293652.17884793 47634707.84204673 45493626.95099111 7150567.814051056 26140443.003772788 53597208.49853672 66923063.46075955 48158380.02572348 39487127.30318513 44287277.766842365 48804682.456782825 50185791.20887775 48997653.899454184 41667184.89773234 7143938.8139627315 34909308.15339113 41791711.005787686 42226188.31319466 42024457.87826326 32165882.41131592 62811812.95078721 47315428.20595663 18835318.093618665 62779996.75022503 23166615.13665346 42722166.66866403 64514041.450218566 26090388.025378615 48162243.75304938 38549831.96349105 45617819.792503245 48226992.81376044 125472734.7615417 57330549.93673252 48181078.840804435 55286140.97621819 50014263.417863876 45097312.57024182 24194203.93885731 8818723.477164488 51703221.72741749 50816295.28141004 55711381.12668997 48101566.616178334 54002078.79816869 64884127.39087362 50880849.96479052 49935334.077557944 14075868.56850065 34574357.63286839 55409402.75268723 20996924.03742819 48171281.10736339 40775403.463630706 47956148.22412372 37593126.14095464 121188378.2119541 30975655.016237993 39555735.10466221 30792767.73095563 48593377.85466898 54927881.935488686 35268944.27037916 55576511.91898166 107672769.64322384 48152520.42422652 54688202.92694202 44986332.87693003 41333482.14392939 24925585.671035156 25178264.52205324 105204977.81346802 29941782.87098729 48596180.77829797 38187511.767278634 26623407.763881996 30431915.96055549 16716384.00930156 48480153.18967094 22683205.063059103 48162039.57708237 39748554.57892253 42205297.50030926 46408853.05763709 22565440.56412003 29880097.462074105 54435054.070928715 30437866.2339139 80743682.28872198 53127228.196065105 52768950.497280635 50588847.39712435 48014414.14820227 30145089.85836906 4777110.420614999 45770193.334761396 46394569.77791182 36003784.44279286 48020197.23406724 17548465.494489647 59458871.27894359 75433433.15746638 59538502.864771 21059590.03863859 47810275.68639371 25311774.288920417 44914101.280354194 51027035.58092894 19441769.7840432 41305891.46510917 47924682.270441 47828655.71947181 37043722.94133357 23830044.71308587 33846166.997558355 23731910.342566874 36865901.76410747 32708582.589922346 64330439.5380191 18851770.384029612 42286738.24856604 42110925.59662691 48273939.11431096 6657378.397968394 49435754.658999465 50550588.012454234 42930765.376924455 62286647.77521959 50610466.61897371 13440125.530423285 30320084.510114957 48440785.04000201 30207190.12036782 38326578.39450194 58502117.0239975 46828280.973272145 2899199.9268734497 41755512.400676206 24557099.59469605 39116441.437898755 40712418.69500586 1124189.5162313378 20830465.829213522 53191100.36076462 53179762.94251057 51156175.264291674 31098494.085635126 41717327.985806614 46778634.11849085 48157796.906144254 53950487.56605233 53947843.1736003 55486187.59364843 64152509.88427929 25525863.97797114 45330852.42315314 25469335.500990987 1842364.3244471531 64213656.63139883 32392291.236517433 37375032.501631916 40373922.34497097 40693653.12842206 32818745.289750002 120283146.43604836 33038768.889105305 18949417.700535808 48068620.8510781 46250684.287318885 54145398.624898195 48464436.20085806 48306933.906750366 33018061.158013456 30337112.051336035 53011553.656952135 54110640.92880642 45575139.61740361 48286005.71696326 26849790.175541352 48145276.548450485 65854064.13779937 55856986.41055729 47117634.1316811 25647127.664042976 55179612.69613532 22863154.28229725 28856695.364952635 50123627.66147575 38719919.356461786 27938816.34960278 51650665.62309093 28818663.282337215 38309895.34470654 52949057.7147362 45509540.21599081 37698311.36790755 15280510.106415737 33857082.76323634 48030698.97490768 23020318.53355818 48037008.61107945 48137406.462865174 17440890.456959967 6620522.722689779 18923020.277386315 52684126.66996541 11678398.124423053 114227604.18692769 50021762.29543818 25103791.853736777 33174649.64366227 38459218.42106176 60423956.87218614 19998023.959417604 13409819.858643942 19955730.373780083 44041166.30502787 60347497.64204267 36400708.006544925 35491372.8526159 48061272.57021331 35079885.11185392 35592773.288059436 34558248.82459566 34557663.69625883 22551541.07361257 44455193.10739814 48882091.80821761 42881351.052306734 22764673.604411595 44767042.82545454 28819341.9401378 13921423.394340537 31762649.252989013 14445095.616902614 12825917.486292368 24468501.24901742 51308753.60736775 54217297.03676373 48355739.12749509 28469027.729184784 48298760.63285547 43977297.511429556 31365219.775481813 51132697.43708231 48125321.81280463 47901373.4427827 17508438.797978666 48873991.025135115 48762639.44150715 47582436.03018055 43470591.29834461 30377490.250416476 21532621.608423017 37827072.662862115 60286924.42634014 41471275.46429346 49815301.14661363 48486252.694093816 42925433.43023009 86564564.9797701 52238005.07263544 40592175.733432606 47281143.63292904 18977669.96910408 43321671.39172236 51789107.92252645 55554323.94865897 45025002.43991915 32474045.577087317 17308989.136396863 54470135.581299916 31089173.835967787 44898341.8251524 28594302.157835662 48207841.95227468 31462626.20435156 34834198.1660856 15152705.427088536 48198800.66643551 34753389.59624572 15169198.081216672 5837187.248663568 33855255.29217919 5164486.0551689565 58762839.57708462 10524734.34943485 26473628.709076643 74721647.74996887 43387776.115304664 36237774.08210163 10475099.774608184 60020203.22282664 7224570.666240285 47955416.00825107 120575732.37462536 22797443.99189487 49038994.01836742 42146419.44094708 53891455.5487046 48969379.39308566 14208857.11091655 50929833.45699029 16628863.983162437 45971456.37515746 1920559.8781178396 18687926.38037104 7278228.064262694 47153940.8573731 54268365.64038053 38844755.85378797 72705625.25307418 48587007.346476905 50938046.46220882 24237547.081851065 58691880.66230159 19563094.107358932 28023678.616014093 53972034.44702072 45252122.994227156 58508817.207040854 51494419.34433036 68369355.72514482 47007240.94747698 6015390.932740091 32560004.168988798 16196944.156145226 36385417.4375529 23779977.713683404 30266245.258887783 38649535.45897889 31338237.028261285 23506774.889556337 47915306.27956933 60443430.345121905 53150133.597562365 16555458.763281344 16675802.261089018 48576350.91359105 48616129.87676543 25728644.709793318 26592680.74611823 22250617.749904796 22186762.190817878 60458548.73362526 54208881.956341535 14894337.762816709 36357763.637196556 23838943.34402432 47950802.989654884 47833298.511384726 39751769.060545295 38840751.88996252 47283510.65724643 65139562.63696358 34474621.631833114 35864182.44866132 44118002.495416194 14267442.537813343 13092064.976280354 38507703.05118635 65145495.187029235 50789427.2611247 52465443.32492737 48003691.98564346 46649751.66265748 47619516.47443938 45917027.773628205 28934770.61218524 113736742.88465434 48342729.278847426 46350201.70160289 28855647.30971131 42420076.43864571 40551504.078820534 29750534.79497792 18818111.409717686 19112734.377975073 47428469.86817781 22567667.380515844 26943316.494126752 54486243.766762204 27946904.23322989 30224188.6047876 47956684.38715201 53234719.476283915 22436449.35976551 36873165.618968114 22262124.174120776 34521384.059666954 3729168.410234669 56482005.32137052 26238940.937332902 48859273.24829434 52414960.74442314 28934112.58826802 44676181.34100543 21357904.730155133 28665413.85668535 58126420.148444 17971422.667826895 38822317.95258538 43219742.0946672 21599942.69809337 38154197.32259313 48969209.36838867 50080152.48679502 47883117.47157572 40597547.74972259 47463784.03491596 11920637.238244485 45656208.05354169 107150669.57078557 18690820.40772745 47147733.44628897 21854473.292710137 25856149.060214072 25108551.798740163 48311094.20937039 17349125.612904612 21189901.598181423 36856508.80909326 18098938.17891067 14098432.464456413 48474603.0653507 27822112.948853966 46421617.972285695 14102801.045732494 44668755.374693274 34569028.06851708 21842777.927604664 25698250.75048828 42266472.013455875 49170928.487967566 13100276.055578632 44525910.134675816 24262359.08989222 68643291.5356763 58053563.05092126 45754206.44175511 41328949.31217855 57414009.3331927 46131324.951804124 51087020.772954315 66978582.058820605 1972680.6763777456 45245086.8703297 21106075.85871237 19864631.562233575 48720641.71035305 70240390.67999066 48694504.38331512 46807557.7081864 48513259.35092257 27214284.929372992 27268092.540230207 36535633.2675087 50253062.53707495 47474309.94595547 35678470.293684006 20787188.842138134 22570833.98729544 20540265.11361617 388306.16744606395 12722738.764532274 48873077.67379555 62010541.560481116 48296188.14529535 122792064.26331161 20808203.48223617 381648.2525291684 104653745.9093656 20569054.529708944 8809677.194411615 46155940.87136839 34898590.83368802 49340135.258572124 54704825.18649626 16306312.911681538 36677791.20000419 26742873.552209757 58147834.27246593 26790621.09070327 34632284.16830127 49652370.15719887 18748013.886240102 560450.4689263141 618293.0840483347 620271.9204879412 563789.2956536121 18862163.566183895 31651041.389100656 47140687.57140009 32406402.686077252 18906350.185232297 61145104.88485447 18450970.047060158 46353408.86954483 22468906.596735317 81702100.32271437 68345994.6741048 53647046.7448357 74947228.32278156 28287718.001422428 8664813.912452435 65667407.461946815 62815416.771017075 50316241.96335948 12330584.660258755 28200431.040075924 50125467.68366005 51262494.39489572 48191955.042995244 27927512.45505887 48862779.529904984 47941637.65380385 47512529.713906 51118351.13906151 56397663.744993925 34832337.72261827 507729.6951483648 51632939.90494723 50630905.972821094 18869301.623456758 32189252.228911217 84315430.43159956 35381697.90273229 39673052.44991625 510283.17537113896 44252141.44108045 43870194.00448218 44551331.796052195 42733116.613093816 44722757.5696762 48579547.56508809 19355045.418262746 50399446.84009807 90084212.3862008 47979899.215791285 48524799.3110836 34105406.98359866 27940658.96269893 11896355.06449799 50974002.92523851 48628350.52767367 43874810.36958036 16622733.287603458 2876653.7569737234 8184398.890754097 41771314.50821231 250739380.64415127 48081525.04216866 22422933.35085564 39308230.51845143 45006178.574995644 51225556.18529545 5977054.350149482 49659125.47139642 36312761.74131329 10060717.187375374 29704596.062464975 42893879.674281344 47310034.466728166 13056132.65852566 50479395.87706055 38731244.305878624 33509477.478748724 35754925.02518408 46799203.63259836 73711984.35231778 36606465.804580145 37227940.58714724 40554184.224173725 24662782.323644165 50883474.24352528 10935959.369112464 67328353.08802213 41421071.816924326 52128127.662189215 52509421.79599601 45076608.33263199 36672373.83999322 29434649.809623756 29914298.123832583 7781989.778181649 25512069.272159494 17086211.82041083 12121707.107652463 12234520.923003532 17145264.111431606 41576893.92727969 47967384.117982514 61323659.766224705 45476137.11976411 36836996.63228794 73790353.98903358 23570504.17520832 45292148.05453596 15840060.276607879 27080344.558243256 22117094.423639227 50850275.65980977 37890978.67199818 38833706.480374195 31297491.71221114 11327673.96456498 37425779.61907832 4208599.952668175 50737827.79745214 34789685.37714227 17596751.737994075 17763246.95042994 44897535.31276864 33654573.751020625 18414490.58156982 7812804.381587651 3182569.3929661117 4082452.609419795 4022310.762746439 3339770.762430751 50852211.9657683 48054619.15180935 48127518.46447868 44368908.734097116 8398535.74504412 50322348.04264931 46330503.77942864 50672076.07361873 37958087.63149604 67004754.02856808 56820906.52042873 22455613.52788794 48085067.877943724 16720711.176329825 47698309.89136704 25354035.79721769 54471064.303642675 22934279.766657457 48432122.78946769 60970154.49348625 7860701.676399797 50948927.347535945 11511105.725055324 27657523.399888206 4408845.486802333 33823229.9979431 12968999.379861366 48015272.4255318 47733369.058489814 48435354.975752845 26915454.776737843 61001982.21604665 49492599.129745014 4469687.487563304 51953074.00172406 48238638.41933428 22985303.730292544 35617522.70640464 24383573.91932184 39591601.51808969 23986810.598858237 47501207.66671439 23923785.374497797 29964158.71396445 31267968.23453911 42157392.49073189 29945602.44999969 60886750.07645649 49548369.02127437 55390043.518193506 20949799.180303235 78368597.46477546 48126351.599753514 29344514.50585643 21893261.64568809 5746914.462540521 27468288.724063613 42269184.765379876 46245494.5007873 48116976.20018515 86097237.5676728 39817936.91020982 46243168.33887962 54548344.92673317 48230857.904612534 22518600.98067991 19610094.463472996 26731390.614210133 3751322.339804815 38639017.405338325 22929799.794646893 47087790.26936441 36912891.504777834 37075572.87300939 37889755.083971344 12499765.009817671 51247782.94302399 9952135.876177536 49116632.02641309 49627917.05185904 46380405.166054904 42387702.92374245 1370238.15323152 27423344.908580076 47626272.80152862 48747166.099404626 19747054.538013134 1351234.597265466 66104618.711812 3762764.196493088 55392861.61172858 48637632.42176572 51456776.8195494 26836103.37202125 65456375.49458584 1758055.3203821033 1325218.9095887027 1907702.5727582865 1365621.4757738316 14702131.91095279 58384739.34337485 12490347.675529402 12436433.635973595 60826111.259077065 5326634.658406567 9800272.081492348 16498863.437139975 196076585.94561726 43605133.87688097 65986930.03711372 39419619.60809142 65096775.49564664 7567299.914639225 13710101.862057937 27750878.702493086 36128146.4458577 51846556.555514894 13565933.49706051 71288496.45725372 26457300.50046873 50858227.95903225 23378011.037846975 48673325.15125306 40061097.350867495 55235077.93028728 41012061.51780039 48249513.799621694 36652267.90946559 9831501.2831072 8857913.596314175 96409027.94084401 26959856.678197894 39384103.52304924 47364674.50045965 131359184.80910769 43589823.44812904 57184652.01736299 10259036.003182001 47365494.12069117 34048237.61033058 55709817.62527531 10398786.814891538 50039870.01636162 42463077.56575518 50022524.31357019 4053723.8535206825 39107016.02086841 80170142.42414695 29431320.563720565 38855595.550340265 80148062.07757755 48412480.96091823 49436938.54118013 56837998.96220424 30553033.311595205 42240867.07292536 4481890.684499057 74941086.46482897 40889191.52123784 48093298.59319587 48890808.90713763 31182354.231241364 12955730.771743666 47144641.46651711 39266134.61730506 39369319.63073441 35941006.291711144 35189948.819757156 47167374.41147558 17919470.26856723 18098015.677249614 27963555.48100888 46646719.1473408 44149911.11569082 66860605.31253766 40495481.27897535 1795664.9898263903 92421975.4948016 55528460.72424999 21120436.228896055 71985950.47087379 22867733.371984903 22776060.8343224 50821745.76447813 48170214.68530311 2251022.672287427 2443848.3823762 2415249.952474888 2284575.3259239118 48597247.073953494 48130184.321872495 30332316.14734221 36829740.109183475 5404782.064924658 49928743.0871359 50946757.539831586 45898286.46384154 18569559.83376139 7709237.057044524 84811246.08877072 47384957.91269385 6172440.818464717 48251820.68042239 33829454.71036937 37904892.71120094 48623129.11178054 49864853.07920452 10566240.95505668 17122784.200804237 32560160.07647459 36027649.80254833 74157269.20607537 31904004.129151892 50052262.00576789 50850775.3674225 31869651.913124222 50736682.42327012 49255801.15431927 4796109.0901486315 47112211.77577309 15758277.718959903 47906936.22723689 47664819.19913592 48415759.56300171 17294058.852272946 42809815.48212093 61304321.59863234 19198993.633122176 49393732.39355139 46210355.94566621 33757773.16002833 48509555.74336228 67437239.88587898 46838062.379676566 16227943.928646363 48872759.60672872 17447702.07340012 48136173.77771506 48907400.93518104 2997904.2524877326 55528698.69296417 37714296.272567414 49109917.21640526 48066330.498394795 27649263.915375397 45738041.38215009 69407732.41068575 38632446.48973399 36444888.79403109 25401952.000664327 12367693.158455146 56705859.35853239 53341699.45468433 52950259.83694614 36423121.68275336 32271236.58675415 45448315.06644139 39128790.408234134 36120211.599519596 118234595.9669144 42893752.13364432 43795536.70091441 46898244.54788087 47895118.9639737 46287897.87195713 46652871.48940121 46904207.70960595 17267068.67974302 48736694.860000186 47666513.149018615 34033910.58437013 10960520.551037362 52250823.400739305 32001977.003114045 67498845.23530722 24513623.490856737 49405980.95003202 26180446.07358322 38805216.28520291 55635887.71013621 2481876.692828446 31930326.499374066 38100457.17344871 21242419.933598854 51181097.81424333 44428779.5432117 96831157.65946087 37269211.288762964 49759414.73716007 127785979.30170143 49295136.47045804 17940295.960536152 81235379.532963 81971805.91978917 51316643.4017367 50990928.7401318 48010140.295586385 52317941.20221182 57853471.85436805 48066771.006049134 60722756.61986593 39998393.734050445 34300062.885985866 29149493.072799567 18000838.692995653 61569150.57840503 36767979.288068466 47905859.998674445 55424075.824505925 44966380.00292889 20505685.358650163 71542377.77990523 48788461.4022967 17859533.74796974 2504623.648992962 22023909.400818694 48492796.06927492 129318365.16731176 16229959.786333518 4743464.072422844 53883290.84502669 41127309.56749256 14170189.24554744 5890487.460431705 55138480.953339174 45726090.832420886 36490003.73827539 56121244.79720404 45064766.28088534 37054161.15659783 51321949.87492755 67186534.36458287 54785976.49314783 4716470.486668884 67220908.14667101 34763149.46110516 46481901.11490237 47697160.81892686 55864713.708428375 51059823.05097117 47605246.42617978 5310995.88474596 45672789.28759276 52074552.840570554 47922365.098411456 18966863.34596438 50777866.31293223 40823010.580850564 40075114.59080683 39871321.77228509 23667478.493737765 47523264.59505607 8823516.925684799 53417845.32899025 48620633.312983885 44786587.952091634 8846684.839215705 28720421.791132595 54736352.32158528 45980599.125452265 32336297.73935505 45948903.3896315 61315351.87569933 50141833.58883055 49755085.62008855 30945290.48875622 49330795.778130904 33407005.04883724 49397324.75429659 32151770.80516251 24997022.663924303 24686389.59077999 32215332.573964436 35374775.611710325 61281209.02851149 43067681.90953125 24342822.104184955 46471397.10973179 53079537.49577518 7278441.4823874775 9412609.921975663 52907512.068847395 52339458.897242114 46236386.13619929 53608448.86863017 22571645.46222775 27892656.95263776 49996019.43604077 55100888.83651275 43482900.21346757 43109892.28877322 56632865.43556729 39705063.70091203 56381131.73515273 24935674.73504847 26190712.42714012 37290284.85617853 32300177.4266416 41601637.4393224 38953255.35507317 54621546.65261607 55599596.0284227 30411192.667972475 49345181.63703987 41498589.000873536 49386768.52988278 44945213.52109112 45038345.615739204 38400394.80632305 46957242.32781311 44514207.462498404 46128781.32638421 46414006.573415056 45055602.569342256 45158274.8551974 54767635.801947616 30997620.010420892 46912417.75081405 44337115.08288546 34455591.82649374 39287618.383969225 48231172.701848865 48380876.68698464 46707565.02641798 48057102.76892721 42026706.98848402 49582180.914453134 50335859.85175446 47219798.707472295 50336266.97332816 48281916.25717095 49326586.68996447 34420923.58650569 22221567.74178857 48041597.82829191 50292771.81049601 47997925.917175815 65564437.76105802 48122455.83780195 47662627.37714832 48100975.548930585 47609968.28604525 52385025.451127015 28677344.751972727 50798416.88618007 47464265.70931585 45026854.01352117 53424797.7989154 31256968.778067555 40452623.783652194 4865312.009128525 44900180.3773888 4814615.301434958 60996295.62938918 2036665.9185281193 48903109.06843235 46458707.62279776 47884089.40088773 55000448.48240725 38274403.997139364 46891159.474889 47764663.84365225 50285463.288751945 53602074.10219209 49183224.49609795 51592040.6052853 47296594.53450988 41775777.88740596 47969754.537812024 34122209.4875006 48072962.59517597 51866603.80544931 40530066.60071872 51629493.883849256 41411490.564158924 53406107.190032706 48332744.73478338 39056496.8012841 52540157.387854345 46863189.84981661 35620221.49749966 50970057.93863864 108194022.91011795 47879940.29983763 15395614.535992213 48117408.74025924 48287484.08545904 44597325.92521334 17879837.745024092 73713601.17675993 44633872.91989909 50956185.19800608 16084642.642551359 48129354.957643025 42500219.40137787 16320871.198888745 27690422.844245054 46963401.71112159 48248559.74862681 38613956.04035248 61305625.89387081 50341926.11883481 51926898.830780946 70819647.23642793 51870485.73410005 48059613.27860449 44355625.322543256 79992882.90172277 49429810.20032425 32271872.0789824 51779208.36563718 48198430.42096273 41702604.01374249 27965989.65507675 42335330.141520195 43403552.033815615 47202286.050117165 56542108.237626776 43481700.59553307 14142967.483739318 64374056.16479932 45806358.525133595 48555148.56320547 48173058.902609706 48162227.508906655 25800925.976213273 56711411.18254067 48137100.014087096 46280248.942056544 51633808.83385342 48372812.771224774 48314395.17561687 48320053.18399479 35973741.61706585 43504308.916011 54018688.08045657 53865963.24526917 1775936.1083689956 48440297.07756532 45273306.447003014 50174606.70433144 37034794.57508096 57593506.08589568 48179807.77062428 48067730.423011 46669375.45383062 1290388.2757774075 44823244.98124801 1762561.8286406118 66570300.459275514 18415015.48746048 44482845.37925838 48024779.943497345 23578235.696409233 47941517.99851168 15170166.129081616 1276863.0938958593 48663425.27305672 76192582.57943451 46536746.70660353 29366933.584733997 48498430.52715102 48633984.578908354 45482851.092643924 48369007.587619856 77247137.68136002 53755274.476812415 58498746.075971566 58889507.753595546 47060558.73620422 48353753.20153603 39564463.40573598 48032419.34207341 27897896.028904296 45179342.63245263 29692267.64351353 48947317.19601681 51452224.14929081 1324341.0830080109 1537885.2830069854 1445279.9603498764 1255174.663687209 38960539.182400756 42216576.6427344 33753758.72843428 51530857.41895089 1525561.773965867 1258733.1140343037 1222913.8350352738 1510476.9929063905 46882309.71574831 48069560.212362565 26421971.80645259 14988650.662800789 14970502.176254617 45438804.010093234 54729682.519237004 21916296.77790663 54616676.6688394 47083189.096300155 49547740.73959066 47712665.8849763 32573899.94180326 17543842.893386345 17547005.050202776 19624000.991263688 19219532.33487624 66073745.934380166 49815215.08784459 50351094.05865062 112207188.77283593 45846404.314919695 38188416.12867114 50862590.49956672 45620298.09364491 14055653.822209792 47991134.99079215 47944964.701885685 50869537.00981511 25820898.368211105 33855829.362323925 43936418.864155084 48124118.49083615 42346366.18833826 46528305.97142044 5668171.75253329 60349716.38976351 45816635.4070097 46840110.33931419 45694914.92915612 34606493.7876861 45964657.90554809 29857672.73799697 39180577.18751907 36459674.69698701 35929304.59595842 45568975.01737645 44806869.035910435 53263494.64194971 48698482.02210384 49601739.65459869 48308675.77528803 56372955.81686203 56457736.8625088 45219110.493478805 39089694.265790224 14338845.064509422 46845322.032493114 49107817.287113264 13161508.69648365 36181735.612750545 69969424.09107555 52324939.818133615 45635181.814161524 15308645.964212637 35579362.77877423 45151353.27871032 50894774.98052371 45816244.77201343 44864278.855246894 47061806.904370524 49056178.71641087 49106242.74645022 49059945.85799845 58006685.22962715 46447156.98745948 54350490.927064225 37721260.3997603 57794968.14534378 17203760.193007305 48016161.74356485 48761867.66829221 62862112.93351887 48561243.74137119 48139057.71775198 48207385.61595015 48456906.72723188 48500394.63949331 49446104.85902999 21611084.684091985 17890444.656489886 32699111.53184682 44348674.89423992 44600419.94267653 51902244.54006932 44479516.45576935 39683370.08088772 60269023.45089177 22988162.131169997 50770098.96819875 45180151.09075319 58176106.02006543 52269169.67197805 20926020.525234897 46984013.96698772 48186352.11316922 48247191.30875871 64408825.36024635 48812193.111111306 40373095.88900119 43694798.58191021 39183430.813397676 44089081.2627404 21727089.32107905 8703024.741984393 40474032.73965745 48372514.310444094 32456116.3421625 54733142.060039915 41119174.75292531 22474700.8663325 1042628.6540134589 54501578.87145166