# vtk DataFile Version 2.0
Really cool data
ASCII
DATASET POLYDATA
POINTS 2379 float
10.0 25.0 0
9.499999999999998 2.5 0
15.5 2.5 0
15.0 12.5 0
20.0 12.5 0
19.5 2.5 0
25.5 2.5 0
25.0 20.0 0
13.21875 5.0 0
12.5 5.71875 0
11.78125 5.0 0
12.5 4.28125 0
23.21875 5.0 0
22.5 5.71875 0
21.78125 5.0 0
22.5 4.28125 0
13.21875 21.5 0
12.5 22.21875 0
11.78125 21.5 0
12.5 20.78125 0
23.21875 17.5 0
22.5 18.21875 0
21.78125 17.5 0
22.5 16.78125 0
12.5 15.5 0
20.0 15.5 0
20.0 14.5 0
12.5 14.5 0
9.991935483858025 24.63709677361116 0
9.983870967686876 24.27419354590941 0
9.975806451505594 23.91129031775169 0
9.967741935387979 23.54838709245913 0
9.959677419287308 23.18548386792893 0
9.951612903177157 22.82258064297202 0
9.943548387037561 22.45967741669023 0
9.935483870865918 22.09677418896629 0
9.927419354663494 21.73387095985724 0
9.919354838499428 21.37096773247424 0
9.911290322402236 21.00806450810057 0
9.903225806239442 20.64516128077486 0
9.895161290090327 20.28225805406479 0
9.88709677392396 19.91935482657819 0
9.879032257749005 19.55645159870528 0
9.87096774158539 19.19354837134259 0
9.862903225443695 18.8306451449664 0
9.854838709266936 18.46774191701208 0
9.846774193129884 18.10483869084486 0
9.8387096769655 17.74193546344752 0
9.830645160817648 17.3790322367941 0
9.822580644653016 17.01612900938582 0
9.814516128535823 16.65322578411198 0
9.80645161236424 16.29032255639083 0
9.798387096184427 15.92741932829917 0
9.790322580028553 15.56451610128487 0
9.782258063860747 15.20161287373363 0
9.774193547698067 14.83870964641301 0
9.766129031557885 14.47580642010487 0
9.758064515415136 14.11290319368108 0
9.749999999265055 13.74999996692745 0
9.741935483151023 13.38709674179607 0
9.733870967040986 13.02419351684439 0
9.725806450970376 12.66129029366696 0
9.717741934888643 12.29838706998896 0
9.709677418789838 11.93548384554277 0
9.701612902692275 11.57258062115251 0
9.6935483865711 11.20967739569949 0
9.685483870450787 10.84677417028545 0
9.677419354371613 10.48387094672266 0
9.669354838248523 10.12096772118364 0
9.66129032215358 9.75806449691109 0
9.653225806025599 9.39516127115204 0
9.645161289919614 9.032258046382696 0
9.63709677382252 8.669354822013439 0
9.629032257712137 8.306451597046282 0
9.620967741597934 7.943548371907037 0
9.612903225478219 7.58064514651981 0
9.604838709395764 7.217741922809518 0
9.596774193335289 6.854838700088075 0
9.588709677229938 6.491935475347274 0
9.580645161101724 6.129032249577598 0
9.572580644996847 5.766129024858337 0
9.564516128916669 5.403225801250091 0
9.556451612836 5.040322577620052 0
9.548387096737235 4.677419353175575 0
9.540322580608505 4.314516127382788 0
9.532258064471684 3.951612901225835 0
9.524193548396726 3.588709677852687 0
9.516129032273984 3.225806452329359 0
9.508064516148213 2.862903226669649 0
9.852941176575179 2.5 0
10.20588235384425 2.5 0
10.55882353096536 2.5 0
10.91176470721401 2.5 0
11.2647058842994 2.5 0
11.61764706100214 2.5 0
11.97058823810794 2.5 0
12.3235294170403 2.5 0
12.67647059214862 2.5 0
13.02941176563702 2.5 0
13.38235294061013 2.5 0
13.73529411351178 2.5 0
14.08823528775529 2.5 0
14.44117646397333 2.5 0
14.79411764123219 2.5 0
15.14705882094263 2.5 0
15.48214285710404 2.857142857919064 0
15.46428571423325 3.214285715335077 0
15.44642857135935 3.571428572812889 0
15.42857142846433 3.928571430713412 0
15.41071428559489 4.285714288102234 0
15.3928571427184 4.642857145631958 0
15.37499999986416 5.000000002716725 0
15.35714285692995 5.357142861400871 0
15.33928571401367 5.714285719726578 0
15.32142857106964 6.07142857860725 0
15.30357142814068 6.428571437186336 0
15.28571428519924 6.785714296015096 0
15.26785714229736 7.142857154052814 0
15.24999999944757 7.500000011048588 0
15.23214285665211 7.857142866957921 0
15.21428571381986 8.214285723602668 0
15.19642857098651 8.571428580269666 0
15.17857142818586 8.928571436282821 0
15.16071428546017 9.285714290796712 0
15.14285714268139 9.642857146372322 0
15.12499999988752 10.00000000224952 0
15.10714285709138 10.35714285817244 0
15.08928571426198 10.71428571476034 0
15.07142857140775 11.0714285718451 0
15.05357142859945 11.4285714280109 0
15.03571428572961 11.78571428540776 0
15.01785714284225 12.14285714315502 0
15.3571428591223 12.5 0
15.71428571719138 12.5 0
16.07142857423201 12.5 0
16.42857142974857 12.5 0
16.7857142846084 12.5 0
17.14285714112862 12.5 0
17.49999999772317 12.5 0
17.85714285297952 12.5 0
18.21428571083795 12.5 0
18.57142855939082 12.5 0
18.92857141386655 12.5 0
19.28571427430228 12.5 0
19.64285713574168 12.5 0
19.98214285709066 12.14285714181319 0
19.96428571422755 11.7857142845509 0
19.9464285713915 11.42857142782999 0
19.92857142850372 11.07142857007454 0
19.91071428566385 10.71428571327699 0
19.89285714274722 10.35714285494433 0
19.87499999981069 9.999999996213674 0
19.85714285679789 9.642857135957803 0
19.83928571385784 9.2857142771567 0
19.82142857094275 8.92857141885494 0
19.80357142811986 8.571428562397289 0
19.78571428518957 8.214285703791473 0
19.76785714222912 7.85714284458249 0
19.74999999927616 7.499999985523064 0
19.73214285649986 7.142857129997356 0
19.71428571378 6.785714275600116 0
19.69642857096893 6.42857141937854 0
19.67857142816632 6.071428563326299 0
19.66071428530542 5.714285706108507 0
19.64285714248335 5.357142849666927 0
19.62499999965938 4.999999993187642 0
19.60714285683545 4.642857136708982 0
19.58928571409201 4.285714281840209 0
19.57142857126215 3.928571425242887 0
19.55357142848666 3.571428569733251 0
19.53571428567042 3.214285713408467 0
19.51785714289288 2.857142857857421 0
19.85294117629201 2.5 0
20.20588235487999 2.5 0
20.55882352693214 2.5 0
20.91176470067818 2.5 0
21.26470587509772 2.5 0
21.61764704895601 2.5 0
21.97058822759501 2.5 0
22.32352940747382 2.5 0
22.67647058455666 2.5 0
23.02941176067775 2.5 0
23.38235293441871 2.5 0
23.73529410473613 2.5 0
24.08823527892097 2.5 0
24.44117645565941 2.5 0
24.79411763635966 2.5 0
25.14705881820279 2.5 0
25.48958333332585 2.864583333595161 0
25.47916666664597 3.229166667390891 0
25.46874999996687 3.593750001159383 0
25.45833333328636 3.958333334977398 0
25.447916666602 4.322916668929952 0
25.43749999991316 4.687500003039327 0
25.42708333324472 5.052083336434745 0
25.4166666665751 5.416666669871431 0
25.4062499998852 5.78125000401795 0
25.39583333321691 6.145833337408416 0
25.38541666653144 6.510416671399764 0
25.37499999984903 6.875000005283809 0
25.36458333316022 7.239583339392362 0
25.35416666645721 7.604166673997792 0
25.34374999977512 7.968750007870696 0
25.33333333308926 8.333333341876074 0
25.32291666640567 8.697916675801387 0
25.31249999972474 9.062500009634261 0
25.30208333305578 9.42708334304784 0
25.29166666633597 9.791666678240944 0
25.281249999644 10.1562500124601 0
25.27083333292552 10.52083334760698 0
25.26041666625816 10.88541668096443 0
25.24999999957175 11.25000001498879 0
25.23958333293401 11.61458334730956 0
25.22916666630316 11.97916667938932 0
25.21874999963477 12.34375001278308 0
25.20833333300986 12.70833334465483 0
25.19791666636482 13.07291667723147 0
25.18749999970019 13.43750001049318 0
25.17708333305312 13.8020833431408 0
25.16666666648339 14.16666667308115 0
25.15624999988681 14.53125000396162 0
25.14583333327724 14.89583333529646 0
25.13541666672773 15.26041666452946 0
25.12500000013395 15.62499999531171 0
25.11458333346292 15.9895833287975 0
25.10416666681642 16.35416666142532 0
25.09375000019333 16.71874999323352 0
25.08333333356111 17.08333332536115 0
25.07291666688319 17.44791665908837 0
25.06250000021687 17.8124999924095 0
25.05208333355612 18.17708332553584 0
25.04166666690528 18.54166665831552 0
25.03125000016995 18.90624999405174 0
25.0208333334352 19.27083332976814 0
25.01041666669018 19.63541666584358 0
24.65909090697006 20.11363636434331 0
24.31818181387862 20.22727272870713 0
23.97727272112545 20.34090909295818 0
23.63636362933978 20.45454545688674 0
23.29545454074166 20.56818181975278 0
22.95454545175678 20.68181818274774 0
22.61363635870555 20.79545454709815 0
22.27272726938004 20.90909091020665 0
21.93181817642107 21.02272727452631 0
21.59090908415283 21.13636363861572 0
21.24999999070893 21.25000000309703 0
20.909090898365 21.36363636721167 0
20.5681818062032 21.4772727312656 0
20.22727271532826 21.59090909489058 0
19.88636362288735 21.70454545903755 0
19.54545453222531 21.81818182259157 0
19.20454544067146 21.93181818644285 0
18.86363634917439 22.0454545502752 0
18.52272726008306 22.15909091330565 0
18.18181816691119 22.27272727769627 0
17.84090907624678 22.38636364125107 0
17.49999998161302 22.500000006129 0
17.15909089129634 22.61363636956789 0
16.81818180107666 22.72727273297446 0
16.47727271035784 22.84090909654739 0
16.13636362113641 22.9545454596212 0
15.79545453028867 23.06818182323711 0
15.4545454400335 23.18181818665549 0
15.11363634812483 23.29545455062506 0
14.77272725866684 23.40909091377772 0
14.43181816866006 23.52272727711332 0
14.09090907805834 23.63636364064723 0
13.74999998745307 23.75000000418231 0
13.40909089754563 23.86363636748479 0
13.06818180839043 23.97727273053652 0
12.72727271853859 24.09090909382047 0
12.38636362812021 24.20454545729326 0
12.04545453791708 24.31818182069431 0
11.70454544876188 24.43181818374604 0
11.36363635991656 24.54545454669448 0
11.02272727049761 24.65909090983413 0
10.68181818161208 24.77272727279597 0
10.34090909059876 24.88636363646708 0
13.12245575810983 5.359375001489979 0
12.85937500007252 5.622455758928196 0
12.14062499745613 5.622455757501361 0
11.87754424071326 5.359374999451498 0
11.87754424189017 4.640624998510021 0
12.14062499992748 4.377544241071804 0
12.85937500254387 4.377544242498639 0
13.12245575928674 4.640625000548502 0
23.12245575866386 5.359375000530365 0
22.85937499942928 5.622455759299569 0
22.14062499843458 5.622455758066268 0
21.87754423944776 5.35937499725959 0
21.87754424133614 4.640624999469635 0
22.14062500057072 4.377544240700431 0
22.85937500156542 4.377544241933732 0
23.12245576055224 4.64062500274041 0
13.12245575835722 21.85937500106149 0
12.8593749974183 22.12245576046061 0
12.14062499962912 22.12245575875594 0
11.87754424065191 21.85937499934525 0
11.87754424164278 21.14062499893851 0
12.1406250025817 20.87754423953939 0
12.85937500037088 20.87754424124406 0
13.12245575934809 21.14062500065475 0
23.1224557587305 17.85937500041494 0
22.85937499688295 18.1224557607697 0
22.14062499958506 18.1224557587305 0
21.8775442392303 17.85937499688295 0
21.8775442412695 17.14062499958506 0
22.14062500311705 16.8775442392303 0
22.85937500041494 16.8775442412695 0
23.1224557607697 17.14062500311705 0
13.0357142863834 15.5 0
13.57142857334916 15.5 0
14.10714285783675 15.5 0
14.64285714470339 15.5 0
15.17857143070267 15.5 0
15.71428571720997 15.5 0
16.25000000702564 15.5 0
16.78571428904744 15.5 0
17.32142857412979 15.5 0
17.8571428511085 15.5 0
18.39285713616606 15.5 0
18.92857142211578 15.5 0
19.46428571101452 15.5 0
20.0 14.99999999601014 0
19.46428571160309 14.5 0
18.92857142040583 14.5 0
18.39285713577575 14.5 0
17.85714284336419 14.5 0
17.32142855637984 14.5 0
16.7857142655791 14.5 0
16.2499999775787 14.5 0
15.71428569556309 14.5 0
15.17857141150299 14.5 0
14.64285712475407 14.5 0
14.10714284117721 14.5 0
13.57142856006613 14.5 0
13.03571428124737 14.5 0
12.5 14.99999999867727 0
24.20306245968403 8.394268284995029 0
11.20020805015069 23.11451147723969 0
10.21717088544218 12.6222852441752 0
15.96828850385863 19.609411024288 0
11.75397281904 9.207719797211803 0
23.58477430376345 15.51433565779462 0
10.29514010857827 5.572202533227369 0
17.56375755459549 21.4323446129071 0
16.74463417807606 20.27806929359991 0
23.86143712033289 5.450447980480119 0
13.44357742196526 22.86022451554333 0
23.59432561893162 10.98816069804239 0
14.48267261492263 10.17764168311253 0
23.35686845958105 12.02606410846714 0
11.3373866761736 7.195128558331651 0
21.46474646434847 14.61300462720701 0
23.48225207173737 18.46541241977737 0
12.41660525942324 8.6114552712681 0
20.85109937959801 20.029030582939 0
19.11509669356569 18.87901705575766 0
19.26085121128391 20.38701660414594 0
14.17405196134582 19.72024402421947 0
10.61211752327281 15.01337674546047 0
23.54688343993452 9.969400355367405 0
14.05965492669484 22.95022110173118 0
11.38526182846678 12.8979549379332 0
11.78699819435129 10.93635098417294 0
11.49221775967991 16.75950013701061 0
14.62538465387953 17.77409041325224 0
11.71812798361456 15.02427517855664 0
17.19680346074705 17.75030903057158 0
23.50764782360859 12.87360732651299 0
10.24256022094865 4.276066393541586 0
21.58653022909808 5.828641360972317 0
12.36967325553309 18.31168232457775 0
12.62678619829783 9.533772914033413 0
22.57775217549034 10.43922267760746 0
15.86581970759163 18.28431988397525 0
10.7553339799417 17.36047110440443 0
15.45505448001439 18.05840204356168 0
13.60801950537079 18.47114026248365 0
14.22616447411165 22.33758437679039 0
14.23757794347343 19.01302553769711 0
21.62488342332094 6.945772501078015 0
11.27161919452652 6.157955863805429 0
11.32213585577636 20.63247824124255 0
12.50000000459445 3.22390236844625 0
20.63175441051303 13.33188260915399 0
10.81866775133302 6.086931432940554 0
21.21932091519507 3.114324482144008 0
22.49633686937594 6.806160077046638 0
20.32742955082085 20.42387068848243 0
10.65920266366705 12.19397863264823 0
20.40904654685386 9.095870585500801 0
14.12501242773047 20.85684518132923 0
17.89196274865701 19.04953086504544 0
14.21269044651794 9.615223308198175 0
20.78376792797122 19.46002647811561 0
12.12319778956537 7.713553042364865 0
20.71466266720473 7.836104539269513 0
15.91652259600028 16.97272851100499 0
23.23201114525545 13.67494102697128 0
14.09619586571095 6.156220784914076 0
11.03552692356817 11.17515406410532 0
15.25605552520919 16.38268342845362 0
17.74243510065071 20.38639625696171 0
13.72074697421493 11.55271884245179 0
22.5919676510031 8.62010880431926 0
24.39761239695596 10.47534112855023 0
19.84264627688107 19.58416761929912 0
10.93998952960088 22.20005011826894 0
14.29694835587267 4.903089049548789 0
11.17823717168891 14.24417563032126 0
24.23185019411942 17.3187815754787 0
23.32677088729918 20.09394904509463 0
11.56469042603936 5.820777196506474 0
10.75125223477925 13.44516768965602 0
14.15180781962963 3.786320882122365 0
22.57835415609965 12.46834387399334 0
20.70312500021587 4.877766773131186 0
22.24360378523474 20.22293479556984 0
11.78056123933763 3.47565418028376 0
20.59866008891285 6.960747889340344 0
20.15722749935669 4.850610517665682 0
19.7190471765535 18.9729107219302 0
25.00667519013075 2.930964996547845 0
23.61850057635199 7.627056527021598 0
21.79411763827554 3.462453448678544 0
23.12165328287807 19.68518835573138 0
21.46690504700066 20.19616970671221 0
20.90124278244416 6.145451305215794 0
21.54145390385153 15.39726050928026 0
17.2659562409113 21.21588297394658 0
16.00758868223333 16.22798968982414 0
11.10021738190013 18.2585256165795 0
19.65243256519708 13.5021440707756 0
22.69601815795483 14.27859083531267 0
18.37936988303909 18.38178596928613 0
10.21885538779028 6.296391018715227 0
23.818359052836 6.975047483511648 0
21.81364396278435 13.58662397825888 0
13.30305166878879 17.02812881179257 0
20.92950429595753 12.34950851579293 0
21.26895581836854 11.54146292241249 0
16.52395017165697 21.27639602768287 0
22.5934639267438 11.47608114785717 0
16.88966695875415 16.37519422228003 0
11.78102426464111 23.07250130774219 0
11.57600037449626 16.08662165451389 0
23.99620408171756 14.71669093313437 0
23.95735136240362 11.24005614893685 0
10.8395168350549 7.329080639364241 0
21.39294336587791 14.16650445230577 0
15.12295866835606 21.38380048057971 0
13.65209712363145 13.44501484310684 0
12.95522640079563 19.45944401033031 0
23.82298369796954 19.02016001284681 0
12.93522752276279 23.32267728577372 0
23.10076974576951 8.628202858640588 0
12.44798612821786 6.855238799655321 0
20.73107129709959 18.26634251662205 0
10.58501530186104 7.809780638606966 0
20.84819218030001 3.786320881159783 0
24.03100612594892 8.730303130419212 0
24.3659397495148 9.551334372849283 0
10.33547898450151 8.484611588050162 0
23.21443288411325 9.214412891259053 0
11.41297861468865 19.46701288010651 0
21.67925064071138 12.967481793075 0
24.16447598153473 6.095394103478793 0
23.61145387050871 7.206419188609033 0
19.99547607540292 17.2809011370357 0
11.0141840616084 8.721691653347712 0
21.6047006237294 10.03864647330923 0
21.18636646721609 8.693559270424544 0
12.37820959315121 12.53584284972297 0
24.69132967029591 5.564251677919956 0
10.50533144329471 6.885142687868818 0
15.76722747207833 20.8896520370909 0
11.08643978845723 15.55906171622184 0
13.78067907882378 3.114324482943047 0
11.46460907828088 14.56215649336613 0
17.02208545153932 13.5883793562974 0
20.77831515813079 9.597604698212027 0
11.7216235781609 18.25356932714012 0
12.37687045151971 11.47375423642704 0
15.89773275300526 13.43860217709375 0
13.12633161044196 10.89324587391549 0
11.39973442011652 17.56979355851751 0
11.735726798605 8.549247785784983 0
10.60669660633401 10.50135038361032 0
13.47776843950349 7.275430699953667 0
11.41095188878333 9.980492532062762 0
23.29396403227928 8.06319847577673 0
13.35620728434153 12.83606642636818 0
10.81309923737661 23.8458252910325 0
13.38702415180163 10.04043320002429 0
13.62350919526184 22.25326237621567 0
15.865263543351 21.9711435923161 0
21.73217632585491 6.396974228154587 0
17.75763946982765 16.72629946851192 0
21.28723235870046 6.31790187873991 0
13.52977474062446 5.249259834740175 0
22.58471880315591 15.74931417920131 0
10.45208378655683 15.74230660844924 0
15.6530052919347 22.55530037507188 0
21.48051946081911 7.217984342918436 0
21.13946751879597 5.435632858123881 0
10.48640309803287 20.81374300479966 0
24.02851083562646 16.50587411310433 0
19.61925834996506 16.97872345592263 0
23.92491823660506 14.25017582180349 0
17.29806888040923 19.73171896345776 0
18.64644678720232 13.53502795161673 0
22.25723511538145 7.735226031711061 0
11.12846429013783 9.846329317143002 0
13.52892131879126 21.50055672383829 0
11.55275297085791 6.106357468506443 0
23.14369706113711 3.785928087437366 0
18.62840159639574 17.566149245571 0
21.89736500628142 14.74605490012937 0
18.50797772009856 21.07742441073376 0
24.24506461428264 13.44385667222115 0
15.15266385198872 20.30645267143367 0
24.35895484491029 4.929780334305919 0
10.85443614059443 3.763203033396548 0
10.98948488496855 20.42991075074039 0
23.74050128481045 13.34416565374922 0
19.20167214146676 16.6553485976176 0
11.66532520448221 6.369085629936895 0
14.3242321316223 6.89968907322279 0
10.24336039078345 13.7551746563122 0
14.38779715573642 16.59362704191959 0
13.79467343473757 8.70018783496216 0
11.6333750487768 11.95514211257933 0
14.13535220606463 10.70551584072103 0
22.8644985132698 9.863474506782826 0
24.74652387765846 4.270915241669845 0
16.77751054096146 22.02583579002135 0
12.91581296612309 18.76221384658292 0
15.07687325945052 22.40325703526478 0
16.75702777430045 18.23283117548482 0
11.4124948286053 7.9261759434232 0
23.31551043105047 16.24240564451607 0
14.27176096272638 7.83995941093313 0
21.19854097935579 4.36507465706182 0
10.29727526986907 3.269882660648328 0
22.37650359831488 13.36019514421965 0
23.81964015023203 4.380635930466039 0
10.90859546087026 16.93496430769889 0
10.37419233300764 11.13073285141632 0
22.16792590022292 19.49487082208015 0
14.74549232737821 3.249027223688094 0
21.86213852178069 8.609642054364798 0
22.93228323162997 14.99165113355768 0
20.2545076725171 3.249027222719971 0
22.36909345393491 9.522460297641283 0
10.891697802269 8.191233716281385 0
21.83503406915356 10.91653080729243 0
15.35526147380804 17.6356746407937 0
10.66905350394208 4.935036588071075 0
24.14019502131423 3.760189933429571 0
20.32020737857846 11.57294489155947 0
21.96089812162974 11.96927781537462 0
20.60760946594981 11.36190370992188 0
10.67096413139116 19.76545016190341 0
22.90521402312475 18.85144410757647 0
11.00211086327495 19.44058229471938 0
13.06320883849646 17.84182679193474 0
13.0225024746388 11.99323712855567 0
12.29252295328699 23.19381144592601 0
14.59426872464151 5.473228460512897 0
15.87795501825699 13.02704297757448 0
20.8698729905215 16.42785411177135 0
13.8967617480127 21.60084378807156 0
25.16035487866012 3.459673536170629 0
24.36558105720166 7.829302167356897 0
11.84199342389173 15.4978368672571 0
12.33948647432633 17.21479824359503 0
24.32147315620709 15.05472066151883 0
11.55265685399334 22.48190444281457 0
20.51614800086094 10.17606524788395 0
19.75920459966773 18.24522609423261 0
23.61476890373672 7.950138295679615 0
24.2994350399578 2.97854918468296 0
14.66919998818477 6.389898060086764 0
12.40431109615567 10.40298046641489 0
12.1037280253999 20.02109284490914 0
21.62676823091226 7.971533353835018 0
10.65747436716461 16.40819907028483 0
13.13657549130803 8.099784699253666 0
13.73425428042317 8.091947172104774 0
24.37744672487597 15.76692131343069 0
24.89259073795229 4.854371643204857 0
24.70576493695943 10.03208308581961 0
10.06071582578991 11.41050968927932 0
20.27999666986083 4.329608018080681 0
21.0536461241723 10.11171867608192 0
20.2672854092777 8.052608412957383 0
12.82608264190595 22.71129563866172 0
14.37111048271564 11.31731860186476 0
10.6554221945048 22.86479616550853 0
10.6818246808298 19.01158921920163 0
13.2058823531236 3.462453447565123 0
11.15904027737187 4.360309814199162 0
12.10936081216226 9.850255838166808 0
24.50835984173738 16.80388633717607 0
22.49999999601519 3.223902370204073 0
22.86474673286625 3.40259682482558 0
23.21789737742086 3.474871730929949 0
13.57095803735944 19.35580094022003 0
22.230057004385 3.799925937280824 0
11.18144733677608 5.409367686870403 0
12.17620047087863 19.04747825444606 0
14.11570929304326 4.620891741337966 0
18.51912731287654 19.02986195289686 0
19.55925971013018 18.57621462296932 0
12.99345449795684 13.69136024309215 0
24.37118880698352 18.76051197885232 0
20.8597782320893 12.68224513547027 0
19.99653602638036 16.42472193849323 0
12.18140475599699 3.838953162298965 0
24.49941509476265 6.911391997155572 0
24.06933818159201 18.10529682300216 0
19.07335151865674 18.15409879874298 0
22.9658559894075 3.00905836369694 0
20.85878933233547 10.70389595547355 0
12.03414400951289 3.009058364250508 0
24.80215869655495 6.345454583958904 0
17.01929223322536 21.51977232416291 0
12.96585599820094 3.00905836364972 0
19.15921086845316 19.70997869434543 0
22.30860072853742 11.88468624642898 0
10.39647206426974 12.83046218502525 0
12.20978839357412 13.58992063357994 0
14.39472006284676 8.17155821859995 0
23.12462586574432 12.47720053371828 0
10.45034870100921 14.42109220892123 0
10.26517445105248 9.98123370963421 0
24.65916432427017 11.00060653533692 0
21.12095313624471 6.680459527272729 0
9.875222359533364 4.106089966306571 0
10.61122355256823 9.49879501560202 0
21.65142279127778 9.290082767803318 0
22.25908837980415 16.22004507099267 0
15.17582093879063 13.17159943557132 0
12.23867930363845 16.37251482794376 0
17.44164963496835 13.89008620859283 0
11.83533286725022 10.38486091664842 0
13.78989711051113 4.38255372175416 0
24.26815521363621 12.20976237682205 0
15.45240103816356 19.86685737744473 0
11.96517481772403 12.94852746363694 0
20.39758544129991 10.85575241068475 0
23.17849810981594 10.94409508162315 0
20.835843881824 17.3871724509653 0
20.38899304599283 5.56243939353327 0
16.655571628617 19.62630823429048 0
14.32577340703889 13.37572350163144 0
13.45130059171064 20.20754159065806 0
22.03414399971884 3.009058365490853 0
20.23242790858564 13.69757426527901 0
18.57428853566909 20.40778015617953 0
14.48784937544204 20.3035684206154 0
11.23137527996741 10.62769726229172 0
18.51840717592713 19.7238833390537 0
21.56393635076253 18.83652520606395 0
20.93969895433506 20.63352240035566 0
15.05257334102289 19.04255960075874 0
14.08846123491159 6.737584748137795 0
21.70689896816744 4.058799391493329 0
20.50464748526323 8.519399202659347 0
18.84601246545192 20.02795573383784 0
24.24367541061723 4.275877817858875 0
16.04517302255268 20.27082938426673 0
13.35008062338613 9.294278578664143 0
14.91853885792358 17.51848304763241 0
11.2887625790744 20.99020144335527 0
20.83141893755447 15.66502471867092 0
21.38956246206789 18.19234034053294 0
20.61099512416099 14.0221106685482 0
11.53690137272183 18.79116639469608 0
10.68819385386459 11.62094423926351 0
21.14851049094644 9.184656104549756 0
22.97684721795475 14.59118669132212 0
17.28269021038436 13.02203855497644 0
13.76211462793903 5.89220290071986 0
13.51659821499562 21.84167309223032 0
10.71491576636139 5.732122966108018 0
10.36664745115328 19.33609772358708 0
17.86657712563237 19.78270079676865 0
22.91565329151149 7.456499026866879 0
14.1648724865863 12.27922576733576 0
24.69746696970597 3.266753113660844 0
13.85415827474621 9.192986433556893 0
23.85381519808609 9.088871194229114 0
12.11799471344986 22.64926062183117 0
22.01265387165887 11.39811633097714 0
10.81074966763494 21.3265827706366 0
17.68722820735451 18.26794232437035 0
24.8291779909625 7.431239547915671 0
14.03893284718555 7.358673236651836 0
16.62796772671147 18.82450737109793 0
19.78458972459305 20.15593720761432 0
20.1723910753932 5.952278875549412 0
21.32799354575299 11.02062734321077 0
13.26108374108999 6.433152128385277 0
20.38032411941514 7.437990825542344 0
23.31791612868761 6.375264990848991 0
13.81398353845726 6.707393781288738 0
10.29428308760212 12.31419004018236 0
22.77567136100051 16.32694611706757 0
24.72266941596676 9.081233320371702 0
14.42427148582009 10.60481281958841 0
10.06182007989935 3.779487819838836 0
23.7675135918737 19.73158409099022 0
13.86359325043788 17.56466549200772 0
21.99087898084474 15.75960544504075 0
10.46093821003193 21.83869245348446 0
21.17017625422485 7.708449846171411 0
10.78126697991359 10.94545768332707 0
10.39556140913113 18.53489089802531 0
23.34352709005645 4.047279240826503 0
13.60796444805222 12.20287624581959 0
19.22819453193625 21.28992306048622 0
10.49585497150116 17.99932463214718 0
14.20561647832659 9.953844956160358 0
21.98789237858749 10.47672271234508 0
12.5687842242588 10.94747572772907 0
22.67578845756753 19.38188888417324 0
13.88478209290275 5.483149374903469 0
13.64284522693273 10.51352672436823 0
20.54913995095861 11.90179770215227 0
11.29821402051066 20.00543548751804 0
17.88283261615297 13.34754481112354 0
10.11823912379977 9.625313579470575 0
14.4604202688478 21.30090625168786 0
21.004026768217 8.209003067752239 0
25.00709712229724 5.960455117876764 0
21.14615698391697 13.60036198998809 0
22.25877962374042 5.888821413997085 0
12.06792560124151 17.78498704959972 0
24.87819846311952 6.80177355905164 0
13.3232651199886 11.70446710944885 0
16.45491916859975 19.97602265931767 0
22.21209361463644 18.85280664881153 0
17.07559955132406 20.81895296333101 0
12.60796281992967 11.84749312531735 0
19.72307486767956 20.91502916643993 0
15.05231684537944 4.376310908517965 0
24.53081923154327 12.83067518257267 0
22.07303715115948 14.10513587678346 0
11.70983225621169 7.65160760621356 0
17.93656628717017 16.05463864647967 0
20.23668152491918 18.46470083028035 0
12.94278202570372 16.37823713650078 0
24.28529616158339 6.47866532825048 0
12.76994299279751 3.799925936370439 0
22.17445324424647 6.729742294771431 0
21.09184190532157 12.94457580204159 0
14.68634371953098 11.56813385464762 0
23.88373496698394 8.143853639143359 0
13.40544760396281 8.363828332390382 0
18.42755902996399 16.22248262616581 0
10.47667215971864 3.995032453317278 0
24.55767304831026 16.29152701658917 0
22.7546191187791 20.1013110427819 0
13.65863452137933 11.00811317613303 0
20.2265043314445 10.53279457529265 0
20.31987886410834 18.95124249516768 0
14.48307484932246 11.83673142440117 0
10.57976967724611 24.27004123357524 0
14.87403801296111 3.786651227399282 0
14.72000332972316 4.329608019575103 0
19.52804209913817 19.62974030844651 0
10.25906417844864 18.94714804261486 0
15.400255842492 19.33121732895538 0
23.27846144995503 14.33688519860469 0
23.75392372248593 17.66549654393385 0
23.43427351477 5.82612888615783 0
24.63087489084011 8.498288366174217 0
22.78986936992309 11.01072473869 0
21.62237733522686 16.27105839135867 0
12.91472822928029 12.5233858168284 0
24.93336085296696 3.777094377535663 0
14.52306254275007 8.508356203439531 0
23.8336092387421 9.479753004269263 0
19.15101042648046 20.10171907376748 0
13.11894991487654 4.297228440507687 0
24.3138487251331 19.49184180528972 0
22.62762339585041 7.745254014389277 0
22.27579891642344 12.24079019182124 0
20.7736572315887 14.9500789369034 0
20.81896928940572 9.217591147873982 0
13.25793269513141 4.068396671711705 0
11.20947105653118 3.1208816830071 0
20.08420400878737 5.2512344121446 0
22.4143343754172 6.469596758935383 0
10.21712036867106 15.37892029555904 0
16.29911041505283 22.35269440445807 0
10.49734027995174 7.448123692416929 0
24.13892647842669 17.73139936110893 0
23.78831901779289 3.119624376368845 0
24.71490790840159 12.16272086467329 0
21.27193436544613 9.631129990529203 0
24.5087802486609 17.80353673401006 0
11.80156910641835 23.65096401371667 0
16.9095423852558 22.48734540431545 0
18.73440889431573 21.54358293856636 0
12.25195267289859 9.160291714678326 0
10.84431072474867 10.01715658299132 0
14.11618649404705 19.38229795460028 0
11.70804800672891 12.73658935473495 0
19.96599032528968 13.04953223196893 0
19.2375584430648 13.04931459804165 0
12.85742274479252 7.500400855617256 0
24.56585916869602 4.672894729865845 0
14.7321507452275 9.643858572903557 0
15.40484708248362 22.25164003101467 0
23.4076243616282 16.70336168687945 0
14.28830595467646 2.974228598732578 0
21.29825721950342 3.654096008224148 0
19.25557228006753 13.96240432535083 0
11.34504696527952 9.037347973878695 0
18.91011561022835 19.26891883766943 0
11.30436740792946 3.670013711349124 0
22.71945608395576 9.196884185828164 0
16.45144088254715 13.12429434978326 0
23.27287898698076 18.77579287739188 0
22.19232319375536 6.164000926412558 0
14.66223536044253 18.16517314513353 0
13.79815825441591 20.99753078363214 0
17.91554715435079 20.95065949164542 0
24.5562247602099 11.53830730068799 0
11.92123063238678 16.65160253745869 0
16.02216888673455 22.57963046352407 0
12.63284332058983 13.45596780216934 0
21.23715809973307 12.1481261188922 0
11.17004281722969 23.50038890578841 0
23.4869266148917 8.940172064768946 0
13.44688065711076 23.35673787679528 0
14.01453573454789 8.335218934905066 0
10.12522115515869 14.63112855144947 0
10.86376064622052 20.96402562387924 0
12.52478031808177 13.93520238636924 0
21.49385904742012 19.5266457012135 0
15.51039259825882 21.47693368886775 0
11.36254739713546 7.543694700717444 0
11.37102042885487 8.359957355725573 0
13.11122127189448 8.7036967015731 0
24.5168792239369 13.49406810966759 0
20.42962063803152 19.3544150765727 0
14.34653137659969 17.2981946127316 0
20.77479117217558 8.84968963788601 0
13.9552481982824 13.18671830141796 0
13.44231816266302 8.88523055293931 0
18.16096901938695 21.56947341561438 0
23.71549474537074 17.02310446850911 0
21.87639773159905 9.71362619919088 0
16.72803771666794 19.24615346802909 0
23.55248802205298 8.359248676658186 0
11.39703801200254 13.56262262759762 0
10.28874145854681 16.16167329096396 0
16.39458535390647 17.61621522976236 0
20.01801159143839 3.012640151396865 0
24.79907355541359 10.56430459964642 0
18.4124370066242 16.94762679871292 0
13.77607311000339 4.933880646013789 0
20.33017275202676 6.385038452035217 0
23.41368096830847 4.398765586226567 0
10.08720671783697 6.731066509808421 0
12.79399165809014 20.17662850045669 0
11.10308924597669 11.87050635042246 0
13.5974040096687 17.95566421166321 0
17.31552993115296 21.97513604081482 0
23.99614144726014 15.44099792309368 0
24.53664417465547 14.03202783832791 0
23.81410981082538 4.014193438423302 0
10.64014287236034 9.072663814905876 0
13.57168320035199 20.78687231746386 0
11.07441222148715 6.643228746047612 0
23.72882947133955 10.63728883974837 0
21.50865655529123 8.403784721324769 0
11.63385634968711 20.46778113610338 0
23.74954799536106 6.114550849913682 0
10.75008030671502 4.2799029698887 0
23.94361973346108 6.687433735957893 0
15.18335942462076 22.91590221776355 0
11.92752163592737 20.59022865502248 0
24.24830072451827 5.649910917823338 0
11.1688674228225 9.439354529536882 0
13.71353201585258 9.651507798864863 0
21.41779127849697 10.53800149700275 0
14.69438682115791 21.95889318805161 0
17.20620009230964 17.06123285296546 0
14.59023354321914 9.101906439764099 0
11.16080327387544 22.71264592594299 0
13.70174277552081 3.654096012025809 0
23.26960864487864 9.638243592314495 0
14.6057901239144 12.30127164920217 0
20.04295747936343 6.940424868493704 0
12.22643879972493 6.199618341491319 0
23.29811809943978 19.24691187854389 0
23.59817263235176 14.91523724450531 0
20.1259619873948 3.786651226553722 0
24.77450022927408 13.68403948018431 0
22.44257128889068 7.394231797191235 0
22.93526080089041 13.01287545331254 0
19.34503859158101 17.57170222134511 0
13.07001511488096 22.4424366895468 0
19.48806087589667 16.11106440133049 0
13.77042101252744 19.88709658048217 0
20.99319494310416 14.45289680445298 0
11.65172270257846 4.049388288265425 0
16.42857142937082 13.87244898555864 0
10.88873442242903 10.62408829309052 0
10.26562775821145 11.73764287644242 0
11.60354790857202 13.16413210941743 0
24.56469954689204 5.976316992147773 0
11.10104740272477 21.25899848878157 0
12.47345015841208 18.72413615872038 0
22.74651435665422 6.266276124699258 0
23.0101313273034 4.087769121253707 0
10.23501150013672 9.066872450600565 0
24.12064182958886 12.92372304056927 0
20.10292608963409 7.736788079463406 0
10.36442091247942 5.179031725922405 0
14.63528545906005 22.79533671256432 0
11.53785288419196 6.906998839460948 0
14.07545663276466 21.22305336483259 0
10.14064545285719 7.409103175541068 0
11.41593903239332 18.03434464716104 0
22.41260240892272 8.004855123533282 0
20.76706799043713 20.91863963173902 0
14.97488597654241 6.587028912225918 0
20.92825955505017 18.8503963731003 0
10.43166530238691 4.676375836756947 0
16.25216328310601 18.60167492984973 0
24.77387945091102 9.62808476024085 0
11.42806835479092 11.59080958885331 0
22.31504635207284 12.98539721650282 0
12.33757495164166 9.53468950027429 0
14.06405656025962 11.06345131308136 0
11.0883853802334 14.83715568916475 0
10.67026595000596 5.358680751928602 0
11.95082090161096 7.168280643971007 0
20.41236196499103 16.04018210785024 0
22.07371103093145 7.195884650354031 0
14.89118921451232 19.70315763484311 0
11.36628649872807 10.9871716064893 0
24.62130620330544 19.09779541476705 0
14.80946587821004 20.81745366865886 0
14.0523948839723 16.91763642997661 0
12.71974301998255 13.04826866935159 0
15.10013615115914 18.3758495823006 0
22.82867906482898 11.94794273259836 0
15.0194351628712 17.92127881211236 0
11.22876163895411 22.37062716498518 0
18.13057041840609 19.44266590509127 0
17.52207818863038 20.77031077392179 0
14.25745416132699 6.549769498542551 0
13.69077207713508 16.29111520646832 0
11.00822591397537 2.824293909770341 0
11.08840989754 7.743680992623039 0
13.40970853735555 5.835124326240249 0
9.955334094711471 11.74653007853714 0
17.9116604905812 17.45935378148577 0
13.99861932132054 13.91537430226275 0
10.63877988160379 6.47198800548296 0
24.69064588480732 13.23774828802138 0
10.09735457908748 4.846761293746686 0
19.94768315380581 4.376310904328862 0
11.25347766332219 21.75970875819237 0
17.5980487417531 22.15476518668707 0
12.87383216083666 3.375758183814208 0
21.29476665937337 16.89584279512747 0
23.5339387450179 18.01462971389034 0
22.08242451167373 9.362475618177374 0
20.28019864735038 11.17058784356937 0
15.60827637733671 20.46069786916782 0
23.11378917945055 6.914767550176852 0
23.29486429666433 15.20032106356347 0
11.01861549160343 4.871371740111892 0
22.72330090690648 8.064529618956314 0
23.54548790065846 5.250587112618526 0
21.82298988553094 19.9167162977687 0
14.77277607504779 10.53493936496884 0
16.33960565886914 18.12571426480742 0
23.02725136600714 7.807056104502099 0
11.85155521573033 14.18522357163985 0
10.7051910251694 18.31670710421606 0
24.19928810448636 5.251868165397372 0
14.73548211605778 7.488981828866109 0
10.1645153942423 10.70913079823791 0
13.70065368780841 21.28351149983181 0
12.82075176284119 10.04850995448482 0
9.90797238804499 4.493029998830947 0
17.03320557526395 21.83784928769373 0
17.55596201785321 15.86768415377259 0
11.46425098439391 22.0850730265675 0
13.7885159863984 23.34150121918286 0
20.75540573744613 3.445301882423709 0
21.488066044177 12.31100155934298 0
23.85023371541758 15.9905968333721 0
21.21599582191475 15.6397466825198 0
12.47891409229522 19.91013208673954 0
12.01519766563725 15.95978087873845 0
10.26727712885203 19.68489058374287 0
20.81436639281028 10.32886785697054 0
24.65536571996935 2.877585908516362 0
22.16826951809474 10.04827751733466 0
11.32455943406925 12.3222472717582 0
12.60401438571171 8.078810830961427 0
20.79589253671377 4.308551475846603 0
20.0903152180005 17.99632399157115 0
23.85716239359565 18.63471816263661 0
14.80663913965197 20.47603184721315 0
16.65432330929578 21.65002685651998 0
14.58230727085869 5.106007003832759 0
19.6494725108742 17.38068944790963 0
22.48508491694372 9.842002311928407 0
13.8501572304092 7.710170746530185 0
14.49658033465862 12.84023050274915 0
13.08708262588507 20.46421707639743 0
24.54906226601061 18.39423141640157 0
24.83829258030975 8.032905669931427 0
20.52355705506021 12.7227855040049 0
11.53167952859363 3.027548698806303 0
13.36016928973882 19.71722264836594 0
12.97821909392923 11.39852545095905 0
14.82694006784956 4.836800809261078 0
12.24661910473511 20.46867523432775 0
15.1734689358044 20.9749661764955 0
21.58038339483456 8.85713236914338 0
21.48698577691775 7.607711291566215 0
15.71373903484656 18.97497121690997 0
13.42722303616256 2.961623528267679 0
13.9348978457699 10.13368745685381 0
23.07323034369861 15.79699853928713 0
20.87959942662153 16.99175203293315 0
20.42147531003489 17.42046988184345 0
24.73512048806791 18.03678641423551 0
23.37577234650905 13.23169069873656 0
14.48037984527199 6.046960334269235 0
22.39984327917459 10.9535364759554 0
20.40605965958116 15.61893629778611 0
17.33071151214324 16.66116479865248 0
12.65847650535481 17.74801931649412 0
13.84351056535254 10.74774939821188 0
24.14466965291491 19.84493748316937 0
10.92431038997739 23.23668206195356 0
23.15494962745098 10.4301978185009 0
13.94238582387629 22.02203245253186 0
19.36448779436222 19.2343568298369 0
11.46221743675649 3.375479143513383 0
12.11549201443891 10.19955078530547 0
24.88760917155176 8.74108948837311 0
22.94827283638575 9.4433646079213 0
18.76117306411106 14.00673691645429 0
21.86366060759445 20.55268489636333 0
20.36755068586869 20.98973003275547 0
23.83673905199183 5.782096874003949 0
22.33122381807967 11.29075848144685 0
18.12013323449646 20.21614832383755 0
24.18742485013912 19.10391059838257 0
15.17466341350019 20.63242633927485 0
16.92602101672327 19.90567328061498 0
12.8435325627915 17.38839799106034 0
10.49727939534823 23.39339982560173 0
15.44590196920385 20.14954164855994 0
20.88922428966166 4.649623196264633 0
24.33104156747013 9.09066548447601 0
13.19316155797981 23.58319119096293 0
14.73027783316971 8.065596374903269 0
13.72213146212257 6.307212912628193 0
22.86223257009325 11.65627871062533 0
11.33899535692876 23.9984215011813 0
14.50262409141306 9.405390665194084 0
13.76440117106128 22.64313704220824 0
20.74171829369993 6.52297276132059 0
23.5351645674425 3.374676296170908 0
20.66536569513554 19.09672392289012 0
13.0108870786043 6.926845407636598 0
17.38296069449503 20.45161469265695 0
10.98523088756833 24.23510625030439 0
14.49314862066807 19.43381517049139 0
9.929564930901554 7.735210980116054 0
14.87144138484005 8.399749588950419 0
24.98923449766195 8.383319108265862 0
20.29740407965675 17.82424943233929 0
24.1135932143622 10.02245113380674 0
20.02315084604213 19.23778814324339 0
23.20594444155396 18.20099384342143 0
23.79952286467776 18.28757381048442 0
11.37261571655889 9.664456682721013 0
13.11000443127159 7.728619066737449 0
18.41260976492109 13.08460886918386 0
20.41449618448819 15.22307203456562 0
10.69422185868732 15.43934940281641 0
14.04738052328385 6.999062005091966 0
24.68992265363415 19.76697206572945 0
19.38672490371592 20.74233110542808 0
13.74198679693734 22.9865470712931 0
15.95094934688606 21.45226638903314 0
18.31201433572122 13.88385293874553 0
24.70939176560833 15.0551091767328 0
18.10063649686767 17.96023883159373 0
10.36480712582752 16.95721024234773 0
18.82136538680187 19.62686262801704 0
16.83308869065022 16.87895255121568 0
16.68708593236921 22.31323970961811 0
10.75901919785993 13.79556988336417 0
24.13164729618976 7.005498454822132 0
12.35620687212639 12.8728188974815 0
23.87128820742055 11.85640768486859 0
11.14150403203578 19.75667032779792 0
22.22042350291576 8.240246955533019 0
14.30392245104669 18.31830063272409 0
10.07493188438541 14.2874029155397 0
11.64302670888333 16.4248260586788 0
9.978681063256802 5.943930891936485 0
23.14199603893078 11.46584795163672 0
18.91426458697823 13.25621586853601 0
14.26415133236045 5.312363302407388 0
16.30824459762382 21.81049207300294 0
12.64420749435961 19.13770423069255 0
20.487421008117 16.90727323594988 0
24.74208211514126 18.67564385546775 0
25.0438067756726 7.148342739273936 0
14.83797750661328 9.357580238574908 0
22.21407843244272 9.01347045337312 0
16.1549039055431 21.08331693836765 0
24.30723888077259 13.74102567486949 0
22.81656381588896 20.43530219444354 0
21.06047396940152 13.97047733697812 0
15.35585693520323 21.83348075024981 0
10.43961834506426 20.27586926133976 0
16.20170210292385 12.84040182380109 0
10.34207961047028 2.878641914720431 0
22.47872029977867 20.08344780964794 0
24.12753868403881 7.341374729582686 0
19.14564453108795 20.63183451329418 0
13.44676937814111 13.95989133342366 0
21.07307012325096 20.27044429009305 0
22.81859523920454 3.838953162186451 0
16.90327310246341 17.38807523313341 0
20.95526759893582 7.291064449815533 0
13.3933297083988 11.29653653006145 0
12.29371326941245 16.78619310372481 0
10.80701723303334 10.31631694734829 0
14.81959863466664 13.79608542185356 0
22.32726765314059 10.62289930133743 0
14.328600713051 22.69142665028873 0
13.39658731701153 18.93141453251593 0
14.66711354780901 22.38238210368047 0
11.82651208879026 11.46165768475792 0
11.30433987196372 11.30372294412442 0
19.7310124431529 17.79310819139693 0
9.934363474158772 5.212170141595478 0
24.60901566316636 14.58592050222124 0
22.87713783069684 10.27501149705584 0
12.74662122726197 6.545518402209304 0
12.65178284095466 12.23516636103881 0
12.78957921360153 16.86910705887298 0
15.56547991617596 15.98303292816107 0
14.89854936635589 17.12259412223039 0
12.23410641095377 11.95189698133892 0
13.38743132797312 6.840186911989225 0
20.99218584278597 11.94970927991698 0
20.27343465964869 19.90691400980724 0
13.10360508695328 3.757713275659674 0
16.37994455541893 17.16358424510756 0
20.42694521407569 12.34077683441252 0
22.34904287268481 15.12860744739784 0
22.04701218293902 12.51868847455181 0
15.18008944741411 12.78596514697662 0
23.47522682006256 10.34556948438121 0
10.36388423372293 6.596027786272734 0
22.8510696927917 2.753340558297193 0
24.00625101036965 7.743169361163391 0
16.15971836901705 19.09215731552403 0
10.36437775793619 17.56496472947543 0
12.75758825333988 6.209269547026427 0
12.12854609142729 23.51161179833112 0
14.60067435124258 10.86154730893616 0
23.93805003545491 19.3976285792378 0
22.84538272152795 6.640081507690144 0
21.28876904638387 4.939013487285663 0
21.2267488551342 12.56338347528682 0
20.05021717186477 17.61769527370459 0
12.40526485115451 23.69306730903224 0
14.87982432918795 7.783761696855173 0
21.25026087638131 5.880156013332918 0
24.42009040347222 19.91205885500447 0
12.56809001539126 23.40268429063867 0
22.24911879972345 18.47320036784377 0
24.87416632625806 11.81787375406148 0
21.35545393891927 13.23535407364359 0
10.12854076241083 8.009671261507416 0
20.46910351023883 8.80546528894832 0
15.52506209550994 22.84496406140339 0
24.47367759782211 17.50728404893153 0
23.79522798993037 16.71802692127845 0
10.45284211909989 22.39275849713768 0
17.85714285031339 14.06498105623528 0
12.65150571476037 12.7016792547833 0
11.79677464266748 13.66657316257582 0
21.73225010212543 18.18557410260541 0
16.39561921990842 20.73044730046804 0
20.16020244427085 9.421246984163796 0
11.07371126896913 16.54452362694114 0
10.91972721476836 20.07425428069909 0
12.5957394434966 11.25543635614627 0
17.03458490051494 20.47160496618308 0
18.94081202759745 20.79508417920408 0
23.71525199432842 12.36606061208071 0
14.47397197527133 20.66731957287157 0
20.71169404177224 2.974228595655059 0
14.76248985943674 13.37291417482568 0
20.72441868337603 2.717620315658432 0
20.53400108817352 6.000638693096635 0
21.69182583249674 16.74526007032054 0
10.69711366697152 2.980102748644181 0
22.98423364637402 13.41884931325611 0
12.61834212644055 19.53223287371874 0
22.36353354491148 13.79113130711708 0
13.91312255185547 12.77923245333493 0
13.2502993373055 19.30912883280544 0
25.03723241113486 7.757508545544629 0
14.47601948199274 22.13657531166275 0
24.35313885193372 13.15803701942323 0
14.7198261496111 19.03416275844664 0
15.19526535058823 13.63904404494381 0
23.69030116954876 3.667575487020031 0
13.87230177320531 12.42880667435276 0
16.45115503149704 15.9979272040664 0
14.56204629611878 4.86259742506379 0
10.8009442052714 14.24546751628841 0
23.22105013581615 2.814964293370398 0
23.66825719644007 4.966737307643659 0
22.83284666212646 15.42624142149669 0
24.09891712649096 9.385494736851708 0
13.83773074186902 18.84317151717299 0
14.86068145798614 16.68063231263416 0
18.13381080952528 16.5590414619599 0
24.73872646550998 19.43202060475366 0
11.67212798041971 20.07936094668689 0
12.95684755362376 18.21887427481399 0
11.07469682955039 16.0472642906087 0
12.23388884677565 7.05741755916592 0
17.63375821426047 21.13847262739748 0
12.96397789119543 4.024054521202522 0
24.44447444312925 9.85630071095531 0
11.3169346670967 4.990922346862114 0
17.96988997717744 12.97168216495066 0
21.30351265459038 17.72462288049418 0
10.76745173213317 12.75298197973337 0
18.19326098963644 18.74132945894169 0
14.18159664403131 10.3381469473287 0
13.78266729944125 3.977594949677076 0
12.13384755714053 15.22316076738283 0
10.02302997715035 10.33503332691794 0
12.86545615999214 11.10437601938597 0
20.44739346378202 3.546380034816611 0
20.69979782687056 8.183377577000996 0
23.11104926819838 7.215087244191713 0
9.992651462566238 8.359779955314231 0
23.52845768974506 14.0438092275144 0
20.09172063627672 9.081679052529994 0
24.62469896014079 5.171741121912644 0
19.60923135419344 16.56489103957403 0
12.35309540411862 19.58880737669173 0
12.4675425888284 8.922217082436038 0
24.16431363143911 11.6178034721346 0
22.23246714847164 8.646376186975058 0
20.33095571327831 9.644523290319777 0
14.33587681305488 11.60274365239651 0
13.14208483303866 13.21694802511091 0
11.85423688507685 3.788053332956331 0
17.20865840484416 18.18801501745322 0
20.99378786765889 13.29581889117514 0
12.09969319311288 8.215827134523446 0
22.2803207245861 15.9216670900695 0
12.49782189350532 9.838305300528507 0
11.787041355402 3.184273037990392 0
24.65330703844523 15.45517130057161 0
18.80614979466707 12.88254864313907 0
18.28074437449019 20.43266777412784 0
16.01675019218838 13.96829899941955 0
19.43153070014099 20.00861306181343 0
17.34436821469734 18.59633570948606 0
21.85448275382966 7.671092644049549 0
19.33097674723873 21.59650548128529 0
12.76812796363142 23.71957437413386 0
18.83110595044501 18.53766513767835 0
11.82967198240632 12.43629330907399 0
13.50711926291831 6.546961502877904 0
9.764329121864288 3.764914549196376 0
18.53151986701415 18.71574984790963 0
23.46712914939326 3.026870310275153 0
13.20316181238348 3.166688788842803 0
17.58385745375495 20.04482253632996 0
17.31721112301889 16.20131565016289 0
12.12402536968881 11.62579049999331 0
14.86403450162768 5.961801062378854 0
14.84986122564625 23.0484162678668 0
14.95357305146598 2.728915330993261 0
14.62641693936639 2.854350703198916 0
14.98198840750683 3.012640152763296 0
24.97058822728124 2.69423535449269 0
15.85532246653609 17.76845224691837 0
23.0160361334952 8.129081979443445 0
10.10267881393794 19.35680922345679 0
24.12083249702461 16.91376577149651 0
13.51566930770928 7.675573285639348 0
24.87264444872469 12.5050778866448 0
15.53851216076435 18.42416212163789 0
11.70719212215467 24.04071659206034 0
14.80982133597679 8.762093785534141 0
18.93611245816135 16.11345669482558 0
23.49170066343299 15.85653946506646 0
24.39819861521768 10.16779824422015 0
20.97582407721319 7.942750086977705 0
23.38700926375085 8.652679620081532 0
12.82544342486821 8.994847902505587 0
12.45315945072333 22.83689609526735 0
22.83571472291052 11.32995288465849 0
13.05815923534748 10.51716284864346 0
21.46891983373131 3.375516854349475 0
21.79683818421231 3.166688789864778 0
21.57277696063637 2.96162353009264 0
10.35645384784768 12.02794646793849 0
9.970589073738488 12.47482651196971 0
20.50494007679188 9.473325572579029 0
23.43071753174327 12.31078972761663 0
23.92088988190918 13.88746947214431 0
13.17771736163035 18.49417221189648 0
13.39100822622523 4.375521766577069 0
10.03903656807388 12.07643336026866 0
24.50258574377262 8.160851676719094 0
17.2107398237053 20.18310403075374 0
23.1574773663741 8.90858934479709 0
10.23714111401756 13.20260604135361 0
24.22931992705783 10.98186458982108 0
12.68168810958485 7.115676456027487 0
13.11420761556807 9.706516456773041 0
14.56538319442264 7.807156247363161 0
21.88772093072661 10.13209198324905 0
12.11311512132681 6.732132529967332 0
14.74154201746995 11.95495977056185 0
11.92501480214535 20.3124063440012 0
10.0860981161435 16.88466743142534 0
9.9905566062731 2.931461464746669 0
14.06773756243845 22.57992816253093 0
10.86030433746783 21.86550572481275 0
17.05644416840251 22.23062789316487 0
19.24924815172959 17.15273335005859 0
20.79120574490935 9.926207528617631 0
13.08212687252653 8.373905633143277 0
11.51886890620923 5.262528812067609 0
14.20292767689109 4.310335053724851 0
22.83930627615833 8.83196394351457 0
12.33874919518892 7.389347654403116 0
21.15315992772765 20.92402038959377 0
10.68647027439394 20.57328206093421 0
22.78105975646714 13.82799062407858 0
19.89368807497932 18.60704428907264 0
19.07976307840477 21.60414896575732 0
19.69047228765149 19.30979447852079 0
17.90145193281438 21.32316528456652 0
20.5017056876599 4.594120119035997 0
22.02400982710881 4.043894659963099 0
14.95738122658373 6.942152775879672 0
12.00115422920667 6.392855658953863 0
23.03280136376747 16.55286501621341 0
17.80322505676707 21.92359279310334 0
22.80806557884008 16.01672616049973 0
18.93571840500336 20.44019729689493 0
22.09511088895944 11.09754506314269 0
21.88083885649217 18.51654940954295 0
23.37566307234361 19.53747757501291 0
14.91248265697285 5.254252205954518 0
10.65244127395788 16.02079573244338 0
11.29051213685009 19.11739505582877 0
20.72922097934752 20.36514008615541 0
11.01438274064689 13.09632463305613 0
13.73778721587488 7.424575639620562 0
21.42510266227866 20.72730632580803 0
24.75896370294458 16.53610698712879 0
15.54460896252714 13.29285469266206 0
21.87252454751581 19.17669995646276 0
11.64629593081026 8.235957517138345 0
15.45717243125829 14.06255527182563 0
14.16695206371422 23.31258755620809 0
14.39934672036715 12.09458735394115 0
19.38067031517854 12.74312780481269 0
12.59073577578619 16.50230597452253 0
11.69021398095435 9.650800872729322 0
14.46386215875946 23.11212454236586 0
13.95228492637297 20.38455495636688 0
21.85449520502583 2.812401916019104 0
9.907240878902586 7.053844088806472 0
13.14550479021217 2.812401915316567 0
23.98037073271951 13.55310635119339 0
23.64446577026194 6.428633053348678 0
11.98730195436776 4.0884346330401 0
16.44726540967669 21.00842191794064 0
14.2622292514115 8.893313623801559 0
24.35104796703746 8.719906273426536 0
20.72565947931382 5.299343472417618 0
10.32534423888932 21.293034787126 0
23.63669985778944 16.44544935170946 0
11.0424288908415 14.51560848578537 0
18.0217065652402 17.01383674311517 0
12.09646277676173 8.463726913735066 0
23.46999185888836 19.03939584880366 0
12.13548192938019 23.90973114662191 0
14.66673475198519 18.6533126189932 0
12.45628534109766 20.21553382788849 0
10.32651820272808 9.361481260958014 0
14.07407886312693 11.85091722381974 0
14.18333038533642 9.228368837994458 0
19.42098918525438 21.05243506179981 0
15.07093120037769 15.89444649611482 0
15.09198512495477 4.737270410093945 0
22.31850474150191 12.62274582082402 0
19.00034929073702 17.7665550159584 0
17.10613048625521 19.21385901628834 0
11.37517463628485 6.548267690825339 0
21.01278664277231 6.416696368137256 0
16.52096985147658 14.20420175627883 0
21.1917284531644 19.83873947851597 0
23.77042059421322 11.55846178640248 0
24.45262389734093 7.484940097705191 0
13.92166130600582 18.234604026535 0
16.71458834159828 20.943527405244 0
20.34239775475598 13.01661715433711 0
19.78171655073981 2.777585798637915 0
22.04352179668736 6.432547830719195 0
10.33474524728629 10.37002167130737 0
19.59692615295587 21.33845537114848 0
15.70697186967206 16.57389641779765 0
11.08592636721612 17.84796812484404 0
17.05801830529943 15.8986243355666 0
23.20984583323114 12.81867325886015 0
13.50796656966217 4.70062235627312 0
23.85875761126979 5.171933844692305 0
21.90616444997049 20.25504354502488 0
10.49413825119967 6.227981098017753 0
19.73028722519379 14.09030221331836 0
11.87247056336478 17.0925056382917 0
23.05927951542258 11.19740057122634 0
21.99510592021041 20.75873817495039 0
12.17854022388672 11.09074816496448 0
23.42872787157964 19.84516951812503 0
21.17716107066193 16.03407014599704 0
11.82614936688302 19.65946902469548 0
10.07944818282778 8.725637782839968 0
10.59289197042398 7.165802687671342 0
21.52382178989208 11.89946059692997 0
24.74786435870948 17.26358439217589 0
10.62999038283433 22.12761060635065 0
14.83034359956314 12.90516289283801 0
14.24459426164132 3.445301884536929 0
14.42814906678432 3.209267337347131 0
21.07976958336945 3.426979280311877 0
23.54083006074017 9.338536361815276 0
20.8885216140408 3.186315573570137 0
10.73027193102872 3.437714957330648 0
18.439606542277 21.40254655308132 0
22.53555878381552 19.82380975389089 0
11.07718798143908 18.7299367330322 0
14.45345886617199 14.07858367195296 0
21.58253033270558 11.29109692584793 0
22.50372629880785 8.913061077860128 0
19.4494277021985 18.00235425254714 0
21.12334521723089 17.17528937473993 0
18.85960914819613 17.00440826643624 0
13.01895421939005 12.84423356092464 0
24.26508512716398 3.435632124512753 0
16.86073147696559 12.96249038891501 0
22.73381773274942 16.60324608736902 0
12.01609170172731 18.57271796479213 0
20.6659191199641 7.51716813419807 0
10.22925798019674 22.61397940827889 0
23.97163899903664 20.07714914408732 0
20.62227036342433 11.63075726021201 0
18.83689941368792 21.1816155841639 0
21.60004518202967 6.119447487247589 0
24.18892467951051 8.059277349578327 0
20.81372313308012 5.712235115605944 0
12.51271853786693 7.764538137475315 0
14.25211762927045 5.730988823999565 0
9.834083252706284 3.45959717240243 0
18.61191647500578 17.99979217136041 0
14.71169198509722 16.10651612395942 0
23.67557325960085 15.22846687854528 0
25.05017646616983 5.218313669094686 0
20.57727469167806 19.75351521103222 0
20.37358305727469 2.854350701728534 0
16.02695954661252 17.35427703757827 0
10.73431827210904 14.63500578135671 0
20.05636561214306 7.301399482645664 0
15.81277468689258 22.7869197251388 0
24.51861080046555 12.44271265158076 0
21.25556285757017 19.19940446874783 0
12.71796748032669 8.727249664044114 0
20.68992311738294 7.223669009667177 0
25.19322700416513 4.862961250810938 0
20.13071293641926 8.374683177667453 0
12.47869752292739 6.066441196917683 0
9.984800008145786 11.00415087001912 0
20.8966053673414 8.479706865538798 0
11.88348254172088 12.10876329062019 0
23.44193006323503 11.52657750476521 0
13.13826439037446 7.221877530985382 0
10.38553745497061 23.73783657167987 0
12.09127007735473 12.6559777938151 0
23.0362906776542 18.51578555337937 0
13.44855503530283 21.15274380549396 0
24.80566370818261 15.7789334110655 0
23.29627430845957 7.456414230370253 0
24.01931773443117 4.940028657321845 0
22.29236197328904 14.44436172021515 0
10.02674144095306 12.86150266439594 0
10.2145285771616 23.3684553882775 0
13.33031966471908 16.56423011693741 0
19.91362261714816 3.374408153567375 0
15.24661556195273 3.047212536217516 0
15.08637738263763 3.374408156066052 0
18.87166983997527 21.77581273496446 0
24.12335118294155 3.192384765588951 0
22.74153784184557 18.37253499974054 0
23.08721894775028 6.024674958559388 0
12.28714305623242 7.986379534831307 0
23.16565981526798 6.626025237234377 0
20.86317399718929 17.83326079353103 0
14.86461343645946 9.86555683803181 0
23.14726010692877 16.86515498728534 0
19.96475862696984 20.53257650959183 0
23.99045530499522 2.823421224604868 0
16.05051263047195 20.64471493810012 0
11.15306957454199 17.24445974032454 0
11.91630913386183 6.010689635222777 0
23.49206330095505 6.787360773201105 0
9.855239088580547 8.107252861097985 0
24.7699401682029 17.64395296454389 0
23.21197399205775 3.183839636544821 0
22.57048569284514 18.63314868481311 0
22.59646374543898 14.7803276269607 0
22.09410884121289 16.49036316230067 0
23.58105380183434 18.78709586429126 0
21.23372931137392 18.56370967212798 0
19.75338443757793 3.047212534973609 0
12.89025645498062 8.181466068082806 0
23.20538396858009 10.0880987252713 0
20.16286042520101 14.08559653847099 0
20.0384892973205 18.84673729593885 0
11.02068500162875 9.108935718937541 0
10.71265652396799 2.728758948130514 0
10.80397297999454 6.691480208577883 0
11.47432779947995 10.32999424253056 0
21.04941733966172 18.14066674288709 0
21.99851962399694 13.22749295114862 0
11.09417015113289 23.84313500902862 0
25.01776504242976 9.909051076110993 0
16.28464225422476 13.50797194154153 0
18.19501291874995 21.17145150944362 0
12.48166644777514 3.954631033270176 0
18.52858857181053 21.77873169381068 0
19.96927958275288 6.229852831077544 0
20.57185093113883 3.209267335152337 0
9.93065746747585 9.898835404771646 0
11.59084419175178 21.78771903554804 0
21.22830093641694 7.400009941351286 0
20.18792883666266 8.756901729747124 0
12.16561745557153 12.2911268314168 0
11.54489871069065 4.432339560457801 0
21.51542903262627 5.28580802736324 0
11.66787093035321 7.265647464835442 0
12.08857429840658 10.71598659216979 0
12.76971590194939 8.426498871803808 0
11.03565688392928 12.19094524082981 0
18.27290684602229 17.32352226773886 0
21.03685915357828 9.762209432533176 0
20.98019244180129 5.058422951536682 0
23.51095390370464 17.33954836061468 0
13.40012456458236 17.4910346854367 0
13.30369363501511 12.43566233594886 0
16.13532770898772 22.0396430995912 0
11.60677241378911 11.23128526287751 0
22.33596448367693 11.58134497040933 0
10.43975455598564 5.949587517216109 0
15.01736111408261 21.7383408475905 0
25.1064845548222 8.122656866316243 0
19.89087874693977 5.025002457635344 0
11.89491281249882 17.4672954437757 0
17.60780563530182 17.05608599393271 0
24.52290035402699 3.967467911116167 0
16.11157109483211 19.87699386427212 0
21.7371973373097 13.95867544829085 0
21.82850872640704 19.56757725538252 0
20.42591651179738 3.864656707778677 0
14.45518517525312 4.147687524187329 0
14.57408348833375 3.864656707914316 0
13.17711806591762 22.70982847150763 0
23.47007691061285 12.58933380350247 0
23.51666372603325 4.681116874512566 0
21.52432066775158 19.86732595318782 0
14.31641308489241 21.86744157812854 0
20.91098915992078 19.72782840895034 0
10.87326234080952 3.194537923981548 0
11.5844512784945 3.698430654888695 0
25.07716548824953 4.494462209934442 0
13.25830565931469 7.491403880826108 0
18.28361507006959 20.73025279339657 0
24.84079427836588 16.1627373285155 0
22.87686826518487 10.7043634421491 0
19.60850049326931 12.92788516844049 0
20.18749318917016 19.62029336257278 0
12.90857310263181 11.7131367009315 0
11.87724592784393 8.006574755072917 0
13.12763333416015 20.09148504031125 0
12.70470201344872 3.035849886157105 0
11.17683318532588 3.994688538543288 0
23.56992341721142 3.918960183188029 0
13.87555174458225 12.13360246677509 0
24.45544558830731 11.87850149913257 0
11.57760922239199 10.64100967956132 0
20.01582311335672 21.22579042326942 0
23.26719233449661 14.7774300459313 0
11.89801994941602 23.32132015470061 0
10.3806280595207 9.660889173144454 0
22.03088580679753 7.982801610707246 0
11.21296639018834 6.903496387301358 0
13.12882599538359 9.049001293282016 0
10.17318055163303 4.534181821598168 0
12.06372385714198 8.788894308347649 0
21.36349745078032 9.382839605940958 0
23.85010307972862 4.709107471595543 0
15.5371398395945 12.85306340647375 0
24.55937005461466 3.565106953274313 0
23.64343214273848 12.08499818937095 0
10.82080779018669 12.44962522293705 0
11.75129849790503 19.17293073067933 0
13.34960887107952 11.01927343200364 0
14.11147838165158 3.186315578193445 0
10.27798094637432 7.730909882243781 0
12.6590743534701 10.61984312783041 0
22.42289713971836 9.239057786463134 0
21.39526845256571 17.30156395137527 0
21.00117591596462 11.01091407379598 0
14.99641267596489 8.044922147499765 0
21.28194983558767 8.032727992148573 0
12.02273633507555 9.422033974022641 0
13.01417782840564 19.10906135973102 0
23.76333336478178 13.051336983789 0
24.67408083368625 7.76564142625483 0
22.05054326241274 8.44316846216638 0
10.27327404331137 16.59647443826097 0
25.08474934976639 9.60721284630342 0
21.21595811529015 3.969700207965505 0
16.58669439826716 22.59222078774528 0
17.35778574301579 19.40416095678627 0
14.37580746512367 6.285712169453156 0
24.86679253037455 11.34463926734941 0
21.38432112037141 12.85380929561491 0
18.95091907088485 17.38463207799672 0
21.26035511039171 5.178327071207538 0
11.75310778944654 6.644407716714273 0
10.05076247021267 17.55676121209762 0
24.57668989001158 6.614175153226225 0
12.50000000459445 2.840441468528625 0
22.69404652538215 3.032171919711605 0
22.29529798573811 3.035849887399913 0
22.49999999601518 2.840441469219103 0
20.26805094548005 20.69703407687548 0
21.22776509224545 20.54030182456417 0
22.08096187033442 7.487655587039384 0
18.22975016604787 15.82550052696628 0
18.2195433298908 19.09019604177064 0
12.13491629579273 3.402848563373892 0
22.5119942095086 3.582790492480086 0
16.04183357489497 21.75534981296283 0
12.74032280176244 6.842674345754243 0
15.35289552806941 16.89523353182665 0
10.5052928104048 20.01314488618326 0
12.39525411711239 6.435766709912317 0
9.867983736230926 5.590159602586062 0
15.75633733361966 19.98161541819359 0
15.10605816375826 5.024327718205866 0
19.90486562097299 4.739684480342264 0
10.00574259088518 13.9258580173366 0
11.48445187735505 9.384004893046635 0
23.38502913581297 10.67479185077424 0
25.04517188797826 8.994129994516742 0
20.93722312220928 4.079432918421691 0
13.52136246991202 5.577054419547691 0
12.73625370758279 5.901199184571839 0
23.07599195842888 12.15643066068203 0
10.71140668970232 18.65620460695429 0
23.20323815955651 8.367728772573818 0
10.42957408438864 11.48159764650715 0
23.0935445159736 13.99666068959533 0
17.68535271542235 19.41673554613205 0
9.961771239712402 9.267980516439053 0
24.99425367271369 9.286715551379363 0
10.32953545994436 23.00972740785261 0
21.13090217968382 15.28162680643685 0
16.96627131093164 14.04672706222914 0
24.35615489184166 16.52593868122021 0
12.60087352918275 15.9805694862585 0
24.19257962700375 4.621034835698325 0
23.83237241502138 12.68967136222605 0
12.48982061692011 23.9448567601495 0
18.13095912885227 13.21625505223434 0
22.66572078300416 13.50364250637147 0
10.93758432893022 22.93497124520249 0
11.39038105825705 21.39822686614918 0
24.04922708724425 15.79912761713995 0
13.94448678667849 9.795702166994516 0
14.1626042792653 16.10808125127484 0
12.22618046486362 22.38415441882036 0
24.22328100306071 12.59984339021519 0
11.0297956379499 17.53147200080766 0
21.7418055530701 11.63250438099851 0
16.33313744552983 19.5470908352946 0
20.48908058219869 14.49135552464448 0
10.63209697682463 8.696036785935602 0
22.8008726484771 19.68482616684545 0
20.91990104984113 11.57700101215335 0
21.29204272615909 16.48799041284302 0
25.14281325202351 6.311059700146082 0
10.50966156959133 22.64786236523918 0
22.12616783683427 3.375758185260903 0
24.50349231338032 4.392008635861449 0
25.09940792347212 4.08803783381803 0
24.15490568989901 11.92454122641604 0
15.45819557835732 20.80015794045408 0
24.80275410577357 4.023179636377827 0
23.90808730974168 7.191057249957158 0
11.12726248927385 5.772963510296423 0
13.98597396798563 2.82073679590602 0
21.12198461975294 17.47696766054197 0
21.01402602416342 2.820736794752605 0
13.83383982691315 4.679369185616374 0
11.34721733955213 15.033284505218 0
17.33171379890826 22.28551144354452 0
19.55043822301393 13.74443076045909 0
24.21186439777193 16.1509444121672 0
22.51920677785453 20.36813346098319 0
10.80502345290542 22.53285928892682 0
12.91506649410613 9.366952730727943 0
10.55831571105545 8.171583823145918 0
12.37521897507845 11.72370182993454 0
12.34570706643345 17.92436758321139 0
13.66539115327599 10.24168259075921 0
20.77354635800735 15.32946906567893 0
15.37444472578666 18.74240999122671 0
10.1480048359578 4.045333331301032 0
24.16716130020947 10.31308827125374 0
12.05241338474639 14.65765919646213 0
20.02596107241797 6.591112650987204 0
21.50626766975293 4.723867678465383 0
24.5679314168813 16.01379478260332 0
23.61603372539652 14.50145581004052 0
11.55793866498014 4.750309202086837 0
15.21828344828188 2.777585799004094 0
22.48460195963924 16.42387815072273 0
24.43274886156884 17.09076202723486 0
14.97657950084649 5.639005144862064 0
13.43608673444221 3.775608617665319 0
21.45796789322016 4.1128801914895 0
21.95494159123412 15.15923400361964 0
15.22964014732865 19.62345489971731 0
24.32287222214909 14.73299540734966 0
15.13240118019471 4.024453186465411 0
19.86759881955149 4.024453183081427 0
14.82019623759777 4.046081506514357 0
10.87594637765217 6.964253565273836 0
16.59713955785261 12.78279463189321 0
19.99756438287404 5.614526851253477 0
20.90842573789999 18.50847150179633 0
20.60480441950045 18.65694452603444 0
25.21744774409958 3.074632953948685 0
25.22195875696331 2.773449193707664 0
13.28183836921413 15.98671414025145 0
11.49458567901943 17.18637477448562 0
19.41082692094261 18.30148864564869 0
20.31854976565638 21.29655842775007 0
24.43334568239222 3.21933534170603 0
9.798381059493227 4.853605432705431 0
20.95897153774896 21.11243338394786 0
10.83595792167278 4.598250273724035 0
10.16132972193217 14.96517008095523 0
11.12725423688734 10.26733758411626 0
21.55487935188832 19.20957182564405 0
14.54198948989421 4.604492837612534 0
23.44431538239461 17.6902440058214 0
24.99528939424047 12.16004971381544 0
21.59559437872976 4.392681382925714 0
22.86396084439655 8.402672342613538 0
10.00811318167489 16.10429996840276 0
11.68290522995472 20.83830029969142 0
13.60449907167374 12.61508050566787 0
14.82979868556814 20.10163707105266 0
15.15301651693852 19.96249968716736 0
21.5302481271649 15.0250086825324 0
12.94545377715534 14.06815013629653 0
23.83028527725724 10.27363931662506 0
23.43281600492997 6.112715686781742 0
23.17790805807905 11.79915825397088 0
11.46568208652789 13.97282903056625 0
22.58580058301656 10.72872772994794 0
22.5911649697049 19.01629484743401 0
23.3503193355326 11.23638219952336 0
12.89445232368522 19.83710942279003 0
20.16541713833729 12.33332788288008 0
11.75173528554005 17.86142354530055 0
16.99874659721169 19.52275016750767 0
24.09611699725426 10.62621153306654 0
19.12872122951465 12.73843925758132 0
22.76647840325531 7.082806715136009 0
20.42422723323372 5.081678881183855 0
22.34865746135368 19.20365698947111 0
22.65072646088505 13.17482505593499 0
23.87005833099151 8.45970887417717 0
13.05530042417253 22.98376945308602 0
10.72813695147875 8.413536301223548 0
20.68851841286694 12.45049540033007 0
10.78552138552437 23.53017307956545 0
20.64647562705002 11.01164678228868 0
14.45369243841735 13.69774762211495 0
20.18201554206503 12.67360303333597 0
15.58842276120082 17.25040495509805 0
11.4565750590245 5.552043016718631 0
24.33884518864759 11.28764320137281 0
15.25164232897518 21.60813894182194 0
21.55007653895177 9.633892326248857 0
10.9950857881284 21.55630710479428 0
16.2814006958754 21.5048984285044 0
21.72809609122184 20.77671433482898 0
15.30448488538628 22.59917275516089 0
20.04540070665001 16.86150518909594 0
13.52973166043562 4.116442485549602 0
13.06429664220199 5.929875222304408 0
16.47198805749239 22.06172136490688 0
9.88677098562056 10.66075990576605 0
14.52375464924888 9.83997222283392 0
13.64638845625994 9.394901590844452 0
17.61606767270172 17.83574568152496 0
24.36545865235515 18.07279279632941 0
23.90391361796455 15.07144250376934 0
11.42467543014505 15.33774385225679 0
18.03571428190872 12.69818993561667 0
13.65854115194047 11.90618642254763 0
21.61747711486035 11.03672786250181 0
14.40607406672567 15.80364934380857 0
24.80715898763658 14.29770498054242 0
24.30564918696065 14.35537404643724 0
11.77872962241861 2.815049277714508 0
14.28351549177666 7.194127534083496 0
20.95630250868521 6.996419496712706 0
10.20791378116106 18.24143602963839 0
20.57476173011771 10.60305687081319 0
14.63731250978452 6.754017099457073 0
10.27763253705142 22.09886787859538 0
21.92492168281504 5.926456570442258 0
10.82085612280208 11.90606792360746 0
14.50919084813009 16.92253690389847 0
21.8830017921146 15.47357196567079 0
21.58952055250538 20.49565944839608 0
23.66594419755825 20.11930244112652 0
11.03012284808676 20.71797962403033 0
13.37435256428888 10.35182414155946 0
16.28873592281198 16.62446395515517 0
22.73706165027134 5.948958122556229 0
10.96479687198927 5.155872222413171 0
19.86524131328668 3.697737699134164 0
19.98263152841298 15.96230239556245 0
17.67198353658974 16.34502402992324 0
13.89961777224798 10.45863610061907 0
11.51142762452605 22.91412792845605 0
10.57643490025409 21.5243999168617 0
11.54136495887069 23.33086607530727 0
21.7682927753804 14.35325055644434 0
20.5782883455185 20.67548331195847 0
20.80904066299495 13.70479147886361 0
21.7589323264975 10.64706153081375 0
20.47717978805157 16.48903782110512 0
14.06477615057837 11.44061715724924 0
14.91576225553753 22.66163796817404 0
10.66688428081573 23.15549894096934 0
11.4584219108811 23.7142923737409 0
18.43929750690031 20.09534823296053 0
24.78599017551175 4.530861373362022 0
14.63647881681412 5.787353002956078 0
24.05273099969979 19.6133922480939 0
22.19106725649206 20.56629202251731 0
21.18241545443858 14.88976547922503 0
21.22475582640699 11.81949874525569 0
11.757853304581 10.04248499839119 0
21.62708726021809 15.80508647953344 0
14.71600179902068 11.1647452236363 0
10.22702416870537 21.60261833322176 0
11.9506317359621 7.476715954012226 0
18.25850415715758 13.4611843636793 0
17.46521947136638 13.42129834321541 0
19.87917802493025 13.75611255691789 0
23.144696269573 10.69075691593684 0
12.8352149475068 2.782345610997061 0
14.18304152876926 17.89817720213084 0
12.06007351471755 18.10217687772099 0
10.45627299102019 17.23577456168626 0
11.90541612962679 22.39373806091351 0
11.82602466118674 6.917105951141257 0
11.69631694859208 8.888917681496652 0
24.9108597153377 15.43603415348337 0
24.91521168303146 12.93403234526318 0
10.04793979175329 3.191316205340391 0
13.53108016170115 3.375516855031 0
17.63953777943608 13.13838672028812 0
22.07496006614712 11.69342446686894 0
11.05526942630979 13.51387015372257 0
11.60416862178579 21.17347072162688 0
21.8686034692511 9.020123581662677 0
23.83685647211116 9.85530981042569 0
9.810981064360647 6.701711356517553 0
10.10752230915951 18.64366794561586 0
10.70907720773043 11.31446584396826 0
10.17104682367611 21.85733316955674 0
21.17157860965548 4.702628633595432 0
20.28819619614722 13.31478997768401 0
18.30510438097454 17.66181125954996 0
14.50945638031755 13.11888819840149 0
24.63337338600009 8.79659471191907 0
23.94880841190216 12.1357008941713 0
10.24981110785636 20.52914102048788 0
17.29284546825418 21.62049723091676 0
13.81991327106921 19.56109706762125 0
10.13756996905287 17.23085620186792 0
21.06663704578101 9.459002499313854 0
25.11182824383616 5.593311015113892 0
10.77985716229005 7.601839719533817 0
11.21822002967039 16.93931081517013 0
14.38023386254726 7.493079954021344 0
22.61146323072045 12.81716437612124 0
12.68839716804047 23.07518903489225 0
10.61365200553349 13.12009539921591 0
9.874973854498451 6.376872008537514 0
23.79441544342368 15.72031949929336 0
24.17935519064754 18.44210448671314 0
21.05299320719024 8.95667197665742 0
14.82474351843657 10.15188853100785 0
10.13009965293108 17.86811838032347 0
20.64901579514594 21.19203435271548 0
23.51787343489869 5.556916812194777 0
10.86877908643064 9.666865518115284 0
20.1818652316842 10.13584624076696 0
11.42146538597142 3.915824868250485 0
22.19211115200616 19.86566114952519 0
11.43678361238053 18.42792021079989 0
19.59192167239721 20.45691727583892 0
12.65817382496793 20.50114047300931 0
13.10226117682993 10.13214331792233 0
10.38191868465196 7.977668511871005 0
10.09246141194376 15.81318926549317 0
23.89831261600205 17.32375204797034 0
11.03687301126047 3.481674067170953 0
23.92373601436732 3.425013830515176 0
15.02261638636758 6.249316396552166 0
10.37016171688538 24.48551158641568 0
11.90465530902921 16.28616386204232 0
10.56809017476765 10.171651892933 0
13.74620705575887 7.076435560372257 0
14.9566958844578 7.261325015480552 0
22.0213646829513 13.80146976349178 0
24.37852070607356 7.181335183077879 0
21.88714387648287 8.27640865179265 0
10.429259648508 3.575020374359799 0
19.42500804169351 18.8580195409593 0
19.30670515503346 13.48141797111674 0
9.916643935371663 8.977321551689712 0
23.08504889711655 20.31546745043505 0
10.62279032263191 17.04948351798019 0
10.48897630073561 10.78530590083489 0
10.51960458658672 12.51031939366018 0
13.92023041316138 3.426979282475433 0
24.94723055926891 10.24227766235248 0
12.63751209823132 11.57316713927153 0
13.03850814745532 6.621340595060776 0
13.2361449905527 20.81054862296185 0
14.66759773129185 21.56617528940022 0
23.96802782453221 6.353405207664657 0
17.97081578299496 20.60415711588446 0
12.10651668182063 19.41111373376134 0
19.94662180239006 13.41662749320435 0
10.87782356085166 9.361935363361033 0
15.0078503661368 22.07861159089219 0
14.05064070834454 8.001638510090773 0
13.50285222235676 4.981298689203699 0
19.20425761679708 15.80613027403902 0
17.65629463102508 12.80011818646151 0
20.41404267595141 6.763748521892192 0
14.55260653599199 3.546380035732826 0
14.87349052252329 10.88251381228717 0
12.80541373028881 9.723658799449696 0
20.36583568831875 7.104992190127536 0
10.04744598918878 13.53352843441909 0
18.69072012543547 16.60671841106538 0
18.14312708631343 21.92539036077091 0
23.53765825145541 11.81496610902135 0
17.41891568170897 17.41462831886547 0
10.17228153391044 20.09919174165306 0
15.9900811318681 15.82874758004334 0
11.50316725202965 15.74805154326613 0
13.43145657490409 10.74965821037157 0
21.14037623386837 19.50047877490335 0
15.76112018257705 19.32424596623554 0
21.34661219351214 10.23676193270901 0
21.88234834235174 18.8456453052203 0
21.82033260126255 12.27444470510543 0
11.37687623557735 8.67907889046476 0
18.61354047232389 20.75832330027795 0
11.01716245993959 15.19930990444103 0
17.93684530928818 22.14128074868347 0
22.87088687287285 12.63879883615976 0
21.4685827996318 6.613078282363597 0
20.42098329470511 7.749739473535346 0
24.99733260357058 10.79351547449479 0
20.00071536352902 8.036299956210001 0
10.58198496745495 9.83762230005745 0
12.21095742859314 14.24015936654706 0
13.2857602968994 22.16530676468989 0
20.23598207845509 12.0094024048387 0
21.55138545654844 18.49810915813787 0
10.76546221310145 24.46550499513367 0
10.29436507147349 24.10799868608692 0
10.75560494049014 17.72295344641697 0
12.25665025980439 5.934043398504201 0
10.96259549107102 19.1027413017391 0
16.399386610459 20.41866563852239 0
14.77584742515375 21.17372113030979 0
12.46686648161237 22.53656765260118 0
21.74959811041212 5.604352159085799 0
22.00554039667731 12.82681931757824 0
23.84159013848765 7.432010363238453 0
21.52699451896628 10.81007931170679 0
12.85884962340742 7.928330305251855 0
24.98892569521837 11.05101670909253 0
20.12944221789271 20.16333759693256 0
20.48939630338492 20.11031356259357 0
22.18573247033345 9.723107550648956 0
11.00171035759101 6.368951760662723 0
14.89928523167845 9.065754316418682 0
24.78724723596219 16.90965191579829 0
10.78920992797078 15.74453540191017 0
23.03115167191917 19.38439100740134 0
14.96035645257335 19.35861904115663 0
18.17280097098575 19.88947257028961 0
22.11941141859148 13.56578220700863 0
12.48796567250648 3.58282046001044 0
20.28023406643999 17.14028991552635 0
22.51775247254908 3.955089832339855 0
13.77349242658254 17.16671787930483 0
16.58118233411477 18.50759797330764 0
22.56943977300736 11.19300659012629 0
21.09939120666132 10.46050922615577 0
21.50390932636993 5.00947848489452 0
21.26346692740177 7.019649175299371 0
24.96394221866507 13.26644602658591 0
17.77493075570946 18.65180325694093 0
11.07541193075964 7.441020634808211 0
19.97883202273953 19.88496011548202 0
11.00911756759345 11.55902505227149 0
21.55478260279998 3.77256996497231 0
14.1936919621811 20.5509934043762 0
21.89077817049033 3.758932664124958 0
21.59961663630087 17.89765338039685 0
20.81001468143845 16.05712905187318 0
22.50850596552394 8.329132854865016 0
20.73616661930948 12.9991148528837 0
22.31772062311219 15.4710791057191 0
11.50684845744145 19.79050261261654 0
13.67677665506766 9.93340246288038 0
21.35379968660852 9.076174299103425 0
20.73593156324381 16.70311419199005 0
15.22732323619668 17.30397501167823 0
12.74446784716352 22.40630114825406 0
13.45784554652417 9.648407949290862 0
9.839038639507065 7.399309062758585 0
13.97622985035556 6.448899745344717 0
13.44059123863747 22.53043141328407 0
13.98112352208811 5.170277211509172 0
16.87561830800196 21.23742642514789 0
13.80185878468631 11.26333407002548 0
15.70981555664583 21.75365529532921 0
18.62286764666964 17.24624436861102 0
10.92698284641891 5.518389430816506 0
21.30324920367392 9.900431563458746 0
16.12290094630567 13.213911792472 0
21.6616882976844 12.61483435585816 0
22.59088587182828 11.76349737134333 0
13.9150396688002 22.3434330764941 0
21.15298757319503 11.25839222840721 0
12.12603822440721 13.92271167826407 0
11.16875264908179 22.04469563813062 0
24.89241067822053 13.99650446305531 0
16.91681338012792 18.55070494120227 0
14.12927397852738 20.12337396198645 0
17.55933127437601 21.74199814597545 0
21.46504279320224 13.69872460187304 0
20.76577311883145 11.83227276382118 0
23.92118867539737 10.89471636192304 0
14.5202440790102 19.88204388489465 0
11.82489165972675 22.74815883912868 0
10.21958058059599 20.97226759699442 0
20.62063122456713 6.269563342131136 0
22.85659802103156 19.14215892324345 0
24.89738946430313 14.70629446384954 0
10.27555187653249 7.109798529347886 0
21.82984927175412 6.678214692120961 0
24.62277028794541 9.354164549852246 0
10.65464000638331 19.42301953285617 0
25.12579343547748 7.436168169224878 0
14.27737408947798 12.59618243287936 0
9.951929919703202 13.2008889805512 0
15.84744350249227 22.25397525038464 0
24.60525670087555 11.29279907618678 0
14.61176696932696 7.152458664230107 0
24.68137855803568 7.16347063612381 0
19.88490812414595 5.89991045066003 0
23.06434493870928 19.96868196962458 0
10.35910181429719 8.788485764384824 0
15.48880025376296 21.12545155578921 0
13.65105365028805 9.081929806168159 0
12.12949641881752 10.46197425525469 0
13.41826160801356 8.0083173934718 0
21.45253848005098 5.603376240411118 0
14.51299509894295 8.811139343200171 0
24.11402642298696 9.698938437785914 0
13.65693203351053 13.02584457692533 0
13.71466312406786 8.40228623206476 0
23.19998596569032 5.674708953837472 0
11.80051466464939 5.671287291600011 0
21.78914395649826 7.295347784637482 0
24.45349927728149 10.76276260860848 0
18.02708526652144 18.40061996822656 0
18.53714685963586 19.36706605685526 0
11.26873759451652 20.32884293074909 0
14.6596507676313 12.61964638883846 0
16.72740213364679 20.61021126122474 0
20.05775826722632 20.85373033123973 0
24.36220875636331 15.36744188944055 0
20.702807267152 12.15716101196972 0
22.16478505014526 2.78234561174011 0
13.99376544224467 16.52222143470463 0
12.14891693012149 2.753345720100859 0
12.38775920629665 8.302536916984039 0
15.88050225043975 12.74410164156986 0
10.5822188111079 21.12003515448641 0
18.79433822444462 18.87433491506983 0
20.08579258695453 9.810442508153212 0
23.60555757128132 9.656248624838426 0
12.70467324239758 10.30813068284597 0
11.06643856307327 7.171680821728415 0
13.27199816571023 18.16459871947916 0
23.40643451931902 17.01858095281496 0
10.82855893725539 18.02909578484075 0
22.27008924794803 10.31202298966246 0
23.37015183736694 7.78077272667006 0
23.02005999932452 6.379539290009115 0
14.42117306841237 20.99902491503657 0
22.6402358260133 9.545179388828462 0
15.13475868646401 3.697737701811032 0
12.05513338446056 22.97588834204874 0
20.52258624043006 13.605476008854 0
23.83106629650556 17.94537091655833 0
10.18834744233013 22.3512701197816 0
22.33231210872763 7.062942017269494 0
13.19543968153038 5.664776945702105 0
23.63334487312062 13.65907657344118 0
11.70407507878813 18.56749982267813 0
17.30922553862596 12.70610423257682 0
21.95994359193248 16.07608653801258 0
13.77410442672668 15.87675755947152 0
16.83287483888098 17.83974435504014 0
13.39736976927174 6.164700021467111 0
11.07468653976131 10.88190378749902 0
20.04642694612498 2.728915330352663 0
19.17002546998427 20.97643660549636 0
10.13733738332569 3.472402474681117 0
22.06787990394467 10.78579968553951 0
14.35539351712513 11.0237029878624 0
12.37794970968233 10.70927713793384 0
11.43966020963751 24.25849716754217 0
20.46737148874169 18.03296412747317 0
21.58918597182439 17.06595467328437 0
14.10281885281179 18.62841216315066 0
22.53207780117099 16.10976279475891 0
21.189817615739 10.75490042898428 0
18.57774700627687 15.8542709278435 0
23.6207322072573 19.34003143458384 0
25.22830183164184 3.770928977836052 0
24.19906807218059 14.05321457071649 0
24.43921520902365 5.407409188915382 0
19.21289107405988 18.52954945975138 0
22.97578908939743 9.119042994664033 0
18.35153990633068 12.76483082296429 0
14.04415425255165 13.53743777908628 0
13.92340727853625 9.486547019009521 0
23.33769057676412 7.096773290786395 0
21.86575039777254 4.291311828477042 0
10.70811870591998 20.27329224797934 0
15.89710573926993 18.65982910712523 0
17.85428750223496 21.62783975612886 0
13.86758854253712 20.68215853284144 0
22.57244532890468 12.09552292037845 0
13.40563461721508 20.55293362943535 0
10.02941176520971 2.694865656915961 0
17.45570802455728 19.03092244366533 0
13.66230462741878 2.779336961423349 0
21.33769536480972 2.779336961397851 0
24.03518486142159 13.243044060735 0
10.29068604774904 8.224635071257522 0
23.61526847897244 2.781764066547151 0
11.38422143663221 2.782012409788336 0
16.30972753527226 22.6245750494786 0
13.33056704754311 12.08680498554312 0
19.87652752777116 12.74226632281086 0
11.58710654470183 12.23120102219536 0
13.5168754171873 23.59750301882259 0
16.67196806831305 13.42979870806988 0
24.4762304830769 6.264143161298114 0
24.64957601276311 10.29636094411778 0
11.35197591870746 12.02680859777308 0
14.28291667875258 21.52440845071158 0
12.57072772177347 9.252128640775933 0
23.61410139474823 16.15597957881582 0
11.1078856805483 13.90327760936766 0
11.97778469669202 9.079446082044011 0
20.94789532175865 19.19751516530641 0
11.980121673055 13.3226480714209 0
12.07960062603757 11.36771468994263 0
11.89568470937099 11.21755135734309 0
11.40525836613014 4.180781942214354 0
9.846856092450398 9.572399594512415 0
22.83404943230005 12.2932406478511 0
20.57268092743063 17.69973927675605 0
21.66346306932668 10.3466724808127 0
22.5514187511498 10.13676125318715 0
21.66238219192284 13.34313547959983 0
11.12212308461721 12.59990086781365 0
10.62894205549988 16.75899737376364 0
21.84526250192698 11.15387158080225 0
10.06346771679301 16.36662713435321 0
13.97347360208456 8.943973541605871 0
19.6263121080538 13.22348785448261 0
23.26253547697449 15.54049608176311 0
24.08515125377585 18.82225804826849 0
23.14699595194444 4.331994289415592 0
10.58384096225623 24.00594695399686 0
20.15926445587684 3.500913636626323 0
14.84073554316698 3.500913637409143 0
14.22801504700952 12.97370293569543 0
24.2628214714813 6.757013442517427 0
20.91441451934432 7.63100504839313 0
21.0485306428168 16.69252613877298 0
11.83306724579676 11.75072260700872 0
11.84551443786055 4.336948157057835 0
24.28012815943833 2.722238960714908 0
15.00223454043793 18.70819017960164 0
22.48621875293266 6.09870690971135 0
13.7855753270407 20.20199001874215 0
15.07845809332562 14.1134527688201 0
14.21081281818876 8.623392528644901 0
11.35465353268174 16.34502580781002 0
9.77660890644844 2.77340321758377 0
22.23044717881504 14.85457222733679 0
12.31997411395137 13.23033757160876 0
23.41195014563541 3.6971693541382 0
14.27558130794958 2.717620317036354 0
20.1798037611644 4.046081506701274 0
20.12581136377415 10.88254871634123 0
11.83427529212816 18.8707363505043 0
11.77219017517941 22.12335276323446 0
12.30595347411047 3.032171918487457 0
24.85581745056341 3.467646529822245 0
21.93547804078327 6.951173015638942 0
15.11754311626519 5.898830384313094 0
21.25839676204961 18.88976588331024 0
11.1135713160774 8.095654044840892 0
24.83801874747279 18.35340767041833 0
10.83614453184882 7.935628822505334 0
20.61292496038088 17.17477847565049 0
10.44849611505578 13.54835315698448 0
20.5133594635237 7.998160089407866 0
15.77445471530585 21.20552412182973 0
13.0495782535343 6.263951852162357 0
11.08258113264429 8.41019199364731 0
9.778897017600551 3.074081289845378 0
11.2910999831996 13.24698089234539 0
15.61375088238566 22.00920654247918 0
10.44165653595793 13.99176792407142 0
23.86363785845421 16.27443828540675 0
12.25819963161347 4.108162613936209 0
20.33883049528297 14.85129611617389 0
25.1167174156157 6.568740903968041 0
21.20121118633743 8.385863577412653 0
24.61052592792485 4.907196957322316 0
12.41788159707508 10.1263967868042 0
23.5897288699911 4.168583395532106 0
22.62325537161921 15.1614682805623 0
22.74117080812449 4.108121271542749 0
14.10661551376026 7.626755394052151 0
13.24943470771799 23.20907167514731 0
12.85934925028894 10.82550614426252 0
11.49698590516943 12.53701965671952 0
22.40634192483619 14.11149976871659 0
23.01121783545955 14.3008308537087 0
20.51222521220495 9.852786137266067 0
17.05874442239196 13.26169686509717 0
13.67979157952012 20.46318597093365 0
23.62286939486322 11.30992766753406 0
10.39062357447397 4.909301361124278 0
13.31128944723176 13.55816738808598 0
16.96428571286855 12.70836442144615 0
13.78099002517625 14.2188164089216 0
15.62230593791346 13.68027103718896 0
13.13829194027344 11.14881336953663 0
20.55057978491603 4.146756326247101 0
17.58950388347574 19.72041463140716 0
10.54559406949943 3.197049666441937 0
15.37675350223563 19.0255462916306 0
19.69719184992864 19.87444899319701 0
23.00105581567143 16.18718829551679 0
23.99757380758977 12.40020772710306 0
16.73158273287408 13.77789910870209 0
13.06743545562347 12.27840067093815 0
12.70568556638536 4.105201246005971 0
22.2882809770931 4.098231700709515 0
12.20475049170273 15.64545674935584 0
22.45609494456064 19.5475577758562 0
20.18560339966739 4.555986563257258 0
14.82318161250648 4.560453794996432 0
12.15483232689619 19.73267562661512 0
14.0090105727939 4.857928445663393 0
17.86672122047517 20.123585652582 0
17.91803100523865 13.71224415471924 0
11.83341166258013 10.68376091045597 0
12.7387351996692 18.46940568848444 0
10.91845499435349 4.073935229127386 0
23.70037863202529 8.705359991860949 0
21.89859763622847 6.207885408595238 0
17.0286510694025 18.89643292730726 0
24.07567074313075 4.070560122057713 0
14.05933170737484 4.074943428955206 0
10.41666707469638 14.73315467362862 0
12.37967243552361 19.34346729386208 0
12.35834017044107 17.58797760462271 0
13.83707370960181 19.16641143476812 0
20.42697219965132 8.247015114568665 0
20.86562992640012 11.24397156131342 0
10.49429419598742 4.395798959236164 0
15.62750822913172 19.61863712705261 0
13.52261749266645 8.631962921242195 0
14.62987545590165 8.286315096473292 0
23.40794106263124 20.33745957109083 0
13.69063269390707 16.74834164653073 0
11.88103240555189 8.307062877363975 0
10.89850076955273 18.49034351519551 0
19.84831997783063 21.44903167583535 0
18.99247353205429 13.65143937129998 0
13.52431289844768 23.11912915176494 0
20.79580641023101 6.794856698985665 0
12.67185285570629 18.07023753561105 0
11.23889762223593 4.66725048957364 0
24.94694763887149 3.189959996279918 0
23.12743352148923 19.02755994336525 0
10.53665138846358 11.82802963106788 0
15.00666888680497 7.559387578961562 0
POLYGONS 4428 17712
3 908 322 1877
3 232 233 948
3 1027 1145 741
3 339 836 1048
3 23 307 1548
3 755 972 1168
3 1732 609 2075
3 232 948 1125
3 1177 759 581
3 616 1022 1125
3 702 654 1218
3 414 1109 2293
3 1514 31 1523
3 217 903 2068
3 773 719 1698
3 523 823 1622
3 862 553 1525
3 550 1306 1527
3 22 1253 1648
3 462 936 1250
3 936 592 1250
3 941 360 1499
3 424 1177 581
3 576 1448 1146
3 274 1082 2193
3 360 941 2022
3 1233 444 1873
3 485 1325 2014
3 1231 559 875
3 684 1072 2185
3 2293 1109 2301
3 600 687 773
3 1188 1181 1192
3 1709 310 1784
3 1116 1690 2301
3 346 742 1064
3 750 396 1619
3 876 640 1417
3 921 876 1417
3 1385 244 1361
3 421 1368 1821
3 23 1548 1766
3 1253 22 2076
3 600 773 1698
3 2123 897 2148
3 499 1190 1486
3 1031 472 880
3 1181 568 1192
3 1383 1254 2250
3 549 1388 1822
3 923 158 1500
3 866 702 1218
3 551 1031 880
3 603 1395 1652
3 1040 525 2179
3 710 1069 1933
3 324 325 820
3 1395 342 1652
3 551 1272 1923
3 896 464 1464
3 1164 745 1160
3 1454 585 1244
3 411 799 1965
3 1004 446 2013
3 1388 743 1822
3 778 1023 1086
3 1253 677 1560
3 1023 778 1337
3 196 197 736
3 625 1679 1282
3 436 868 1947
3 274 275 1082
3 1302 583 1041
3 606 623 1545
3 511 1094 1120
3 19 1029 1961
3 988 719 1861
3 700 1178 935
3 631 1254 1946
3 631 1340 1522
3 328 645 1202
3 1102 326 1202
3 744 957 430
3 1516 564 1546
3 1165 489 1513
3 30 31 1514
3 540 750 1619
3 367 575 1851
3 1470 1148 2272
3 430 957 1248
3 1408 37 2114
3 324 820 1447
3 379 1050 1607
3 399 1040 2179
3 750 540 845
3 1448 832 1146
3 1080 1165 1513
3 847 760 2363
3 999 460 1261
3 415 1461 2002
3 1279 1619 1532
3 1616 811 2255
3 541 1036 1318
3 895 415 1257
3 460 819 1659
3 1619 396 1532
3 742 655 1064
3 752 767 1555
3 887 474 916
3 654 794 1821
3 363 1383 2250
3 1615 374 1158
3 124 815 1127
3 53 54 796
3 1340 631 1946
3 451 1030 2132
3 12 1237 982
3 723 988 1861
3 1025 793 2224
3 1379 569 1016
3 467 887 916
3 1049 1615 1158
3 657 1026 909
3 452 965 1140
3 468 424 1519
3 1103 1283 2151
3 1237 12 1605
3 1036 541 2333
3 1480 372 918
3 1489 813 2046
3 396 750 1903
3 610 1251 1357
3 677 1253 2076
3 159 160 898
3 1596 671 2353
3 764 1468 1727
3 1368 417 1821
3 883 762 2349
3 1272 1128 1923
3 1287 701 1960
3 116 117 1370
3 1379 112 1768
3 462 1069 2120
3 1466 523 1977
3 2130 764 1727
3 853 847 2363
3 800 1297 2223
3 1069 710 2120
3 505 1488 1407
3 339 1880 1882
3 1880 445 1882
3 1251 10 1357
3 400 1072 684
3 559 1477 1639
3 876 921 2131
3 1457 441 1723
3 775 1763 1628
3 1030 451 2040
3 823 523 1966
3 586 1289 1631
3 844 451 2132
3 1341 637 1834
3 962 684 2185
3 748 922 1721
3 575 1004 2013
3 1358 1795 612
3 1368 1011 1068
3 217 218 903
3 1180 1159 1685
3 439 1161 1524
3 1289 512 1631
3 559 1231 1967
3 1094 1284 1120
3 441 1471 1723
3 450 353 910
3 436 1118 1590
3 896 1464 2161
3 37 38 2114
3 938 545 1561
3 141 142 1284
3 511 1102 1904
3 645 480 1905
3 431 1233 1873
3 379 1607 1227
3 1118 344 1590
3 1602 415 2002
3 460 1600 1261
3 1190 371 1486
3 553 862 1497
3 1306 550 1305
3 793 1052 1966
3 368 1143 2010
3 1123 1222 2356
3 164 794 1779
3 10 1251 1764
3 499 428 1190
3 1143 892 2010
3 376 547 1540
3 671 1596 1733
3 1254 631 1984
3 1340 1946 2293
3 322 25 1877
3 1123 453 1222
3 1164 1160 1574
3 948 787 1062
3 79 80 1118
3 427 983 1445
3 1022 616 1949
3 480 645 1707
3 1180 1685 1508
3 577 1103 2151
3 1490 728 1121
3 435 1104 1492
3 1238 2080 2310
3 736 626 916
3 512 1289 1676
3 1161 753 1524
3 1052 823 1966
3 687 600 2121
3 991 548 1509
3 1956 2160 2318
3 616 948 1062
3 1102 511 1056
3 424 468 2044
3 1685 1346 1371
3 339 894 1880
3 1251 610 1875
3 1078 800 1967
3 1152 891 1996
3 1289 586 1032
3 474 736 916
3 589 1312 1019
3 81 82 1156
3 762 883 2361
3 949 1030 2040
3 820 325 1056
3 753 1709 1784
3 834 951 1275
3 1364 752 1555
3 2255 811 1994
3 1961 1029 1416
3 1133 844 2094
3 1231 1078 1967
3 1133 2094 2300
3 2014 1325 1872
3 1836 471 2097
3 922 748 1228
3 894 578 1880
3 523 762 1977
3 957 744 1081
3 896 534 1055
3 464 896 1055
3 478 1034 2219
3 1328 387 2220
3 461 1069 693
3 1950 472 2083
3 1663 212 1194
3 1333 509 1265
3 472 1031 2083
3 850 714 2062
3 470 876 1726
3 1918 478 1985
3 387 1326 1463
3 559 1596 2353
3 1596 559 1639
3 2082 494 2087
3 1325 485 2314
3 569 1490 1121
3 815 124 1535
3 1288 697 2069
3 972 601 1168
3 654 1488 1218
3 425 1732 2075
3 690 897 2123
3 1244 881 2147
3 903 967 2068
3 762 523 2349
3 493 1514 1828
3 194 195 1495
3 1238 501 2080
3 740 199 1126
3 1082 769 2259
3 575 367 1258
3 1514 1066 1828
3 574 1177 1431
3 548 991 1983
3 344 942 686
3 1856 1157 1857
3 539 985 2184
3 415 895 1985
3 819 460 1463
3 1177 1138 1431
3 396 1360 1489
3 1069 461 1406
3 1238 979 2256
3 495 685 1050
3 895 1918 1985
3 1326 819 1463
3 1516 1546 1530
3 1429 427 1141
3 494 1343 2087
3 813 1093 2046
3 853 531 2133
3 576 1161 1065
3 903 874 1130
3 672 977 1687
3 985 861 2184
3 744 1211 1081
3 590 1283 1518
3 531 2254 2133
3 874 1856 1857
3 1493 530 1719
3 856 471 1836
3 358 1287 1960
3 1647 824 2171
3 501 1036 1374
3 132 133 1638
3 1990 1607 2234
3 1157 1103 1773
3 1094 511 1904
3 836 339 1882
3 1537 746 1960
3 965 452 2207
3 1026 608 1937
3 352 926 1577
3 601 1918 1769
3 1326 425 2073
3 871 1909 1432
3 967 748 1916
3 457 1346 1685
3 1300 444 1441
3 860 587 1657
3 552 979 1238
3 294 16 685
3 356 1429 1141
3 565 465 1113
3 262 263 885
3 299 298 1801
3 1145 404 741
3 1918 895 1769
3 819 1326 2073
3 903 1130 848
3 576 1065 2357
3 1679 419 1282
3 899 1685 1371
3 723 1179 2036
3 733 636 1570
3 1407 654 1821
3 746 1099 1960
3 1935 40 2011
3 569 1121 1016
3 1178 1033 2212
3 799 776 1965
3 607 606 1545
3 891 1607 1990
3 1488 654 1407
3 622 1292 1492
3 204 1054 1086
3 983 427 1606
3 909 1026 1937
3 1212 1485 2021
3 801 648 1625
3 1946 414 2293
3 244 245 1361
3 326 1102 1056
3 871 714 1909
3 697 1277 1848
3 685 572 1050
3 561 789 2019
3 859 915 1204
3 645 328 1707
3 663 670 1892
3 500 865 2091
3 250 1438 2369
3 936 462 2120
3 1114 1631 930
3 670 663 1106
3 1277 368 1848
3 372 1480 1910
3 1748 241 1896
3 1036 501 1238
3 876 470 1556
3 1596 535 1733
3 364 947 1626
3 648 801 1502
3 1631 512 930
3 1170 1024 1831
3 947 662 1626
3 1156 82 1789
3 1246 477 2013
3 1583 1068 1929
3 1292 435 1492
3 1457 561 2019
3 1642 465 1381
3 1283 590 2151
3 950 850 2062
3 894 1749 955
3 780 1219 1729
3 1169 861 1498
3 1360 396 1903
3 640 876 1995
3 906 1473 1424
3 306 22 2195
3 333 1470 2272
3 629 822 1051
3 249 250 2369
3 697 1288 1277
3 434 1363 1701
3 992 572 514
3 1325 2162 1962
3 736 197 1730
3 448 1341 1834
3 452 1275 2139
3 2289 846 2297
3 299 1801 886
3 943 1360 1903
3 1069 1406 1933
3 414 1383 1921
3 1066 1514 1523
3 950 530 1867
3 850 950 1867
3 1000 1457 2019
3 112 1379 1688
3 1204 915 2240
3 636 733 1630
3 1455 72 1264
3 1795 1358 1601
3 1011 1368 2328
3 1451 364 1578
3 654 702 1779
3 404 1145 2093
3 2109 1195 2249
3 1145 765 2093
3 370 762 2361
3 705 923 1500
3 894 339 1715
3 794 164 1593
3 141 1284 2206
3 540 846 2289
3 1749 408 955
3 131 3 897
3 53 796 1964
3 241 242 1896
3 822 357 1051
3 1265 509 1763
3 1471 441 2102
3 1560 1550 1780
3 703 1471 2102
3 1534 458 2194
3 194 1495 1506
3 43 44 773
3 2162 993 1962
3 948 616 1125
3 444 1300 1044
3 1949 1013 1091
3 1065 1045 2357
3 677 1550 1560
3 547 376 1982
3 502 796 1096
3 413 382 1739
3 1343 494 1962
3 577 873 1850
3 993 1343 1962
3 1438 746 1627
3 937 532 2233
3 1103 577 1773
3 679 1642 1381
3 1082 1074 2193
3 597 1323 2041
3 353 450 1883
3 1312 589 2135
3 350 984 711
3 502 860 1964
3 635 1116 2301
3 849 395 1496
3 1026 453 1225
3 942 344 924
3 685 16 514
3 1028 1379 1016
3 767 1781 1079
3 1652 807 939
3 1005 687 2121
3 793 960 2224
3 572 685 514
3 1179 376 2036
3 587 1246 1208
3 1272 1114 2078
3 471 856 1345
3 417 1068 1583
3 558 942 924
3 335 336 1140
3 1638 133 2157
3 941 479 1744
3 856 1008 1345
3 939 807 2235
3 935 1178 2212
3 748 967 1228
3 394 1075 1846
3 795 919 1184
3 563 1005 2121
3 1485 519 2021
3 469 508 1841
3 728 500 2091
3 769 1082 2034
3 796 360 1096
3 621 1949 1091
3 540 961 845
3 388 795 1184
3 1454 465 1642
3 1360 813 1489
3 597 2041 2086
3 221 222 1103
3 731 1244 2147
3 615 834 1275
3 689 1519 986
3 1781 933 1079
3 401 718 2186
3 627 1015 2092
3 2160 1273 2318
3 1113 465 2081
3 1069 462 1239
3 79 1118 1947
3 1156 968 924
3 1322 847 1633
3 1415 380 2196
3 1969 29 2035
3 1534 2194 2246
3 1451 726 1210
3 564 1516 826
3 1170 1831 1815
3 398 1169 1498
3 483 1451 1210
3 850 366 1909
3 714 850 1909
3 611 1480 918
3 1346 457 1247
3 55 56 840
3 1140 336 1806
3 1454 1244 2081
3 1331 481 2318
3 331 332 1390
3 446 1246 2013
3 447 509 1857
3 518 353 1883
3 1219 780 1548
3 203 204 1086
3 578 894 955
3 1834 637 2126
3 465 565 1381
3 855 817 1200
3 592 936 1563
3 1538 800 2223
3 766 579 1862
3 22 1648 2195
3 873 343 1494
3 504 381 2143
3 602 883 2349
3 521 977 1063
3 43 773 1310
3 608 1026 1225
3 740 626 2305
3 353 518 1805
3 880 2306 1651
3 1015 442 2092
3 532 937 2266
3 1363 434 2316
3 1496 1167 1617
3 266 267 998
3 887 467 1059
3 538 1152 1996
3 586 880 1651
3 1687 977 1067
3 399 1363 1221
3 1338 346 1064
3 1119 1512 1809
3 856 641 975
3 7 235 1098
3 678 659 2174
3 24 310 1709
3 1144 2067 1572
3 390 708 1329
3 998 267 2229
3 569 1379 1768
3 849 1496 1617
3 347 887 1059
3 1063 977 1736
3 227 228 1458
3 794 421 1821
3 307 306 1219
3 1577 926 1913
3 817 541 1409
3 802 1836 2097
3 1679 625 2284
3 623 606 1671
3 126 127 984
3 1075 815 1846
3 1144 1860 2067
3 824 1055 2171
3 908 526 1317
3 327 328 1202
3 326 327 1202
3 1178 700 857
3 278 500 1695
3 149 150 766
3 388 1184 1820
3 234 7 1098
3 1522 1340 2124
3 1103 222 1915
3 1184 978 1820
3 1256 350 711
3 868 475 2118
3 861 1169 1143
3 789 1172 2019
3 529 2293 2301
3 673 1343 1750
3 882 777 1059
3 1690 529 2301
3 671 546 2353
3 276 1969 2034
3 850 1163 674
3 278 1695 2178
3 1020 2123 2148
3 652 779 1615
3 304 1377 1205
3 793 1025 1052
3 956 688 1702
3 730 1170 2032
3 72 73 1264
3 1338 510 1299
3 1027 741 1618
3 1219 973 1729
3 1132 737 2109
3 1273 1331 2318
3 16 1517 514
3 736 474 1940
3 1312 489 1384
3 388 756 795
3 1246 587 1380
3 817 855 2165
3 1395 603 1899
3 1288 2069 2218
3 813 1360 1342
3 956 663 2057
3 490 1395 1899
3 393 956 1702
3 688 956 2057
3 2136 1576 2042
3 906 1155 1473
3 794 654 1779
3 708 390 1984
3 583 1302 1968
3 1490 569 1894
3 510 1338 1064
3 541 817 1372
3 1032 586 1651
3 400 1490 1041
3 756 388 2177
3 1343 993 2004
3 366 850 674
3 637 1341 2144
3 1297 800 1078
3 419 1679 1276
3 682 775 1628
3 563 565 1113
3 910 353 1897
3 702 866 1568
3 1308 557 1832
3 891 1152 1227
3 589 760 2135
3 1883 749 1521
3 828 1115 1909
3 2167 725 1345
3 534 896 1553
3 2206 1252 1852
3 1152 925 1150
3 1453 780 1729
3 889 2082 2087
3 1488 428 1218
3 522 1267 989
3 561 630 789
3 870 937 2233
3 896 361 1553
3 370 994 639
3 1115 1415 2196
3 149 766 2281
3 1646 1325 2314
3 209 863 1986
3 591 1495 1267
3 1576 289 2042
3 1390 332 2272
3 1457 1000 835
3 1448 576 1594
3 858 491 581
3 717 1032 1651
3 349 652 1692
3 1600 460 2328
3 415 1602 1601
3 2141 286 1954
3 565 563 2121
3 580 1155 1012
3 211 212 1663
3 1841 508 1268
3 152 1207 2160
3 281 2142 1833
3 1590 344 686
3 879 349 1692
3 760 589 2140
3 898 160 1760
3 405 1272 2078
3 460 1694 2328
3 2354 415 1601
3 590 873 2151
3 626 736 1730
3 841 1362 1871
3 489 1312 1612
3 1275 452 2323
3 1679 619 1276
3 1358 647 2354
3 543 1011 1694
3 1947 868 1925
3 20 309 1584
3 767 752 1781
3 116 1370 932
3 1493 313 1421
3 579 1006 1862
3 1750 373 2235
3 718 401 1927
3 475 868 1175
3 1246 446 2274
3 2173 568 1629
3 548 718 1927
3 1034 99 2219
3 177 1328 2220
3 1169 1873 1107
3 99 1034 1400
3 1328 177 1398
3 1774 747 1776
3 969 1775 2280
3 849 767 1079
3 606 607 516
3 844 1133 1835
3 1008 856 2050
3 1988 1159 2296
3 1179 723 1952
3 379 1152 1150
3 747 771 1776
3 594 969 2280
3 984 127 2003
3 1023 1337 1655
3 1498 1308 1832
3 27 842 1806
3 1254 1383 1946
3 395 849 1079
3 1850 873 1494
3 907 295 2031
3 1972 699 1384
3 1809 1512 2009
3 490 1793 513
3 760 588 2135
3 1793 808 513
3 883 602 1791
3 1341 448 2111
3 907 597 2086
3 518 1883 1521
3 841 506 1362
3 847 1322 1504
3 454 1013 2257
3 39 1935 2114
3 1041 1490 1894
3 620 740 2128
3 814 522 1710
3 588 1093 2135
3 726 1451 2192
3 1396 362 1150
3 868 436 1175
3 1048 836 1828
3 1236 182 2223
3 1142 606 516
3 1161 439 1065
3 1034 478 1918
3 387 1328 1326
3 1093 1312 2135
3 1709 644 1004
3 493 1082 2259
3 1360 943 1247
3 1178 341 2016
3 925 1396 1150
3 1159 1180 2296
3 450 1132 2109
3 1223 1363 2316
3 1513 813 1342
3 346 1338 1211
3 752 458 1781
3 1740 478 2219
3 387 1742 2220
3 344 1156 924
3 252 253 1567
3 1337 574 1655
3 1343 673 2087
3 1322 1750 2235
3 1013 454 1549
3 937 1153 2266
3 286 982 1954
3 867 546 1605
3 512 904 788
3 1516 354 826
3 587 1208 2251
3 94 1858 2224
3 758 130 1347
3 1905 732 2346
3 2025 381 2067
3 295 907 2086
3 855 1311 1965
3 438 2109 2249
3 1080 1513 1342
3 689 904 1820
3 1357 281 1833
3 2121 600 2038
3 406 863 2144
3 728 1490 684
3 904 689 788
3 1611 535 1734
3 1535 1951 1846
3 1605 546 1637
3 432 1469 2368
3 1951 350 1846
3 863 637 2144
3 787 948 1243
3 1807 361 1924
3 558 934 1791
3 1311 411 1965
3 546 671 1710
3 759 858 581
3 19 299 1029
3 1012 1155 1187
3 1088 1807 1924
3 1873 444 1107
3 1008 2167 1345
3 931 1058 1884
3 344 1118 1686
3 112 113 1768
3 1166 440 2152
3 366 828 1909
3 121 122 1316
3 1186 1000 2099
3 1469 432 1959
3 505 1407 1583
3 572 992 927
3 1983 991 1437
3 62 1336 1330
3 618 908 1877
3 1186 2099 1664
3 743 1377 1193
3 641 856 1836
3 1488 505 1190
3 37 1408 1902
3 745 567 1160
3 685 495 2031
3 831 1663 1194
3 1584 309 2165
3 1899 646 1559
3 331 1390 1286
3 1134 1935 2011
3 767 849 1089
3 1363 399 1701
3 1495 474 1267
3 1208 547 2251
3 718 548 1983
3 354 1013 1549
3 479 941 1410
3 509 1333 2202
3 1448 365 832
3 679 1469 1959
3 447 1857 1773
3 571 1453 1729
3 1399 77 1925
3 1475 526 1354
3 1118 436 1947
3 294 685 2031
3 1534 1253 1560
3 1047 787 1191
3 968 1156 1789
3 1013 354 1091
3 986 1519 2168
3 1257 1842 1769
3 771 1795 1601
3 1368 594 2328
3 790 910 1897
3 163 164 1779
3 571 1887 2077
3 645 1905 2346
3 365 1208 2274
3 154 155 1573
3 579 1956 2318
3 264 1396 1303
3 447 577 1850
3 1011 543 1068
3 647 1358 612
3 814 1710 1733
3 563 1209 1684
3 740 620 1669
3 199 740 2305
3 1297 1236 2223
3 26 324 1447
3 1438 250 1290
3 1684 1209 2211
3 1033 1178 2016
3 1169 398 1873
3 737 1195 2109
3 2080 1171 2310
3 1414 272 1315
3 585 1454 2343
3 1594 576 2357
3 821 888 1556
3 1377 304 1193
3 1342 1360 1247
3 799 411 1199
3 561 1457 1723
3 1490 400 684
3 428 1488 1190
3 566 1045 1065
3 626 740 1669
3 1480 482 1910
3 1083 359 809
3 470 821 1556
3 1026 657 1620
3 704 1165 1988
3 376 1179 1911
3 491 858 1699
3 434 1701 2317
3 1104 435 2145
3 904 512 1676
3 549 1958 1599
3 1921 1383 2299
3 1495 591 1506
3 1123 611 918
3 661 2107 2112
3 341 1178 1724
3 1567 253 2008
3 1379 1028 1688
3 580 752 1364
3 1958 983 1599
3 873 590 1717
3 1858 1025 2224
3 945 904 1676
3 1388 549 1599
3 887 347 989
3 1469 679 1381
3 1544 229 1039
3 725 2190 1886
3 604 1311 1708
3 1071 633 1344
3 825 1478 2230
3 725 1149 2190
3 1311 507 1708
3 543 1798 1761
3 942 558 1875
3 1286 484 1564
3 2254 531 2273
3 1097 699 1972
3 403 1061 1992
3 476 977 1539
3 477 1246 2054
3 659 678 1554
3 637 863 2027
3 1222 1269 2356
3 769 1969 2035
3 618 944 1887
3 530 1493 1241
3 1791 934 2361
3 1842 792 1769
3 467 882 1059
3 1352 1881 1837
3 486 1440 1722
3 603 1281 2308
3 1124 1841 1887
3 382 386 1739
3 842 632 834
3 2181 683 2324
3 940 598 1888
3 417 1368 1068
3 1795 409 612
3 666 774 2056
3 526 508 1354
3 2143 381 2286
3 1820 904 2177
3 734 927 2170
3 683 1478 2324
3 474 1495 1940
3 1862 624 1829
3 214 215 1313
3 871 566 1585
3 851 669 1510
3 1040 399 1221
3 1418 768 1392
3 836 1882 1891
3 1094 1252 2206
3 488 1983 1437
3 1156 344 1686
3 866 1077 2001
3 533 711 2191
3 472 851 1510
3 706 1542 1533
3 252 1567 1528
3 461 338 1406
3 381 504 2067
3 526 1475 2007
3 527 1541 1371
3 830 1613 1565
3 86 87 1491
3 1365 806 1485
3 1541 527 515
3 537 1123 918
3 373 1750 2004
3 1517 992 514
3 989 1267 2203
3 421 794 1593
3 944 676 2077
3 947 401 2186
3 564 826 2376
3 722 1365 1485
3 779 1042 1811
3 775 1265 1763
3 1062 787 1183
3 731 1113 2081
3 1405 2254 2273
3 2230 1478 2319
3 169 170 1525
3 106 107 1527
3 159 898 1500
3 1207 1273 2160
3 1451 1578 2192
3 821 342 1691
3 457 1342 1247
3 129 130 758
3 863 406 2232
3 1370 117 1973
3 760 847 1356
3 888 821 1691
3 531 839 2273
3 1493 402 1241
3 1104 697 1848
3 451 844 1835
3 264 265 1396
3 838 998 2229
3 342 821 1914
3 1542 706 1402
3 189 190 573
3 588 760 1356
3 16 301 1517
3 633 542 1344
3 1053 603 2308
3 90 91 1136
3 164 165 1593
3 837 464 1339
3 1346 1247 1913
3 787 1098 1191
3 1271 831 1625
3 1031 551 1923
3 244 1385 1839
3 1096 360 2022
3 863 209 2027
3 1613 519 1565
3 1719 530 2154
3 678 910 1725
3 958 583 1863
3 718 1983 913
3 1726 876 2131
3 1983 488 913
3 961 540 2289
3 528 958 1863
3 2056 774 1772
3 1763 901 1628
3 873 577 2151
3 1283 1103 1915
3 773 687 1310
3 196 736 1940
3 1178 857 1724
3 1136 91 1557
3 1377 743 2018
3 990 1943 2127
3 360 796 1792
3 313 314 1421
3 972 628 1298
3 658 1732 1327
3 458 752 2194
3 931 665 1361
3 908 618 1268
3 697 1104 2145
3 2125 816 2300
3 440 1166 835
3 111 112 1688
3 185 186 1007
3 2069 393 2218
3 663 956 2146
3 543 1761 1929
3 121 1316 1085
3 370 639 1757
3 2127 1943 1859
3 885 263 1303
3 1887 944 2077
3 146 147 560
3 1709 1004 2339
3 1473 622 1424
3 1527 1306 1526
3 862 1525 1551
3 1405 893 1419
3 664 1377 2018
3 975 554 2050
3 479 410 1810
3 966 386 2051
3 1464 784 2161
3 690 1418 1392
3 83 84 994
3 766 651 2281
3 1418 404 1888
3 380 1083 809
3 1964 860 1800
3 453 1026 1814
3 467 754 1991
3 1841 618 1887
3 851 472 1950
3 977 672 1539
3 388 1820 2177
3 714 871 1585
3 578 997 2283
3 1969 769 2034
3 441 1457 1898
3 1213 1711 1604
3 944 618 1877
3 2079 385 1434
3 743 1388 2018
3 508 469 1017
3 1188 1414 1181
3 1325 1646 2162
3 781 1586 1476
3 1414 804 1181
3 568 1181 1629
3 192 193 1611
3 568 1323 1945
3 1573 155 1507
3 741 1853 2226
3 409 1121 2091
3 41 42 1005
3 821 470 2020
3 1170 730 2152
3 860 502 1380
3 173 174 1497
3 102 103 1305
3 664 1388 1794
3 560 147 976
3 565 2121 2038
3 1182 984 2003
3 185 1007 2268
3 1275 492 2139
3 479 367 1744
3 1388 664 2018
3 1856 220 2117
3 1117 365 2274
3 1259 68 1570
3 618 1841 1268
3 1377 664 2033
3 756 2177 2286
3 391 851 791
3 910 790 1725
3 830 957 1992
3 444 1233 1441
3 1457 835 1898
3 552 1547 682
3 1378 426 2055
3 1622 602 2349
3 1015 627 995
3 1716 970 1837
3 1165 704 1294
3 759 1177 1487
3 900 1378 2055
3 868 1399 1925
3 796 502 1964
3 271 272 1414
3 706 1531 1808
3 269 270 1291
3 1165 1080 1988
3 1896 1057 1445
3 1220 960 1609
3 22 305 2076
3 418 1896 1445
3 1316 783 1085
3 38 39 2114
3 39 40 1935
3 619 2059 1566
3 253 254 2008
3 1680 1142 2061
3 389 1537 2048
3 753 1784 1524
3 1114 1272 1656
3 1548 780 2182
3 375 1308 985
3 1750 1343 2004
3 587 860 1380
3 780 1453 1900
3 272 273 1315
3 554 1647 2171
3 427 1445 1869
3 1317 526 2007
3 422 614 1364
3 570 484 1387
3 608 1151 2358
3 1033 1756 2212
3 27 337 1759
3 669 1573 1507
3 1253 1534 1741
3 964 1104 1848
3 1759 337 1258
3 1362 524 1871
3 1286 912 1428
3 721 1232 1802
3 330 331 1286
3 67 68 1259
3 1586 721 1802
3 676 944 1043
3 615 842 834
3 1030 949 1063
3 935 375 985
3 1771 1171 2080
3 629 670 1106
3 464 837 1464
3 754 884 1991
3 879 1807 1818
3 192 1611 1734
3 994 84 639
3 754 467 2231
3 382 527 1426
3 461 693 2350
3 927 734 2234
3 1065 439 1585
3 1109 414 1921
3 342 1395 1691
3 912 1286 1564
3 1148 1216 1230
3 1540 486 1722
3 1531 706 2169
3 1828 836 1562
3 660 670 1375
3 796 54 1792
3 214 1313 1797
3 693 837 2350
3 647 1443 1335
3 997 578 955
3 729 2014 1872
3 931 1361 1790
3 1440 486 929
3 1885 385 1278
3 670 660 1892
3 1831 4 1815
3 546 875 2353
3 493 1828 1562
3 1475 864 2007
3 856 975 2050
3 917 1716 1837
3 526 908 1268
3 2130 426 1452
3 76 77 1399
3 893 1405 2137
3 199 200 1126
3 487 1635 1914
3 131 897 1347
3 25 323 1095
3 166 167 969
3 109 110 747
3 262 885 1198
3 1395 490 1092
3 1042 779 2064
3 1537 701 2048
3 1336 708 1330
3 741 404 1853
3 752 580 1012
3 365 1448 1785
3 62 63 1336
3 1136 544 1917
3 705 2005 1505
3 386 966 1446
3 1615 779 1811
3 957 403 1992
3 432 1440 929
3 1018 534 2248
3 509 447 1763
3 831 1194 1625
3 892 1143 1107
3 655 742 1724
3 1538 582 1529
3 966 475 1175
3 338 778 1406
3 45 1861 1926
3 475 966 1558
3 1547 434 682
3 1481 705 1505
3 638 2025 2067
3 330 1286 1428
3 1151 537 1334
3 952 1415 828
3 1281 993 2308
3 1160 473 1574
3 692 1419 2208
3 447 901 1763
3 28 277 0
3 503 816 2125
3 1192 568 1945
3 1194 801 1625
3 527 382 515
3 1770 1659 2073
3 1021 300 1961
3 1049 1553 1174
3 597 907 1603
3 2212 1756 1314
3 102 1305 2279
3 1497 174 1217
3 1118 80 1686
3 74 1084 1543
3 152 153 1207
3 8 285 1443
3 904 945 2177
3 691 1007 2375
3 382 413 515
3 1440 432 2166
3 474 887 2203
3 626 1730 2305
3 454 1062 1183
3 1040 369 1654
3 313 1493 1855
3 846 487 2020
3 1586 492 1476
3 536 1015 995
3 633 783 2273
3 359 1083 2112
3 1352 716 1881
3 1657 587 2251
3 601 972 1298
3 1732 425 1327
3 1050 572 1607
3 157 158 923
3 1024 1170 1827
3 768 1418 1274
3 840 56 1116
3 839 633 2273
3 361 896 2161
3 797 833 2125
3 380 1415 1229
3 1992 1061 1285
3 905 1221 1823
3 1153 937 1588
3 343 873 1948
3 974 354 1090
3 647 1335 1842
3 545 938 1823
3 389 2049 1382
3 1705 1066 1523
3 858 759 1824
3 1271 448 1834
3 1216 643 1230
3 987 479 1810
3 579 1355 1006
3 737 1885 1278
3 413 1739 1833
3 804 1414 1315
3 1534 653 1741
3 1759 367 479
3 1355 595 1006
3 614 580 1364
3 1121 409 1016
3 1308 861 985
3 1784 959 1524
3 325 326 1056
3 123 124 1127
3 404 1418 1853
3 566 1065 1585
3 724 350 1256
3 1415 1115 828
3 227 1458 2053
3 1485 806 1467
3 1803 661 2112
3 336 27 1806
3 956 393 1678
3 937 870 2072
3 583 958 1662
3 1077 866 2115
3 1035 724 1256
3 302 974 1090
3 761 1317 2007
3 1098 787 1243
3 64 65 593
3 484 570 2098
3 378 1432 2196
3 1373 971 2108
3 1438 1627 2369
3 525 1040 1654
3 851 391 1197
3 1818 1807 1758
3 531 853 2363
3 1599 983 1606
3 490 1899 1559
3 768 758 1347
3 987 1759 479
3 884 754 2263
3 909 359 2107
3 971 872 2108
3 1083 946 2112
3 657 909 2271
3 791 681 1939
3 937 2072 1154
3 1728 441 1898
3 670 629 785
3 430 345 1936
3 1492 1104 1931
3 536 1353 1108
3 219 220 1856
3 839 531 2140
3 300 1021 1989
3 534 1158 2248
3 1631 1114 1976
3 1149 725 2167
3 843 1599 1606
3 854 1367 1565
3 1388 1599 1794
3 669 851 1197
3 328 329 1707
3 354 974 1091
3 1884 389 1382
3 334 965 1470
3 632 842 2103
3 589 839 2140
3 2000 139 1852
3 378 1151 1334
3 74 75 1084
3 798 928 2118
3 647 1257 2354
3 1659 543 1694
3 518 1771 1805
3 339 1048 1715
3 223 224 1518
3 751 761 1242
3 570 1638 2157
3 1228 967 848
3 1185 1583 1929
3 1771 2080 1868
3 778 338 1337
3 762 712 1977
3 562 560 976
3 402 1162 1439
3 417 1407 1821
3 1077 638 2372
3 777 882 1808
3 1226 202 1592
3 803 1544 1039
3 1166 1728 1898
3 1958 418 1445
3 28 29 1969
3 629 1051 772
3 523 1466 1966
3 1419 692 2254
3 1151 378 1240
3 1495 195 1940
3 1471 695 1723
3 465 1454 2081
3 1415 952 2269
3 2072 401 1154
3 109 747 1774
3 969 167 1775
3 880 586 1976
3 519 1485 1467
3 1469 600 1698
3 45 46 1861
3 1258 24 2339
3 81 1156 1686
3 55 840 1792
3 844 1101 2094
3 638 1077 1427
3 384 1679 2284
3 940 533 2191
3 606 605 1671
3 1350 1136 1917
3 782 1596 1639
3 948 233 1243
3 701 1537 1960
3 1396 925 1303
3 817 1409 1200
3 1163 850 1867
3 727 1822 1812
3 385 1930 1434
3 208 1986 1563
3 1066 1705 1890
3 201 202 1226
3 427 1429 1606
3 1477 559 1967
3 1383 414 1946
3 798 2118 1456
3 1383 363 2299
3 983 1958 1445
3 554 975 1647
3 1155 580 1473
3 2053 1458 1767
3 1104 964 1931
3 1045 566 2373
3 958 528 667
3 276 277 1969
3 460 999 1463
3 1461 415 1985
3 1527 2172 2261
3 1876 1525 2260
3 1005 42 1310
3 486 1785 1594
3 548 593 1509
3 1724 742 1597
3 1740 818 1644
3 1215 1742 1465
3 907 2031 2090
3 1220 1136 1557
3 1863 1370 2127
3 1429 843 1606
3 1315 1074 1891
3 1600 902 1261
3 770 1602 2002
3 722 1438 1290
3 1249 755 1168
3 609 1369 2075
3 382 1426 2051
3 316 317 1233
3 1683 1163 1241
3 2031 495 2090
3 1101 844 2295
3 698 1431 2128
3 895 1257 1769
3 1659 819 2073
3 1161 576 1146
3 619 1679 2059
3 600 1469 2038
3 1900 715 2182
3 606 1142 1680
3 1284 1094 2206
3 412 2130 1452
3 528 1863 2127
3 926 352 1632
3 428 1077 2115
3 1007 423 2375
3 898 2001 2005
3 804 1315 1891
3 146 560 2032
3 1467 854 1565
3 314 315 1162
3 765 1145 1643
3 96 97 1670
3 179 180 1673
3 1995 888 1955
3 2146 956 1678
3 1451 483 2241
3 897 690 1392
3 555 2289 2297
3 993 2162 2308
3 624 1649 1829
3 816 538 1996
3 1247 943 1913
3 1077 428 1427
3 1313 801 1797
3 364 1451 2242
3 2001 420 2005
3 958 400 1662
3 885 1303 1889
3 433 2255 1994
3 1793 662 913
3 2172 770 2261
3 902 1876 2260
3 1881 1408 2158
3 1271 1625 1735
3 405 1799 1359
3 386 382 2051
3 337 24 1258
3 448 349 2111
3 1072 707 1294
3 1015 536 1844
3 295 294 2031
3 746 1438 1420
3 1007 582 2268
3 1512 1119 1813
3 1901 598 2191
3 636 1259 1570
3 1799 456 1359
3 2128 1431 1975
3 741 567 1618
3 843 1429 2015
3 307 1219 1548
3 641 1031 1923
3 1599 843 1794
3 400 958 2089
3 1151 608 1225
3 859 1810 2237
3 1458 228 1544
3 981 788 986
3 376 1540 1722
3 1125 1022 2290
3 399 1265 1701
3 212 213 1194
3 1429 356 1608
3 1561 545 2058
3 362 1076 1351
3 1546 743 1193
3 368 1277 2184
3 977 476 1736
3 271 1414 1712
3 839 589 1997
3 1747 1001 1717
3 696 1881 2158
3 1121 728 2091
3 1074 1082 1562
3 129 758 1901
3 1823 1221 1714
3 1240 378 2196
3 788 689 986
3 1277 539 2184
3 537 1151 1653
3 1076 362 1100
3 1291 270 1712
3 1418 690 1624
3 1162 431 1439
3 147 148 976
3 797 2125 1587
3 1122 1015 1844
3 1635 355 1270
3 2177 945 2286
3 807 1635 1270
3 1082 493 1562
3 678 1725 1554
3 1853 721 2226
3 1265 775 1701
3 1697 953 1809
3 1471 703 1854
3 1029 585 1416
3 530 950 2154
3 508 526 1268
3 473 1160 1203
3 1485 1212 2188
3 1468 764 1137
3 348 1076 1100
3 727 1812 2116
3 357 822 2159
3 840 635 2355
3 1129 476 1539
3 1133 816 1996
3 1921 859 2237
3 1438 722 1420
3 1638 643 1173
3 866 1218 2115
3 1058 1627 2150
3 1101 1129 1838
3 1129 442 1838
3 707 1072 2089
3 1008 1018 2248
3 960 793 1609
3 715 1900 1868
3 974 302 1796
3 1087 1012 1187
3 277 28 1969
3 882 467 1991
3 1072 400 2089
3 614 422 1978
3 1927 401 2072
3 1884 1058 1674
3 1912 578 2283
3 940 1888 2093
3 354 1516 1090
3 888 513 1955
3 1914 1635 2238
3 1739 386 686
3 1447 820 1746
3 360 1792 2355
3 1013 1949 2257
3 1093 813 1612
3 269 1291 1070
3 463 1455 1264
3 1019 1312 1384
3 1021 869 1620
3 1638 570 1387
3 225 1386 1614
3 751 1242 1878
3 713 1047 1483
3 634 2024 2245
3 1145 1027 2327
3 869 1021 1961
3 191 192 1734
3 435 1255 2145
3 813 1513 1612
3 566 1245 2373
3 1627 746 2150
3 758 598 1901
3 665 931 1884
3 1516 303 1090
3 489 1165 1972
3 635 840 1116
3 1749 894 1715
3 1305 818 2279
3 1215 1497 1217
3 1028 1016 1234
3 1165 707 1972
3 643 1460 1173
3 2001 1077 2372
3 402 1683 1241
3 651 1862 1829
3 499 497 2025
3 905 1040 1221
3 1308 375 377
3 638 499 2025
3 901 447 1850
3 1103 1157 2117
3 1160 781 1203
3 445 2173 1629
3 553 1497 1569
3 1305 550 1462
3 897 3 2148
3 84 85 639
3 735 1510 1262
3 72 1455 1980
3 744 1433 2149
3 790 1095 2304
3 1059 777 1954
3 711 1182 2191
3 680 1927 2072
3 573 190 2201
3 1054 778 1086
3 499 638 1427
3 657 1021 1620
3 524 1209 2147
3 428 499 1427
3 2032 1170 1815
3 396 1489 1532
3 924 968 2322
3 120 121 1085
3 2062 439 2366
3 1419 394 2208
3 1209 563 1113
3 83 994 1789
3 681 791 1950
3 1611 193 1506
3 338 461 1824
3 305 304 1205
3 800 1538 1529
3 975 1128 1647
3 138 139 2000
3 960 1220 1557
3 401 947 1154
3 86 1491 1295
3 413 1541 515
3 604 2053 1767
3 32 33 1705
3 759 338 1824
3 586 1631 1976
3 1491 712 1295
3 21 1546 1193
3 1579 355 2156
3 1749 1201 1459
3 393 1702 2218
3 864 1475 2095
3 846 540 1389
3 750 845 1577
3 782 573 2201
3 1157 1856 2117
3 544 1136 2330
3 615 1140 1806
3 845 352 1577
3 997 970 1571
3 1541 899 1371
3 1010 1579 2156
3 696 841 917
3 1734 535 1737
3 653 1534 2246
3 1062 454 2257
3 869 1003 1814
3 408 1749 1459
3 429 1706 1805
3 787 1047 1895
3 1881 696 1837
3 169 1525 1876
3 1527 107 2172
3 497 499 1486
3 155 156 1507
3 1007 691 1788
3 1503 843 2015
3 1151 1240 2358
3 278 8 500
3 784 1239 2138
3 707 1165 1294
3 925 1152 1889
3 2097 595 1582
3 1553 361 1174
3 560 730 2032
3 627 430 1936
3 128 129 1901
3 481 791 1939
3 1825 348 2313
3 1183 713 2200
3 841 675 917
3 2014 729 1046
3 745 1164 1752
3 965 2207 1830
3 1453 571 2077
3 1209 731 2147
3 1785 1448 1594
3 590 1747 1717
3 947 364 1588
3 695 1471 2252
3 1313 215 1916
3 1219 306 2195
3 822 613 2159
3 468 1519 2209
3 853 673 1633
3 1313 748 1502
3 582 1538 2268
3 1531 777 1808
3 2020 470 2297
3 2313 348 2371
3 847 853 1633
3 1211 744 2149
3 1105 1657 2251
3 865 500 1998
3 1084 1196 1543
3 1750 1322 1633
3 126 984 1951
3 1997 1019 2312
3 1699 858 1321
3 557 1308 377
3 599 1749 1715
3 14 289 1576
3 1152 538 1889
3 779 652 1449
3 613 2146 1678
3 1041 583 1662
3 803 799 1199
3 1143 1169 1107
3 207 208 1563
3 846 2020 2297
3 520 1228 848
3 993 1281 2004
3 1514 493 2259
3 357 2204 1978
3 1281 373 2004
3 927 392 2170
3 455 1291 1192
3 593 65 1509
3 970 997 2104
3 1291 1188 1192
3 843 1503 1794
3 974 776 2175
3 994 968 1789
3 1082 275 2034
3 92 93 960
3 766 150 1956
3 914 593 1700
3 874 903 2105
3 630 561 1920
3 591 1611 1506
3 842 615 1806
3 1303 925 1889
3 1711 369 1604
3 1480 611 2282
3 1548 642 1766
3 676 1453 2077
3 776 974 1796
3 1949 616 2257
3 734 1990 2234
3 1414 1188 1712
3 687 1005 1310
3 1460 643 1216
3 183 184 1538
3 1924 784 2138
3 486 1540 1785
3 1793 913 1147
3 1537 389 1674
3 1076 348 2090
3 1188 1291 1712
3 1291 455 1070
3 410 479 1410
3 208 209 1986
3 482 1480 2180
3 1061 403 2345
3 369 1040 1442
3 1206 1129 1539
3 1347 897 1392
3 1083 380 1229
3 1578 364 2347
3 441 1728 2102
3 1478 825 1778
3 822 629 1106
3 1453 676 1002
3 1542 978 1533
3 551 880 1976
3 1861 719 1926
3 30 1514 2035
3 780 1900 2182
3 2204 614 1978
3 478 1740 1644
3 1742 387 1465
3 1255 2069 2145
3 100 101 1740
3 175 176 1742
3 871 378 2164
3 1164 1511 2266
3 487 846 1389
3 223 1518 1915
3 402 1493 1421
3 1160 567 2336
3 831 1271 1834
3 628 972 1621
3 1732 658 1672
3 1233 431 2012
3 700 935 2063
3 1405 1419 2254
3 970 1716 1571
3 944 1877 1043
3 1038 653 2246
3 1851 477 2022
3 444 1044 1107
3 495 1076 2090
3 1281 603 939
3 664 1794 2288
3 322 908 1999
3 1206 1539 2039
3 1140 965 2325
3 349 448 2321
3 919 1531 2169
3 984 350 1951
3 167 168 1775
3 108 109 1774
3 1426 878 2051
3 386 1590 686
3 909 2107 2271
3 801 1313 1502
3 1716 18 1571
3 589 1019 1997
3 452 1140 2323
3 622 1492 1424
3 409 2091 2344
3 1289 1032 2143
3 427 1869 1675
3 507 1311 1200
3 1791 602 2374
3 71 72 1980
3 1032 504 2143
3 533 940 1046
3 1873 398 1439
3 36 37 1902
3 2207 656 1830
3 940 765 1046
3 1029 299 886
3 314 1162 1421
3 120 1085 1650
3 1141 427 1675
3 1040 905 1442
3 593 914 963
3 1885 678 2174
3 338 759 1487
3 1441 318 996
3 857 655 1724
3 652 349 1813
3 332 333 2272
3 713 1378 2200
3 1399 868 2118
3 662 947 2186
3 1182 1901 2191
3 1054 204 1693
3 1183 787 1895
3 603 1053 1899
3 434 1547 1521
3 1053 646 1899
3 316 1233 2012
3 8 1443 1998
3 660 1375 2021
3 980 1791 2374
3 241 1748 1131
3 1031 641 2083
3 1021 657 2216
3 1010 1489 2046
3 579 766 1956
3 880 472 2306
3 1627 248 2369
3 506 1935 1362
3 1386 604 1708
3 998 362 1391
3 1177 574 1487
3 2167 1008 2248
3 1284 142 1819
3 668 1770 2073
3 1047 236 1483
3 1407 417 1583
3 2218 1702 1661
3 286 12 982
3 470 1726 1826
3 287 1531 1874
3 1794 1503 2288
3 818 1740 2279
3 1742 1215 1217
3 160 161 1760
3 567 745 1618
3 1935 1134 1362
3 763 1386 1708
3 420 2001 2372
3 1047 713 1895
3 1023 1226 1592
3 118 119 2378
3 1547 552 2310
3 359 909 1937
3 1311 855 1200
3 575 1258 2339
3 422 1051 1978
3 942 1875 2096
3 1076 495 2101
3 595 1355 1582
3 842 27 2030
3 367 1759 1258
3 719 773 1926
3 10 281 1357
3 1300 1441 996
3 2306 735 1651
3 115 116 932
3 561 1723 1920
3 743 1546 1812
3 728 684 1695
3 119 1189 2378
3 748 1313 1916
3 673 853 2133
3 1525 170 1551
3 106 1527 1526
3 1875 610 2096
3 1099 358 1960
3 748 1721 1502
3 542 1997 2312
3 643 1387 1230
3 1445 1057 1869
3 1541 280 2037
3 1635 487 1412
3 496 2125 2300
3 1539 672 2039
3 966 2051 1558
3 976 651 1829
3 26 1447 1554
3 1454 1642 1993
3 724 394 1846
3 562 976 1829
3 593 548 1700
3 777 1531 2141
3 240 241 1131
3 225 226 1386
3 569 1768 1894
3 1792 840 2355
3 597 1825 1945
3 1579 847 1504
3 467 916 2231
3 349 879 2111
3 872 1353 995
3 1051 357 1978
3 950 2062 2366
3 2059 755 1566
3 609 1680 2061
3 3 1460 2148
3 260 833 2225
3 250 251 1290
3 807 1652 2238
3 1649 624 2198
3 268 269 1070
3 635 1499 2355
3 1652 342 2238
3 1694 1011 2328
3 1358 2354 1601
3 580 614 1786
3 642 1548 2182
3 952 828 954
3 1099 746 1420
3 1531 287 2141
3 703 1649 2198
3 644 1709 1394
3 416 789 2215
3 1036 1238 2256
3 1725 26 1554
3 765 2014 1046
3 1166 2152 2110
3 1323 568 2173
3 1828 1066 1890
3 1497 1215 1569
3 818 1305 1462
3 1580 2250 1641
3 1353 536 995
3 2107 359 2112
3 1171 1547 2310
3 946 1083 2056
3 1825 455 1945
3 773 44 1926
3 25 1095 1043
3 1140 615 2323
3 1048 1828 1890
3 646 1626 1559
3 1491 87 2298
3 481 1355 2318
3 1503 2239 2288
3 603 1652 939
3 1095 790 1755
3 18 1716 1922
3 965 334 2325
3 973 1219 2195
3 1252 2000 1852
3 88 2275 2298
3 375 935 2212
3 303 1516 1530
3 1375 1212 2021
3 1507 156 2028
3 517 1492 1931
3 694 1323 2173
3 1725 790 2304
3 1590 386 1446
3 2239 933 2288
3 440 1186 617
3 540 1619 1389
3 1541 413 2142
3 46 47 1952
3 1840 885 1889
3 1018 1008 2050
3 1958 549 2340
3 310 311 1784
3 1468 1958 2340
3 735 1262 1320
3 431 1873 1439
3 418 1748 1896
3 1386 763 1614
3 554 1018 2050
3 626 1669 2231
3 915 363 810
3 487 1914 2020
3 1843 962 2185
3 221 1103 2117
3 883 1791 2361
3 932 1370 1863
3 987 1810 1204
3 1216 1148 1830
3 1341 1818 2144
3 239 240 1981
3 611 1123 2356
3 1818 406 2144
3 1531 919 1874
3 1478 683 2319
3 1616 144 2227
3 1518 1283 1915
3 1136 1220 2330
3 1726 463 1826
3 997 1571 2283
3 1861 46 1952
3 70 71 1703
3 1814 1003 1222
3 1152 379 1227
3 712 1491 2189
3 721 1586 2226
3 784 693 1239
3 1301 1164 2266
3 681 1950 2083
3 582 1007 1788
3 1299 403 1081
3 535 1611 1893
3 280 1541 2142
3 1613 660 2021
3 1190 505 2136
3 740 1126 2128
3 959 1719 2154
3 1318 1036 2256
3 693 1069 1239
3 884 1542 1402
3 998 838 2371
3 599 1705 1731
3 1510 669 1262
3 1669 754 2231
3 1801 675 383
3 1492 517 1424
3 837 1339 1321
3 453 1123 1653
3 1783 188 1782
3 1777 878 1632
3 890 2045 2198
3 967 1916 2068
3 957 830 1248
3 753 1161 1394
3 899 1541 2037
3 1175 436 1446
3 977 521 1067
3 371 1865 1486
3 1194 213 1797
3 828 366 954
3 144 1616 1393
3 358 1099 1139
3 1158 534 1553
3 362 998 1100
3 731 1209 1113
3 171 1435 1551
3 1765 105 1526
3 833 260 1501
3 432 929 1959
3 1049 1158 1553
3 189 573 1782
3 591 1267 2307
3 64 593 963
3 1332 1213 1604
3 1051 422 1366
3 1739 610 1833
3 438 1561 2058
3 1848 368 2010
3 585 1029 1348
3 898 1760 2001
3 1885 737 1132
3 1208 365 1942
3 806 1567 1467
3 916 626 2231
3 1334 537 2348
3 938 1561 2043
3 1571 297 2283
3 1685 899 1508
3 1900 429 1868
3 251 1365 1290
3 739 1594 2357
3 847 1579 1356
3 231 232 1125
3 791 851 1950
3 236 1047 1191
3 1561 466 2043
3 489 1972 1384
3 1710 671 1733
3 583 932 1863
3 1085 1071 1650
3 343 1318 2256
3 117 118 1973
3 772 1051 1366
3 1567 854 1467
3 797 1108 1660
3 733 1570 2244
3 538 1840 1889
3 881 1801 383
3 463 1751 1826
3 158 159 1500
3 1489 1010 1532
3 426 2130 1727
3 1374 1036 2333
3 65 66 1509
3 458 1534 1560
3 534 1018 2171
3 826 354 1549
3 1223 545 1714
3 1020 1460 1932
3 1089 849 1617
3 1670 97 1908
3 1058 931 1953
3 179 1673 2153
3 96 1670 2155
3 1673 180 1176
3 882 1402 1808
3 1055 534 2171
3 1646 726 2192
3 832 644 1146
3 1525 553 2260
3 550 1527 2261
3 2008 1373 2213
3 584 1646 2192
3 746 1537 2150
3 975 641 1923
3 407 1089 1617
3 204 205 1693
3 1323 597 1945
3 577 447 1773
3 321 1317 2199
3 1870 713 1483
3 1709 753 1394
3 1338 1299 1081
3 541 1372 2333
3 659 1554 1906
3 1580 1009 2250
3 984 1182 711
3 652 1615 1907
3 1402 706 1808
3 355 1579 1504
3 1877 25 1043
3 261 262 1198
3 1721 922 1711
3 41 1005 2011
3 613 822 2146
3 466 1561 2249
3 266 998 1391
3 357 1292 2204
3 1760 866 2001
3 1232 690 2123
3 1311 604 1767
3 484 1286 2326
3 684 962 1695
3 1038 1087 1187
3 838 1070 2313
3 1935 506 2114
3 854 2008 2213
3 411 1311 1767
3 154 1573 1266
3 573 782 2285
3 1519 1263 2209
3 300 19 1961
3 1542 884 437
3 363 915 2299
3 932 583 1968
3 572 927 2234
3 994 370 1634
3 1573 391 1266
3 1976 1114 1656
3 866 1760 1568
3 468 1542 437
3 215 216 1916
3 134 135 1135
3 132 1638 1173
3 298 18 1922
3 801 1194 1797
3 237 238 1870
3 1546 564 1812
3 384 972 2059
3 1732 605 1680
3 1316 122 2052
3 54 55 1792
3 347 1059 1954
3 1302 1041 1894
3 742 346 2039
3 519 1613 2021
3 1375 670 785
3 991 1259 1437
3 859 1921 2299
3 893 1316 2052
3 768 1347 1392
3 716 1352 1459
3 1186 757 617
3 246 1953 1790
3 661 1014 1214
3 757 1195 1278
3 651 766 1862
3 2208 394 1718
3 2245 416 2215
3 1363 1223 1714
3 1352 408 1459
3 1572 717 2264
3 966 1175 1446
3 650 915 810
3 596 1507 2028
3 345 430 1248
3 371 1190 2136
3 1460 3 1173
3 1245 1334 2348
3 903 218 2105
3 672 742 2039
3 1768 1302 1894
3 362 1396 1391
3 24 1709 2339
3 505 1583 1666
3 1540 547 1942
3 228 229 1544
3 1155 906 1017
3 1128 975 1923
3 629 1287 785
3 1542 468 2209
3 495 1050 2101
3 304 21 1193
3 205 206 1704
3 2102 1728 2360
3 812 1979 1120
3 1458 1199 1767
3 1050 379 2101
3 978 1542 2209
3 470 1826 2297
3 1843 2185 2296
3 972 755 2059
3 609 1732 1680
3 333 334 1470
3 547 1208 1942
3 1977 544 2330
3 888 1995 1556
3 1466 1977 2330
3 972 384 1621
3 605 1732 1672
3 1496 356 2049
3 259 260 2225
3 248 249 2369
3 1408 2114 2158
3 2254 692 2133
3 32 1705 1523
3 929 482 1959
3 1683 402 1439
3 1042 1149 1811
3 1149 374 1811
3 823 1052 1610
3 1195 757 1664
3 2114 506 2158
3 426 1378 1452
3 919 795 2270
3 393 1255 1678
3 229 230 1039
3 195 196 1940
3 1078 1231 2278
3 56 57 1116
3 1856 874 2105
3 1579 1010 1552
3 358 1375 785
3 812 1284 1819
3 466 1195 1664
3 400 1041 1662
3 1692 1049 1174
3 1546 21 1530
3 476 1129 2295
3 1150 362 1351
3 1159 457 1685
3 1316 893 2137
3 50 1657 1349
3 585 1003 1416
3 373 1281 939
3 902 1600 2280
3 1602 770 1776
3 783 1316 2137
3 1167 1496 2049
3 1573 669 1197
3 712 762 1757
3 1199 411 1767
3 1805 1706 1897
3 799 803 1849
3 1518 224 1614
3 1657 50 2253
3 2194 1087 2246
3 469 1038 1187
3 1851 575 2013
3 1747 763 1708
3 949 2040 2170
3 621 799 1849
3 964 1848 2010
3 161 162 1568
3 1218 428 2115
3 391 1573 1197
3 1252 1094 1713
3 33 34 1482
3 841 696 2158
3 762 370 1757
3 398 1683 1439
3 456 1699 1321
3 1237 1605 1637
3 815 1535 1846
3 691 1639 1788
3 114 1968 2287
3 1639 1477 1788
3 114 115 1968
3 1642 611 1993
3 394 724 1718
3 506 841 2158
3 854 1567 2008
3 1905 480 2319
3 301 300 1989
3 26 1725 2304
3 1547 1171 2276
3 1705 33 1482
3 1568 162 2129
3 1250 1088 2138
3 1619 1279 2367
3 1705 1482 1731
3 742 672 1597
3 257 1353 1745
3 507 1747 1708
3 170 171 1551
3 105 106 1526
3 1596 782 1737
3 722 1485 2188
3 1277 1288 2106
3 457 1159 1682
3 795 827 2270
3 710 1704 2120
3 1704 936 2120
3 450 910 1132
3 87 88 2298
3 234 1098 1243
3 1246 1380 2054
3 80 81 1686
3 837 693 1464
3 1186 440 835
3 535 1596 1737
3 458 1560 1780
3 650 1111 2277
3 693 784 1464
3 436 1590 1446
3 953 1073 1809
3 1460 1020 2148
3 1044 892 1107
3 351 1332 1697
3 403 957 1081
3 967 903 848
3 2335 1707 1428
3 1706 429 1002
3 2024 416 2245
3 788 981 930
3 378 871 1432
3 1195 737 1278
3 2051 878 1558
3 512 788 930
3 675 841 1871
3 1554 1447 1906
3 92 960 1557
3 661 1803 1014
3 260 261 1501
3 60 61 1522
3 542 633 1997
3 2240 650 2277
3 1613 830 1992
3 633 839 1997
3 1001 1747 2302
3 150 151 1956
3 713 1183 1895
3 1953 931 1790
3 342 1914 2238
3 1538 184 2268
3 968 994 1634
3 765 940 2093
3 861 1308 1498
3 1739 686 2096
3 1230 1387 2326
3 125 126 1951
3 1611 591 1893
3 921 1455 2131
3 1486 1865 2351
3 1455 463 2131
3 1703 921 1417
3 1870 412 1452
3 1292 357 2159
3 733 1703 1417
3 480 2230 2319
3 188 189 1782
3 1120 1979 2370
3 616 1062 2257
3 861 1143 2184
3 1000 1186 835
3 935 985 2063
3 248 1627 1787
3 567 741 2226
3 1259 636 1437
3 1469 1381 2038
3 1986 592 1563
3 303 302 1090
3 412 1870 2365
3 1567 806 1528
3 643 1638 1387
3 175 1742 1217
3 1740 101 2279
3 1810 859 1204
3 683 1905 2319
3 2045 703 2198
3 173 1497 2187
3 1305 103 1304
3 48 49 1938
3 708 1336 1329
3 560 562 1484
3 997 955 2104
3 1195 466 2249
3 378 1334 2164
3 809 359 1937
3 1261 553 1569
3 550 2002 1462
3 1085 783 2364
3 1616 812 1393
3 1460 1216 1932
3 1245 566 2164
3 1235 1109 2237
3 660 1613 1285
3 1627 1058 1787
3 408 1352 2104
3 1332 634 1697
3 999 1261 1569
3 2002 1461 1462
3 912 2335 1428
3 1070 838 2229
3 211 1663 2047
3 1108 797 1844
3 598 758 1274
3 2225 797 1660
3 5 172 1435
3 104 2 1765
3 317 318 1441
3 1128 1272 1472
3 1171 1771 2276
3 171 5 1435
3 2 105 1765
3 570 1135 2098
3 1272 405 1472
3 555 1751 2291
3 1014 949 1214
3 2142 413 1833
3 774 666 2331
3 1286 1390 2326
3 1760 161 1568
3 1497 862 2187
3 1306 1305 1304
3 1751 459 2291
3 374 1615 1811
3 910 678 1132
3 951 834 2277
3 1352 970 2104
3 1721 648 1502
3 1224 1232 2123
3 985 539 2063
3 165 166 1689
3 110 111 1422
3 1252 732 1919
3 1317 321 1999
3 656 852 2262
3 1801 881 886
3 757 1278 2079
3 536 1108 1844
3 1129 1101 2295
3 455 1192 1945
3 1367 345 1248
3 1622 823 1957
3 166 969 1689
3 747 110 1422
3 598 940 2191
3 323 26 2304
3 918 372 2348
3 1262 397 1320
3 1396 265 1391
3 1400 1034 1298
3 1328 1398 1327
3 761 751 1677
3 673 1750 1633
3 351 1697 1809
3 373 939 2235
3 523 1622 2349
3 1615 1049 1907
3 197 198 1730
3 1710 522 1520
3 1172 2043 2099
3 1056 511 2370
3 1070 455 2313
3 628 1400 1298
3 1398 658 1327
3 777 2141 1954
3 115 932 1968
3 704 1988 2296
3 1561 438 2249
3 2099 466 1664
3 1260 1027 1210
3 1509 66 1845
3 1095 323 2304
3 881 383 2147
3 1025 1858 1282
3 1236 1297 1545
3 539 1277 2106
3 78 79 1947
3 730 560 1484
3 1663 637 2047
3 1233 317 1441
3 987 1204 2103
3 623 1236 1545
3 1858 625 1282
3 1319 1088 1250
3 1775 168 1876
3 108 1774 2172
3 758 768 1274
3 782 1639 2285
3 811 1616 2227
3 1196 1084 1645
3 789 416 1423
3 1977 712 2189
3 537 918 2348
3 1172 789 1423
3 902 1775 1876
3 1774 770 2172
3 662 1793 1559
3 1851 2022 1744
3 771 747 2342
3 969 594 2341
3 905 1823 1944
3 1287 629 772
3 1144 1572 2264
3 656 2262 1932
3 52 53 1964
3 352 845 2070
3 2007 864 1242
3 1443 285 1335
3 830 1367 1248
3 351 1809 2009
3 1007 186 1307
3 982 1237 1444
3 1968 1302 2287
3 774 1033 2016
3 712 639 1295
3 808 2029 1955
3 1231 875 1623
3 699 1019 1384
3 1649 703 2102
3 676 1043 1755
3 639 85 1295
3 1798 290 1761
3 2047 637 2027
3 1734 782 2201
3 1807 879 1174
3 480 1707 2335
3 345 1367 2213
3 653 1038 2292
3 702 1568 2129
3 1151 1225 1653
3 90 1136 2217
3 1261 902 2260
3 770 2002 2261
3 875 559 2353
3 611 1642 2282
3 1019 699 2312
3 1111 951 2277
3 191 1734 2201
3 290 14 1761
3 302 20 1796
3 1575 911 2267
3 1055 824 2205
3 1123 537 1653
3 795 756 1436
3 291 290 2210
3 991 1509 1845
3 1771 518 2276
3 93 94 2224
3 290 1798 2210
3 1315 273 2193
3 557 954 674
3 1091 974 2175
3 464 1055 2205
3 182 183 2223
3 392 927 829
3 1026 1620 1814
3 99 100 2219
3 176 177 2220
3 1074 1315 2193
3 835 1166 1898
3 566 871 2164
3 6 188 1783
3 1679 384 2059
3 602 1622 2243
3 605 606 1680
3 1242 498 1878
3 377 952 954
3 2067 504 1572
3 808 1971 2029
3 1891 1074 1562
3 2348 372 2373
3 2107 661 2074
3 720 867 2258
3 187 6 1783
3 1299 510 2329
3 98 99 1400
3 177 178 1398
3 827 795 1436
3 502 1096 2054
3 763 1747 1762
3 94 95 1858
3 181 182 1236
3 723 1861 1952
3 749 1883 1598
3 1087 1038 2246
3 88 1 2275
3 1323 694 2041
3 1033 774 2331
3 2024 905 1944
3 836 1891 1562
3 1584 855 1965
3 669 1507 2359
3 1799 405 2078
3 135 136 1778
3 1822 743 1812
3 1777 449 1456
3 1646 584 2162
3 423 1007 1307
3 1 89 2275
3 1209 524 2211
3 1018 554 2171
3 1039 1022 1849
3 475 1777 1456
3 1697 634 2245
3 1259 991 1845
3 664 1550 2033
3 472 1510 2306
3 1136 1350 2217
3 1455 921 1980
3 67 1259 1845
3 1990 734 2040
3 1883 450 1598
3 832 365 1117
3 981 1799 2078
3 803 1039 1849
3 1470 965 1830
3 1510 735 2306
3 1777 1632 2163
3 1938 1179 1668
3 231 1125 2290
3 2185 1072 1294
3 1433 744 2092
3 1519 689 1263
3 451 1990 2040
3 293 867 1605
3 901 979 1628
3 676 1706 1002
3 1857 1157 1773
3 1747 590 1762
3 1575 282 1764
3 875 546 2309
3 410 1235 2237
3 355 1635 1412
3 2163 352 2070
3 1909 1115 1432
3 236 237 1483
3 776 1584 1965
3 704 2185 1294
3 890 2247 1886
3 1626 662 1559
3 1892 660 1285
3 726 1646 2314
3 790 1706 1755
3 312 1719 2183
3 435 1292 1296
3 1882 804 1891
3 445 2113 2173
3 1418 1888 1274
3 1098 235 1191
3 1499 635 1235
3 255 256 971
3 1432 1115 2196
3 1138 1110 1975
3 1110 620 1975
3 1022 1949 1849
3 1177 424 2044
3 1226 1023 1655
3 9 1696 1508
3 1683 398 1832
3 781 1160 2336
3 607 1078 2278
3 198 199 2305
3 552 682 1628
3 1778 136 2324
3 1705 599 1890
3 732 1252 1713
3 2226 1586 2336
3 1635 807 2238
3 881 1244 1348
3 1519 424 2168
3 1949 621 1849
3 1292 622 2204
3 1777 475 1558
3 13 287 1874
3 710 1054 1693
3 460 1659 1694
3 1257 415 2354
3 1870 238 2365
3 1584 776 1796
3 1607 891 1227
3 1205 1377 2033
3 1024 2079 1434
3 1052 419 1610
3 1163 1683 2085
3 878 1426 1632
3 510 1064 1817
3 280 9 2037
3 1064 655 1817
3 1550 677 2033
3 380 809 2358
3 2190 556 1886
3 1397 2107 2074
3 1426 926 1632
3 1499 360 2355
3 442 1433 2092
3 929 486 1816
3 1189 1071 1344
3 477 1851 2013
3 20 1584 1796
3 879 1692 1174
3 1378 900 2200
3 2280 1600 2328
3 1602 1776 1601
3 1138 1177 2044
3 285 284 786
3 1155 1017 1187
3 1402 882 1991
3 122 123 2052
3 528 1097 667
3 1108 1353 805
3 1353 872 1745
3 1663 831 2126
3 557 377 954
3 874 1857 2202
3 2347 646 2134
3 799 621 2175
3 405 1359 1472
3 1255 393 2069
3 243 244 1839
3 153 154 1266
3 1359 824 1472
3 884 1402 1991
3 256 257 1745
3 1061 1892 1285
3 1054 710 1933
3 778 1054 1933
3 943 1577 1913
3 744 430 2092
3 246 247 1953
3 2037 9 1508
3 596 923 2026
3 263 264 1303
3 833 503 2125
3 2275 1350 2298
3 448 1271 1430
3 1721 1711 2334
3 988 723 2166
3 1825 597 1603
3 761 2007 1242
3 713 1870 1452
3 1376 1042 1060
3 776 799 2175
3 12 293 1605
3 1043 1095 1755
3 820 1056 2370
3 1642 679 2282
3 1723 695 1920
3 1784 311 2183
3 1385 1361 1675
3 1930 659 1994
3 1912 694 2113
3 374 1149 2167
3 578 1912 2113
3 860 1657 2253
3 764 1748 1137
3 602 1575 2374
3 1866 390 2377
3 1101 1838 1681
3 656 1216 1830
3 979 552 1628
3 50 51 2253
3 1224 2139 1802
3 675 1716 917
3 959 1784 2183
3 1141 665 1382
3 233 234 1243
3 558 924 2322
3 1657 1105 1349
3 1748 418 1137
3 1267 474 2203
3 1135 825 2098
3 666 1229 2269
3 282 10 1764
3 1110 884 2263
3 1648 1253 1741
3 477 1096 2022
3 1179 1938 1911
3 1361 665 1675
3 124 125 1535
3 543 1659 1770
3 500 728 1695
3 1747 507 2302
3 209 210 2027
3 1284 812 1120
3 1116 57 1690
3 1412 487 2367
3 68 69 1570
3 677 1205 2033
3 1271 1112 1430
3 251 252 1528
3 976 148 2281
3 1017 469 1187
3 1205 677 2076
3 791 481 1331
3 613 1255 1296
3 1005 563 1684
3 651 976 2281
3 638 1860 2372
3 1339 456 1321
3 423 1783 1782
3 49 50 1349
3 394 1419 1075
3 1317 761 2199
3 855 1584 2165
3 2040 734 2170
3 407 772 1366
3 1353 257 805
3 1648 973 2195
3 1149 1042 2190
3 1207 153 1266
3 637 1663 2126
3 1244 731 2081
3 320 321 2199
3 2043 466 2099
3 335 1140 2325
3 1257 647 1842
3 123 1127 2052
3 1803 521 1014
3 1084 928 1645
3 2043 1172 1423
3 356 1141 1382
3 719 988 1698
3 2029 636 1630
3 1381 565 2038
3 1112 1271 1735
3 2150 1537 1674
3 1240 380 2358
3 58 59 2006
3 1580 870 2233
3 390 1329 2377
3 594 2280 2328
3 1776 771 1601
3 1409 507 1200
3 1255 613 1678
3 1278 385 2079
3 296 17 1720
3 265 266 1391
3 1211 1338 1081
3 1229 1415 2269
3 2055 2116 2376
3 503 833 1501
3 40 41 2011
3 1578 2347 2134
3 144 4 2227
3 1210 1027 1987
3 1267 522 2307
3 751 319 1677
3 491 986 2168
3 545 1223 2058
3 505 1576 2136
3 1365 722 1290
3 938 2043 1423
3 429 1900 1002
3 13 2270 738
3 268 1070 2229
3 1772 774 2362
3 1096 477 2054
3 13 1874 2270
3 361 1807 1174
3 649 1772 2362
3 1719 959 2183
3 445 1880 2113
3 143 144 1393
3 1793 490 1559
3 1367 830 1565
3 1244 585 1348
3 632 1204 2240
3 1522 61 1330
3 29 30 2035
3 833 797 2225
3 1888 404 2093
3 689 1820 1263
3 2057 1061 2345
3 1670 1908 1621
3 2153 1673 1672
3 2155 1670 2284
3 1673 1176 1671
3 442 1129 1404
3 1100 998 2371
3 900 2055 2376
3 275 276 2034
3 775 682 2317
3 698 1226 1655
3 688 2057 2345
3 311 312 2183
3 1820 978 1263
3 347 982 1444
3 908 1317 1999
3 816 503 1840
3 1015 1122 1838
3 1225 453 1653
3 210 211 2047
3 1981 240 1131
3 111 1688 1422
3 490 513 1092
3 60 1522 2124
3 973 1648 1474
3 864 1411 1242
3 463 1726 2131
3 145 146 2032
3 1761 1185 1929
3 1201 1864 1459
3 1513 489 1612
3 1255 435 1296
3 1038 469 2060
3 2049 356 1382
3 1130 520 848
3 1703 71 1980
3 1202 645 2346
3 134 1135 2157
3 2041 17 2086
3 538 816 1840
3 1245 2348 2373
3 1864 716 1459
3 2214 392 829
3 142 143 1819
3 319 751 996
3 297 296 2283
3 912 1564 2230
3 1702 688 2329
3 1593 165 1689
3 1168 601 1769
3 425 2075 2073
3 391 791 1331
3 1089 407 1366
3 812 1616 2255
3 78 1947 1925
3 384 1670 1621
3 1670 384 2284
3 1673 605 1672
3 605 1673 1671
3 1093 588 2046
3 1365 251 1528
3 869 1961 1416
3 1716 675 1922
3 682 434 2317
3 562 1728 1484
3 1009 1580 2233
3 624 1006 2065
3 34 35 2176
3 18 297 1571
3 979 901 1494
3 1207 391 1331
3 1006 595 2065
3 964 2010 1595
3 1550 933 1780
3 923 705 2026
3 1276 911 1610
3 2045 890 1886
3 701 1287 2332
3 1256 533 1879
3 1035 1256 1879
3 1927 680 1700
3 508 1017 1354
3 1943 990 1344
3 418 1958 1137
3 1337 338 1487
3 1273 1207 1331
3 542 1943 1344
3 1425 857 2352
3 1335 285 786
3 990 1189 1344
3 48 1938 1668
3 574 1337 1487
3 2107 1397 2271
3 955 408 2104
3 1958 1468 1137
3 884 1110 437
3 621 1091 2175
3 1822 727 2340
3 1032 717 1572
3 442 1015 1838
3 1287 358 785
3 1994 659 1906
3 798 459 1645
3 928 798 1645
3 289 288 2042
3 549 1822 2340
3 533 1256 711
3 1130 874 2202
3 76 1399 2088
3 454 1183 2200
3 2015 395 2239
3 644 832 1970
3 1924 361 2161
3 1336 63 963
3 2025 497 2119
3 1710 1520 1637
3 562 1829 2360
3 1902 1408 1881
3 279 278 2178
3 705 1481 2026
3 2108 345 2213
3 1729 973 2265
3 2152 730 2110
3 261 1198 1501
3 1829 1649 2360
3 1473 580 1786
3 1399 928 2088
3 2113 694 2173
3 1127 815 1075
3 574 1431 1655
3 1719 312 1855
3 893 1127 1075
3 1481 397 2026
3 1598 450 2109
3 63 64 963
3 1129 1206 1404
3 1431 698 1655
3 636 1971 1437
3 1843 279 2178
3 422 1089 1366
3 522 989 1520
3 720 516 2278
3 933 1550 2288
3 1503 2015 2239
3 1324 443 2064
3 782 1734 1737
3 558 1791 980
3 226 227 2053
3 420 1860 1505
3 1135 570 2157
3 1973 118 2378
3 1860 1144 1505
3 1435 862 1551
3 1306 1765 1526
3 1707 329 1428
3 933 1781 1780
3 1700 680 2377
3 288 1865 2042
3 1916 216 2068
3 3 132 1173
3 518 1521 2276
3 978 1184 1533
3 792 1249 1168
3 1369 668 2075
3 1838 1122 1681
3 989 347 1444
3 1084 75 2088
3 1184 919 2169
3 649 1687 1067
3 755 1249 2337
3 1369 609 2338
3 892 1044 1595
3 928 1084 2088
3 928 1399 2118
3 1409 541 2236
3 1875 558 980
3 1336 914 1329
3 590 1518 1762
3 1419 893 1075
3 1521 1547 2276
3 1576 505 1666
3 1507 596 2359
3 381 2025 2119
3 857 700 2352
3 1333 1265 2179
3 2024 634 1442
3 1575 602 2243
3 1052 1025 1282
3 678 1885 1132
3 52 1964 1800
3 1443 647 1743
3 1135 135 1778
3 707 1097 1972
3 672 1687 1597
3 911 1403 2267
3 865 1443 1743
3 521 1803 1804
3 1493 1719 1855
3 802 2097 1582
3 825 1135 1778
3 1715 1048 1890
3 599 1715 1890
3 920 720 2258
3 35 36 1928
3 1380 502 2054
3 1006 624 1862
3 1585 439 2062
3 1214 949 2170
3 219 1856 2105
3 255 971 2023
3 75 76 2088
3 640 1995 1955
3 1799 981 1309
3 610 1739 2096
3 648 1721 2334
3 500 8 1998
3 1126 200 2122
3 1001 1318 1948
3 58 2006 1690
3 960 93 2224
3 557 674 2085
3 1860 638 2067
3 17 295 2086
3 296 1912 2283
3 887 989 2203
3 945 2143 2286
3 507 1409 2302
3 183 1538 2223
3 591 814 1893
3 1297 1078 1545
3 200 201 2122
3 1443 865 1998
3 398 1498 1832
3 492 1275 1476
3 1956 151 2160
3 1044 498 1595
3 1607 572 2234
3 1143 368 2184
3 1411 964 1595
3 247 248 1787
3 1570 69 2244
3 546 867 2309
3 419 1052 1282
3 1588 937 1154
3 1057 1839 1869
3 1706 676 1755
3 1839 1385 1869
3 1669 620 2263
3 971 1373 2023
3 1771 429 1805
3 979 343 2256
3 343 979 1494
3 698 1126 2122
3 1550 664 2288
3 14 1576 2066
3 391 1207 1266
3 1127 893 2052
3 754 1669 2263
3 1430 1112 2009
3 100 1740 2219
3 1742 176 2220
3 1223 749 1974
3 1206 2039 2149
3 926 1426 1667
3 1620 869 1814
3 914 1336 963
3 462 1250 2138
3 1803 946 1804
3 946 1803 2112
3 218 219 2105
3 220 221 2117
3 1097 528 1859
3 341 1724 1597
3 1759 987 2030
3 699 1097 1859
3 1900 1453 1002
3 1706 790 1897
3 970 1352 1837
3 482 929 1816
3 1017 906 1354
3 2200 900 1413
3 1426 527 1667
3 1728 562 2360
3 520 1130 1401
3 1126 698 2128
3 130 131 1347
3 1078 607 1545
3 982 347 1954
3 934 968 1634
3 2006 1340 2293
3 1781 458 1780
3 1318 343 1948
3 952 1756 2269
3 235 236 1191
3 1146 644 1394
3 789 630 2215
3 1265 399 2179
3 1695 962 2178
3 1372 709 2333
3 375 2212 1314
3 1751 555 1826
3 2029 640 1955
3 1226 698 2122
3 1003 585 2343
3 389 2048 2049
3 891 1990 1591
3 1079 933 2239
3 1275 951 1476
3 905 2024 1442
3 1756 952 1314
3 1254 1984 1641
3 1676 1289 2143
3 456 1799 1699
3 1610 911 1957
3 1810 410 2237
3 889 2208 1718
3 665 1884 1382
3 201 1226 2122
3 779 1324 2064
3 334 335 2325
3 675 1801 1922
3 1500 898 2005
3 1843 1180 1696
3 57 58 1690
3 705 1500 2005
3 1276 619 1403
3 1996 891 1591
3 1406 778 1933
3 808 1793 1147
3 945 1676 2143
3 610 1357 1833
3 44 45 1926
3 1511 532 2266
3 287 286 2141
3 473 1111 1515
3 827 1865 738
3 35 1864 2176
3 986 491 1309
3 1728 1166 2110
3 912 2230 2335
3 724 1035 1718
3 1030 1063 1736
3 2039 346 2149
3 2006 59 2124
3 732 1904 2346
3 163 1779 2129
3 1204 632 2103
3 1768 113 2287
3 852 452 2139
3 1411 498 1242
3 281 280 2142
3 305 1205 2076
3 406 1319 2232
3 279 1843 1696
3 1300 996 1878
3 463 1264 2222
3 1235 635 2301
3 964 1581 1931
3 1181 804 1629
3 1264 1196 2222
3 1586 781 2336
3 901 1850 1494
3 1370 1973 2127
3 1973 990 2127
3 1865 288 738
3 996 751 1878
3 2080 501 1280
3 224 225 1614
3 17 2041 1720
3 723 2036 2166
3 82 83 1789
3 639 712 1757
3 21 303 1530
3 97 98 1908
3 178 179 2153
3 95 96 2155
3 180 181 1176
3 2048 1167 2049
3 1779 702 2129
3 1302 1768 2287
3 1148 1230 2272
3 1990 451 1591
3 145 2032 1815
3 1367 854 2213
3 1971 636 2029
3 541 1318 2236
3 1034 1918 1298
3 1326 1328 1327
3 1208 1246 2274
3 934 558 2322
3 1798 543 1770
3 617 757 2079
3 720 2278 1623
3 1130 1333 1401
3 571 1729 2265
3 1575 1764 2374
3 1134 1684 2211
3 1866 680 2072
3 1625 648 1735
3 1270 1322 2235
3 1798 668 2210
3 1162 402 1421
3 548 1927 1700
3 449 1777 2163
3 911 1276 1403
3 517 2095 1665
3 962 1843 2178
3 422 1364 1555
3 783 2137 2273
3 168 169 1876
3 107 108 2172
3 831 1834 2126
3 371 2136 2042
3 529 2006 2293
3 2137 1405 2273
3 312 313 1855
3 1880 578 2113
3 981 986 1309
3 1748 764 1131
3 1756 1033 2331
3 430 627 2092
3 1478 1778 2324
3 1239 462 2138
3 1142 516 920
3 2006 529 1690
3 1905 683 1919
3 516 720 920
3 193 194 1506
3 242 243 1450
3 1756 666 2269
3 1518 1614 1762
3 380 1240 2196
3 729 1879 1046
3 1340 2006 2124
3 1872 494 1754
3 2015 1429 1608
3 914 1700 2377
3 31 32 1523
3 666 1756 2331
3 1264 73 1543
3 1807 1088 1758
3 446 1004 1970
3 927 992 829
3 1230 1390 2272
3 85 86 1295
3 870 1866 2072
3 844 2132 2295
3 941 1499 1410
3 319 320 1677
3 1918 601 1298
3 425 1326 1327
3 1269 1003 2343
3 1967 800 1529
3 432 988 2166
3 273 274 2193
3 205 1704 1693
3 513 808 1955
3 395 2015 1608
3 522 814 2307
3 911 1575 2243
3 1914 821 2020
3 1109 1235 2301
3 1386 226 2053
3 2000 1252 1919
3 716 1902 1881
3 584 2192 2134
3 157 923 2028
3 1482 34 2176
3 2192 1578 2134
3 793 1966 1609
3 1037 973 1474
3 2065 890 2198
3 1111 650 1515
3 1232 1224 1802
3 949 1014 1063
3 804 1882 1629
3 406 1818 1758
3 1477 1967 1529
3 190 191 2201
3 812 1819 1393
3 245 246 1790
3 202 203 1592
3 668 1369 2210
3 923 596 2028
3 2019 1172 2099
3 922 1228 2221
3 1369 291 2210
3 1512 1430 2009
3 282 1575 2267
3 772 407 2332
3 1249 792 786
3 412 1981 2130
3 1966 1466 1609
3 1228 520 2221
3 2139 492 1802
3 824 1359 2205
3 395 1079 2239
3 128 1901 2003
3 1981 764 2130
3 203 1086 1592
3 1865 371 2042
3 1901 1182 2003
3 867 720 2309
3 1988 1080 1682
3 1930 385 2174
3 968 934 2322
3 73 74 1543
3 140 141 2206
3 604 1386 2053
3 1241 1163 1867
3 1938 49 1349
3 867 293 2258
3 1985 478 1644
3 387 1463 1465
3 915 650 2240
3 1318 1001 2236
3 1189 119 1650
3 1433 1206 2149
3 1864 35 1928
3 1159 1988 1682
3 879 1818 2111
3 594 1368 2341
3 1795 771 2342
3 1213 1332 1640
3 137 138 2181
3 1801 298 1922
3 1003 869 1416
3 1903 750 1577
3 1060 1042 2064
3 1751 463 2222
3 1461 1985 1644
3 1463 999 1465
3 1841 1124 2060
3 770 1774 1776
3 1775 902 2280
3 581 491 2168
3 1937 608 2358
3 1071 1189 1650
3 383 675 1871
3 1512 1813 2321
3 1938 1105 1911
3 1858 95 2155
3 943 1903 1577
3 459 1751 1963
3 528 2127 1859
3 424 581 2168
3 1071 1085 2364
3 1196 1264 1543
3 1198 885 1840
3 814 591 2307
3 383 524 2147
3 1224 852 2139
3 469 1841 2060
3 878 1777 1558
3 1110 1138 1738
3 653 1037 1474
3 1689 969 2341
3 747 1422 2342
3 431 1162 2012
3 181 1236 1176
3 767 1089 1555
3 592 1319 1250
3 2125 496 1587
3 809 1937 2358
3 1312 1093 1612
3 2069 697 2145
3 946 2056 1772
3 1355 481 1582
3 409 1795 1234
3 665 1141 1675
3 1896 242 1450
3 345 2108 1936
3 1522 1330 340
3 421 1689 2341
3 1422 1028 2342
3 2036 376 1722
3 321 322 1999
3 519 1467 1565
3 810 1293 1515
3 2094 496 2300
3 318 319 996
3 1088 1924 2138
3 915 859 2299
3 625 1858 2155
3 284 11 2337
3 15 291 2338
3 1333 1130 2202
3 151 152 2160
3 1995 876 1556
3 1359 456 1339
3 715 2080 1280
3 1167 2048 2071
3 690 1232 1624
3 501 1374 2197
3 1711 922 1654
3 668 1798 1770
3 2048 701 2071
3 1010 2156 1532
3 27 1759 2030
3 1232 721 1624
3 2103 842 2030
3 2156 1279 1532
3 530 1241 1867
3 1189 990 2378
3 1111 473 1203
3 2179 525 1401
3 2132 1030 1736
3 973 1037 2265
3 936 1704 1658
3 620 1110 2263
3 315 316 2012
3 476 2132 1736
3 524 1362 2211
3 1249 284 2337
3 291 1369 2338
3 834 632 2277
3 726 1260 1210
3 1236 623 1176
3 1016 409 1234
3 1704 206 1658
3 11 283 2303
3 407 2071 2332
3 2250 1254 1641
3 1952 47 1668
3 1440 2036 1722
3 807 1270 2235
3 769 2035 2259
3 471 2247 2017
3 1902 716 1928
3 369 1711 1654
3 492 1586 1802
3 356 1496 1608
3 119 120 1650
3 952 377 1314
3 429 1771 1868
3 1424 517 1665
3 1368 421 2341
3 1028 1795 2342
3 2329 510 1661
3 1037 653 2292
3 2035 1514 2259
3 1857 509 2202
3 1910 482 1816
3 1702 2329 1661
3 292 15 2311
3 283 282 2267
3 695 1376 1060
3 389 1884 1674
3 156 157 2028
3 1133 1996 1591
3 1888 598 1274
3 329 330 1428
3 1795 1028 1234
3 864 1581 1411
3 1389 1619 2367
3 98 1400 1908
3 1398 178 2153
3 439 1524 2366
3 9 279 1696
3 293 292 2258
3 992 1517 829
3 61 62 1330
3 1161 1146 1394
3 1920 695 1589
3 1086 1023 1592
3 91 92 1557
3 521 1804 1067
3 695 1060 1589
3 886 881 1348
3 455 1825 2313
3 288 13 738
3 184 185 2268
3 732 1905 1919
3 1024 617 2079
3 1458 1544 1199
3 348 1825 1603
3 1203 781 1476
3 1378 713 1452
3 1711 1213 2334
3 1515 1293 1574
3 1865 827 2351
3 1094 1904 1713
3 1634 370 2361
3 308 23 1479
3 494 2082 1754
3 552 1238 2310
3 749 1223 2316
3 127 128 2003
3 1904 1102 2346
3 2005 420 1505
3 1687 649 2362
3 148 149 2281
3 934 1634 2361
3 1400 628 1908
3 658 1398 2153
3 101 102 2279
3 174 175 1217
3 1162 315 2012
3 1089 422 1555
3 1626 646 2347
3 873 1717 1948
3 545 1823 1714
3 1105 1938 1349
3 1332 351 1640
3 1517 877 829
3 503 1198 1840
3 350 724 1846
3 113 114 2287
3 230 231 2290
3 1180 1843 2296
3 872 971 1745
3 270 271 1712
3 1704 710 1693
3 59 60 2124
3 1355 579 2318
3 66 67 1845
3 162 163 2129
3 1971 808 1147
3 301 1989 1517
3 488 1971 1147
3 1010 2046 1552
3 2055 426 1727
3 1198 503 1501
3 511 1120 2370
3 77 78 1925
3 921 1703 1980
3 2080 715 1868
3 650 810 1515
3 483 1987 1752
3 1039 230 2290
3 655 857 1817
3 1971 488 1437
3 267 268 2229
3 2097 471 2017
3 913 488 1147
3 954 366 674
3 727 2055 1727
3 346 1211 2149
3 1088 1319 1758
3 592 1986 2232
3 1022 1039 2290
3 341 1687 2362
3 1986 863 2232
3 1319 406 1758
3 1124 1887 2084
3 1179 1952 1668
3 2185 704 2296
3 239 1981 2365
3 1566 755 2337
3 609 2061 2338
3 1804 649 1067
3 172 173 2187
3 103 104 1304
3 216 217 2068
3 89 90 2217
3 2078 1114 930
3 739 1910 1816
3 1216 656 1932
3 1887 571 2084
3 1083 1229 2056
3 186 187 1307
3 716 1864 1928
3 1703 733 2244
3 42 43 1310
3 2011 1005 1684
3 449 798 1456
3 1000 2019 2099
3 213 214 1797
3 981 2078 930
3 70 1703 2244
3 257 258 805
3 69 70 2244
3 206 207 1658
3 1981 412 2365
3 1334 1245 2164
3 857 1425 1817
3 646 1053 2134
3 757 1186 1664
3 1818 1341 2111
3 1504 1322 1270
3 1787 1058 1953
3 51 52 1800
3 1251 1875 980
3 254 255 2023
3 309 308 1536
3 659 1930 2174
3 238 239 2365
3 1987 745 1752
3 367 1851 1744
3 222 223 1915
3 258 259 1660
3 1361 245 1790
3 284 1249 786
3 385 1885 2174
3 459 798 1941
3 4 145 1815
3 379 1150 1351
3 1989 877 1517
3 708 1984 340
3 1581 964 1411
3 1869 1385 1675
3 832 1117 1970
3 138 2000 2181
3 1213 1640 1934
3 1262 669 2359
3 798 449 1941
3 805 258 1660
3 1049 1692 1907
3 2199 761 1677
3 988 432 2368
3 1124 1037 2292
3 1431 1138 1975
3 1613 1992 1285
3 47 48 1668
3 852 1224 2262
3 397 1262 2294
3 1027 1260 2327
3 133 134 2157
3 501 2197 1280
3 1342 457 1682
3 1128 1472 1647
3 136 137 2324
3 137 2181 2324
3 822 1106 2146
3 714 1585 2062
3 1472 824 1647
3 913 662 2186
3 140 2206 1852
3 718 913 2186
3 1333 2179 1401
3 1106 663 2146
3 237 1870 1483
3 1989 1021 2216
3 1904 732 1713
3 1882 445 1629
3 1229 666 2056
3 870 1580 1866
3 1860 420 2372
3 1376 695 2252
3 1196 1645 1963
3 1812 564 2116
3 951 1111 1203
3 364 1626 2347
3 1979 812 2255
3 510 1817 1661
3 709 1766 2197
3 1260 726 2314
3 546 1710 1637
3 1433 442 1404
3 1826 555 2297
3 2118 475 1456
3 1930 811 1434
3 1733 535 1893
3 1004 644 1970
3 1108 805 1660
3 1003 1269 1222
3 1984 631 340
3 1221 1363 1714
3 1580 390 1866
3 617 1024 1827
3 567 2226 2336
3 814 1733 1893
3 783 633 2364
3 951 1203 1476
3 633 1071 2364
3 2058 1223 1974
3 1099 2188 1139
3 139 140 1852
3 498 1044 1878
3 1029 886 1348
3 1293 810 2315
3 1109 1921 2237
3 1959 482 2180
3 1057 1896 1450
3 816 1133 2300
3 622 1473 1786
3 792 1335 786
3 125 1951 1535
3 397 1481 2264
3 620 2128 1975
3 584 1053 2308
3 1908 628 1621
3 658 2153 1672
3 625 2155 2284
3 1632 352 2163
3 1176 623 1671
3 2188 1212 1139
3 1004 575 2339
3 1201 1482 2176
3 1943 699 1859
3 1097 707 667
3 1037 1124 2084
3 1454 1993 2343
3 1544 803 1199
3 1481 1144 2264
3 513 888 1092
3 1749 599 1731
3 1042 1376 2190
3 852 656 2207
3 1201 1749 1731
3 551 1976 1656
3 696 917 1837
3 889 2087 1847
3 1374 709 2197
3 1727 1468 2340
3 2087 673 1847
3 1144 1481 1505
3 990 1973 2378
3 1080 1342 1682
3 694 1912 1720
3 36 1902 1928
3 1521 749 2316
3 727 1727 2340
3 1766 642 2197
3 2228 1293 2315
3 392 1214 2170
3 2095 1475 1665
3 1817 1425 1661
3 1068 543 1929
3 1962 494 1872
3 1335 792 1842
3 1325 1962 1872
3 612 409 2344
3 1206 1433 1404
3 2014 765 1643
3 877 1989 2216
3 1984 390 1641
3 1993 1269 2343
3 1844 797 1587
3 377 375 1314
3 1292 2159 1296
3 1014 521 1063
3 2036 1440 2166
3 811 1930 1994
3 433 1979 2255
3 647 612 1743
3 308 1372 1536
3 504 1032 1572
3 1319 592 2232
3 1640 1112 1934
3 2156 355 1412
3 4 1831 2227
3 1496 395 1608
3 452 852 2207
3 2090 348 1603
3 1699 1799 1309
3 1692 652 1907
3 1158 374 2248
3 1148 1470 1830
3 1044 1300 1878
3 2089 958 667
3 473 1515 1574
3 434 1521 2316
3 438 1598 2109
3 1279 2156 1412
3 1053 584 2134
3 707 2089 667
3 1372 817 1536
3 784 1924 2161
3 471 1345 2247
3 947 1588 1154
3 524 383 1871
3 1345 725 2247
3 532 2228 2233
3 1836 802 1636
3 641 1836 1636
3 907 2090 1603
3 1272 551 1656
3 1122 1844 1587
3 1804 946 1772
3 355 1504 1270
3 1520 989 1444
3 632 2240 2277
3 1035 2082 1718
3 764 1981 1131
3 953 2215 2100
3 806 1365 1528
3 1299 688 2345
3 686 942 2096
3 699 1943 2312
3 1735 648 1934
3 1853 1418 1624
3 2214 877 2320
3 483 1301 2241
3 1372 308 1479
3 1564 825 2230
3 642 2182 1280
3 532 1511 2228
3 1359 1339 2205
3 649 1804 1772
3 1588 364 2242
3 1943 542 2312
3 877 2214 829
3 1134 2011 1684
3 877 2216 2320
3 2022 941 1744
3 2247 725 1886
3 544 1977 2189
3 2228 1009 2233
3 2094 1101 1681
3 1730 198 2305
3 2010 892 1595
3 1879 533 1046
3 1373 2108 2213
3 683 2000 1919
3 454 2200 1413
3 403 1299 2345
3 1301 1153 2241
3 553 1261 2260
3 2002 550 2261
3 1520 1237 1637
3 1912 296 1720
3 1117 446 1970
3 1683 1832 2085
3 1153 1588 2242
3 483 1210 1987
3 446 1117 2274
3 2218 1425 2352
3 624 2065 2198
3 544 2189 1917
3 1614 763 1762
3 721 1853 1624
3 1073 443 1324
3 1813 349 2321
3 2065 595 2017
3 1591 451 1835
3 890 2065 2017
3 745 1987 1618
3 615 1275 2323
3 906 1424 1665
3 845 961 2070
3 1598 438 1974
3 1035 1879 1754
3 1413 900 2376
3 1879 729 1754
3 1073 1119 1809
3 2106 700 2063
3 709 1372 1479
3 1813 1119 1449
3 1119 1073 1324
3 1691 1395 1092
3 459 1941 2291
3 826 1413 2376
3 1425 2218 1661
3 1941 961 2291
3 888 1691 1092
3 661 1214 2074
3 1892 1061 2057
3 2000 683 2181
3 688 1299 2329
3 652 1813 1449
3 1469 1698 2368
3 825 1564 2098
3 2091 865 2344
3 2189 1491 1917
3 1639 691 2285
3 419 1276 1610
3 1864 1201 2176
3 729 1872 1754
3 634 1332 1604
3 448 1430 2321
3 1212 1375 1139
3 2162 584 2308
3 1167 2071 1617
3 1288 2218 2352
3 485 1260 2314
3 596 2026 2294
3 1403 619 2303
3 703 2045 1854
3 1511 1293 2228
3 1430 1512 2321
3 1153 1301 2266
3 1375 358 1139
3 2194 752 1012
3 663 1892 2057
3 1583 1185 1666
3 1549 454 1413
3 1696 1180 1508
3 1184 2169 1533
3 392 2214 2074
3 1293 1511 1574
3 1823 938 1944
3 2182 715 1280
3 971 256 1745
3 1701 775 2317
3 826 1549 1413
3 1279 1412 2367
3 1263 978 2209
3 1979 433 1746
3 1761 14 2066
3 953 1697 2245
3 516 607 2278
3 1260 485 2327
3 1220 1609 2330
3 1073 953 2100
3 2071 407 1617
3 631 1522 340
3 374 2167 2248
3 1644 818 1462
3 1215 1465 1569
3 2215 630 2100
3 679 1959 2180
3 1170 2152 1827
3 1403 283 2267
3 1112 1640 2009
3 2262 1020 1932
3 453 1814 1222
3 2123 1020 2262
3 1142 920 2311
3 376 1911 1982
3 1831 811 2227
3 2214 1397 2074
3 1564 484 2098
3 1185 1761 2066
3 1529 582 1788
3 1609 1466 2330
3 2152 440 1827
3 443 1060 2064
3 1461 1644 1462
3 1465 999 1569
3 1687 341 1597
3 2044 468 1738
3 353 1805 1897
3 1499 1235 1410
3 1164 1301 1752
3 1816 486 1594
3 292 920 2258
3 1420 722 2188
3 1645 459 1963
3 2285 691 2375
3 1477 1529 1788
3 922 2221 1654
3 497 1486 2351
3 2292 1038 2060
3 210 2047 2027
3 573 2285 2375
3 1099 1420 2188
3 1376 556 2190
3 681 1636 1939
3 1371 1346 1667
3 1636 802 1939
3 1251 980 2374
3 2247 890 2017
3 1356 1579 1552
3 588 1356 1552
3 709 1374 2333
3 1442 634 1604
3 527 1371 1667
3 2082 889 1718
3 440 617 1827
3 1566 11 2303
3 1482 1201 1731
3 838 2313 2371
3 1847 692 2208
3 889 1847 2208
3 2270 827 738
3 1224 2123 2262
3 899 2037 1508
3 953 2245 2215
3 433 1994 1906
3 556 1376 2252
3 498 1411 1595
3 1874 919 2270
3 2140 531 2363
3 1287 772 2332
3 1112 1735 1934
3 369 1442 1604
3 760 2140 2363
3 2221 525 1654
3 739 1816 1594
3 468 437 1738
3 15 2061 2311
3 1235 410 1410
3 987 2103 2030
3 1124 2292 2060
3 1563 936 1658
3 397 2264 1320
3 2061 1142 2311
3 283 1403 2303
3 207 1563 1658
3 2106 1288 2352
3 243 1839 1450
3 1934 648 2334
3 1301 483 1752
3 700 2106 2352
3 2264 717 1320
3 1688 1028 1422
3 2169 706 1533
3 920 292 2311
3 2041 694 1720
3 619 1566 2303
3 1524 959 2366
3 1390 1230 2326
3 2159 613 1296
3 1362 1134 2211
3 1987 1027 1618
3 416 2024 1944
3 872 995 1936
3 2197 642 1280
3 491 1699 1309
3 2008 254 2023
3 1839 1057 1450
3 2108 872 1936
3 517 1581 2095
3 749 1598 1974
3 1214 392 2074
3 438 2058 1974
3 1581 517 1931
3 1819 143 1393
3 2165 309 1536
3 421 1593 1689
3 348 1100 2371
3 1373 2008 2023
3 1666 1185 2066
3 443 1073 2100
3 995 627 1936
3 23 1766 1479
3 817 2165 1536
3 1387 484 2326
3 1576 1666 2066
3 1436 756 2119
3 485 2014 1643
3 497 1436 2119
3 595 2097 2017
3 1764 1251 2374
3 1102 1202 2346
3 1087 2194 1012
3 1417 640 1630
3 774 2016 2362
3 2250 1009 2315
3 733 1417 1630
3 481 1939 1582
3 827 1436 2351
3 1511 1164 1574
3 961 1941 2070
3 1941 449 2070
3 2082 1035 1754
3 437 1110 1738
3 2116 564 2376
3 1831 1024 1434
3 1581 864 2095
3 1832 557 2085
3 1847 673 2133
3 1824 461 2350
3 858 1824 2350
3 1076 2101 1351
3 641 1636 2083
3 1133 1591 1835
3 1138 2044 1738
3 390 1580 1641
3 1766 709 1479
3 640 2029 1630
3 792 1168 1769
3 2075 668 2073
3 525 2221 1401
3 2046 588 1552
3 363 2250 2315
3 2045 556 1854
3 2101 379 1351
3 1324 779 1449
3 1785 1540 1942
3 820 1979 1746
3 1058 2150 1674
3 1939 802 1582
3 2026 397 2294
3 680 1866 2377
3 487 1389 2367
3 1451 2241 2242
3 449 2163 2070
3 496 2094 1681
3 2282 679 2180
3 247 1787 1953
3 1649 2102 2360
3 2071 701 2332
3 1746 433 1906
3 959 2154 2366
3 2132 476 2295
3 823 1610 1957
3 1060 443 1589
3 539 2106 2063
3 2241 1153 2242
3 11 1566 2337
3 2061 15 2338
3 2204 622 1786
3 1698 988 2368
3 1423 416 1944
3 556 2045 1886
3 1979 820 2370
3 1587 496 1681
3 811 1831 1434
3 1119 1324 1449
3 674 1163 2085
3 1122 1587 1681
3 630 1920 1589
3 1447 1746 1906
3 1913 926 1667
3 1346 1913 1667
3 1480 2282 2180
3 365 1785 1942
3 2278 1231 1623
3 1636 681 2083
3 1330 708 340
3 810 363 2315
3 1911 1105 1982
3 2286 381 2119
3 692 1847 2133
3 2055 727 2116
3 735 1320 1651
3 756 2286 2119
3 1354 906 1665
3 1320 717 1651
3 938 1423 1944
3 1329 914 2377
3 1640 351 2009
3 1105 2251 1982
3 2265 1037 2084
3 1589 443 2100
3 372 1910 1753
3 1910 739 1753
3 1717 1001 1948
3 1009 2228 2315
3 1436 497 2351
3 1753 739 2357
3 259 2225 1660
3 2221 520 1401
3 2154 950 2366
3 630 1589 2100
3 1409 2236 2302
3 1397 2214 2320
3 1475 1354 1665
3 2275 89 2217
3 2289 555 2291
3 1237 1520 1444
3 2236 1001 2302
3 961 2289 2291
3 614 2204 1786
3 187 1783 1307
3 571 2265 2084
3 1045 1753 2357
3 1339 464 2205
3 2216 657 2320
3 2251 547 1982
3 1350 2275 2217
3 1213 1934 2334
3 2016 341 2362
3 1783 423 1307
3 1435 172 2187
3 104 1765 1304
3 2243 1622 1957
3 1269 1993 2356
3 911 2243 1957
3 875 2309 1623
3 372 1753 2373
3 1484 1728 2110
3 2230 480 2335
3 862 1435 2187
3 1765 1306 1304
3 2309 720 1623
3 1993 611 2356
3 730 1484 2110
3 1474 1648 1741
3 1753 1045 2373
3 2298 1350 1917
3 320 2199 1677
3 423 1782 2375
3 2359 596 2294
3 1262 2359 2294
3 1491 2298 1917
3 2320 657 2271
3 1397 2320 2271
3 653 1474 1741
3 1782 573 2375
3 556 2252 1854
3 2350 837 1321
3 612 2344 1743
3 2327 485 1643
3 51 1800 2253
3 858 2350 1321
3 1751 2222 1963
3 2222 1196 1963
3 2344 865 1743
3 1800 860 2253
3 1145 2327 1643
3 2252 1471 1854
CELL_DATA 4428
SCALARS Von_Mises float 1
LOOKUP_TABLE default
123255600.94906779 12042251.509914137 48739500.63410629 330591.5880446169 37627964.06874307 18929152.61316012 18899053.882672798 2086856.1149115479 43643725.48395158 4571702.279337712 27207088.787772942 33261503.574268594 6746943.866930963 50813046.767304376 21725949.810028087 11730130.47901885 1891173.5141196207 1898747.2707511787 19455991.810191378 42743254.92108552 43281905.93600849 26816337.71835409 45105697.49590649 37481505.76908833 8289959.3700614115 19925325.003086817 29244465.77983822 46258389.13081415 11544059.628955577 51195382.08667303 32618300.64597755 25339141.036299273 17872427.137052823 46608198.053337134 32713351.640085682 35321532.70141645 47815100.425023206 40510321.772558175 40075329.69164803 57751815.048699364 18903892.80329456 42147866.36745698 17200201.06586115 25942006.956158973 54255606.90094099 51282845.403205425 45541971.97883995 27353919.145835105 38641863.96038251 14755980.862765456 39224716.90225655 31291465.782232992 45836370.13109111 44111650.740082994 34842764.37147903 41288002.96979639 32494388.099773105 43648593.21181253 45396720.62827812 42449631.31078353 51318765.240314744 56718089.73717896 21210690.76349768 6830233.266256596 16099981.148394575 39264858.79357597 9664577.223715538 40445067.88196323 17493215.50722295 19547454.584664006 29615151.64066591 5981190.93797296 31607094.159452025 19392749.308829226 67087779.447404526 69218399.13765348 19622236.865630195 37335320.40876245 36345185.57207599 35887658.10150148 15452346.440934865 13803262.282454846 39981015.65683805 53999375.77065752 51988557.96789716 4094140.2292116606 47311608.49232648 12313449.915305218 23922773.410117276 46078035.46548011 17845234.27926421 69809826.81747341 24870574.63149172 35185435.30308523 46017163.35376824 28480966.34306237 53379973.34514898 46635608.30568296 7695137.297767504 7706919.924974074 47658617.40219479 99401400.84285288 24440286.08968577 10995377.330679156 10994324.98550507 48859024.30691013 39322195.10137364 35282268.50727869 27510154.266673982 22744888.579276998 39694036.92870024 40870323.361043304 47692831.51952375 31200713.149111763 36525271.24274486 35836465.22167651 43732872.09918892 16089127.823369522 12301057.66798277 22214701.50019277 33658290.40179763 40883210.65809104 56624308.66698038 52640134.852625094 47312724.29926713 44122439.339492664 23753192.374390464 25750809.349286843 43802361.39679632 50415649.29043028 49589425.00037564 30902418.652451076 27263657.108108453 33261141.569869332 17200509.769391242 17530081.62298829 16990396.592356827 17320613.98523434 44559418.709075704 42316475.763914526 33543225.517769072 19403532.6017663 42108362.31925623 7557370.470302652 17819219.64662921 46654044.77889275 12216087.549835315 42128769.65452896 30689601.37565492 4638995.364979243 5814511.873333374 50243991.75315475 49742405.92051189 7290956.767481091 39686715.88220487 45280257.02225515 16939981.283732526 31240938.496895906 7730516.684096403 48640577.07292585 31836470.205631875 44372486.6683286 59490874.691565596 43671019.368299544 7159463.897933191 17572121.7709411 17853813.361991163 55106109.51606742 60025260.18620429 43502484.35338796 48901897.24096726 7116089.240051294 68849865.89232089 45349266.871618405 50536111.190355584 27802919.377629098 42162806.07203326 14093211.814607281 47144642.440272935 122727662.70039877 38835666.300498374 23228108.936796375 28547612.292706758 30370151.95667562 23959235.413073923 9333963.736663746 9334191.60406553 60488887.96781118 2685647.6210361226 2694379.9171164217 4481180.73206941 35005093.306623206 51951405.48135479 19095618.07906051 27132032.522395473 49717817.97115457 37897346.82568911 10433834.39708912 13973710.484273765 37888986.41896407 34517924.41466527 201086334.06761548 52474012.81098485 50622499.63361718 4414780.428734957 17044240.718661908 28945817.121432096 9116707.158430193 15643673.69143338 60815308.22848502 33477377.362509254 29502762.37029631 43648896.71514331 610935.3797030409 28039852.32883961 50292294.49431231 45236886.110587135 5070208.815200244 28509802.06748451 40131803.48187108 51964097.46693267 6079384.333277752 21573271.126519352 46953038.02371554 58164230.588371836 5900293.3766638385 34459175.87965031 4495566.627171033 29290005.15739879 48385131.87443982 24745695.45232773 47233693.75868689 9818697.307154674 13971654.434580732 37315597.10600799 26600742.60875898 43917393.44981137 64570536.37565426 33510538.118659068 110553147.02903534 64209215.93667324 33864868.65909215 5386549.557957051 29553112.1664954 46438773.62775376 43583749.74971221 44751138.031294934 5074913.781315047 10233624.965852216 43301294.60045749 42163952.795936786 42456197.90417376 14898081.17088186 14826615.53926388 42000246.009614535 45132307.280064575 47865581.58799303 33245232.10217331 45590325.906562954 40159528.88960905 40772137.85002811 4714303.419611673 4699089.524329458 12427008.173049938 10064738.055589192 45873488.766697094 46384915.36398368 29850044.998275537 48976835.97471201 41131347.48107835 18346648.228807554 30227616.444640864 18121859.24941058 48853156.50793125 58118522.88229688 49259667.96024802 12492933.558611525 1912470.000818088 10030403.650992258 17561413.47496887 32773726.058663387 3875338.7459132452 10040958.200001793 4754705.707936424 40676341.09428289 40285711.98886972 27411224.843345307 44505018.30880326 35076247.88317245 7424585.624748748 7413860.705961597 42138698.485287346 51180166.56734183 41968510.65302627 5236670.773798075 25417926.35585328 5728154.645355902 5678433.65049611 74570094.80817308 34389799.98387333 46071077.872529194 50301587.9561671 46389716.03727697 43738346.51781839 44570505.56402826 39136491.34172037 34235370.30278424 39254319.353493534 43630795.82636854 45844262.58853574 43409254.01609124 31939398.036692675 43616516.43572022 46751027.208945535 42943979.42869223 33658166.05463422 43530777.349596426 29802410.530438285 44471089.75829038 40214077.87015458 4376259.551044279 47940912.953519955 49573445.41050831 52515389.95870925 49830953.95761548 6912223.132917155 6830730.507059577 42591626.24002117 47687634.48056826 57788420.96185596 32143390.6589969 10192523.584327884 2481809.6180104297 51302518.67766651 32250884.556738064 40559828.52572411 24992831.029828493 92672172.52857965 48472816.67059003 1432785.3913323663 1430475.1687645263 44901050.97633178 39465452.81897029 14708123.573880944 60937131.6316968 13768578.887504552 39998034.68714147 21413802.416769575 51517708.800772116 22712712.967004348 21442967.039270103 38230106.45031767 13822173.874041948 14578194.8687239 28032298.36467721 29157034.891922746 46328873.72272481 39799684.60380064 23199443.79956348 52532562.68134976 48337993.37158004 45683933.197644606 35399608.16454649 62220809.67631794 16032771.137673475 43329103.315912575 41548557.50722857 25654904.342345916 48821457.21366162 42636010.3369521 15375376.532019194 44643832.778187476 30592882.857891027 67427317.87593499 42102847.771729596 47855435.08340472 40546427.34289718 37002962.50356415 40401975.56360473 32011772.792199224 10855036.690773388 41576986.79420064 13492803.715042783 43373084.00529986 46542585.5594797 49098450.765985206 120520315.52710922 42776864.96437749 11748678.523066929 10889476.798868766 24242026.71864992 50639921.35355323 47799446.135961145 43034326.47030858 31308525.19875686 39635842.13055242 12416250.41722917 21077732.320178032 32385449.470916253 50259182.85405301 40612306.5397683 61681937.603668705 58880711.0057188 24809374.42197456 37715355.54323669 74171868.95827644 37087964.538270876 27747748.56328869 35783480.664777234 45885865.53688433 24312156.72685268 43914781.206335485 59000319.329543084 42878583.712581255 67018786.87364486 51272761.96728644 41783554.83705675 36106992.0506414 4257994.727119713 35744531.55432315 35731984.26854068 54026259.184334606 12874617.731601126 45229616.87524485 40228455.57006117 38212764.429786496 15104192.734036945 15639789.093225248 45026859.978688404 25102283.1402391 47658864.35120998 59211520.1981039 47507242.45459762 13549220.325493993 40172122.70159122 5546428.496321853 12629801.127219617 87457512.34223153 44353229.4848286 20483938.294862345 58814649.22308304 22770139.56907881 33908654.033867694 43587248.555827804 25067985.33753914 44457493.559378065 14435352.62329325 44686301.029712304 24811335.908213355 11824100.545441609 22434991.733540908 45191985.77570226 5726012.769778381 34971983.45641559 19208178.85947915 42231243.44912394 11600988.503727859 10383888.336016797 18905957.550083134 48181047.450010076 45589658.80714835 20269727.011593923 45721105.27848516 63282652.264776886 43824050.56837732 34765442.35886545 39593293.00350852 8615600.084879661 37024301.12878197 39133340.2428761 47857396.13865721 48384803.16479703 15524775.890523775 30675715.16584617 27539193.76347087 52209215.01696769 19418803.219981626 31244408.88392211 15954416.922943378 27073680.534794234 44801501.26856637 26176742.062039223 11831709.855568541 34414267.23566526 12799921.44168973 746129.9655475897 46489941.08154444 42481349.37906191 22138179.207385384 22916347.216832366 49005174.44970323 32405881.00733411 22627237.307833463 42551481.85392356 44967140.176735245 34796139.20539013 46789657.231995925 47445055.028795876 59639358.417504855 29688165.014097497 52826960.96081115 87847689.67791602 35217203.78570534 3826483.519121593 22429512.349768806 17719444.729092315 45390229.72484825 57390260.978361055 46996624.217888385 50990593.797259405 32030545.125758722 57456080.49829995 48578558.266852506 69138986.06582448 49318846.77695573 21108742.72531726 41797865.68598798 43528951.0209653 49286101.877808504 44538564.721527405 42082289.16168124 24113687.895822275 14512520.68775448 46343341.054519884 43877989.16302187 817237.5512327414 36513651.015396014 46619306.11312447 70794314.28757936 89065433.31398644 30849760.861648336 46817533.133024 40041005.604325406 39734654.96392852 46009720.18898502 54852541.88986462 34985224.245905 63783804.44734154 56381042.48473905 48560818.8884959 4038118.363840706 3240209.927362732 28984713.472002793 35245075.773287766 14216245.964737456 39852042.797005326 18323797.381435763 45716333.78160118 38585164.39578502 27259835.473266203 43007092.63438701 11805418.522058157 50424163.95330693 21004200.666806884 10307029.832416354 51555103.005651 14915507.920551542 38877980.9589638 23644087.29285203 52468365.75009295 31546393.98890096 25312054.509139813 45967431.97862143 38072349.04374392 44777550.03180918 28335052.295172166 33715416.587985866 8671422.055326182 35363492.06705492 26733717.089707974 46832587.87713698 35602899.72423207 33629865.01407993 41072410.350802965 40968322.97735162 43562843.09515823 1845769.0434372008 100488083.39595807 56617056.6061935 47496112.843461424 38946243.52905747 13132918.557089174 18049123.113891564 34593186.895969905 39777785.13356314 34596508.754542425 37977813.53295754 15481024.557046812 64682767.49921389 51209359.77601034 26679291.53412945 44689367.19126039 28688306.567857575 28491652.403152723 51482280.19004461 47334128.0024294 45737146.25662519 42877835.80379671 87119751.28840503 15409593.834378494 15409593.834378494 37203062.66679334 55213155.75386037 57768993.918758795 55548453.33277223 3150051.272577117 36218346.069105394 50363452.858678386 55856518.14558835 48561998.51407397 34645989.16362509 32428481.828468677 47666445.96092839 32474684.6623038 45904811.24592206 48045423.53257846 33349191.82587838 15042591.994424025 1311766.3082125639 35396086.52920338 75620719.6986452 50210624.7927664 40903620.46691335 40504371.21249242 9710140.969388403 38261468.03699525 54406628.28790277 38001311.63213268 41517676.036305524 49447135.27914522 49885818.20500435 64569414.95093339 48469137.705432355 49749403.57103631 21412441.14027557 48942976.88143568 57821622.678308085 8841300.794375595 27839556.35298636 43438170.58278966 37081844.76062575 53154736.07866979 41648799.66847277 43244547.30166392 42176114.20057165 41264242.397384554 57061494.520483874 56989581.09439146 18009070.54173437 38507911.87276248 27971183.113154493 25549485.530397937 36595178.54297672 25915706.79946813 47373758.33419074 36073875.23580286 55214017.407574534 45374543.827510625 36823922.56673282 44159975.65287894 9603351.065591162 17552889.035975073 17725943.207771555 35467420.23886332 36749700.701004334 28315024.436956663 34074505.58012202 25552304.043932684 47446364.03000828 34356419.18084221 41571447.33104231 41653523.309903376 41663931.97036924 78806275.58745292 21806102.98021019 28092985.757343818 46271117.18931984 37316491.86222577 20825428.06293357 44525170.96250501 43360045.158118635 41750804.83038159 9093336.488156907 43904725.60896111 56994514.89570161 46184825.15681885 44682647.21416254 14725550.11349012 67534916.71608424 12450881.20408612 54994397.677736595 32012158.050280295 44892135.79343387 47028094.28370475 41519856.35378407 13638549.02975117 13553782.93708641 74845742.94408727 31242639.189216096 50622351.008619815 49398817.82283789 98876014.03813545 50651327.57653577 73219818.77648164 27193182.139572486 41619536.38498108 46548435.414630115 33090183.031298924 45884093.11120789 12716923.567978086 12680567.947933964 32156782.4606582 23557114.456819084 27355048.610602055 49444775.06375209 63049701.40637359 21201568.67399123 15576091.154552922 15640285.478279006 26623499.51030634 37409406.09757948 27653886.648073945 33204674.755796906 28879485.24641508 50481727.36571205 45297971.6905068 41135375.64259826 33715998.75964327 6120993.193371419 24727877.30378202 40841225.039990515 16626903.594929496 16565350.294594606 30210627.552460216 24232135.928079363 24145763.527979203 9201315.946644392 9133850.275690587 26205285.142003074 17358267.90996117 29394216.647801213 42235921.03001396 60204200.13276625 10184161.230107477 26463997.913818963 10237866.72052495 10132049.201515757 50690533.86186706 38926849.24778634 31469326.1050331 99879558.47569978 37578919.36110488 29606333.279055025 20808794.07289012 11142083.681693142 47451630.92346181 42028633.36238985 41946106.7984071 47724237.88298387 41848489.749958985 20459503.820982546 42686176.774852715 20066346.98377923 26015863.21167758 27376077.68322439 46467010.569305815 20104579.642388836 20079463.19330839 32763671.87469155 35632542.41544399 20203317.16350866 48594677.07277545 45625728.36719594 18552542.28702746 29932597.27271692 3698175.6381723275 19991726.17257824 20985020.461268242 42652610.18442636 10046100.205405122 9988409.439931262 48575487.50081083 35690531.34354658 3008068.0400144523 53653325.14175517 36138477.32238657 21538540.656887613 60793734.62470542 58032890.46861175 31078626.706717648 52247266.58906822 36994302.97602695 25387539.17518684 10991926.6730074 10946624.037505493 20818033.702554684 65522332.70678782 40240503.26716866 45787138.93685347 45835362.11813157 19894753.008618955 45218367.89906533 55289535.56754868 23551624.954797138 50869864.67609434 41863985.50504651 2720872.1030965876 20121799.18453356 50017898.41615424 33288780.18871337 51756610.32194473 33370161.462362897 35045880.4002866 55325414.666456595 54410085.544406705 52553354.51349178 58261247.55706707 29313159.9045272 44026915.856741056 41508257.584306255 50635981.09825569 9052237.637798442 49140172.46952586 18687519.205846325 28879175.34459864 48050040.71471034 45325359.79501825 998461.0709060857 42116956.36704413 20870514.2678831 23915650.270250503 19829351.209871657 44572095.5297288 76648577.93758987 56388270.50548849 42090865.36666367 31687716.25182815 41701738.83380276 57890447.328188084 21048142.753268845 14199031.426196415 63856457.44823061 39380380.59587785 46443646.02393316 64208807.126897134 29504116.206863727 29309001.103647072 33392891.664753668 40389158.85407715 37849683.45798003 152061373.49586475 64389477.99273708 21803773.775082458 43794779.943477 41548327.01905541 17220191.137825977 52049463.104420245 29910646.718306795 48003282.42626038 23746421.64178464 43418894.39619905 5312081.819940601 22112138.16342904 33499529.532694217 29326447.746734366 20829699.539385963 7152465.488385123 40555871.67629842 33181445.85456839 25785062.61302009 32463339.638001904 27202011.58209764 33997366.456087396 36018021.663309135 36798288.336507015 28683958.958335884 82576950.44825613 23192920.07508977 6004959.663240187 13544270.31565317 3300087.3070920478 14091869.06002021 23525623.591472626 47959660.726564914 8555712.099537883 16470389.735571928 16387086.938913224 43147474.64706257 13744081.405586079 58741268.13802975 23425900.701035157 10943065.649549741 46862131.05710199 49671130.51295149 13925465.790232828 25708866.142481808 21251408.028859727 21302345.248820137 15328223.41882006 31094691.109815676 35179830.57696679 27631883.180086877 21178128.887728445 96996750.39792183 64023112.399320595 31544429.201226912 37740291.98821231 31160290.136427216 67989457.95984274 4976341.093196695 17017744.634198867 59038434.1632423 38681521.88191517 42221754.842104286 12478055.19448148 52982022.130996466 18465309.684314765 48312853.52046352 39532166.8707535 39162165.10906832 44315909.88346219 30933242.900860235 39500494.40072756 47792001.93132718 41748135.84860868 57167136.57183233 56362505.49860322 5681568.728054006 45297639.81436031 24282125.025323816 46258781.37562381 50605451.11061704 17547433.542779226 36114727.34220448 14356856.28695463 47666110.62892076 45444880.990013264 39322154.696116254 57335924.94747086 17549474.706734482 37590071.55668818 18349222.728657216 18760208.976853523 21313066.72713248 51947827.544439435 12674625.820121353 27733881.891482983 36675215.46731634 12968824.556226159 41468975.32579339 33156898.308965012 43036973.79390381 30767246.98523278 41120825.422634296 28005077.54916473 24014527.061693773 22288748.02300825 16900697.453352537 46225321.02901469 45959358.9932364 40103903.53796535 36954688.24401616 7484641.3916575415 120453368.7844273 44835404.14090422 53999697.48806494 1752623.7641801669 96718784.81466444 31703853.354880664 15298691.009395737 7608133.182565775 45533389.69430888 18207744.29086373 20937719.210467067 44825759.34050333 84190082.8142287 44549919.14190098 74895183.56993964 49907867.94112022 47373486.404010236 21299777.97723405 21324449.672786724 41474569.65008179 83463526.9171203 52728875.67799631 53059348.068322346 34247144.8220748 41216207.35808085 15995770.003513005 49919237.7549951 53431977.17080099 44634141.321819246 45769169.811121956 34448600.53440329 46756036.16334782 7557090.680011829 66259264.39331585 40567038.145504214 15825838.636083776 36989389.47263004 48420032.4724757 45360958.46551941 55934415.18262563 60758296.26667136 41503720.11543252 50398323.18513553 68275765.158645 63412994.66546137 45281010.61752319 1027956.6145181492 60700670.086756445 57952691.02409783 48641342.20251856 45547849.75698209 47663246.37480011 23199128.948847204 17148358.908276666 50182501.0293534 41989447.321635894 42836901.598567985 57297299.64659163 41063322.99500712 27583218.840505444 8749519.532680849 46260438.794967175 45538039.53757853 31918072.798920248 1014888.7027907476 1018689.4977108288 36238881.00262166 49909684.992141 45222540.62537422 43071146.80793418 55190838.17119486 54980459.96669137 44094001.03818384 36540386.30010001 47274042.07532056 42574677.99137893 45478488.166615985 30551747.549561165 40590043.3375507 32835492.62049472 12223823.500802968 4725245.988073129 43794806.53903075 52784263.26438364 1037966.8496857188 47606241.9214787 91102961.77825645 44378987.29886916 44212970.23766656 1708550.009651785 10693947.834265137 43282478.151719965 55681928.856374465 1366719.283538844 45814407.93303259 45098762.967969604 47603953.97331298 21351980.722508274 46216068.56338871 51622804.54409616 34544625.4614174 84375456.92368993 36398863.14882068 41119114.94320984 40558826.61845696 40818689.25552351 43469239.72332927 40949323.01943262 39271985.67875237 18909799.578003682 32268398.03803196 44974076.75852199 23501309.3794633 18712793.69218209 36450831.98028165 5045126.106875092 8748731.500025509 40153535.96421657 26202051.965103585 27334261.842512358 19286885.329785693 19240968.96979447 33484731.3693815 56041888.09999688 112056765.16801758 42928515.04148221 31588387.787232786 61844752.2826305 10782907.440081613 1682048.4458907726 41830714.60346924 39515555.95345895 18896219.854088675 44840411.05729592 9627926.184250044 42818842.1076325 17636626.135833748 80269310.35728264 73642877.96129225 36633820.81370907 52626512.77505595 2452645.3517589658 2442911.688648932 45909783.0519063 7561305.536673054 42877668.18909376 29760736.833215944 38471481.69302261 42201832.418394655 48294649.90819247 6150745.8488736665 55166790.02962282 47796647.70019973 47038559.10592313 20324221.203084312 54913123.73902971 39220644.803262025 107727271.99653478 45666541.26722227 35513421.908747666 55256749.24643459 42546234.02074767 13296170.712468125 1362833.0611913654 49774886.33049022 41988759.98897066 150514278.94965008 108469614.9872689 8057272.544197884 79985491.78452446 23306704.33912079 45494642.680522166 58788668.58646324 18965811.105759986 16322334.479000865 6257223.470934174 33845650.53940813 45075926.77859468 51079918.21815436 23907448.043849234 23368047.54752169 42975135.601598725 66661434.19689658 16559576.154533396 1497835.8960205154 1501481.9117113547 15506421.777304897 58058296.332888745 32975881.791995257 50140140.11070279 5021489.033593665 60532358.18407391 28238154.298127167 7031290.3079667045 49789112.338425875 13789150.181559898 40016191.11711535 116777733.7084194 5418320.292932173 55757183.650329165 45990865.99977004 66529373.06601437 42121032.05651815 30691563.955541663 51637155.54891874 12329483.655489374 24095111.815728936 18134433.276718203 39629185.65656962 22974186.738269772 54483264.29886712 42796981.3561665 29481605.830485415 30469566.715061285 24250046.58192373 28308731.07894778 59214247.84900155 34765154.10607791 55929653.117878005 33834407.699449256 5275170.919720006 43196693.55206605 24532563.758246038 45509580.513655044 14718135.427051613 17736235.54860975 35996690.9668869 62062654.35372767 35795018.939993255 47111591.456631854 42905278.572681755 46305857.67008172 8627863.458429413 35292377.27201701 45447402.457216546 7298286.576189818 7824456.727606263 19979000.83448205 43011924.35649328 28985551.379233718 83790444.3877881 37512592.70204898 17242111.182976685 49836843.69674012 35953342.07483545 21498266.602339797 45781119.12110447 22293945.576910928 46210125.77773806 18292552.785804182 35246088.639649905 9025005.384045461 54709726.79572408 4522915.125953394 40051126.977325395 54633422.26421889 87881119.563424 71578362.27636082 34988610.89739561 34517458.84126039 8992796.39764759 41069773.132942796 42689985.00880504 43951978.49760614 42200643.32912792 8716772.406126909 8582346.651032293 38166858.31848083 50962193.35321583 42703738.16768457 32579734.726325404 44027096.20324821 33228459.283288978 43535017.69203564 10052591.443061104 32281620.28390956 18147121.72319067 63588814.001704715 3312115.123395342 46388336.491276845 26921321.492655728 50056355.68076084 42758459.16883771 24007647.663576473 14076816.049146732 46272008.26644376 55254393.38115869 25982475.83324877 92138752.16009662 41127276.46356648 126720507.44455865 18691913.628119607 4660580.476746529 70383195.2247429 42970746.73745567 25046168.02160476 114967472.15797897 19728382.81626724 29491806.885527667 45972138.43352726 30151645.82800018 44618854.63783214 49979489.10098118 6401347.691915387 6457438.60280279 6493722.024811483 23535916.011205647 42672659.08296301 40439599.610636234 41299780.721128404 38129716.29154009 49315203.30529069 44180140.55844756 20934200.9469919 38153347.58014817 2450372.4968889286 40547772.43198614 36654800.59112979 40446270.38340194 45810765.96523761 25099331.10652786 41519656.09060679 30165017.60453349 45966511.42305387 32668397.45884626 35907970.45689522 5283558.17763618 36501555.16787995 41579118.03609829 18212841.944697596 37017937.189061135 18117170.69137547 42770719.58078031 49681311.470481254 8817180.160913868 47768721.63485751 40430179.79353133 44834904.16832297 53060473.358005874 46294215.14558542 18979313.475988362 67426.22212503268 29284879.36975098 17582578.581939243 47885577.22239693 58368354.10389262 8892264.32246782 67784913.69083276 41329395.16615411 7159068.656266822 38450266.08211278 4882969.723517515 4865049.871318191 18169529.751719728 36362895.66539327 50481200.9949185 43460854.80605027 53660440.08997326 2486122.5770702227 60164101.889441624 23862503.144358784 25737591.868488133 26025995.65812684 13522578.142182335 38361092.55304412 28786402.62175969 43812815.450707085 58526125.91882563 43081690.00575793 44617871.375484124 45679988.18789555 20238240.25105567 1176693.1082010218 15394601.741769556 15309620.216990443 29385197.029810738 40319387.91138163 89737654.43832582 48561911.159541875 31851844.42863686 45668982.6732806 41985115.43918482 35145077.664143786 43366752.1074985 45945507.150211364 39434522.327639185 44189156.9633957 8948295.439672843 38373117.036041796 12673549.72688714 41947652.77143286 44192940.29138074 9393378.181989025 43103792.44279747 43794369.896570206 24347313.198388208 30591187.453964926 47530155.08485649 78497446.7471512 55113168.851320505 22273026.060071427 34605568.089741126 26807939.26439308 47645526.53902448 45501155.62904599 23896480.07988766 33108502.392473746 41135397.11703592 2673932.0917492714 48796729.83356197 49038221.47451866 43082527.42710508 47241760.380074374 40604883.54064424 36322422.715613775 53240888.706948906 45657100.38250986 64005731.62294603 38304322.12854518 42162736.31895037 37626949.752963364 37156915.29460966 47472217.962541856 72480924.41726328 64340445.32705249 3201580.0410994706 39421129.67926308 24837644.99244636 44909307.99892266 52674298.48289744 61215902.36864385 38972718.236939564 46375409.619735286 42787872.41373774 46266799.62319289 23073990.370739613 42787129.191306114 50521574.73693028 41282922.566693395 39884213.44454572 49772428.30761466 47328930.06602055 45349616.78710453 55571130.3131311 45801142.78956018 42850131.77732526 46902989.9028909 42378872.932512976 46609467.79988349 51610038.49565639 45113368.42550327 56258651.68769335 46376686.11410353 74591094.46378984 41346944.62753689 47720009.205620274 41130895.017023996 19344148.619972985 48045799.782580666 14593060.88529131 45375745.47664981 12989782.58814474 30501798.905972164 42956373.6139958 37875854.34080525 59944095.38908011 46226752.15189178 71976101.88854973 47102480.55360859 34951183.46250247 35561151.56360718 18263017.500065938 18271950.59123242 20570994.969714455 5694522.929067574 63060499.27355296 45747397.1222639 28358158.096559614 45282260.02606435 22313319.715300817 8719344.834119895 40401881.42245971 9274970.40493016 58189847.22223729 28549687.736348987 23623058.969641022 42674832.762891464 59047230.81739 37754186.089468755 10535269.601228945 51132834.29253956 23696834.2731058 597564.8871140704 42741028.30270944 9152286.73657212 45968340.75640178 47599496.44592536 17093063.027735263 42875860.97791786 50237200.20242668 39706700.4924012 41841278.16917076 7669714.447857417 7616832.989070277 46857921.81408514 54924059.75294878 26418712.089794878 15020579.448367722 13157073.2228532 16877833.50872833 29964050.04167366 31906043.627852432 44994818.24692749 24120695.193824116 47600860.4219709 23980432.088263996 2226174.253751638 9247205.626059752 2418778.892473659 48370395.73026229 19941637.201761335 26222449.21355139 36125259.431054 34247308.37049035 110526261.6547057 43966152.862600364 7871710.969643436 36266543.45361736 25182369.4488788 8749083.58835124 35044113.860129066 38161191.649714224 39410373.29505612 19856995.078262884 43003592.85425837 53015670.744585745 36402780.57969413 43384735.193689905 43428243.7361958 41188631.59404066 287686.55927349225 8886833.428613031 8906509.642124092 3575607.2624766016 3561933.6213649493 24260358.694587667 24547284.65765403 39714620.087052874 37474406.97178356 5188872.932563739 5167492.67479672 20299460.62746055 2684522.710788316 37897246.898576386 25850444.54828474 13667459.828149004 9468998.560889272 9485172.409826232 61892037.017869316 24712412.119036358 24106408.4503771 50052284.57806594 28246038.641667172 32295237.438509464 18922133.650957596 34902395.97007313 36493620.3086032 8922419.593511792 8860637.335036773 38380723.11858081 28842168.782108158 31355308.53052341 7840637.486042964 28533653.12737413 89514658.76973082 9713541.295501811 38830630.3854244 47838644.12392816 40421024.417322665 2236714.3543966236 38093804.527315706 13008925.196654033 59285554.726145305 55209479.8826983 26746543.737249844 47293383.73941499 45078366.00175516 44885785.67381939 41355798.116841786 42712084.125631906 46322349.49956542 50722218.627619915 42648057.72305581 45371344.35237598 47594122.313561976 29989253.57952402 52873870.033326305 42754465.55343759 49765026.3138567 44887351.25264773 37998390.352269456 40789720.89912812 24674730.96892433 99467490.2721826 41939476.21999662 6879002.922117676 6854803.364805071 19846078.869077828 44022033.96138361 45032541.700881824 42708508.48767231 6093951.148590762 42768491.70663154 50699341.38201941 41484825.102791436 3791394.3689923966 54676932.41261069 2585088.934274214 41707542.11667759 48334265.34602042 40101310.07766739 45056493.64063692 39211392.65134181 50764269.21518938 22303255.046893388 43069859.32228529 44846694.86079233 20051117.787073698 42886852.89559408 50491136.48556657 35982563.91119355 23326014.547579978 48516112.39568665 17343653.615019377 4786437.19864839 31113218.799530137 50939161.99428373 30438801.046711013 43184453.19411285 23698888.65733421 17227944.955793425 36289181.76656458 36663531.94208309 23854244.058849037 45832943.722625464 21531734.465734597 19263142.02687679 31202032.67729079 9019565.339345528 50480804.47586968 36839721.12897228 45851247.991617225 49783232.9203064 37433944.39588086 49641444.79331448 18752874.01034547 26818901.036905933 49773979.802388646 27911709.910407245 66911378.758018844 34501583.776757464 35640163.4402046 46067239.505329415 53668860.036784366 45347969.81311696 5098315.555598714 92592731.64940755 51778576.252705924 24055804.510210972 41468383.85623274 42325801.8704191 68915626.39053921 36011199.10333585 97551912.28290766 55299604.245464414 55104760.27007969 17342183.104393695 19039165.0519433 31870724.023122776 38991865.67793681 28208817.122934353 35250877.249687135 27654930.475841578 33095168.571686782 61417728.191493735 34397120.830451295 33582368.92102573 59143610.343603805 36276969.481277145 37987264.054003 48859924.97415904 41672297.01035646 6242921.536836413 6801157.452533217 33880914.91128089 51510554.233968005 171229.11560530117 43586950.303227834 45542035.98756511 43294366.98366037 41616604.29646039 49896099.12128785 12329015.143463122 47739194.36280097 70232105.29544099 41867130.236408845 44821956.18809516 35472904.88973989 84011971.75658603 27547456.87326119 15165469.119982392 50394723.88427097 21013662.898544207 38798694.71100574 47312220.125476554 61002469.521602295 27688543.672702853 48408682.489593714 46489897.86720701 3948019.0533967265 41024684.97632424 47733978.7563215 65076236.22077275 4870688.721017947 40470014.68192026 51714584.54964364 44833408.06321689 53748454.97256941 50508115.69407613 47977335.80435695 60602395.69164497 50973885.604025476 31346097.032155402 13127620.834687453 2613223.3900077567 2602118.1552781546 19352785.774630908 49514136.0984626 29487510.88169796 41172678.71826478 30592922.93956304 49965829.56516062 53679053.54790899 36102181.62955172 34971702.806136094 51245317.50880876 21815219.04122426 44563472.381752454 55712162.23835601 13796457.279845726 2036192.547977023 2046976.803251075 52172848.054049045 4746867.375129489 45620702.86265977 39077043.46700135 41040583.11023599 32676140.466975465 54676587.80763175 48271049.482542336 40885977.11444226 4388390.727902547 40554847.43813644 47704011.308787785 61218916.58869075 38095469.73322317 45456211.65669558 82161613.695885 49232907.83402835 18759157.662763964 44952101.25752935 41619323.00749917 46569137.04954331 37253946.84639017 10661484.019372355 45565947.04838526 10811928.169550717 42470580.02048332 51039463.547126256 6393419.739934349 43953633.077131614 69341521.69631317 8155836.266292844 42764326.091727234 4367293.454939115 61468479.9799217 33280630.993509635 13511078.239354238 42846497.617671914 47623530.82227715 4163878.063960691 52502076.5811525 47014880.767908275 17589096.927897815 37154370.30445506 58113132.628166586 44629643.63305917 48436665.15149479 4185770.519106602 49634537.0063791 2448875.251997483 67726152.68249205 47088109.02983754 13365834.504472906 62626705.785249986 47991996.61930113 24894503.263873275 10408353.872486038 35855710.3360798 12772063.190158473 56952265.32256294 16542441.969347054 16375149.936962424 3144439.345016985 22867546.636925805 4264718.538918072 4284428.814530202 58573597.56446763 45065266.317371815 2383023.20374784 23651406.469898418 47526927.77277855 87634108.02886072 42299743.636770256 53127746.45353816 27042290.692406163 45843718.99222049 41655127.33194469 62912692.08482084 42859823.51621136 53491593.793801725 46502955.81462621 6154944.078469714 13165066.803238317 28100328.630392443 46689717.617481 49304337.53832855 48152814.52302334 48365389.153995454 46414594.47567639 30208598.22013307 24090898.702655688 43684357.76344732 42897161.012539655 50279617.776390895 42619357.58578533 42261501.15343924 49816738.34936367 46302054.242642105 46612230.5778845 8223392.639045424 61033558.42333702 42317122.07569915 6485808.472123191 46265080.904979244 37979152.72343541 3575025.447415447 42394844.81745774 36023982.49150706 45933128.05375438 49505345.27074585 45755829.658082545 44497811.65540758 34161295.233752824 12826278.678564722 89657620.08749783 24614877.652319215 40742390.92599511 40271714.82620656 33476197.717762724 15541315.670078943 33559500.91993422 44430889.99841874 43651706.65400593 44132225.29826752 45398432.31372284 2633920.133515927 45417746.06052026 45023414.57869807 42009129.41069487 15118111.667270089 39778267.95249317 25283554.688613117 27155592.508779693 17421015.976359814 22609546.33724342 10332566.789403502 2933345.5384094073 13118146.315170016 53233233.1231046 39478924.921518244 48711540.94415082 45124629.97517326 10505139.10467821 75640352.71581045 19540836.60944676 39604637.27302363 43473662.10711107 18303555.61813192 46199611.324847184 31792002.50115811 11061775.620116372 31849834.106848005 24816812.854426544 25599658.02650529 41670219.43099641 13035080.56762072 42147792.29589896 23216110.370854575 41433337.84034812 46358359.141971946 19712454.05030906 23300687.270798527 22094503.80791361 30911897.050517343 45566777.85439449 37825152.72537458 43660840.61220095 37507244.80071419 36440446.89627594 46089261.68087728 43769064.101955675 44063671.923501074 47074249.02817859 36601501.390110426 43539591.31995462 19230982.755440943 55123346.75357737 46225366.112769626 17023030.114747345 1967661.474109168 7855285.050319308 40760131.31566935 6599170.640768453 6573575.589225491 43708777.57425828 12879682.516763238 12836278.69092767 45227862.82516432 47218718.29050478 44958789.00790987 51161129.115708694 28615807.915189806 53560180.794764616 44423243.906956635 28212881.680503964 28162076.263657697 27383805.322337385 35832416.1672583 46392878.810460925 32856147.74428216 101550560.01728678 48144122.67122841 17005543.527159233 32201745.557681426 27122860.10749609 44607014.45747862 12509751.297922568 119788022.39394858 36027154.83834476 47159102.16021446 41871406.694394305 62748081.90112843 49639736.89690949 4560930.917565446 4590033.1348454375 45338508.50177376 33195935.08431815 54516141.30631846 48228173.526959784 21209176.83553249 46161608.16599724 59934619.922368236 55050953.70083823 26447291.670474943 49858342.28322966 40233255.47275326 33583147.5493153 18591029.453635346 38787510.33237663 49577158.66950503 47526320.6620658 28863115.473535586 14166864.322302103 43935178.41325999 47228331.98848262 79930587.329521 27425732.19556109 43142860.86303957 34680509.0862589 40120244.13045309 39424611.87717103 91759662.56693073 42041063.13419363 34329992.76464714 36512913.32706671 41064055.36576838 12767055.649782227 19761398.605167843 31915633.513764184 42398812.007372126 49815674.579131 41259374.848033816 8164785.322751267 44164128.29164077 19772208.002254963 43621229.04133783 27958510.36222539 30047105.575038075 45641040.96845739 24234037.414260842 17903816.089412432 44684079.22426382 65573658.09979813 49159028.58070514 53462127.844982564 45994320.48932278 69856127.52253354 23000527.80127532 35364088.15814459 10865266.752518294 42077524.974397965 41317528.54663376 114554062.6459399 8247912.521707229 5691221.441297236 23134831.757698428 40605950.86276829 85154522.89293714 40544839.06305331 71248363.5454308 20229688.709936313 7944678.099995863 7915684.845148778 28457357.23284355 50550310.118775815 25655859.35524683 40891262.585067935 41053336.005713105 7199423.863677998 37355658.50083581 40660162.693533115 5226406.544430604 51817589.839808665 19625855.453769177 7149835.506198688 40160646.583181314 29833711.28645094 25546289.91431352 45755219.244368084 109807129.55404769 20671284.70485652 22380777.258101676 85880799.87473343 34169221.0545643 45968050.805556424 28796242.236603603 44432805.055578455 44622037.46381396 44816830.864279486 40112463.53121716 50318834.33935478 45955063.50783447 1307805.1309974943 1312593.4247034222 28552303.29918364 46115549.17132069 46973695.873661615 45011215.10634833 27406248.39081068 36722965.54133589 71079732.16238117 45785768.85283855 31121716.95011883 38146857.54559246 40839957.56599677 54680640.70544305 258467112.76371115 50012843.64994618 46932572.74956324 50723571.39002322 40091153.2917844 73561537.09344295 23634976.276956063 61573642.826428585 26493596.718902677 29614608.06372278 22375060.51242253 46801257.46927816 32743584.602572888 42008810.81090986 47007439.412210345 38411449.647398524 39657258.9221639 35873489.167579226 35687311.92109493 42013766.31815445 35233648.13894586 73597565.14421952 44553622.132403344 46075176.20471625 31108214.346195094 29147525.449746925 44446317.430606484 18342876.186939172 18608541.82802681 43250287.584714085 3576552.0724777193 38296861.99625034 55307507.51149985 68798156.21227308 45041220.55115979 52063407.63693252 44323536.84802274 22643163.201052956 199783734.1908079 46947946.68654633 57150020.70491455 21242883.347459156 5489491.0250836285 4214101.855744602 4231171.221758367 40884737.06777313 41299707.687995575 49296045.19357385 9217116.13625087 41953061.90171572 8997530.901886921 19999505.481256228 105384874.80778971 60244113.516568154 3885484.0252043405 43160264.75140472 1951703.2200150434 47187218.60265121 21014202.07445195 44268526.54376798 13212696.675769178 62188976.60984662 37444461.76141221 38745086.22766676 65018830.26844791 548149.7367903392 36458796.49275426 85336138.7608919 48776593.36309881 43106579.45044933 51292457.211966105 30440754.15513536 78982561.60817169 31521132.456213463 17837013.76351599 76688995.53833279 46042335.14508876 73203703.06168029 9492543.90003557 23312649.21833477 42284224.67209517 13839393.980334772 37768418.810689494 19364777.975765944 45182759.28391593 29336260.189473502 21582899.11964136 47831605.02136096 42378080.762808986 34045256.49168616 44613229.98686058 44455746.256374106 62180610.074264966 49502972.35841977 17504811.839731835 33930999.66423914 42109978.20106826 31105793.660149805 43459023.017113544 10966150.345789934 50726239.32162495 43788462.739466816 64054884.727362365 42459082.63202884 119739107.50444293 48677276.38125455 4173652.341822697 40377213.41594422 18843721.088306837 11808180.705469644 39434534.43890077 56066201.859390415 27184112.942165785 6191788.158296273 54008738.53414473 42202189.94517144 47510942.55420411 45774000.70518946 4175388.4632506627 43071277.92467512 13126255.515761957 68299921.05220614 47232001.4108877 44602727.644904554 32435906.927915096 34462641.56786536 8777854.949950214 42361832.901507184 50308502.27140382 5817645.892921892 13134757.78723694 44696483.14413327 34056911.11481042 44138746.70914367 53998919.43806691 43503730.100682735 51006166.85312684 543419.3103543406 44200134.381618254 43491362.52747286 51155894.60282736 45487083.76058178 43912235.57438445 64116053.778519906 32600754.66711649 37814014.49963955 62997838.511133805 49710417.46501663 38752167.79757102 132263376.42467637 49357009.801129274 41365317.350268014 15423452.217900805 40609502.41802841 518644.8045753623 520230.7058286056 31579265.977177024 30111638.016493753 41197565.47863099 1956500.0973203317 19189713.611258 39109864.77123561 40528147.44060903 37990883.7397556 39891551.84834996 49447841.75140391 41021753.47202588 63787765.65014073 33814325.85545258 71177635.50212295 10691736.112086512 57802782.75769225 30297201.35650531 47208948.57908755 48827310.22553603 12283728.080714902 60624977.29796716 9753055.61119004 63289262.94586841 36117346.35130022 47376669.15848864 14136377.706804534 46305312.82405467 2162562.1462769164 54119396.666364975 48141950.62391688 18055445.88056353 35272896.605708525 44033146.02969906 7003108.914854635 37386148.832332835 36248517.7844705 53876437.432396695 38171808.96735231 39925781.733233966 27765543.034533143 63116943.75668861 39567037.45163037 37162231.51332779 49292003.59481382 17197818.625675425 34565293.017652 39762882.94928997 21684414.07040671 42103522.366881 40792547.5775484 37884448.130108975 52934986.80461218 30496412.30279961 30699396.547361296 57121392.91004678 30578083.66301314 31165336.483747654 30998836.92412075 52078245.79056696 42058367.76886044 45981534.762881376 35609925.38460519 5050356.707974046 5066905.814753063 55137268.48669344 45159117.94515087 55511304.2154398 44027707.54613758 37972197.125710174 40971941.68391953 17233402.087366972 34796000.57492994 74048566.06065246 10005647.459014358 52157749.46682909 37447308.2998986 53728807.50548783 145710487.82988536 41178560.76539403 49608971.49833287 40942030.21827114 57230690.91355664 46879739.156274766 235087678.62721807 30248549.80572079 43141852.84762985 24096954.840401057 41519314.23437545 56308210.56783097 4907208.923776095 42462875.86065082 34887359.25663956 51892258.533723846 36541731.78704555 9408794.558240669 56501556.562355995 53165218.87290819 6766569.260078393 19938324.815694865 51350929.578891136 24859106.414631415 47454629.282543495 6226307.130274398 50011797.36726476 84542644.5553135 47071613.022414334 40925157.13063803 29916812.662836976 34669094.37954733 13350646.003560796 46619211.707994655 46860843.77353168 29588133.188223504 48853389.11070641 54603633.743197195 42287096.9684452 26019671.8362833 86407183.9603998 48619219.04872452 7283102.05220702 43212419.51432564 27897657.03753773 27827583.913239777 46581983.50355548 33632755.03113419 40836848.783128925 28239502.747323554 39646612.61904708 46645073.46247195 42409303.5884674 40194027.61199608 37873528.455953784 46004280.19531861 47623156.11464198 17297337.777224362 80906187.95641583 65063874.80369311 43732559.908207715 79757785.08476937 53751006.43961826 46401743.49568044 42632128.839535266 36021101.356562085 20874274.282033816 46579766.94054164 32996071.30138371 46055949.133629 44175575.532496594 42409375.15422535 56066395.82845655 47765934.25755988 46344373.73689383 50465480.60985567 35945719.816846915 24498005.698736023 16580949.981874963 79048411.62018591 34630233.14578716 14631740.69756783 19258074.064103216 68267713.30545901 44006229.79459706 43614325.632563405 50472382.98500071 27506221.346075978 38496708.61717054 42191556.8181938 46834192.32628542 74139692.55782087 24292111.305869773 29968631.505590737 51721737.86090597 42058888.69927947 65199351.68257142 30577727.87069463 30673759.983393814 26787978.20640127 7322493.864046914 5792491.20823443 41683050.421374805 4773849.112890475 23669457.4216074 23602985.6543508 37283396.73588086 39193113.88961578 73897830.07026044 17396253.52000844 46404013.507907175 8504773.598372864 31664218.51448847 29576084.68943912 40568958.97135942 40845976.53331227 1805765.004026533 74329378.60086408 22829851.472445954 19341625.361755267 60749366.13155487 42067662.02797506 3537155.027599645 12666266.2076787 1734413.8655941058 35262667.01878505 49334784.12978913 47947741.204185314 46959120.34257802 95279702.09216447 66254461.33272179 36630441.536263734 41347051.27172228 46945647.05041052 37332288.53653418 25365114.930316307 57857853.12452062 46331889.89128306 6708838.54987975 60530142.11922434 45023044.14882833 9468475.919900034 9510011.216072742 45254818.95966444 34589460.00931797 45648360.091954514 9376723.950244138 27188121.190554265 20416490.508749206 10025711.206752338 50018715.53744393 14782454.15096562 38084551.23953877 65332777.15610601 12414583.511026496 30210292.984241523 34292603.49786984 12204815.714955438 38499951.38866064 23253036.01072873 36019545.29751385 46836854.34140622 65092313.0046955 17156423.750526804 24349135.62710019 11910904.126425952 30729130.7738649 44752881.74081458 32853398.42838049 47964720.29440861 5805545.91264163 23641409.143705804 4750886.694908686 23777104.263381954 48859851.69670596 47108586.180146724 21125038.436614312 58905955.83696029 30894315.66528526 87537042.56765738 133457355.66730003 11052935.914463975 13633516.404150875 23042772.103697877 42412335.323784105 46783853.46377596 12843481.772845974 38420111.70976747 47531515.6579913 30863591.740977913 842194.9712511718 846878.5680849263 10017735.951335343 55154837.577682905 39581763.56540981 56989214.90505525 60820814.09652709 41571207.39626482 42714138.65985299 58096652.71165927 700047.7617880926 2517889.9190269336 12201144.46617371 12355946.507579116 42694692.80199894 66625979.35843871 11801185.99428601 15769950.94208358 56954303.63139678 42272950.62033976 30005883.903901055 41270020.73544295 52640266.54218777 35099688.06175646 42044335.31161492 38998496.30209079 49002040.38848659 11321952.56760465 15562018.992638055 43034213.073780805 48596198.20485717 45122314.79885028 76061272.86606774 43868243.04837245 49129962.88772861 32821107.985499725 147395512.27659678 7073203.591856781 40963310.0432536 34640472.304099545 36541200.26676231 44333921.13130822 52159133.273354635 47263285.537079945 45195321.41233713 11226067.685241267 54640293.13506741 13871784.9581813 64375172.75187276 43904485.12826849 7021743.98368257 13276140.57724401 47108396.81252437 33690750.93244757 34036776.84583348 13363694.521542974 50645862.95437245 13486008.690412447 39600658.084197894 64064092.88553984 39263380.185963966 39620064.186351225 13374577.878002968 45010879.778849624 39896419.233524695 25315457.73518091 696771.8012806611 62771681.10631375 9707621.94785062 34020720.840628445 61905773.478181675 36861090.0317315 64939145.25400604 51504068.996140376 40254052.79957236 31750332.111781128 44200845.875956625 97110457.62274109 4678082.067869784 61806348.9710316 19677616.010442365 6696143.806966701 6720174.955367789 35676197.632480994 32406181.692780126 43600233.614127815 1042517.7891147486 1046966.5464418147 3900409.3412993494 38563317.84550876 50786045.58050341 18696139.041719627 63312241.33915763 46640199.834116526 48595874.92675749 5460246.070085835 5475371.643133868 44066101.16988054 97472328.49275482 39988913.63855498 45397132.64982496 30200154.58074477 44204938.72813041 62983338.75031537 19963505.11202197 40578202.58499479 4480486.520377236 4489553.665238652 13137808.887996254 15123642.384619651 47010172.759318165 40679760.56471845 48253624.13945325 39595148.32891399 288102.54025947757 289415.69800410676 31717630.87233775 44754370.497380756 12911973.6511083 308360.26433951483 309917.3194519551 26795394.265046064 45002812.547425725 41098466.426286176 38284788.19221961 57655928.062513866 38544412.782113574 9261422.839445967 28137476.919524997 1949373.8891668916 1958085.123229006 39876339.23579046 40863313.26049882 65262336.758072846 66377151.75879996 19141257.48787778 44254753.326509 55136379.85195075 34274277.47292143 7720938.452958763 7815788.268330095 48008824.20218385 72396527.679289 50112052.45546446 69612943.6001757 90065162.31934343 38542294.23098098 32889648.394503884 23994939.37351388 49169777.40754773 9764679.245553503 10677248.736056285 10638547.172191227 48530431.253151596 42705249.86363893 45230358.48149301 44599204.95435284 6047176.968591938 17949739.7205954 17896125.41329746 52580244.7787406 45807604.34998808 41526019.05575439 45214598.51486401 15086846.385347694 41141177.23558179 21415835.74577672 18916525.792219657 52875031.2154678 38499752.43814089 8909990.997791091 22355262.821054872 22276071.507172223 57793316.8020841 28553962.796321128 60248736.10791028 52450552.943044215 64139989.94675996 47646808.04821717 39939887.979107484 20523239.761096414 49416263.923486866 16172225.492224038 16033244.348438382 34719075.71370811 20768885.943712298 52468086.75217097 46935407.25611865 30037729.60436515 42224861.005562656 22817136.546578854 22963804.742570214 43058259.061737366 5838873.287358587 5873596.180024259 47921477.04336718 5353639.019246443 111566045.05345754 37190088.745975785 44926213.26597935 5401833.386360799 46849382.37073588 48209210.58863739 5832218.138463659 5866854.315458631 42238218.256633766 18976974.022100177 13405313.533831619 13344625.002664745 39957230.731406935 38513582.201011494 45275285.864028424 51243551.074077666 29116792.211430352 46306569.827866666 53755534.07862365 9044046.08776746 44981273.20415015 41091217.41736373 802091.1319733167 30206275.082473096 25608843.995053753 38498026.93295331 6668494.74193534 41171060.560547195 9710466.067113115 46828796.82134908 44324328.01684708 34810921.46022554 5248549.926502007 11558597.943935208 46616199.748769164 6869260.378157922 42005834.02243432 15486560.472894076 46846319.19438437 58664983.61310074 25013481.794623993 50132544.66597738 807031.5762072842 5954069.581587707 5971718.714441604 15183810.818463353 44670590.45404176 45017065.51289244 58283453.16806572 5101079.769245611 43165733.7301334 72706275.01175176 5151464.734927857 42992608.84728044 49501964.82933628 58198081.5967068 12916316.351451067 39908319.73699398 15333532.562689159 23300197.16365677 12134892.110969199 12211563.847758649 35536103.77357075 29188362.823327325 43008126.1994537 23148395.091211934 40314812.10634798 56596045.74989048 23485933.505579118 23413173.877276063 13717405.502770094 52840254.184908226 44409199.686600275 390156.5601825566 28565912.889132682 18019847.54683436 28419299.279264227 41072116.91351952 36888833.86163209 48105125.73023868 40709734.498876885 8174339.310653009 44668211.92899272 48499036.388656996 4437277.606739222 377090.4158032616 37946425.22032877 33094947.61865189 33006420.56694989 61043127.23977309 17835574.531970393 40828427.15680461 33884870.69644185 33658628.98996943 14194238.685182333 37644464.69989554 53288359.73132397 389587.8019315761 34840256.386703365 38300443.64425542 42069362.24106775 8113720.975498514 16365619.559738258 44338219.159608655 45930183.86538535 44845080.547266774 20274396.437127646 41406654.91168998 45568745.297214724 1716474.6384564305 384353.8737654082 36521149.6773201 42266943.7410135 6345524.750560342 38737342.75735362 42027137.74751397 40089796.32903058 6773774.692490442 45770232.85295803 1731623.9771501792 38949179.96351767 39999011.384426214 29832938.34392583 45298322.094407104 17284855.512441978 46737998.85773742 12339429.93337312 33940940.394538596 45368150.428683184 44392598.093271196 2724346.1569241374 1642752.1303479567 55073241.80150157 37254717.07134976 50742287.56211838 34358106.649989605 8756855.309170576 6987450.510654262 11660928.285675205 35731613.42791544 31840218.12498456 17547011.194854226 19115309.981749535 31192982.773697108 45885595.917282395 44580172.938255854 42911129.28452233 8306871.25399273 24324952.492245108 58108156.467254855 42444197.3148937 42832943.07160265 46471837.234801814 45932766.1848198 11327356.660276832 31493218.235150196 42984595.33557024 14091555.295329679 15042581.450910443 47225848.59342125 1857612.9292621142 27530934.196670208 55547739.8614284 43378066.44176161 42174890.11414553 39389466.68645064 9481865.186545376 44426914.3188459 38592822.915990986 62510598.777826175 30450553.049282875 56119541.436276354 8031858.481525756 26860513.00161537 11205983.698357226 44601505.249904126 9326067.127239842 51367722.77742032 54355139.929980874 44962558.62356374 60230871.067111105 47484507.72213036 13035969.91443532 50119265.186012045 40477126.51800056 70737813.90516621 40773591.78138571 15652401.652323786 15870178.642846068 3354830.7047534715 12526008.099863062 28937189.62737386 9233018.006305818 109954708.58883488 8047228.376442968 32321454.914119177 47182319.752338625 39828175.88847796 70867517.39288175 36112756.35771965 8033239.069353436 46862939.04399549 41609873.03268355 49283676.10890133 49932548.40328952 23569582.844784927 41099341.20608268 27462081.245324507 43088193.79611281 10010846.983465118 21841999.97610697 41586267.512310684 24797742.395978924 10778656.408373797 10830805.867798096 43164588.725972176 12564073.742938867 63605568.43538824 49400033.90734283 47879475.06735544 44177434.82994683 41891368.425312586 46020240.37433994 45599227.05918827 35990788.97688579 38231017.71854675 43891065.85511041 18907131.81613662 44874263.607804604 39371719.72050977 58088146.99411464 48736584.85231574 43898967.72043006 45157806.49466755 52042871.97854754 40689844.589466125 41479711.89176092 40773891.087778516 52601553.94107198 43337380.35772746 73820437.99074028 62338374.12226441 42907885.959953934 19674800.195405878 33383380.763997454 961094.7239013793 43285074.110637814 42572824.47239873 21526628.85572786 4458286.260668563 60783582.82738131 6923706.003105728 40908639.05916731 15962941.69090634 43650722.424022324 63344254.59396257 25542710.05220902 43623141.7900153 44361128.164915174 36034290.35465668 48206105.73320976 124788018.29932947 17272228.519645676 40937046.81735152 13152105.98259725 9277838.815357178 14087631.608449023 24166069.37541281 39679261.793715574 35946859.90092096 42866123.18000386 9017979.605090959 17133341.588989336 58259256.9803987 34721765.18483718 35467940.94374495 39927156.01613209 9443910.876626082 17805154.86246416 6480276.4667827105 22296619.108183756 19497514.484142605 28389078.504087072 41030037.585785806 47264431.49926822 42446071.15594428 25181326.345371068 17124380.755414803 7007999.314672361 46032198.80543004 49705576.85492452 18437726.48518787 53064566.35457652 23163009.6220895 46736195.35942524 91379507.17970587 33279638.663642436 45888960.380849294 39987267.69995754 19873974.17853663 42562932.731865264 69459021.7884098 58444112.70639634 71378718.63379832 20600471.907969397 46679222.561607964 41101936.39076435 28354484.991562873 56610074.73297626 45429811.64336727 44134561.623194404 959091.6215353339 12180397.630692352 46490419.58709913 61293131.31795583 26778278.888658486 36240363.74422622 40097478.89040103 45368856.556191206 61868665.727239706 40937022.75335312 48136476.83246414 45537724.5536863 49425772.62866523 57995037.88798162 56609218.40670914 48657447.15146996 18720539.634271108 47067030.17625561 41839083.74693402 35636790.97099472 49449303.7571822 39830573.42696143 22133095.683728818 40277509.33543636 34789537.04902418 44217928.05610664 50467263.73188226 47739598.02112364 35232627.81967466 41898548.75296554 39709652.44686505 12807129.57462037 12886241.593576722 17348319.44400009 42366282.986835316 95031237.61651908 46228014.148934856 5160271.216385377 42223818.58523365 41553347.43668882 34736508.49585647 32075533.943810113 20656842.053480018 44654967.267396025 192187696.0151926 48182011.65200871 18463776.13012428 41279648.05927231 46899590.87730968 41278958.583717205 52486757.88542101 64672000.69588396 48591252.40604683 7214628.443306985 62823328.07940066 15136761.357467383 40586698.29569754 15877885.546010911 62020047.00055771 41731949.18417065 38209550.0539698 35635829.653994314 11311935.294574456 169235857.16522554 42544762.675464734 50991508.48395389 64662417.3337303 50439128.98437047 37094387.85056515 1187291.1311971913 34479679.450515874 47522090.64879473 51710516.779869795 40979396.5311645 33188347.93902731 33061464.67388283 33577503.16739895 33408170.830519844 35512629.450084224 11673936.175557636 38780673.25821155 2089470.3118271723 19319164.625965413 36744964.33225818 41586712.77182138 32751283.529673595 53095478.29271209 32389309.58552212 103903509.76812355 30333583.886130016 39879908.82598256 51658609.06729362 48332815.92683812 16313326.258166604 12180142.341980804 42461374.53617562 35955048.68957471 43819162.69779016 52006841.2912918 39559809.82705007 85683297.79055741 28915387.883282103 16157617.134494785 51068649.68285962 46467267.681677155 73373986.60629177 36325206.8242947 41488588.41264135 39275112.24960033 17328868.829696864 34543382.86147222 49831790.60947447 25233930.924529303 44994648.338407256 18776792.633210167 51185470.22333208 151469598.74396586 41907260.08566191 27031759.032499913 19598480.35264392 41168467.44097299 12033517.709315302 6116292.218552809 6173787.469189691 47721518.293481976 34206341.59741896 98332035.7520554 26860811.775016796 28673013.23529964 28684573.200009253 28551809.4571683 28546312.328877833 49014013.72601008 64455077.8321275 60510057.66626994 32332894.032983948 19641058.970119026 51700130.59146041 42852365.334995225 47497396.244797885 17768451.65480555 34925922.62399483 12889312.255954875 47237788.94585785 45551933.05288778 42885876.685280204 13393284.535725672 41414147.90010632 950648.5791144157 42688163.723158054 42050909.481824756 47618445.508671775 46742825.73915934 40669211.94250472 81114861.34590872 42630585.48271608 15975631.878717441 41758077.27388959 49057139.42540629 42928169.147156 39070840.82656955 11394055.862125764 41019313.416323386 4079054.9988805423 40293465.093608834 53067745.08367588 19028940.54495747 16104962.40155322 45133799.147166 16622431.672612665 20350099.48772234 46951339.11954698 37541984.68482177 40960464.31934175 115733834.43608542 38301500.661519974 37277044.26874872 90659556.54978225 20221581.42308687 47450125.87502717 40621770.85606686 32769476.709983185 19087508.097854987 27246948.374824252 25698345.711886674 41960291.63191354 38867382.53004226 57565103.96834723 24185213.115507662 51133268.36054871 17820190.019000005 86535780.11081526 42227846.652871706 50241583.6198404 40333168.68664418 52609837.442989744 27776485.011767887 47423687.19623726 51595913.46767868 32374738.036627874 22128910.076032374 48009174.82767508 39666183.245176524 31457075.893898908 46491851.35020231 43229004.88849681 51284540.19743797 38869390.77365901 38559048.27665324 38502963.55662046 40372311.31501351 69410283.10690783 38080780.06379004 24759183.261695456 969172.3832811345 17870996.535480373 19339759.405579 40832104.58948726 7268747.004397708 18084876.495947056 54057224.457493074 42893293.68986304 33836158.584870726 39066267.74789021 45024425.27579262 514137.3246743095 516488.36409300676 13054946.739996133 20264961.655613873 39969105.71541145 69451915.47658072 51435186.061653435 48116438.31214002 21639978.530139394 55430545.8457537 8348227.751603528 8932874.849182276 35701258.3562117 33150967.826478273 33836370.19719809 59021437.68997456 39504809.40638136 32898092.73961935 32113503.931904677 38094487.59725907 35015927.061062 34761057.784737274 8851326.695639687 26179951.599679142 39159990.343973346 39814226.20643276 47015987.11890894 18351046.603198458 34553291.3742202 43586645.33203718 53516289.664147675 35710934.60883348 32422868.87709209 41712334.315031454 13763875.476657512 13009181.768847028 76727543.67751853 19964597.872647688 18013576.833886012 37877564.58318893 48165398.958210796 35385960.36741297 8233330.467457439 25646847.32447739 39154634.74121703 31294173.24720237 44657528.25396436 36121376.25874961 5527691.988649461 10246370.600848908 7841499.755898616 16204761.886174783 11381059.137653535 47536103.24904414 42011574.096253544 40984138.99378775 50267893.501461715 52272790.4918925 32555059.544451687 41203051.6272863 46595411.558678895 39628027.41562992 44563859.606930554 39156193.1420086 34234236.34159827 7484380.066200402 34251591.871182546 13632097.6063598 34731369.630012006 47226208.39378241 35143789.227336206 19467131.024545338 29368548.798106365 53552637.21227759 21137566.34163258 13564709.087809252 12907589.99722483 12937193.263808858 33339033.90416191 30198473.88221211 32214335.653129384 62804365.06401336 51239405.40904219 38326439.58520237 26641848.72898191 36346604.45267899 43233993.86067354 74948213.63761535 39811174.71966576 13269906.666479621 10912006.891088856 43435159.86192687 36768173.1054752 28992486.703096814 48317647.681085415 36697908.04077108 53931986.697548084 14199812.550312856 3162916.4207137777 3700495.123297029 33900520.48906573 14704270.72077778 46351720.97357355 48552486.343247965 47333902.867500044 39063703.1311086 42750165.41420071 12811883.225010024 12761108.430570774 37146887.60090782 39064356.17614438 51732955.737835765 58612014.93074764 38714183.413511574 42426009.8305319 42826051.018948466 41996151.07795717 56995475.4643842 59023877.36569971 42894119.095392644 35847134.32615523 36196988.538552456 45118280.102826335 17420955.044916376 27377342.01008144 23596381.305108223 33580300.70998059 69163939.69800514 33574329.96219569 56336586.385220826 47058384.62914195 42015943.76495296 36087335.42360093 58651768.67699888 10847239.6816661 52511540.075477965 12799462.29786512 35201030.55549491 24363241.489814397 397692.82299429283 40310923.64132153 6182998.033980436 37176567.8859532 43975822.22080504 30996485.74645821 60193894.94196372 50602084.32915983 36091883.84326158 40980971.64928016 40744592.239213504 36423331.50492023 59371021.07746346 38964551.39172599 31464706.684403837 23820616.09331054 61775339.70522982 39224885.18202331 36529100.49549508 38548157.625557534 50252793.93575669 45107891.40151377 3281861.783807685 29726368.831034075 46497329.30558483 48924594.692498006 35184438.35854771 41110871.69860872 39205920.89591351 59662366.33581033 36875128.33244611 64781588.37419935 35297692.71829425 39934232.389265165 21960826.813367676 26670205.475041144 40879096.211681314 41275975.655870594 52086892.01454113 54416713.58042845 19287851.93762002 46621709.16413721 86613282.86561108 54746707.87583227 65358643.05238784 16603554.881248781 47264539.81028389 50878590.93749182 14699943.167771017 46542080.11896111 37045772.52731722 36600614.40371488 35424766.00370553 37292074.43308722 21116584.2079354 55458049.30315728 21161947.605317827 59652816.27612946 46979516.97544878 84335538.11699261 29329138.729700405 43347720.81433517 71323076.02177535 37992438.239244774 38613250.9983893 30927283.356300805 50496101.75477875 21283159.94177723 37653957.31091649 55856168.65811115 11141494.70735042 36914520.7187574 40327460.3277971 73159539.66645527 37619454.229576334 7794556.080389811 66309697.82083739 44271867.86477803 16977962.75994353 6657779.95346549 7506739.285296053 66814838.93053428 43213955.124958135 43081091.00716648 44419767.13865429 44168551.061820365 40885991.04445366 21126030.246832795 22048835.311594162 18485623.926897008 28146074.294046044 57180029.65057082 53361754.35572284 40619449.10595631 8342403.297439212 12864897.636187095 12790853.936180443 2835353.704937854 16089538.9258294 12870088.328780536 92404785.7088979 3254364.6489506997 37011642.133414775 46586788.03318032 15643530.022159142 27567266.767797444 40872914.775992714 44733529.95005782 45730949.307966754 3018826.4366476913 27989792.263862617 40142704.43327524 41874195.19187182 8611200.660950799 58289491.39667845 76392891.85622679 39302898.36836124 45530292.254493535 2615725.34194422 2632033.3412605934 45829282.509574376 59888861.2167027 33512481.07711789 45648527.60905524 29058698.689908445 4398753.182389479 47288283.51183985 21409493.487979032 39641391.21886173 40797922.40810875 41669573.39596306 42261025.34039105 21514241.702231664 34520288.26523239 45492802.52476018 8390218.618950004 6724122.7825660845 47192284.26933417 39721084.95837678 51521504.913565315 45581357.82681877 47010207.66489676 34939276.84049537 45988279.908480994 28570251.229877457 39950082.13327686 8849675.597590853 39639099.06496857 36935369.73386342 42570463.65671691 21510962.932022806 44615620.152161345 15437420.075611155 2579992.233766375 41733425.95760552 34827736.39765333 25960813.28110935 48333947.99709537 10319761.87746383 10298474.240152461 55114780.234076746 5483463.5876739975 21599976.828269605 13241034.49007925 41613529.70125573 41294849.134918615 24837382.5345236 16277795.372429853 13619773.901428413 43139072.60618556 30686414.999174394 42425351.28358603 58103582.916603275 17923373.00315122 45100512.91630064 42313134.96736641 15815306.8176168 44708250.4609332 5681690.819914252 50428493.87326333 44736877.03256641 52281322.375959545 54604242.10649778 39658090.25494258 13134181.835799301 42807799.97145569 3775946.831824032 2608113.026069073 124597686.92342512 70513849.4242506 38274711.340116985 10651236.909640532 41603674.29009067 54276843.42721354 41964649.54600193 29477685.531649325 41498532.38971769 11905169.877547255 36858769.20507291 12816096.518250555 10274544.405999558 3840511.871269929 42851483.837561645 57366685.0356476 43806181.822780006 23052196.448029064 51132035.736434706 13582020.901298773 38493382.50926642 73804251.49480063 50342963.22899258 10344667.296564788 56022533.168584466 107845647.15462326 17629699.47649266 36712948.12290099 106283624.44925547 45281333.80214432 33023950.470564842 3260091.871348158 11015822.973855928 5649861.3510598885 5622378.581536092 50197903.76861988 6459521.084162355 42463387.05344406 36961708.770755015 16849033.60643712 57606405.58245397 42553294.258163184 12758964.443329342 13134361.397280445 42191541.21952843 58111711.88885696 60903202.376842566 61175917.87998736 48836077.69771695 41312476.840629086 39165984.220053025 3928535.336471718 3919049.4114081576 78091075.40060428 8330006.999684922 8289858.083658719 46431534.37450578 49661741.11649939 41692164.16106054 43029545.377006315 41289599.16504637 1616531.3910390527 28244090.513077658 51326577.70561393 39693521.34521724 41937203.77868941 45419619.7184453 43530399.03941 37800163.959309526 28118232.84330973 17902243.59214917 45316775.95635546 55716450.35985343 92087961.1577901 42182594.01848256 42711453.23748277 53624067.256368704 9937795.173495598 9959290.181407595 27574373.481032483 28073985.483433615 32673895.943714026 42900762.75650825 35415261.23096881 49772246.404932775 49841102.33126684 39600693.945149444 42696158.88408928 47216798.0795715 16551282.055092163 44878744.09259364 43049977.352742486 44835689.17510985 36820196.639008135 14758891.724081261 14342845.330413893 13456546.209559318 88907961.72296026 48696692.2656693 47914972.353986174 34164721.96794754 36748066.55674589 42428226.7267793 38515463.477759145 28067923.89611845 35270259.378687575 35586418.823773965 38924984.50561769 52553811.56284227 41367289.10541204 44149069.91644276 8761023.061912613 36648816.24873708 51504165.249701284 22593769.737299968 40647134.098111734 11634434.621491153 43212057.52639504 48070421.65774577 71913938.07241066 51632787.458014876 62362752.35836582 47981688.41901524 33570819.046969794 41496596.85027561 55584559.19566331 36308100.74454852 33545790.303074367 60077196.14717613 42363251.348664396 39855390.18408941 27020309.96680109 36184064.09723165 29959277.51072323 41649414.70699683 43080309.55153773 61404068.659218274 46708688.437133744 27881084.163659908 18395573.056797598 42790860.836625405 36023228.89332999 40893128.243922144 39125505.12299601 6198071.535690378 19188206.69413927 45604993.48274251 756043.0626973136 42926792.41097642 17194111.40973521 40698310.84915098 58399653.64684337 30242604.91744947 42980646.442811206 37596906.28027749 12007113.685645787 61332887.16966239 13845974.124843398 14121363.689191315 40311716.47556084 51279846.83804262 2978088.6835758924 37653162.385190934 35034013.125516824 37677566.24456403 35815138.267619476 13016501.35326356 42001554.71401057 51141020.45555211 42925165.29972917 31400733.098139778 48409535.5058952 10850554.95429759 17479728.66088393 50237671.72864325 46617269.68880135 28573807.176519588 28476342.036362186 42633322.30573894 71223596.33772205 12199413.338773888 45006124.51024566 37327582.46951998 46170464.684916 43137684.18911263 39343804.91538045 6022492.023024048 40186819.490040384 41878707.73401722 67896017.46923237 11037822.215708354 72248314.51549047 5932016.0680123875 37535307.09187123 101374512.44352558 24438694.499519523 5170851.026233133 57841419.04972682 16978653.90269951 41372507.44753736 50270563.55552538 65466441.38233406 54898242.75483925 11806419.130244829 59391004.60898541 46441304.46167226 5282025.401702355 33894241.337159365 53008301.419101074 24802464.979337927 40857873.05277217 38887835.506102465 63418779.07649326 16914984.821368333 29369113.510076433 29286418.013358895 5769360.650092302 5752454.027749382 26932241.620845716 34247659.3377544 43873736.69178863 19929560.922691148 40874391.35071221 2038965.7292079527 40902081.42033426 58998871.77752945 26801233.57046671 48156170.35955556 16943867.601214353 11417443.681640385 65142177.11107378 51992426.01704569 36023769.66831355 41967007.62549161 35818682.0624396 49501958.882844225 39972945.248881906 17072420.8315953 41164711.434874706 70366287.09814756 40775075.407902844 48739252.63653528 27655039.803193506 31119520.404889688 45787690.96305355 25217263.800480068 39487896.2915576 7947960.860486868 50596648.662673034 48120514.32742536 1414200.4252432892 39556212.305938765 40668298.11103193 22079169.012351368 44308933.52220754 41210675.42177718 37141366.66070702 24525941.479049988 40101189.407352276 42693394.346373364 43651766.02161243 5872266.874953865 37259922.45978487 44973639.89474138 43368592.05523747 82702434.50147755 8727007.909468874 59741623.05435191 5920928.704209062 41011748.85418455 40277841.89338643 38167846.46626183 916391.5389054103 921152.9311527731 56177159.48390644 830525.3109594522 47391936.431298055 36588341.837544 45567941.624256045 61672844.46904251 43903638.87143863 834980.6660551921 16695000.431753503 39610789.81687352 23595042.58938932 25046327.81322995 38633818.43098774 54395708.55363841 52927391.15019922 47494016.5872756 39702197.91167822 48684498.265186645 39788353.122919455 43300088.12116193 10274963.3345994 45942446.64651612 35943621.3343 44351658.358165815 74247624.39864628 43153674.94955186 46330406.35379394 65708937.7480245 24676029.79459259 23680385.15978739 60857709.47616025 91341652.22071953 108844768.47799903 5171670.776720384 49899868.75182762 16974481.0155405 63310075.65779548 43493665.050800666 65370477.69856221 30094009.56605994 96255533.24208611 39320388.27652787 94202625.00802198 26319230.903428588 70839910.18830469 38016948.247666515 48325903.77624955 40400177.7936666 25428974.384948127 55164192.347572036 41645981.791688964 45241645.60719288 40985823.969498865 40937421.89652058 41120966.34046375 54199847.967903264 25890991.514774177 65408451.0719107 39635478.35291354 43801123.35963151 2661633.960792457 57253992.83018506 44408768.173852734 47707821.626833096 44535921.84289326 23485775.88398641 55210538.51755447 43861585.42817576 50629765.41970913 49914826.323761635 39029398.46038439 42231018.50128167 43770503.144116834 41844711.22390768 78125579.33026999 41390272.76366929 36626538.15716701 42438094.67518619 2690900.1239208775 71586246.62646967 39960976.997954786 15669193.734173069 40444155.96902119 41382240.81645571 42296594.72140947 41302042.82987825 37380710.23019672 44133010.44019717 58990941.681497544 43979898.52149497 89195223.10418727 36964443.57881469 35519239.69918603 46683210.3122658 21100908.569692835 36180268.69153793 41458466.26164678 37097054.81552621 125875226.36910649 12193281.45973901 26871748.16798312 44099953.767898664 56012405.62740719 37078657.73895542 33076884.725061297 40595427.033582166 97990813.35622454 53416382.109900154 16868789.776990075 44956547.72994784 60973690.11362385 44399111.64106625 41517985.653477825 51188357.78028427 85640032.2248568 41834723.38921628 72906478.8561143 46573162.60194892 33582085.88171895 36576073.10955134 33340179.89805569 31956663.94768746 49940015.298375934 762744.4685923418 48968818.30026709 44018657.81757049 37431966.67514594 44856089.648464106 24058100.67964672 23981360.629135333 23875228.70957165 46153689.40028246 23723423.971117575 49473131.01131617 18828175.48629854 15855637.76801911 43189468.77927409 45425975.98295712 66392982.66534578 53548775.90711142 14740211.86190386 44922798.642180376 41971343.33552316 12296971.592535358 41162249.41584289 52885834.34553518 15975453.876380237 46345512.80484354 21383748.26520612 46033198.801598966 46302169.208562106 17347644.47413425 45973654.03056244 43049911.987840146 38531431.09671493 55509665.96527536 26424953.246363893 16873113.047639586 26757502.543440618 27922232.150748387 38174786.99698897 45323358.70990238 38982267.8706493 68522271.63165116 39637238.33336179 20936252.51246493 46141064.479607396 10750524.024765348 45693321.957671665 19549658.09734692 39374815.988855205 46905108.603273995 66858462.67195674 39312680.67961444 55110118.710698225 36151764.87263566 36475551.656005904 42990747.76957824 37637644.126952596 19236031.907014746 103485412.36297557 88569232.06097132 21021374.81369898 59652466.46618162 48921670.52890293 43848739.19309074 43024204.309562236 46999768.298119806 102082913.57524237 32278053.15353696 51566059.27488717 16556924.018399255 46128981.25933426 40811216.71063902 41066941.83650415 36204022.941882215 34666123.093335606 44221243.33913568 51040088.30232819 25301151.204601057 51405986.384820856 46844341.8750814 44431616.772028714 45425687.21597582 64096494.419658236 42167653.558872625 42782650.44383031 43006589.97973825 35837191.99241362 41976615.0947728 44768193.22322463 44576974.90834063 44149331.72956415 12027794.1545903 45793442.99084734 37309196.75507365 39784315.72940211 46105983.66453157 23702867.245269064 59355211.58633789 46744359.572623156 11071608.488980584 42158111.42059035 60876901.17255765 40305663.194581665 27807409.134455338 44803105.87637477 44352964.928907745 49272159.98185692 58870897.26528835 46735569.413106054 85099099.14839002 21939109.36630493 12729304.941613687 45456677.26799095 43752911.961472765 40968482.39742916 44439481.219229765 44229709.50842223 55278568.26318707 26489623.48334988 63782146.93564315 24265993.813637234 42019844.130180724 4710515.3520439435 43359636.95428575 34840390.449912556 25434906.22192548 36191031.06464693 46960981.12426302 47697904.497374214 45609229.00894492 22558542.129239276 39949023.217045955 46400076.49910407 4187462.444558628 4196719.526239663 22715582.3542354 48775651.8249274 11862957.310910372 32814787.1796433 44977195.4961965 48072292.8950082 9884944.953640087 37577901.486912414 45361243.677203715 4125184.676521036 38545311.46226263 51569400.60052881 41332692.7905466 42089266.96738823 45550033.030076444 33620126.62619796 43865607.638058 49801523.53822447 63755882.23666228 60836982.24984121 43899736.23833603 46042854.58065978 46949942.394757345 32264696.17349205 46430902.656136885 41627243.246730894 35504798.290096186 52926371.629846655 40759789.45592644 40852903.47455388 42771141.69437666 40989135.74787494 48745088.75978777 36864473.681477346 41704651.427259184 42603997.78430883 43161052.14553429 43687097.813308716 56494479.58085842 39956742.251361765 41404552.41568696 26533796.281017564 24570494.399228215 27014414.91927603 3294605.7410864136 4559253.94877468 8059671.810709668 17023157.341990743 46604418.961457066 41598677.06038888 42367142.90558938 49581096.79120412 44866477.2712028 38750142.5029007 39053683.49365439 46540243.64266669 42645654.78395576 29240910.05601959 43178967.79943951 47168811.52041486 42221129.557562865 45619151.744799115 44581896.648150116 34963733.96134859 39499014.47752514 33507877.64347351 33381956.82137727 63905836.57818705 59415297.08373352 46784856.19155252 47925663.07007323 43701063.70553272 4751921.998441235 48063819.3810258 25761003.36984643 31536962.168675773 46735762.782157905 52670811.537511975 107485234.85800263 31236640.89911197 41514899.48164778 7899762.862291332 47192679.829832256 2915893.7752897236 41544139.69058163 34779146.64747967 37220919.413416274 41109108.15390686 2908233.218052672 2891259.540910941 42722218.98157071 36710425.24853133 78322463.1680374 25094111.83474004 41681945.07241153 49228850.97830247 53902539.605517305 55991937.48529607 28961429.31228362 6239425.493560995 129406338.18914133 52055538.03177352 15299222.633492658 31700834.123586457 2931693.651946191 5606756.561970101 74484924.02877921 41142422.53786713 5801119.0393029 5782329.913810492 39042755.346569635 45362570.71482307 29151093.346645426 29429281.23064215 48360686.87665747 30832553.427373394 25026353.96429645 55217252.43675531 38590900.44856289 4123513.142731058 5692711.427227887 41447318.75352445 58954938.22146173 60847077.62295444 46472471.98244349 3291024.6756824255 53621702.43365646 41238912.9925412 45435561.8421907 58857879.52086158 44979342.491586365 24143885.727084868 43566797.09075316 47752034.8561798 47909749.69949826 43202547.147158176 39549708.87154224 57078034.55417161 46080214.34409165 78615300.07018186 47661597.10697637 15554771.440055465 6557276.795379151 46221919.367552415 46148022.97832827 64557150.0957393 53096502.05135766 63990140.0782732 42648548.190983176 119583736.93219186 42013259.35751341 44114259.07599074 63596064.60816757 46264062.18301429 42812489.2521331 42804341.40617094 40736046.104984276 46729998.89984622 38478063.43102246 33153359.341540396 45810733.12722182 47699089.55800096 26336330.202596072 56202647.41090978 72381077.87059309 43423294.72382844 44758774.49919241 41297344.7451154 45569130.40181982 43164962.71525342 35770056.07649476 44752226.80522611 42821164.601523794 48018556.69445279 37819058.717107 45651715.864799105 11678557.353208795 57938687.44838657 45200688.52033195 45578368.1371592 41496741.56382561 39380872.37291662 14832115.360752402 42458731.55155134 29348021.411613297 49540888.44306742 42022452.24951808 43487130.93436021 13873325.59455843 45831483.3078843 56585936.14250069 43899417.36361073 48659630.81344197 56029564.61844531 42698253.62122288 46431162.04882932 44799051.960153565 51355637.65716174 121471773.32952252 77984194.19859935 11587491.04988085 13417538.703234224 54099244.7134714 31122815.677310135 41455639.24090153 45404830.466561444 38581895.68553946 35803794.380962215 21005485.55285942 45096910.453978255 58559263.28745236 47049799.053059384 57515072.72128243 44298801.37686108 30021736.295472067 19076155.31939198 44961270.9879633 40278312.7421755 37246649.68104757 42849689.96298568 40048693.32783319 45843281.23981621 61116754.36445599 49966537.59265112 43248621.873984545 41379608.674010314 46247451.76548487 44846171.17055605 48801552.477455564 112471646.56021377 58398070.46065103 32631187.75016207 46214350.8329795 42614301.257484816 43478259.25078365 27681831.552680083 44950550.48705604 29831633.69413637 44388824.197729155 39625332.55764467 62988277.845614836 40670591.75712947 3605689.7504729917 2508201.445431766 39307483.660067275 48503264.96107684 42436865.93280799 42253579.942621596 26351809.63013133 40734287.53013938 16095796.214920076 66486427.40155627 54983439.81202063 45743763.485244654 43772656.66839965 40530466.9899309 45356467.79401574 45980624.12237393 43867629.60294313 32660153.0675356 39290927.88193895 66308561.43538308 46718007.72117111 38512388.76744148 103553492.70243679 38602549.456126966 33974655.477877 6211494.854059426 41726254.95933261 37510994.858363464 45294560.663086385 50757367.4242273 50781459.580401696 45807516.39072041 22889246.604550373 44973410.447752655 42035768.379078075 66658906.153719835 34645682.778907545 117226270.07248038 41344391.66326556 34714285.76758297 36020232.592083484 42788928.19387731 147661245.8993054 54345701.476889364 54764361.07516519 41173538.67543183 19778123.65405862 5892692.570258521 44905303.8858824 37623887.17425467 43849247.773169756 3160559.9568353635 55319252.20670993 46037674.67730614 37665056.54019211 45709145.00873229 55511480.34702306 72552667.5998757 46191954.62419119 44920757.776169285 39146184.570197634 42229744.039768204 2817447.347450967 56814757.71498492 41739523.4898944 41287877.80455086 37669962.00994955 6389408.961741452 44364806.39485977 61763893.684166186 39962076.58562222 37634628.248868786 39606234.63805222 37435559.38802095 42629697.3121631 9449267.9178936 54401459.42228116 67571891.92591153 337862.4390303648 41684338.255572796 30951196.812503397 12512905.294891573 43073500.07728394 48282742.59960659 328291.57870280754 58161583.170127705 40493287.39922661 43253667.43907498 62351954.44030044 2625019.3180385106 743447.8112512733 43159808.78469903 39251074.57993064 729635.7385713178 403583.72357167193 405213.9564820204 11714131.700826872 53040658.4968347 13004839.246360645 10903708.920129372 42127613.311961316 49475844.4135429 22888301.144456588 866717.4988309941 869870.7677851015 11776567.901176313 49596804.88141872 54782916.8806195 44600987.76352384 43167789.85315598 1384447.5595661397 53619626.267897926 1382777.1182143295 44224985.639868215 43900639.1117549 2256844.904299417 58367410.036450855 55685460.74198278 39763103.388837345 2275067.5855934042 41924887.690519266 43470960.89021808 23910972.218178604 46953906.722952776 18705902.10867771 43712985.261367224 38599849.80576888 38584897.97452719 22869416.962959085 17150994.964677226 47522014.73859991 42897533.60423649