# vtk DataFile Version 2.0
Really cool data
ASCII
DATASET POLYDATA
POINTS 2328 float
0.06875 0.14 0
0.09625 0.14 0
0.105 0.12 0
0.09625 0.1 0
0.06875 0.1 0
0.08 0.085 0
0.1 0.085 0
0.12 0.105 0
0.1849999999999999 0.10703125 0
0.28 0.11 0
0.295 0.095 0
0.315 0.095 0
0.33 0.11 0
0.33 0.13 0
0.315 0.145 0
0.295 0.145 0
0.28 0.13 0
0.1849999999999999 0.13296875 0
0.12 0.135 0
0.1 0.155 0
0.08 0.155 0
0.32 0.12 0
0.305 0.135 0
0.29 0.12 0
0.305 0.105 0
0.07086538462010193 0.14 0
0.07298076923497834 0.14 0
0.07509615384505922 0.14 0
0.07721153847077764 0.14 0
0.07932692309430678 0.14 0
0.08144230773237887 0.14 0
0.08355769231556316 0.14 0
0.0856730769217347 0.14 0
0.08778846152371013 0.14 0
0.08990384612292293 0.14 0
0.09201923072505477 0.14 0
0.0941346153641172 0.14 0
0.09704545455373391 0.1381818181628939 0
0.09784090911196341 0.1363636363155122 0
0.098636363662729 0.1345454544851908 0
0.09943181820676901 0.1327272726702422 0
0.1002272727578308 0.1309090908392439 0
0.1010227273047395 0.1290909090177384 0
0.101818181848701 0.1272727272029691 0
0.102613636397009 0.1254545453782651 0
0.1034090909304771 0.1236363635874808 0
0.1042045454605146 0.121818181804538 0
0.1042045454434992 0.1181818181565697 0
0.1034090908922565 0.1163636363251577 0
0.1026136363300227 0.1145454544686232 0
0.1018181817713669 0.1127272726202672 0
0.1010227272267825 0.1109090908040744 0
0.1002272726809173 0.1090909089849538 0
0.09943181813438678 0.1072727271643127 0
0.09863636358637783 0.1054545453402922 0
0.09784090905306311 0.1036363635498585 0
0.09704545453045103 0.1018181817838881 0
0.0941346153820743 0.1 0
0.09201923076503471 0.1 0
0.0899038461238612 0.1 0
0.08778846149647476 0.09999999999999999 0
0.08567307686869742 0.1 0
0.08355769225775647 0.1 0
0.08144230763670324 0.1 0
0.07932692302930679 0.1 0
0.07721153839285061 0.1 0
0.07509615377682746 0.1 0
0.07298076918991618 0.1 0
0.07086538459953859 0.1 0
0.07000000000267889 0.09833333332976149 0
0.07125000000648714 0.09666666665801715 0
0.07250000000937835 0.09499999998749553 0
0.07375000001422113 0.09333333331437185 0
0.07500000001798872 0.09166666664268171 0
0.0762500000206134 0.08999999997251551 0
0.07750000001746468 0.08833333331004709 0
0.07875000001211144 0.08666666665051807 0
0.08200000000315097 0.085 0
0.08400000000745389 0.08500000000000002 0
0.08599999998316099 0.085 0
0.08799999996401804 0.085 0
0.08999999995273557 0.085 0
0.09199999995121091 0.085 0
0.09399999993491401 0.08500000000000002 0
0.0959999999319663 0.085 0
0.09799999995619145 0.08499999999999999 0
0.1014285714352811 0.08642857143528114 0
0.1028571428515646 0.08785714285156455 0
0.1042857142735715 0.08928571427357146 0
0.1057142856933882 0.0907142856933882 0
0.1071428571214575 0.09214285712145748 0
0.1085714285487523 0.09357142854875229 0
0.1099999999825088 0.09499999998250877 0
0.1114285714040922 0.0964285714040922 0
0.1128571428192865 0.09785714281928654 0
0.1142857142253571 0.09928571422535715 0
0.1157142856558949 0.1007142856558949 0
0.1171428570889495 0.1021428570889495 0
0.118571428538364 0.103571428538364 0
0.1220967741945716 0.1050655241935804 0
0.1241935483896608 0.1051310483871769 0
0.1262903225842215 0.1051965725807569 0
0.1283870967914896 0.1052620967747341 0
0.1304838709523535 0.105327620967261 0
0.1325806451356187 0.1053931451604881 0
0.1346774193244426 0.1054586693538888 0
0.1367741935195587 0.1055241935474862 0
0.1388709677096724 0.1055897177409272 0
0.140967741904188 0.1056552419345059 0
0.1430645160818684 0.1057207661275584 0
0.1451612902720435 0.1057862903210014 0
0.1472580644834145 0.1058518145151067 0
0.1493548386909326 0.1059173387090916 0
0.1514516128937171 0.1059828629029286 0
0.1535483870840412 0.1060483870963763 0
0.1556451612840674 0.1061139112901271 0
0.157741935462228 0.1061794354831946 0
0.1598387096478209 0.1062449596764944 0
0.1619354838311417 0.1063104838697232 0
0.1640322579966667 0.1063760080623958 0
0.1661290321782136 0.1064415322555692 0
0.1682258063682311 0.1065070564490072 0
0.1703225805506956 0.1065725806422093 0
0.1724193547380075 0.1066381048355627 0
0.1745161289385439 0.1067036290293295 0
0.1766129031440386 0.1067691532232512 0
0.1787096773606842 0.1068346774175214 0
0.1808064515721579 0.1069002016116299 0
0.1829032257837579 0.1069657258057425 0
0.1871590908930736 0.1070987215904086 0
0.1893181818021256 0.1071661931813164 0
0.191477272700166 0.1072336647718802 0
0.1936363636182066 0.107301136363069 0
0.1957954545312931 0.1073686079541029 0
0.1979545454459874 0.1074360795451871 0
0.2001136363587738 0.1075035511362117 0
0.2022727272621838 0.1075710227269432 0
0.2044318181621304 0.1076384943175666 0
0.2065909090717571 0.1077059659084924 0
0.2087499999589179 0.1077734374987162 0
0.2109090908703831 0.1078409090896995 0
0.2130681817763759 0.1079083806805117 0
0.215227272685777 0.1079758522714305 0
0.2173863635958268 0.1080433238623696 0
0.2195454545073771 0.1081107954533555 0
0.2217045454294247 0.1081782670446695 0
0.223863636339363 0.1082457386356051 0
0.2260227272489987 0.1083132102265312 0
0.2281818181605139 0.1083806818175161 0
0.2303409090875041 0.1084481534089845 0
0.2325000000052596 0.1085156250001644 0
0.234659090902737 0.1085830965907105 0
0.2368181818135079 0.1086505681816721 0
0.2389772727244382 0.1087180397726387 0
0.2411363636346514 0.1087855113635829 0
0.2432954545371026 0.1088529829542845 0
0.2454545454246327 0.1089204545445198 0
0.2476136363213811 0.1089879261350432 0
0.2497727272138937 0.1090553977254342 0
0.2519318181089132 0.1091228693159036 0
0.254090908990415 0.1091903409059505 0
0.2562499998901054 0.1092578124965658 0
0.2584090908050113 0.1093252840876566 0
0.2605681817047686 0.109392755678274 0
0.2627272726135495 0.1094602272691734 0
0.2648863635312589 0.1095276988603519 0
0.2670454544447627 0.1095951704513989 0
0.2692045453451599 0.1096626420420363 0
0.2713636362707289 0.1097301136334603 0
0.2735227272203026 0.1097975852256345 0
0.2756818181551134 0.1098650568173473 0
0.2778409090647967 0.1099325284082749 0
0.2815000000053744 0.1084999999946256 0
0.2829999999854226 0.1070000000145774 0
0.2844999999510034 0.1055000000489966 0
0.2859999999473654 0.1040000000526346 0
0.2874999999299716 0.1025000000700284 0
0.2889999999075633 0.1010000000924367 0
0.2904999998900509 0.09950000010994908 0
0.2919999999015494 0.09800000009845063 0
0.2934999999339102 0.09650000006608975 0
0.2969999999888869 0.09499999999999999 0
0.2989999999509398 0.095 0
0.3009999998509222 0.095 0
0.3029999998570209 0.095 0
0.304999999834998 0.09500000000000001 0
0.3069999997763834 0.095 0
0.3089999997820754 0.095 0
0.3109999997982705 0.09499999999999999 0
0.3129999998537683 0.09500000000000001 0
0.3164999999896196 0.09649999998961963 0
0.3179999999876417 0.09799999998764179 0
0.3194999999544931 0.09949999995449317 0
0.3209999999280954 0.1009999999280954 0
0.3224999999086686 0.1024999999086687 0
0.3239999999074617 0.1039999999074617 0
0.3254999998556276 0.1054999998556275 0
0.3269999998556994 0.1069999998556995 0
0.3284999999182233 0.1084999999182232 0
0.33 0.1120000000092327 0
0.3300000000000001 0.114000000011418 0
0.3300000000000001 0.116000000010283 0
0.33 0.1180000000050822 0
0.33 0.1200000000058445 0
0.33 0.1219999999961714 0
0.33 0.1239999999598676 0
0.3300000000000001 0.1259999999371502 0
0.33 0.1279999999316105 0
0.3285000000000424 0.1314999999999577 0
0.3269999999852616 0.1330000000147384 0
0.3255000000065137 0.1344999999934863 0
0.3239999999714211 0.1360000000285789 0
0.3224999999562507 0.1375000000437493 0
0.320999999981433 0.139000000018567 0
0.3194999999689393 0.1405000000310607 0
0.3179999999718277 0.1420000000281723 0
0.3164999999664491 0.143500000033551 0
0.3130000000024225 0.145 0
0.3109999999822801 0.145 0
0.3089999999004058 0.145 0
0.3069999998641698 0.145 0
0.3049999998327111 0.145 0
0.3029999998062666 0.145 0
0.3009999997901222 0.145 0
0.2989999998023702 0.145 0
0.2969999999079275 0.145 0
0.2935000000021514 0.1435000000021515 0
0.2919999999638825 0.1419999999638825 0
0.2904999999183969 0.1404999999183968 0
0.288999999888937 0.138999999888937 0
0.2874999998926809 0.137499999892681 0
0.2859999999005245 0.1359999999005245 0
0.2844999998693198 0.1344999998693198 0
0.2829999998882086 0.1329999998882087 0
0.2814999999457053 0.1314999999457053 0
0.2778409090667482 0.1300674715916641 0
0.2756818181547314 0.1301349431826646 0
0.2735227272275098 0.1302024147741404 0
0.2713636363001988 0.1302698863656188 0
0.2692045453720377 0.1303373579571238 0
0.2670454544500072 0.1304048295484373 0
0.2648863635170122 0.1304723011400934 0
0.2627272725983787 0.1305397727313007 0
0.2605681816881735 0.1306072443222445 0
0.2584090907635001 0.1306747159136406 0
0.2562499998214266 0.1307421875055804 0
0.2540909088840543 0.1308096590973733 0
0.2519318179684614 0.1308771306884856 0
0.2497727270782117 0.1309446022788059 0
0.2476136361661084 0.1310120738698091 0
0.2454545452542267 0.1310795454608054 0
0.2432954543341854 0.1311470170520567 0
0.2411363634195991 0.1312144886431375 0
0.2389772724997385 0.1312819602343832 0
0.2368181815834744 0.1313494318255164 0
0.2346590906712883 0.1314169034165222 0
0.2324999997502527 0.1314843750078046 0
0.2303409088459517 0.131551846598564 0
0.2281818179438134 0.1316193181892558 0
0.2260227270493727 0.1316867897797071 0
0.2238636361452708 0.1317542613704603 0
0.2217045452432536 0.1318217329611483 0
0.2195454543486292 0.1318892045516053 0
0.2173863634319631 0.1319566761427511 0
0.2152272725238696 0.1320241477336291 0
0.2130681816059221 0.1320916193248149 0
0.2109090906977594 0.132159090915695 0
0.2087499997847329 0.1322265625067271 0
0.2065909088903816 0.1322940340971756 0
0.2044318180176932 0.1323615056869471 0
0.2022727271223139 0.1324289772774277 0
0.2001136362212113 0.1324964488680871 0
0.1979545453303448 0.1325639204584267 0
0.1957954544424631 0.132631392048673 0
0.193636363553868 0.1326988636389416 0
0.1914772726499719 0.1327663352296884 0
0.1893181817674281 0.1328338068197679 0
0.1871590908777728 0.1329012784100696 0
0.1829032257919895 0.1330342741940003 0
0.1808064516035068 0.1330997983873904 0
0.1787096774004645 0.1331653225812355 0
0.1766129032167902 0.1332308467744753 0
0.1745161290112352 0.1332963709683989 0
0.1724193548107046 0.1333618951621655 0
0.1703225806016447 0.1334274193561986 0
0.168225806380597 0.1334929435506063 0
0.1661290321906047 0.1335584677440436 0
0.1640322580052328 0.1336239919373365 0
0.1619354838200844 0.1336895161306224 0
0.1598387096340085 0.1337550403239373 0
0.157741935411958 0.1338205645183763 0
0.1556451612051385 0.1338860887123394 0
0.1535483870098963 0.1339516129059407 0
0.1514516128074389 0.1340171370997675 0
0.1493548386204793 0.13408266129311 0
0.1472580644489166 0.1341481854859713 0
0.14516129024589 0.1342137096798159 0
0.1430645160484392 0.1342792338734863 0
0.1409677418424181 0.1343447580674244 0
0.1388709676422827 0.1344102822611787 0
0.1367741934603847 0.134475806454363 0
0.1346774192739591 0.1345413306476888 0
0.1325806451013045 0.1346068548405843 0
0.1304838709192946 0.134672379033772 0
0.1283870967379881 0.1347379032269378 0
0.1262903225481263 0.1348034274203711 0
0.1241935483588164 0.134868951613787 0
0.1220967741862635 0.1349344758066793 0
0.1185714285713439 0.1364285714286561 0
0.1171428571266667 0.1378571428733333 0
0.1157142856927832 0.1392857143072168 0
0.1142857142531156 0.1407142857468844 0
0.1128571428229348 0.1421428571770652 0
0.1114285714007645 0.1435714285992355 0
0.1099999999670504 0.1450000000329496 0
0.1085714285420002 0.1464285714579998 0
0.1071428571073181 0.147857142892682 0
0.1057142856844218 0.1492857143155782 0
0.1042857142721738 0.1507142857278261 0
0.1028571428567799 0.1521428571432202 0
0.1014285714243 0.1535714285757 0
0.09799999999525662 0.155 0
0.09599999998041661 0.155 0
0.09399999998244947 0.155 0
0.09199999997540215 0.155 0
0.08999999997763833 0.155 0
0.08799999996191739 0.155 0
0.08599999994402804 0.155 0
0.08399999994457018 0.155 0
0.08199999996401804 0.155 0
0.0787499999988006 0.1533333333317341 0
0.07749999996710802 0.1516666666228107 0
0.07624999995715369 0.1499999999428716 0
0.07499999994197712 0.1483333332559695 0
0.07374999994926838 0.1466666665990245 0
0.07249999994917125 0.1449999999322283 0
0.07124999993548997 0.14333333324732 0
0.06999999996676244 0.1416666666223499 0
0.319847321629242 0.1221347225669496 0
0.3193923946069315 0.1242259883433784 0
0.3186444799282158 0.1262312251996309 0
0.3176188029831205 0.1281096122763785 0
0.3163362436081859 0.1298229110174055 0
0.3148229110023816 0.1313362436212041 0
0.3131096122482955 0.1326188030011683 0
0.3112312251438696 0.1336444799536812 0
0.3092259883165076 0.1343923946148214 0
0.3071347225652406 0.1348473216294877 0
0.3028652774367049 0.1348473216297674 0
0.3007740116797846 0.1343923946137327 0
0.2987687748208167 0.1336444799375539 0
0.2968903877137044 0.1326188029767472 0
0.2951770889637165 0.131336243591828 0
0.2936637563626608 0.1298229109837608 0
0.2923811969954687 0.1281096122430627 0
0.2913555200597157 0.1262312251732047 0
0.290607605387842 0.1242259883255786 0
0.2901526783702733 0.1221347225635782 0
0.2901526783705162 0.1178652774347326 0
0.2906076053921109 0.115774011659883 0
0.2913555200662898 0.1137687748124 0
0.2923811970091061 0.1118903877357171 0
0.2936637563918051 0.1101770889826049 0
0.2951770889872407 0.1086637563877882 0
0.2968903877455208 0.1073811970028056 0
0.298768774847915 0.1063555200500707 0
0.3007740116705187 0.105607605388988 0
0.3028652774286922 0.1051526783713846 0
0.3071347225708737 0.1051526783713222 0
0.3092259883602982 0.1056076053980366 0
0.3112312252337002 0.1063555200873431 0
0.3131096122888017 0.1073811970248634 0
0.3148229110491853 0.1086637564193515 0
0.3163362436425737 0.1101770890222802 0
0.3176188030077449 0.1118903877619378 0
0.3186444799433814 0.1137687748335769 0
0.3193923946044228 0.115774011648078 0
0.3198473216288232 0.1178652774301376 0
0.1300456622429627 0.1297304826542312 0
0.1247282073078661 0.1100907040211414 0
0.1887173216822451 0.1196662789467496 0
0.1340925670411558 0.1272041465394415 0
0.1556294653893305 0.1149072740318791 0
0.276494011463891 0.1268770528266603 0
0.1147431672991174 0.1038246042242198 0
0.1690629401594066 0.1147730726926905 0
0.2222304102185508 0.1200760973886486 0
0.2595537960383544 0.1253514620831829 0
0.24464976262819 0.1201201968748419 0
0.1555998592792195 0.1252002530521575 0
0.1201697991869436 0.127537188765703 0
0.1075877249991661 0.1053002012501872 0
0.1909242721811424 0.1166553807576895 0
0.1443259668826299 0.1298763090858233 0
0.1346162186492625 0.1200997202018782 0
0.2647158006783666 0.1239648552362101 0
0.1480878450696612 0.1092899040419564 0
0.120047532635247 0.1200266955873971 0
0.31887778681797 0.1372988217041802 0
0.1018989826675227 0.145579687342375 0
0.188506049811452 0.126441643632829 0
0.08606078854526579 0.09570113881126129 0
0.1651125692100351 0.116598495165626 0
0.112108963823611 0.1371339795527783 0
0.09839463325168535 0.1511185483785223 0
0.241466309385197 0.1199312318802579 0
0.3080213059662728 0.09935053132099816 0
0.1284901622759186 0.1225679667965379 0
0.1394471223650349 0.1143369792078235 0
0.3059871519016691 0.1401477218374957 0
0.1129498754662788 0.1125000000000001 0
0.1691279670958556 0.1255082317022821 0
0.1075877250091228 0.1346997987545571 0
0.2203791720953742 0.1242051361131212 0
0.1756586960384548 0.1266489421125794 0
0.2322996698983585 0.1156741723671873 0
0.1976998148291848 0.1119659224514135 0
0.21037796717746 0.1119869171551773 0
0.0822856743202808 0.09316805749606992 0
0.2203932454449525 0.1160220206950465 0
0.2750160018381658 0.1238622567988223 0
0.2532659823385739 0.1200000000015207 0
0.09706055082872556 0.1474766572916154 0
0.1091927316172697 0.1236837684633508 0
0.1662551610926965 0.1179336813588511 0
0.2435424788282723 0.115773215766485 0
0.1487542506469559 0.1200485082375197 0
0.1129498754679135 0.1274999999999999 0
0.2011429116901423 0.1199999999958283 0
0.1623509020056556 0.1201974054422798 0
0.2648677125602578 0.1159387277599035 0
0.08228567430145449 0.1468319424255289 0
0.1757685967875721 0.1200987284454329 0
0.1885060498111459 0.1135583563651546 0
0.2074569149517425 0.1154486691466889 0
0.1691372398146483 0.1275757200974685 0
0.1088522602774323 0.1256232534333967 0
0.1947691726543018 0.1248879491353998 0
0.308021306030443 0.1406494686366825 0
0.212409361454977 0.1122697707894934 0
0.09839463325005691 0.08888145161906219 0
0.2832063128338976 0.1264374086122715 0
0.1113684263852842 0.1116941917824969 0
0.1849373773954447 0.1145133669483671 0
0.1934883025556177 0.1204608081713191 0
0.2980743806603378 0.1007079016435382 0
0.1627736222274288 0.1226920014869251 0
0.2074768117203644 0.1178737367325646 0
0.1309396561974107 0.1144967302494684 0
0.1335474707064105 0.1089934080816812 0
0.116546919321761 0.1126777167493683 0
0.2074569149432451 0.1245513308404874 0
0.1125 0.1200134925291085 0
0.1136578730259473 0.1332406885080679 0
0.08881373231408983 0.1477824406420815 0
0.08881373230564259 0.09221755936572118 0
0.1691860176116599 0.11256173631434 0
0.1201698685688147 0.1124664090642151 0
0.1037274105981731 0.1336595801988393 0
0.1951313738470696 0.1145739723823535 0
0.1181079335434013 0.1344858093998607 0
0.10384714517874 0.09931830755366367 0
0.31206452811392 0.1392363546297992 0
0.1089998957241817 0.1069496782925691 0
0.1627838478670568 0.1096000572563052 0
0.2284300905418414 0.1231325389056372 0
0.1416201239396644 0.1146087212239257 0
0.1229255563159039 0.1206446787890312 0
0.1044414308303199 0.1287976206509652 0
0.09265512902468698 0.1449984776385907 0
0.1120513330277507 0.1318710013700854 0
0.3222128284532325 0.1061441717222573 0
0.1301516675518304 0.1103874966922351 0
0.1313645937864293 0.1319500362508906 0
0.1268907127826455 0.1142500322405017 0
0.1229152247508708 0.1161212063866745 0
0.0780313180171255 0.1446576567549655 0
0.138852855806492 0.129570958899185 0
0.1848086277749068 0.1110852852953129 0
0.1732290678833623 0.1233784175788231 0
0.1102571715487785 0.1316037076630456 0
0.2628017487557031 0.1130704792438836 0
0.1342479082045799 0.1128474854469073 0
0.2397996929982079 0.1293812284599483 0
0.2291693082012839 0.1101533572497257 0
0.1388528558089215 0.1104290411033773 0
0.2870885289974796 0.110494536099434 0
0.3242363546347304 0.1129354718900526 0
0.1676528111418208 0.1193239973483886 0
0.2870986151115724 0.129517914421076 0
0.2486107946199551 0.1116580506560723 0
0.3120645279478418 0.1007636453150291 0
0.1085769198322778 0.1394026222853915 0
0.2599667844688408 0.1147555783083622 0
0.2378887579559993 0.1113781262085231 0
0.1652175736819801 0.1316572920506346 0
0.2506061287661002 0.110909796037551 0
0.182467310968556 0.1144184346217813 0
0.3249392325482927 0.1211490642144961 0
0.2698933091671502 0.1198789605457793 0
0.2378315233130881 0.1142796039096608 0
0.1624715717201198 0.1267630269626012 0
0.1855406491766826 0.1251610280993633 0
0.2345475250437251 0.1275564790067485 0
0.3242920983839878 0.1269256192497574 0
0.284123243179857 0.1249337337898151 0
0.2543366422478812 0.1240532236145533 0
0.2875101277051329 0.1139139251950203 0
0.1085769198305792 0.1005973777153062 0
0.09299999997892595 0.1503053171126676 0
0.2267381145598661 0.120000000009229 0
0.3038509356482123 0.1399392325553273 0
0.07892659375690272 0.1481629103716798 0
0.2489830412102856 0.1254845898624292 0
0.110475645055739 0.1218861241806009 0
0.09706055082400139 0.09252334270729644 0
0.2379280492566303 0.125689026314232 0
0.2901245535601915 0.1066701674246128 0
0.1091307908316792 0.116075787057926 0
0.1302979282875386 0.1220625297368093 0
0.1415994207848556 0.1253800962489823 0
0.3009087966564732 0.09829178476877529 0
0.1370845102727062 0.123106684987695 0
0.07992783691200325 0.1426761797037569 0
0.2616932359071544 0.1172781481788276 0
0.1665033081073187 0.1109436627517421 0
0.124728207310922 0.1299092959810055 0
0.259750404578976 0.1200950824945386 0
0.2261883933105238 0.1287423236038528 0
0.1033904303457386 0.1358764693443602 0
0.1136578730326718 0.1067593114906457 0
0.2059886114181178 0.1197836451787779 0
0.2511080899385649 0.1171970320978308 0
0.2846404223168886 0.1228542312046619 0
0.2346528699557312 0.1185297652865921 0
0.1528710947657741 0.1107853985551747 0
0.07892659377548289 0.09183708959284224 0
0.280068389775316 0.1200936927567231 0
0.1229028062315305 0.1237527266184878 0
0.09265512902050228 0.09500152236337356 0
0.1692120015690882 0.1092915132227017 0
0.2841529692079796 0.1150012356293636 0
0.1271765927068403 0.1255671277896871 0
0.2378778821139211 0.1198351697698763 0
0.248610794474055 0.1283419493349365 0
0.22407630486883 0.1108495855929934 0
0.3219793362834512 0.1356890798941774 0
0.2698808504446387 0.1147573029211043 0
0.213815477669736 0.1138711844121962 0
0.1038471451751528 0.1406816924464116 0
0.1212957386923418 0.1312160868809175 0
0.3256494686744491 0.1169786938608698 0
0.1018989826640924 0.09442031265720086 0
0.1074329905891176 0.1289688339673288 0
0.2139608328221626 0.1260772677617789 0
0.1074333034747273 0.1110313687299664 0
0.2360016480194075 0.1105887063099281 0
0.2488996408851529 0.114493620698461 0
0.2071984887204752 0.1270238154022192 0
0.1258056124611963 0.1199999999985573 0
0.1088488185466477 0.1197085394331908 0
0.09299999994306207 0.0896946829032983 0
0.1982864427729429 0.1164981389967609 0
0.2980743805519097 0.1392920983211807 0
0.1821556000418168 0.127180736036807 0
0.1807799217598414 0.1204756717589169 0
0.197631921294557 0.1283921159942571 0
0.1537850694765983 0.1201959060468465 0
0.2259677991846213 0.1140579891010256 0
0.2435424788258458 0.1242267842388051 0
0.116152636462965 0.1163831899377113 0
0.1161652074111105 0.1236307224672487 0
0.3013195325547242 0.1019977018988417 0
0.2781001156460294 0.1174950235660513 0
0.287056106487218 0.1326853557722857 0
0.2138073314955319 0.1199811056360826 0
0.1820962573841121 0.1250308332552796 0
0.2045656872539041 0.1281769091484838 0
0.3219098039744749 0.1211929003189465 0
0.1799154254063491 0.1310484827540944 0
0.2750271052363241 0.1161439364768746 0
0.1404163513738629 0.1200072296608969 0
0.2490274526878202 0.1199999999975004 0
0.1584306237372244 0.1261199062542949 0
0.2545874534041473 0.1158151815531796 0
0.2323978097687966 0.1243480451599059 0
0.08974821143875289 0.143793942207686 0
0.2259195297269352 0.1256983713122475 0
0.2975385692291282 0.1436044839052171 0
0.1528710947588338 0.1292146014385188 0
0.1475855666388778 0.1305903910058662 0
0.3216057112032673 0.1087523071532556 0
0.0751037973924413 0.09691453900655124 0
0.2449404535094571 0.1225611137243819 0
0.1483321223899501 0.113047167183357 0
0.1785046360114861 0.1166290815906386 0
0.2993398912953177 0.1362509385182759 0
0.1717167595863419 0.1288848072736354 0
0.2287872929503449 0.1168255477010038 0
0.1755266521297925 0.1134593249403076 0
0.09624169405616519 0.09643251252214799 0
0.1232369990743017 0.1078325717985618 0
0.143926548345566 0.1180781791031733 0
0.177971808384693 0.123850472646354 0
0.148231605151809 0.1269888430810249 0
0.1143700291945264 0.1218081631609613 0
0.1625484795229944 0.1131415201406837 0
0.1102571647313668 0.1083963657370394 0
0.3198913372558226 0.104993983412546 0
0.1055793604240283 0.1053128146385976 0
0.1970684450858948 0.121786816332914 0
0.2850070588824295 0.1199212151900744 0
0.2301057153855096 0.1122431353908123 0
0.2045656872911243 0.1118230908420672 0
0.286114826662134 0.1154024602466899 0
0.2112234121469942 0.123121210864901 0
0.1581984028823505 0.1291038085764696 0
0.1701562084100789 0.1221727140643751 0
0.2011010257341456 0.1136678086912897 0
0.2835470686081932 0.1285765717587176 0
0.1270565394984399 0.1181154469925588 0
0.3038509356316901 0.1000607674332309 0
0.1446361260466179 0.1103360154342527 0
0.2901250531564092 0.1333397298177541 0
0.1316898322497876 0.1164654024602356 0
0.315354838709672 0.1001224911988414 0
0.2181643299206357 0.1206462099353393 0
0.1126258337261869 0.1163972005115548 0
0.1314555258125445 0.123633539107996 0
0.1273103121752947 0.1285995419005013 0
0.1043173129905939 0.1081755100574367 0
0.1596955233887948 0.1234256497148459 0
0.1373067306065341 0.1162902405195189 0
0.08735341842016207 0.09759086628592956 0
0.1160445133403667 0.1200063536933754 0
0.1334027443430392 0.1309270945589343 0
0.1848847055538522 0.1288401359868642 0
0.2103478218685891 0.1282137681117702 0
0.158223948996261 0.1111525560990056 0
0.08528946480013137 0.08963188301658122 0
0.1160407893671112 0.1142979203521246 0
0.1651843977973834 0.1233697075778279 0
0.2794665542700023 0.1144826967339653 0
0.1713898170286822 0.11818345062423 0
0.2415618626617462 0.1276728810337016 0
0.08282455825456086 0.09666448467508594 0
0.2795237207023676 0.1255547686462161 0
0.1126281309193777 0.1236407388791692 0
0.1910555422409083 0.1235389338391216 0
0.1820871320345996 0.1303149641779831 0
0.12339749611796 0.1269318224076552 0
0.1794536105148196 0.1188323686502645 0
0.1920543682878137 0.1116114835380407 0
0.3233252267430639 0.1111244617333126 0
0.1052004756849814 0.1004677262955665 0
0.3038070996291954 0.1369098039913664 0
0.201007391847726 0.1262781587075265 0
0.0858259794895766 0.09275841012457633 0
0.2834897735683612 0.111431792955558 0
0.2452644407250389 0.1276046712905606 0
0.1582042081527938 0.1186341713068032 0
0.1176231581422224 0.1087427385014763 0
0.2035415978773253 0.1192292187309507 0
0.1720981075759155 0.1108725146261555 0
0.229723378882548 0.1275210759284018 0
0.2401979133436432 0.1171053082087178 0
0.3226597223435654 0.1157806888550635 0
0.1456712279847726 0.123555140452628 0
0.1751563952760788 0.116839439892436 0
0.2075514644594764 0.1104755828089055 0
0.1734380515716842 0.1127787831243308 0
0.1147431673005352 0.1361753957701656 0
0.3204658065428456 0.1327262841415114 0
0.2667835376054741 0.1268701112792691 0
0.2812260903805481 0.1123652315377476 0
0.08606078857939206 0.1442988611798182 0
0.3186132528594813 0.1318583241652215 0
0.1859756316887461 0.1168426139293867 0
0.1033904303371134 0.1041235306666635 0
0.1725301658390347 0.1149741258599658 0
0.102099121076078 0.1334217836981907 0
0.1273474066885565 0.1083104266254475 0
0.1376392682957979 0.128660012721773 0
0.3186132528277434 0.1081416758126212 0
0.2667950046569216 0.1130937947577069 0
0.3092193109983875 0.1023402776460019 0
0.3216057112418604 0.131247692817759 0
0.1006312235349638 0.1020602921540658 0
0.1054295629854581 0.1442549079661277 0
0.1457917908579427 0.131428287749888 0
0.3195807730192296 0.1294522909752537 0
0.2223618147170588 0.127631127373045 0
0.1413631771603872 0.1116962662454201 0
0.286848398511068 0.1227283774343186 0
0.1343802518170081 0.1242897383290697 0
0.1338819877274378 0.1166449057832659 0
0.1567123619447392 0.1220391535863334 0
0.1109761128214484 0.1055714695540528 0
0.1143801806983397 0.1182178056678032 0
0.1113812431274596 0.1001696719296893 0
0.1194730977937016 0.109346495335933 0
0.2699304793156091 0.1251367894614824 0
0.08102759809993054 0.1485172802269524 0
0.2702084777625883 0.1115403210043035 0
0.1373679519253226 0.1267641999948221 0
0.2566685243490484 0.1188591274157954 0
0.3162476927370232 0.1033942886885926 0
0.2969465086901051 0.1036534990133042 0
0.2164818855072802 0.1168943269152553 0
0.102099121055985 0.1065782162971751 0
0.1006984494015013 0.0886854184425402 0
0.3248775086829045 0.1096451611373885 0
0.2594518220543678 0.1114508646731321 0
0.2939052754040667 0.1032685299694682 0
0.1509472845449451 0.1087478925030096 0
0.2946451611044115 0.1001224913529101 0
0.1947923653113641 0.1300144329646909 0
0.3162476928647793 0.1366057112036816 0
0.3056447734621483 0.09772895472930233 0
0.3130325424021117 0.1363226461976607 0
0.155323045032399 0.1120441367652335 0
0.2764913437873662 0.1131230419024589 0
0.2038107732952623 0.1232793313192849 0
0.2939058506809273 0.136731841983232 0
0.2969465158465067 0.1363465027524304 0
0.1165503137319337 0.1273307005163556 0
0.1460487197572242 0.1087304741723349 0
0.266900709307873 0.118727438103276 0
0.0939535201711719 0.09248707134453968 0
0.1305455235586164 0.1179443082372666 0
0.2323006748559681 0.1285187076917458 0
0.1509472845076274 0.1312521074781753 0
0.2468222972787576 0.1171247721370878 0
0.08144147311094373 0.08942456332259195 0
0.1037274105855471 0.106340419799457 0
0.1425857866176976 0.1222848530651169 0
0.2745958986327637 0.1216910071623866 0
0.1344417521420896 0.1291347010176626 0
0.1069714453586763 0.1219318728478198 0
0.1784363357275986 0.1263488312721395 0
0.0911877861065236 0.09158113170013567 0
0.2011375055305669 0.1089419093651389 0
0.1378433232015678 0.1132901368528344 0
0.2594518220281974 0.1285491353291655 0
0.2930871235394954 0.1334990590193198 0
0.23788875782585 0.1286218737792565 0
0.290289556713658 0.1096485289323165 0
0.07921540636041416 0.1501988107918189 0
0.253070616248533 0.1221327311499077 0
0.1041239386032348 0.09350733743712622 0
0.08528946474513487 0.1503681169526745 0
0.08794651756090359 0.0946583129077963 0
0.1555998592797161 0.1176264609212448 0
0.1863154016334645 0.1192285782427043 0
0.1109761128158163 0.1344285304435701 0
0.2415618627198873 0.112327118973508 0
0.08144147303740909 0.1505754365800306 0
0.07803131806623038 0.09534234324473453 0
0.151304002175096 0.1206107136321001 0
0.07613400492848611 0.1461807461903493 0
0.07510379736071975 0.1430854609772919 0
0.1272407630539827 0.1113798645542158 0
0.2875168258409771 0.1260937677479023 0
0.1458696304465618 0.1206283848239926 0
0.08631106130774015 0.09874310266746714 0
0.1658206877964729 0.1137466902418001 0
0.3080224628924331 0.09641134607008785 0
0.1665036589572879 0.1290554794419981 0
0.1258064710107507 0.1170002843539298 0
0.30604131502536 0.1378650970708655 0
0.09991437137658064 0.09814122977027369 0
0.27205034963355 0.1228029606353407 0
0.1044428117036017 0.1112034063319875 0
0.2720024129203091 0.1173907890856342 0
0.1619561412670413 0.1168357279361388 0
0.1176231581384916 0.1312572614982672 0
0.1212957386922849 0.1087839131238377 0
0.1006312235207966 0.1379397078360007 0
0.1146224537842896 0.1098047617614633 0
0.234459919061785 0.1124390861639485 0
0.2158074329660883 0.1146796644933258 0
0.09550120277326975 0.08798713088110063 0
0.1793797195960513 0.1286540427209191 0
0.2856360660620677 0.1123029337346469 0
0.2164541628220415 0.1237020426661226 0
0.1793797195848589 0.1113459572882196 0
0.1844084101261568 0.1218418443813445 0
0.2261240982075902 0.122441554344206 0
0.1597659457914839 0.1205159185285618 0
0.2852582349327734 0.129271306626474 0
0.210594468432117 0.1154059158693229 0
0.1514729875826134 0.123622251768645 0
0.1514779821602942 0.1163658960762509 0
0.1086488569177375 0.1178993552068298 0
0.2005874793222264 0.1229941036061785 0
0.2523920866288574 0.1125712143268523 0
0.08036599779349854 0.1452384861118469 0
0.1562326047595867 0.1201108860080839 0
0.1255250139378194 0.1227820031821416 0
0.1072406411037261 0.1317953089505244 0
0.1043173130202663 0.131824489962757 0
0.1055793604417212 0.1346871853698892 0
0.1021256293569216 0.1093912713191983 0
0.13123316325472 0.1081714595920691 0
0.09991437137546154 0.1418587702296118 0
0.159166034556975 0.1147127332280957 0
0.3164242363462988 0.1062693765318912 0
0.1238671886937693 0.1191537489215248 0
0.0889999999583768 0.08868022801433366 0
0.2312381489839657 0.1200000000034928 0
0.2574570551337478 0.122627926169733 0
0.1121089638290134 0.102866020443186 0
0.2158936313123583 0.1215295140404595 0
0.2682041146425705 0.1115090065385951 0
0.1140150295164184 0.1390077233852222 0
0.1105862908127066 0.1179457951902174 0
0.1113812431317127 0.1398303280663501 0
0.2011135047691214 0.1293315424166906 0
0.1966067787993404 0.12630390512143 0
0.2185494221795242 0.1229737902578809 0
0.1658177012103776 0.1262441768966549 0
0.168195876460258 0.1170999283081606 0
0.2132955247511518 0.1172377164935642 0
0.2336748799217884 0.1200848876277071 0
0.3043151048507101 0.1415029145883867 0
0.1263898721884085 0.1099113592978416 0
0.07777737377521654 0.09056688814408834 0
0.1057650508635233 0.138055594129923 0
0.2678726508531223 0.1225327738820869 0
0.3092193111415134 0.137659722325653 0
0.1080470044491789 0.09746981761545365 0
0.0850434087116848 0.1533811730524575 0
0.3080224629904362 0.1435886539080345 0
0.192054368286271 0.1283885164500911 0
0.3272710452734258 0.1193552263663473 0
0.2825552242441159 0.1222594565093223 0
0.10542956298424 0.0957450920333111 0
0.3153716140147507 0.1417212522147292 0
0.2816455555281305 0.1171461159961753 0
0.1065587348384699 0.1037251568524978 0
0.2569919242349979 0.115923161006003 0
0.1981495374925586 0.124735796096822 0
0.1486407092164724 0.1231929789724143 0
0.1832957879473676 0.1181252807060041 0
0.08360321720409625 0.1523377580470176 0
0.2902988317321609 0.1303609659322393 0
0.2559140846587669 0.1125252064122095 0
0.2178648320865438 0.1279223867401848 0
0.207556705559331 0.1295330479879201 0
0.2099450143665951 0.1251431573707464 0
0.2178819126289462 0.1122696623323792 0
0.1273474066855711 0.1316895733719633 0
0.2505837501170153 0.1290524343979476 0
0.28246631713333 0.11948585504044 0
0.2085174761853825 0.1216695647770453 0
0.1057650508607152 0.1019444058812719 0
0.2031240876417993 0.1302545694116513 0
0.300094519480597 0.09628316457402028 0
0.2698523079361027 0.1176818193792038 0
0.2246000319973314 0.1175304166464663 0
0.2452644407726975 0.1123953287181829 0
0.2522354366988279 0.1271643987976655 0
0.322865097021006 0.1189586849278014 0
0.1985032088512644 0.1197924698102574 0
0.2747073488867349 0.1281533689668874 0
0.2222120947710759 0.1124731659369435 0
0.157918727279147 0.1089892383315126 0
0.1056370442750738 0.1213618034531265 0
0.177635316720568 0.1303104465444543 0
0.2098556011376777 0.1187763359159326 0
0.3213226462044057 0.1119674576108533 0
0.08735341844362592 0.1424091337082147 0
0.2636634141343256 0.1201576339197856 0
0.1732130083925572 0.1314324625256394 0
0.130271900777728 0.126604572088684 0
0.1938375444954331 0.1226725778676298 0
0.2673174074404283 0.1167914127600835 0
0.229045801688628 0.1206740228514612 0
0.1782512070865229 0.1203694193327026 0
0.2892731811971223 0.1369421168248813 0
0.1734364777566303 0.1088939711089123 0
0.09624169405733948 0.1435674874747183 0
0.2379088347252111 0.1175315748886273 0
0.2906692940761274 0.1363998447524568 0
0.09120453107850701 0.1523217414654898 0
0.1820871320246785 0.1096850358253963 0
0.2089612587281429 0.1266907517815179 0
0.08899999996977802 0.15329574714359 0
0.08899999996977802 0.1513197719883048 0
0.1733242083723206 0.1207328117472004 0
0.2091807990827062 0.1166509977977919 0
0.1036867432060658 0.101780403085405 0
0.1884308014204928 0.116075295655426 0
0.08103795301227079 0.08712609169326745 0
0.0950313270278605 0.1536265404632857 0
0.1464917926200445 0.1103240064545997 0
0.09118778612051202 0.1484188683239264 0
0.3188777867225137 0.1027011782248845 0
0.0836032172852046 0.08766224191795155 0
0.3198913373576355 0.1350060165246033 0
0.237862098925251 0.1301755963065856 0
0.0913365927363143 0.08969838123030488 0
0.2413483213810759 0.1251936739790488 0
0.2930862886370385 0.1065013802638399 0
0.1513951169057184 0.126579963897711 0
0.09133659275310269 0.1503016187841305 0
0.2035746486417143 0.1141204734089284 0
0.1193759765656486 0.1325903216401999 0
0.2036728480545808 0.1168597432827252 0
0.3045908641647561 0.1386192318676609 0
0.09157355210901087 0.09720470724136324 0
0.2757057446252063 0.1201054944360878 0
0.1165772253017928 0.1341216534972315 0
0.2918412921451393 0.1297042816435696 0
0.08974821142198522 0.09620605778832184 0
0.114302944393471 0.1200126723785573 0
0.09157355212079621 0.1427952927499877 0
0.0908986016756914 0.1455502062474287 0
0.0879465175866087 0.1453416870880912 0
0.1451684421410072 0.1146533322400065 0
0.1461157009438684 0.1123341737800998 0
0.1803669773683796 0.1172264087148188 0
0.1010723330447739 0.09086403450665329 0
0.2099855939127735 0.1219324957691421 0
0.1124584187952366 0.1182025813955553 0
0.1006984494038718 0.1513145815571051 0
0.1010723330463545 0.1491359654925028 0
0.2143115853023902 0.1226469440018458 0
0.1184664185679694 0.1288961883697056 0
0.2678392944019684 0.1248003549384445 0
0.2433716789211279 0.1286533463537124 0
0.2811096225537867 0.1275125367577504 0
0.07165082385082462 0.09856720517408124 0
0.2242794820571933 0.1129718133103951 0
0.10169105235702 0.09940197795342917 0
0.2878936172847834 0.1355802442077724 0
0.1221737180913486 0.1107663850328727 0
0.105851411448847 0.1142661792803764 0
0.1991917949797817 0.1135629219339946 0
0.2723891372376445 0.1284814097738419 0
0.2216666511276178 0.1180666433643354 0
0.2734566172919549 0.1200228165645194 0
0.3210374962188566 0.1140044675766599 0
0.3009087965956895 0.1417082151829509 0
0.09434249651051758 0.09743295562852684 0
0.3267082152224255 0.1240912032126973 0
0.0943424965161615 0.142567044366547 0
0.105885028250896 0.1257195580005208 0
0.1574577556514849 0.1276838960716687 0
0.09835574407696224 0.1000694914779568 0
0.1784332711517918 0.1138062203776357 0
0.2357027258519724 0.1227924022667161 0
0.2560425530277318 0.1273815779135246 0
0.2816448080985182 0.1244322943152881 0
0.1232369990686517 0.1321674281997089 0
0.1195495189972187 0.115640474367815 0
0.1257319624676835 0.1271964473748035 0
0.1183618483998604 0.1219625873654225 0
0.1195571572427119 0.1243646504577097 0
0.1497024247421118 0.1251092902433913 0
0.1426135343918723 0.1202936013816606 0
0.3013195325138824 0.1380022980916827 0
0.3016211622387082 0.1039194487885926 0
0.1756332458394029 0.1237237342502409 0
0.3001339263691952 0.1003460477997998 0
0.3029858923059642 0.0974330167166698 0
0.1475969691860156 0.1325104081895694 0
0.3029858923022558 0.1425669832376782 0
0.3230022981112057 0.1236804673530841 0
0.181138591488805 0.122752436663703 0
0.118354121024553 0.1180794839821716 0
0.3252542900719997 0.1114151846554896 0
0.1928997799277825 0.1154394751405123 0
0.2628017487537364 0.1269295207566428 0
0.2572922499239369 0.1289381101245618 0
0.2969545214531712 0.1421245389383102 0
0.1146222832385747 0.1301952106595697 0
0.1765837297958979 0.1151143730965495 0
0.1193759681458149 0.1074104296032807 0
0.2856204302843051 0.1277031513767436 0
0.2236857054528738 0.1253860720779347 0
0.2819215795467523 0.1295784203989523 0
0.240197913352327 0.1228946917720247 0
0.1675414328898298 0.1085784913305457 0
0.2817956854265712 0.1149381362040174 0
0.1316881028916126 0.1206422792995429 0
0.1072406226553387 0.1082047663425798 0
0.2689626531109498 0.1266812907535634 0
0.2510765366409951 0.1250996899877258 0
0.2120533497688264 0.1300306119810843 0
0.1627838478660292 0.1303999427455698 0
0.1599121305390424 0.1311241945817314 0
0.3195286290345413 0.1278082716208276 0
0.2120592635807801 0.1099967351743011 0
0.1571655034052655 0.1131177027353172 0
0.2015209559356902 0.1169423751522801 0
0.1129040480600145 0.1047327381723446 0
0.08214105219567686 0.1417680545266271 0
0.1115945241472177 0.1257493439519402 0
0.08282455833631713 0.1433355153002463 0
0.08475615820973086 0.1422485606992228 0
0.1652175152043003 0.1083425649839668 0
0.07992783687255754 0.09732382033546927 0
0.1319601598649372 0.1121629955538572 0
0.1479676384395073 0.1166307022523276 0
0.2237481677700878 0.1231479664531219 0
0.1413695761014367 0.1185564454269805 0
0.1514448899272414 0.129807246189073 0
0.1757862829212719 0.1299118143100582 0
0.1989920153976579 0.1097011882258712 0
0.1754905435496963 0.1100754724710652 0
0.1775860267979617 0.1096874345951333 0
0.1424908605674509 0.1102545965742257 0
0.2730488892708186 0.1153416966130525 0
0.298874275347677 0.1427105983144412 0
0.09566933290504545 0.0920122659322044 0
0.1484181517931788 0.1112197126633568 0
0.1026834746673674 0.09817317517176653 0
0.2511339294098281 0.122743558923587 0
0.09120453106238786 0.08767825854061478 0
0.3133356500283139 0.142050280783073 0
0.2119326364809986 0.1252876548155713 0
0.2923557018895392 0.1012554376023904 0
0.3248775087167073 0.1303548388067319 0
0.313335649846945 0.09794971917532783 0
0.1404374362764335 0.1070420260183856 0
0.3270502807897944 0.1116643499769777 0
0.1472246871814482 0.1146827581975031 0
0.102749728120782 0.1112287957524529 0
0.315354838856334 0.1398775086654981 0
0.235341755071412 0.1157189453058646 0
0.1958609469735205 0.1199614806652926 0
0.2923557017986164 0.1387445623156542 0
0.2946451610074188 0.1398775085529484 0
0.2969545215612646 0.09787546103861763 0
0.1209367356704194 0.1177603281227315 0
0.2489176654608526 0.1222620260240456 0
0.2457083738292796 0.1249510138457121 0
0.246841907032755 0.1227039430163865 0
0.1803668024946217 0.1153506114738936 0
0.1626801776436953 0.1285365502667324 0
0.2732130839978286 0.1132724927636875 0
0.2397724692941617 0.1190294060687565 0
0.2532181909659736 0.1178507311234775 0
0.1208331468741892 0.1222503822696714 0
0.2732040992290277 0.1267295982672166 0
0.141397296527042 0.1085668919188731 0
0.244939024295298 0.117064502321301 0
0.1701017264481605 0.1201753220427686 0
0.3149916263797393 0.1070651251208906 0
0.3119640770596606 0.1432197233982717 0
0.1147033815464306 0.128381036896274 0
0.1098365478150888 0.1130109088151714 0
0.1321161790905534 0.1185831808877849 0
0.1821806382250337 0.1125834474644198 0
0.09927546640844172 0.08683522079599167 0
0.1098368945744446 0.1269904446242554 0
0.1828220016311822 0.1230607418220676 0
0.1625417270180693 0.1113886729069662 0
0.2302674738107849 0.114910192909407 0
0.1251056899529172 0.1250651111241598 0
0.2541517896963253 0.1116067380151564 0
0.0983557440688671 0.1399305085084757 0
0.1234116070586195 0.1130492338632466 0
0.1532026202014674 0.1311872694738897 0
0.1249226985838877 0.1149511320275852 0
0.2616477736039283 0.1228562529400123 0
0.2201016506764692 0.1266382006624358 0
0.3259356411447229 0.126144019707991 0
0.1293870435904113 0.1069872861494861 0
0.08342266502396292 0.1490809226451217 0
0.1181749568837047 0.1200105919713721 0
0.1076982421047256 0.144458825123733 0
0.1080470044516021 0.1425301823852826 0
0.1859808063997136 0.1234407411850006 0
0.1672343115032749 0.1228131956518194 0
0.2241480849722929 0.1292468005006736 0
0.1413631771610096 0.1283037337597087 0
0.1413972965208115 0.1314331080890338 0
0.1391639212446505 0.1080606480784223 0
0.1608168211531147 0.1115711853714985 0
0.1862388832277372 0.1128352702746382 0
0.2590061606149264 0.117421710827042 0
0.2869732006050011 0.1171024600548491 0
0.2205189910887757 0.1217487953761761 0
0.1320467451173181 0.1101195440336902 0
0.1062949608942797 0.09385408559259592 0
0.187825274203175 0.1297984462059058 0
0.1900118275307112 0.1097457278507169 0
0.1878095805628315 0.1102124964980614 0
0.2291237917819682 0.1298185726423461 0
0.1555178092419596 0.1234471824695361 0
0.1798849814776129 0.124452256525216 0
0.2282608971507216 0.1255774258392927 0
0.1930212453052554 0.1172910144715267 0
0.1147034235730074 0.1116213298020251 0
0.2962457302375555 0.1016663309503048 0
0.08214105212129973 0.09823194547762751 0
0.3147865470151677 0.1034061429181554 0
0.3212508605483883 0.1256602445090276 0
0.3138755381319151 0.1016747731672397 0
0.310971416110272 0.1039462833316477 0
0.2962457308865605 0.1383336691776008 0
0.3130325422887618 0.1036773537211925 0
0.2892997321459104 0.1275516084733408 0
0.3213463284357723 0.1280541794993161 0
0.1631799666178934 0.1080086875312446 0
0.1436346622080521 0.1243270180921746 0
0.2892921931042711 0.1124560590759496 0
0.1555908440118662 0.1091575146390662 0
0.1893133330561506 0.1243639064744762 0
0.1553230450313019 0.1279558632355321 0
0.1538940036317922 0.1227334712024808 0
0.1555912988074829 0.1308432550254832 0
0.2074208084711667 0.1133285594397768 0
0.1165772253079541 0.1058783465025166 0
0.1574629991197081 0.1162220650687143 0
0.2894450354232526 0.1256037169735738 0
0.1373400298471157 0.1193532715833285 0
0.3109092398879665 0.1379271490011717 0
0.08036599784130855 0.09476151389439302 0
0.09550120279365756 0.152012869135933 0
0.1315295870444313 0.1303122206685355 0
0.1575690246316944 0.1242009100643294 0
0.1901403876041485 0.1280217234467245 0
0.315808214492506 0.1352676599061759 0
0.0933193520397469 0.08700113203040753 0
0.2780414848272127 0.122533574001319 0
0.1445659378322807 0.1263668323230163 0
0.2634074241274268 0.1222098609012631 0
0.2874982590228988 0.120294617264497 0
0.0954793389024941 0.0939724687782593 0
0.2870524982607598 0.1073214367116313 0
0.2358408933310418 0.1205198451452744 0
0.201113504877919 0.1106684575753638 0
0.2031240877457422 0.1097454305856586 0
0.1683142553694899 0.11086154813576 0
0.1995460087101842 0.1279712221562691 0
0.07921540641666087 0.08980118917748248 0
0.1991742999853539 0.1303790639226331 0
0.08582597950311371 0.147241589863648 0
0.1224984129056343 0.1290679889863224 0
0.1669651537640295 0.1247216562508007 0
0.1108447699437796 0.1159599662035398 0
0.1057854824688602 0.109707116427202 0
0.0939535201728072 0.1475129286548924 0
0.1076982421048531 0.0955411748798211 0
0.2712777289081993 0.1243430105254549 0
0.1356266650307411 0.1258560141023701 0
0.3204658064685436 0.1072737158150932 0
0.2885903366352645 0.1085550286658142 0
0.2347641850683045 0.1250869192467695 0
0.1357072988644619 0.1164196802619771 0
0.2309702265305582 0.1175256624380021 0
0.1214544729805731 0.1257022861180364 0
0.09089860166683578 0.09444979375644252 0
0.2906657611895698 0.1036071676172181 0
0.09896775616762855 0.09452848996407781 0
0.09896775617155702 0.1454715100303468 0
0.1432148676699629 0.1127781415856422 0
0.1633017699935584 0.1248455134520381 0
0.1692120015768441 0.1307084867833537 0
0.09766148250621222 0.09824750605734718 0
0.115570976041119 0.1078214003641149 0
0.1140150294932404 0.1009922765935701 0
0.3277105983388319 0.1261257244163392 0
0.3141394453660125 0.1434717475781209 0
0.326721252176071 0.1096283859426156 0
0.328508396907875 0.1292176209524281 0
0.1745628615625608 0.125270103820195 0
0.1867916743436188 0.1212442867155844 0
0.08482241035812427 0.1519244254953975 0
0.3284717475621931 0.110860554617807 0
0.1043372798453441 0.125012995824276 0
0.3141394452788406 0.09652825240941221 0
0.3271245389748878 0.1280454783429365 0
0.08504340877338598 0.0866188269258575 0
0.110010148311091 0.09819134564345315 0
0.3135848151797228 0.09974570989036705 0
0.1910832635866299 0.1203804059636109 0
0.306041314938994 0.1021349029515225 0
0.1286510041659089 0.1147696998239575 0
0.1579165268401818 0.1310444874357989 0
0.2840571786349585 0.1179337777011477 0
0.1878573382784824 0.123112543172019 0
0.2093901724775761 0.1098418573848708 0
0.1181079321359616 0.1055143157998661 0
0.3173225066243385 0.1025556447201678 0
0.2081210368475594 0.1199085606148448 0
0.2648365841010503 0.1119534734901573 0
0.136247341242304 0.1296063871784411 0
0.0889689833184092 0.1418601932766801 0
0.2955506858818376 0.1345809226880373 0
0.1166484518272694 0.1217737225237996 0
0.2140423701521112 0.1109444653412831 0
0.1863106368917098 0.1270131907773625 0
0.3240146631226661 0.1073714384535082 0
0.2141000077979069 0.1307234405947502 0
0.3143234635114596 0.1055032155755909 0
0.1177913036807208 0.1146420742902311 0
0.1799092641444079 0.1089512523901188 0
0.2140311195125626 0.1290462793415907 0
0.2155242475229095 0.1125398156412425 0
0.2160907129996957 0.1100888723545315 0
0.1364185690895777 0.131264311650724 0
0.09737847452007777 0.09447611936497352 0
0.09887015131910992 0.09118883687151735 0
0.1362473412459548 0.1103936128220264 0
0.1364185690961472 0.1087356883509601 0
0.3158082144169393 0.1047323400132104 0
0.1027557153218089 0.1287674414802188 0
0.1059417367299139 0.1276494685606183 0
0.1224603016726 0.1176019862203432 0
0.2268067131876932 0.111230060616759 0
0.2413483213972211 0.1148063260330872 0
0.1929440937290099 0.1306157065587783 0
0.12833236492154 0.1167382279357147 0
0.321979336191415 0.1043109200399012 0
0.151395116907898 0.1134200360996852 0
0.1999350427627822 0.11558335701509 0
0.1737176038654395 0.1282735958819308 0
0.07613400501495239 0.09381925372766249 0
0.1401140876546133 0.1171983882978492 0
0.1422621296114766 0.1165742043238198 0
0.1215378416631362 0.114320886958768 0
0.2568063738167192 0.1249144426616775 0
0.2202722046540586 0.1288357637410214 0
0.1727370640866658 0.1257043977415758 0
0.1606843814084613 0.1256199506766504 0
0.1995811393316303 0.112060772340819 0
0.2526077926485618 0.1292510879369055 0
0.134990640760915 0.114627087286287 0
0.1036313800949389 0.1487384223042109 0
0.2392330076680894 0.1130130463475614 0
0.1041239386047262 0.146492662564672 0
0.2392645686186824 0.1270467870556523 0
0.1533978613452942 0.1124420236663481 0
0.2787313433958871 0.1210286233913137 0
0.1903655103007122 0.1187172122271045 0
0.1830339515059359 0.120138170493558 0
0.3056447735228301 0.1422710452500278 0
0.1279423083321044 0.1198629541946691 0
0.1078377185350971 0.1021989297323172 0
0.1068042173583133 0.1176375891813724 0
0.1457705232169227 0.1166323203704843 0
0.1377062916574656 0.111418642393011 0
0.2780363135798874 0.1193811033808518 0
0.3105602186510941 0.1420084234602114 0
0.3285547869046156 0.1150461928500791 0
0.3282197234030156 0.1130359229314527 0
0.3270084234741705 0.1144397813210189 0
0.3099538069583007 0.09644521308635001 0
0.3119640769054008 0.09678027658324392 0
0.3105602184967864 0.09799157651151993 0
0.1532998838726854 0.1250778506502896 0
0.115570976034411 0.1321785996374706 0
0.1709916261957541 0.1240889392731917 0
0.1958052144441979 0.118003069428956 0
0.149741985964211 0.1148147526626349 0
0.2369950056269931 0.1273022351345499 0
0.202105202067118 0.1154752581882022 0
0.2360141630237647 0.1294106601257687 0
0.1023675972499093 0.09666314203919915 0
0.1255693660760226 0.1127118042444496 0
0.1023675972520837 0.1433368579593268 0
0.07315796542781616 0.1421639740927997 0
0.3175616635147525 0.1355630149844617 0
0.2301922848807108 0.1248879424210042 0
0.2614741245104728 0.121104521889903 0
0.3164242363911973 0.1337306233971177 0
0.1143666755295836 0.116387724515007 0
0.1053617895762657 0.1165341743243375 0
0.1070543778763619 0.119848998574562 0
0.1892514134705277 0.117659324526112 0
0.1065587348470835 0.1362748431553419 0
0.0958963842516583 0.09827053246169484 0
0.1694779615906931 0.1183188014186628 0
0.1092927605985003 0.1032051450640351 0
0.1092927605981817 0.1367948549340247 0
0.1093158610881351 0.1352039512194689 0
0.1020638129410053 0.1029437433070079 0
0.1020638129345446 0.1370562566876904 0
0.1947923653314237 0.1099855670242667 0
0.2179254303134713 0.1148403783252818 0
0.08758863576338215 0.149395704689362 0
0.2059700096501249 0.1229899977893012 0
0.2736067584840442 0.1169905406401508 0
0.2787085495041919 0.1121802195152655 0
0.08896898330117183 0.09813980672055952 0
0.2772470519384616 0.1153437923305603 0
0.2892724990169567 0.1030611865422482 0
0.247526886273542 0.126701947371418 0
0.1877671712871689 0.1181250686298179 0
0.1399253664152081 0.1225839003287958 0
0.1507826623575529 0.1184353677596216 0
0.2269389622298484 0.1242767422248759 0
0.2946356047109188 0.1416891959224643 0
0.2730477991167479 0.1246881984013573 0
0.1651295557240156 0.1194982107311497 0
0.1438678827195416 0.1079374417561513 0
0.2379712049195183 0.1222894229107101 0
0.1040614894037016 0.126890069639424 0
0.1326352549593235 0.1256349834020325 0
0.0971311444076196 0.08701588327906662 0
0.2282368524100541 0.1188182351442255 0
0.1605449201579967 0.1185413990648354 0
0.2819197797149088 0.1104197797095318 0
0.07847499865681547 0.09348227921733067 0
0.2231343626600025 0.1143747149166607 0
0.1599121305414949 0.1088758054192459 0
0.08103795302127353 0.1528739082532082 0
0.1607898159778606 0.1286166581722583 0
0.1270836977215971 0.1237414963396684 0
0.1948260947126016 0.1269849741705862 0
0.2907684083299765 0.1285254853255826 0
0.2580921824144615 0.1136918979319801 0
0.1755475207668284 0.1317205320518207 0
0.2195695547863644 0.1183075698875799 0
0.3195793345724552 0.1105490232130917 0
0.1115957953990742 0.1142684413514017 0
0.2185271177850013 0.1169087785364246 0
0.1146934585767966 0.114917096998687 0
0.2326993671960993 0.1179721534381398 0
0.1995031400564927 0.1214676313557425 0
0.1147054810488591 0.1251035842921573 0
0.2894436337658498 0.1144053819124903 0
0.1411285817319148 0.1236251538656526 0
0.322212828536802 0.133855828215732 0
0.317631698426929 0.1390269479160871 0
0.1007865201609683 0.1041002055390826 0
0.2748623722657719 0.1258255220678098 0
0.1458419082733133 0.1299071325327146 0
0.1020561713791983 0.134997197086597 0
0.2474735468114753 0.1132063935047968 0
0.1895444557638202 0.1219609192073834 0
0.1007865201583349 0.1358997944369435 0
0.3077927458309962 0.1388920089300676 0
0.247727631886417 0.1210785290919764 0
0.173857571682179 0.1108584421638302 0
0.08671489509800485 0.1525198945073678 0
0.1185479072507266 0.1130139019883901 0
0.08671489512541662 0.08748010547166983 0
0.1550715624825788 0.1214036404203148 0
0.1596371723365129 0.1167452406243797 0
0.2028773674577316 0.1212798903428208 0
0.1486754777640121 0.128810879979314 0
0.2848194018368504 0.1090103523304945 0
0.2747100634325751 0.1118476045184011 0
0.1700995714152013 0.1107890049786927 0
0.1218023336347884 0.1275113543444001 0
0.1333314049424637 0.1216776178259944 0
0.2848306133058607 0.1310015414876878 0
0.1847494597985579 0.119926547388927 0
0.1404658132796535 0.1297871775012654 0
0.1498694025281852 0.1219792766567959 0
0.1737784358068359 0.1187053363010125 0
0.1643496702219203 0.110035517964577 0
0.1387973216056555 0.1237629772026512 0
0.2916488025690111 0.1052335631386568 0
0.1976419522411654 0.114536749171361 0
0.08102759808876828 0.09148271967522242 0
0.2322276685059247 0.1111895277017345 0
0.2316307844604102 0.1262770004428232 0
0.166263175658519 0.1211239727899913 0
0.2469316127785483 0.1194505798186633 0
0.2617134941877882 0.1150508241816355 0
0.2123154262180998 0.1155128736639619 0
0.1214730708391279 0.1067599241175885 0
0.191153531895866 0.1260106934563264 0
0.191138196685354 0.1139709544627733 0
0.1593782483533736 0.1125091991598906 0
0.2772503268066243 0.1246864773331691 0
0.1466575331169449 0.1184999707948172 0
0.2657083426718341 0.1218122145725243 0
0.1106683104570043 0.1199825065156166 0
0.2249192352735989 0.1272836654334761 0
0.2832480833855879 0.1163143703710206 0
0.1900137892212717 0.1302556399824581 0
0.1129040480541312 0.1352672618244002 0
0.3251477218306235 0.1190128479720291 0
0.1122777044849541 0.1299512412562491 0
0.2918354180418499 0.1102990843626368 0
0.1113684185978565 0.1283072913439857 0
0.112277807536784 0.1100487238475114 0
0.1063354222172166 0.09906829464093017 0
0.1052004756856021 0.1395322737104053 0
0.1081100775958042 0.1408675703091312 0
0.1063354222187806 0.1409317053605907 0
0.07586837651093517 0.09857106131923202 0
0.2541852804754007 0.1137535902707724 0
0.07631575278274058 0.09557384172136515 0
0.327566983270676 0.1220141075405862 0
0.3044773054253225 0.143435854177746 0
0.3089972307022347 0.1360422989518958 0
0.1497231358833195 0.1169111095159089 0
0.3015137361856067 0.1434197478039257 0
0.3265029146065274 0.12068489502468 0
0.09527746801579373 0.09049546314484194 0
0.09527746802335144 0.1495045368628659 0
0.2582801686338662 0.1269983414905329 0
0.2202500981462416 0.1112136266713643 0
0.2964710805612568 0.09970155835193242 0
0.1216089628312177 0.1192464024809868 0
0.1252101284388241 0.1331563143920364 0
0.2495323161777372 0.1239860519356744 0
0.2186227734599793 0.130222310918147 0
0.2026449298556417 0.1120543744357412 0
0.1773284544435891 0.11163552890364 0
0.243071897489704 0.1218426095508198 0
0.2328773917200032 0.1218941334103137 0
0.3028970595450483 0.1410530125048628 0
0.2767164096929851 0.1286626820190356 0
0.2161989260517158 0.119274639347708 0
0.1036867431978833 0.1382195969191899 0
0.09135024871327307 0.1441682666770464 0
0.2702054133337234 0.1284601284768701 0
0.1211768141174669 0.1163295035471346 0
0.3149916264388944 0.1329348748565642 0
0.2906269634191621 0.1017962315316758 0
0.2834882873767149 0.1133354334253503 0
0.2897434465414367 0.1350768182907723 0
0.1897305038420505 0.1150080419130446 0
0.1053814844774347 0.1477039712978883 0
0.1136360339623275 0.1314873482862885 0
0.257413245584368 0.1206062613818194 0
0.1501699665775472 0.1111287174598104 0
0.2936914877416154 0.1081954225828206 0
0.1502608628061031 0.128878272986416 0
0.1499571123027049 0.1126071584553014 0
0.1162088970302279 0.1091466767034323 0
0.1767840919927341 0.1253377885253433 0
0.1497156434752994 0.1097095041293787 0
0.2035687188373492 0.1258885125305036 0
0.1059490350672901 0.1123573666588013 0
0.1769299097833562 0.1220224463410305 0
0.1803313671323451 0.1266590458759952 0
0.2057653175067312 0.1097029682828965 0
0.1341289605951078 0.1257622449126715 0
0.1185480195959067 0.1269972944746243 0
0.3038070996000238 0.1030901960170148 0
0.1212759865286873 0.1208680888293729 0
0.26171878368282 0.1192378502977108 0
0.2054024734917455 0.1180800571966202 0
0.323892008967318 0.1172072540696452 0
0.1673585675705492 0.1271675878091617 0
0.1028855547941624 0.1321043133447884 0
0.1214730718354824 0.1332401653160649 0
0.1352966173644997 0.1324920254583387 0
0.1326079860188206 0.1288348626418467 0
0.1744474219143083 0.1150001604515958 0
0.1848808527401685 0.1182089527431573 0
0.1419405858736067 0.1069985998258191 0
0.09043457860846195 0.09281061092059013 0
0.2055406626951211 0.1264017864377732 0
0.1088765950731774 0.1145420981561792 0
0.2490951751894099 0.1178376605258056 0
0.1163593653330052 0.1106097761032541 0
0.2936952937669798 0.131805564304249 0
0.2981582437270637 0.137623876424185 0
0.170888401812314 0.131321316794278 0
0.07441707625780017 0.1413254281937264 0
0.2885971595330619 0.1314549923503935 0
0.19392207887592 0.11143090015076 0
0.1948504006208168 0.1127840755574584 0
0.1154650785423445 0.1023463885633623 0
0.131981224958669 0.1222186776525642 0
0.1391639212416234 0.1319393519269621 0
0.2633592586808875 0.1147427341838537 0
0.2448764258581808 0.1104445259887488 0
0.2830980194489506 0.1091563609466204 0
0.1593997271782 0.12766593327879 0
0.1109837580938776 0.1328636555811482 0
0.196593178082837 0.1094025883782003 0
0.1102975195527685 0.1382211507913293 0
0.0875886357701132 0.09060429531049694 0
0.0858294430559669 0.1487288786061716 0
0.08119947124959262 0.09634609442549609 0
0.1012367355482673 0.1076920025979818 0
0.08119947126970695 0.1436539055756972 0
0.2878936743769495 0.1044226807019336 0
0.08740172492425062 0.09275580275270716 0
0.09436361651561259 0.09564449330684192 0
0.1467561463942759 0.1286652772162593 0
0.2020194021456584 0.1245026014074628 0
0.1184663661847934 0.1111090683393855 0
0.1673432006238414 0.1130048802165382 0
0.2397996931438592 0.1106187715512556 0
0.09856799040211124 0.1471310793088679 0
0.09887015132183248 0.1488111631279748 0
0.1109027312337133 0.1239379849730268 0
0.2699843794263604 0.1231233480941254 0
0.07699013168966123 0.1480067588387042 0
0.1078377185376413 0.1378010702699825 0
0.3231185700528508 0.1090773056103236 0
0.2583055588899478 0.1188589865867778 0
0.0834226650541337 0.09091907729980356 0
0.1273243996217586 0.1065200135467352 0
0.07699013172402554 0.09199324109415259 0
0.1297157962115452 0.1126783612598116 0
0.3123693488144199 0.1022999708007075 0
0.2551792862248042 0.1217340826619481 0
0.1965360957803621 0.1305812742225496 0
0.2677760490080722 0.120475371437637 0
0.1643403306826005 0.1213762596056348 0
0.1689455267013018 0.1234435131122069 0
0.08475615812558789 0.09775143929004658 0
0.08631106135767674 0.1412568973236989 0
0.1135921843219024 0.1028331524734429 0
0.07586837652768308 0.1414289386711828 0
0.1404618628401632 0.1101868934014948 0
0.2433716790057044 0.1113466536552413 0
0.1360088098975047 0.1197124996292693 0
0.1075376647050754 0.1247101872749772 0
0.243466192724019 0.1263837284569234 0
0.1330527764367179 0.1145400799415671 0
0.1395030657325271 0.1121139164886504 0
0.2964710805012764 0.1402984416285241 0
0.09436361652133053 0.1443555066903811 0
0.2177883628101995 0.1184063049244615 0
0.09737847452345659 0.1455238806327361 0
0.0954793389060977 0.1460275312205969 0
0.2884649176614602 0.1218291324594099 0
0.2141030755766098 0.1092869903068338 0
0.1532025633745236 0.1088128267258934 0
0.08346106603170056 0.15101518491747 0
0.08238776134164205 0.08797625387766721 0
0.288354662102208 0.106306026456772 0
0.1057843764548101 0.1302939182667001 0
0.09975889175593602 0.1500950646390263 0
0.1102975195500091 0.1017788492074432 0
0.1364654657260639 0.1213540377408219 0
0.1096241958361765 0.1107232839473768 0
0.2559448393557881 0.123332418776978 0
0.1096235485710155 0.1292774432514874 0
0.193199744306626 0.1134002613213278 0
0.18365663253863 0.1309310865121907 0
0.110723921144977 0.1097712647252374 0
0.1394404818931783 0.1277142254245459 0
0.2606062138188572 0.1131683843841241 0
0.139481697813286 0.1254617991110783 0
0.2254572474283865 0.1118433011239951 0
0.3000945193837265 0.1437168353855668 0
0.2915977578774175 0.1330387242815929 0
0.0970567297764248 0.09055848784331307 0
0.2988559800829452 0.1409356411019735 0
0.2602583827401744 0.1238245358771844 0
0.1166104393107793 0.1040657135403402 0
0.1163611931021433 0.1293891906993738 0
0.1998436189762711 0.1179557375523671 0
0.1773284544369147 0.1283644711210304 0
0.2664759595284082 0.1287535389194778 0
0.08929329610576445 0.09392373712794 0
0.09228440701433835 0.09309018719651715 0
0.112353364878202 0.1013770581103431 0
0.2865203580875055 0.1341782248215863 0
0.09228440702376306 0.1469098128105809 0
0.1065603231492298 0.1431360254840388 0
0.2027191639474396 0.1279356321760099 0
0.2884454936818178 0.1239159951478427 0
0.2199983012689595 0.1135529803610933 0
0.2243712037857892 0.1207937792033323 0
0.2664782660379597 0.1112462050745202 0
0.2113213997873418 0.1207129877298036 0
0.1206042578033922 0.1106863271116849 0
0.2993398899395816 0.1037490622667339 0
0.2369122344347984 0.1157310959596018 0
0.3226346051084235 0.1268739680350138 0
0.2252378090850556 0.1241846316768883 0
0.1340299486140818 0.1185241907490415 0
0.3180077512464141 0.1096802213890895 0
0.1646270419479779 0.1115164865169384 0
0.1643496702216813 0.1299644820368289 0
0.1641109737482422 0.1269087936837933 0
0.1646271121165622 0.1284833419226481 0
0.2139478641999334 0.1124063090460538 0
0.1020300338475744 0.1009864791450558 0
0.0958963842474169 0.1417294675301304 0
0.08254504292397497 0.09515678471216607 0
0.09766148249469817 0.1417524939430789 0
0.1675414913742471 0.1314213657058591 0
0.2955506549846374 0.1054190788174526 0
0.160811033382481 0.122148679643881 0
0.2971940165622045 0.1345301679927561 0
0.2937709734964146 0.1351569678792947 0
0.2602797229049083 0.1184229046922311 0
0.1230547054970175 0.1252336901058422 0
0.2852026436175132 0.1072057746152275 0
0.1445158814380526 0.1218722102974936 0
0.2556922014305478 0.1292356908830941 0
0.2647616888223685 0.1260722203757552 0
0.257297956615824 0.1110755909814015 0
0.1253751346837667 0.1183243242244394 0
0.2160778143492818 0.1299952585862809 0
0.2186240856566503 0.1098319508222943 0
0.1080415681807691 0.1037595272436969 0
0.2010965173186178 0.127879138864124 0
0.07757415726270173 0.09724057942899726 0
0.1441091235371395 0.1163811842862579 0
0.2273506008907728 0.1099209062712941 0
0.1127252489475875 0.09962237801472715 0
0.0775741572576864 0.1427594205712168 0
0.1197328821505545 0.1185976668778436 0
0.07777737372718327 0.1494331118010201 0
0.2715984541940583 0.1191363038452732 0
0.1002602258578778 0.1395858491705178 0
0.1359025909462351 0.1278709102590851 0
0.1016910523530439 0.1405980220367796 0
0.1360471866371296 0.112593670592944 0
0.2988742754558916 0.09728940165574926 0
0.1756502123174133 0.1082357285555687 0
0.1519535795323244 0.1324929837902688 0
0.1946794160734446 0.1314973542527269 0
0.3287168354344271 0.1249054803717059 0
0.2690323046141868 0.1131691302417386 0
0.108742997985187 0.1215922658025279 0
0.1881935584996225 0.1314250522796067 0
0.1095577554611149 0.1433634925499226 0
0.1099852016238706 0.1402149476627239 0
0.1100101483133336 0.1418086543552 0
0.1268801699963808 0.1158823340183865 0
0.09841347697677744 0.09633822347766288 0
0.1223709066936781 0.1221272468805532 0
0.1532347676223899 0.1149105461683458 0
0.1517180274691341 0.1149020286804826 0
0.1534071636649057 0.1275563187345044 0
0.2053155145404466 0.1153362082905894 0
0.1499718345487357 0.1274315385768523 0
0.2432404380147064 0.1183162175105786 0
0.2832409244598449 0.1236199289547718 0
0.2915970648837118 0.1069632814912183 0
0.2414920692079845 0.12160567707866 0
0.1038489468968804 0.1096534679335488 0
0.140483572812158 0.1156512197889691 0
0.1292935491757264 0.1244565944475647 0
0.2787159386264771 0.1278185418212328 0
0.2457442155894898 0.1150065329436462 0
0.1930555195511515 0.126476403561619 0
0.3210805357740484 0.1233788646182772 0
0.1987984985324634 0.1263937692233862 0
0.2419749828025819 0.1167023563679608 0
0.3261216527863855 0.1130925863478799 0
0.2730358388171973 0.1183497177674131 0
0.2454659333951464 0.1186185563449995 0
0.2542609797362582 0.1262408453970378 0
0.2541970495744499 0.1283518167030558 0
0.3212214970266998 0.1189718010885347 0
0.1102096607748952 0.1252995864959651 0
0.1531396636312307 0.1179151600480549 0
0.08740172493276895 0.1472441972448631 0
0.1134186889699767 0.125417712400493 0
0.2362845491057021 0.1258126588558491 0
0.3194246607133131 0.1387765111636911 0
0.1726480176511334 0.1273150442391331 0
0.1473822824912802 0.1247761699119093 0
0.1314652671310586 0.1335384517997 0
0.1206095018283645 0.1292688289949635 0
0.1858229595972414 0.1307533761997142 0
0.1858640078276425 0.1092156802725149 0
0.2712940171701688 0.1263336404903028 0
0.2661511780083987 0.1251951963280277 0
0.1342991200087623 0.1108225571065629 0
0.1966012701216265 0.1162763130984002 0
0.1820354241425882 0.1166878434126927 0
0.2282100413648479 0.1140606710535049 0
0.2920641697314982 0.108463976643598 0
0.1162085671463117 0.130852588528214 0
0.2339249952691818 0.1163302990488238 0
0.2815515138236994 0.1208953011061564 0
0.1021256294313916 0.1306087285497655 0
0.1028855418750143 0.1078956803236452 0
0.0872186370764999 0.08905978905020569 0
0.2994718736417164 0.1381458921900582 0
0.1038490988578964 0.1303464582698195 0
0.170860106486794 0.1153069549664304 0
0.1065603231471256 0.09686397451610633 0
0.08021617253653118 0.09294633197517166 0
0.09503132701526769 0.08637345955631746 0
0.1549501285589358 0.1134843366734248 0
0.2906273490516457 0.1382088353996062 0
0.1830068786251516 0.1288064415381576 0
0.2648331145249307 0.1280449815316604 0
0.08795735840003284 0.1437727281669685 0
0.3268815775953505 0.1303174611727498 0
0.2762081152809339 0.1225053347422665 0
0.2920744086768674 0.131537442835661 0
0.2630908792022527 0.1161979281728608 0
0.181173592361267 0.111138940456109 0
0.3159230676965128 0.1018799673628837 0
0.3168259939355146 0.1407535929116658 0
0.3176316983312532 0.1009730519968859 0
0.3257535929634953 0.1318259938821248 0
0.3231199870625695 0.1309168010095992 0
0.3240146632003325 0.1326285614696991 0
0.3257535928991601 0.1081740060499157 0
0.3159230678258245 0.1381200325242678 0
0.1308611254102278 0.1284487351886551 0
0.2944207445033178 0.1018189753969556 0
0.1296564866170122 0.13111591703205 0
0.2419749828016477 0.1232976436409812 0
0.15156551992266 0.1282219812732566 0
0.2307107484799472 0.1224715682499647 0
0.3126153417845762 0.1346583923504177 0
0.1748747389105227 0.1219995637471405 0
0.1284055057172494 0.1270009428290939 0
0.1057171542446367 0.1233644425156894 0
0.1410608701348674 0.1214800280973012 0
0.2268382181867565 0.1156350192314712 0
0.3109714161905348 0.1360537166264215 0
0.3109092396878451 0.1020728509046063 0
0.1818148762606597 0.1082117610622759 0
0.2084498044648147 0.1119009123713156 0
0.2519472076090012 0.1209793438899418 0
0.0933193520606472 0.1529988679777057 0
0.243071897497051 0.1202400628473274 0
0.1592956503307122 0.1248819681333641 0
0.2853804135988194 0.113996466783358 0
0.1710744764468835 0.1132404437001422 0
0.1036313800973092 0.09126157769898002 0
0.1025090039348238 0.150409222444973 0
0.2882514367642853 0.1183815856452281 0
0.07165082383702977 0.1414327947924939 0
0.2605342169682576 0.1268553208310849 0
0.222497733952841 0.1242638042726351 0
0.3071341890994312 0.09797516445303234 0
0.3269516137725613 0.1160729091585737 0
0.3285886539249627 0.1169775369099145 0
0.3089270906584873 0.09804838622081782 0
0.1160563021461142 0.1257141249822187 0
0.08452959353196672 0.1458713781921364 0
0.3119074136393266 0.1411216527752905 0
0.2111777303908908 0.1170630953035707 0
0.09975889175386049 0.08990493535994325 0
0.08452959350526508 0.0941286217781085 0
0.08254504295298672 0.144843215273218 0
0.2012765807459617 0.1216771997318954 0
0.2802263013450323 0.1221347787647846 0
0.1166104393115003 0.1359342864468687 0
0.2247476545354755 0.1155469123317185 0
0.117798426695603 0.1253697410326422 0
0.2723912356887175 0.111520559051615 0
0.2523047546679029 0.1150955471900642 0
0.283104578610707 0.13084499660434 0
0.2339765866827728 0.1234505374285097 0
0.1313849141729129 0.106554754601495 0
0.2366135982148464 0.1128090717172992 0
0.1419264086464472 0.1330106773376996 0
0.1966426251768676 0.1241395381776896 0
0.1437969966974336 0.1321089440540758 0
0.1985921387624845 0.1230957720303067 0
0.1700495768745441 0.1168113087697659 0
0.1463645455009731 0.1266850548215546 0
0.1565114480711596 0.1108102518941449 0
0.1002739303626619 0.09299911705133032 0
0.102117596287707 0.1474296254161971 0
0.100273930366118 0.1470008829470216 0
0.1005087333177164 0.0961231673320377 0
0.3001339262912319 0.139653952160909 0
0.1005087333204801 0.1438768326650157 0
0.1004227026657415 0.1454471499108868 0
0.2052694158842205 0.1246221917834701 0
0.1630924156178514 0.1149286052154567 0
0.0731579654555023 0.09783602588262755 0
0.1612608002253523 0.1239760817212618 0
0.1543304407832719 0.1163441546018104 0
0.1818148762804299 0.1317882389365174 0
0.1666878921655986 0.1154935253911533 0
0.27451495119562 0.1182081387014879 0
0.0992754664172068 0.1531647792060193 0
0.1294058193616048 0.1330300703986523 0
0.09713114442812719 0.1529841167247883 0
0.1330516361827131 0.1235045522455663 0
0.2595862272563799 0.1221750868902944 0
0.2091970212877325 0.1140812962027532 0
0.07964514472953531 0.1518644297885458 0
0.1356135253675768 0.1180429689910487 0
0.2937702910080237 0.1048439741450009 0
0.1039615360261053 0.1130469556776927 0
0.1883862527467653 0.1117954837895866 0
0.1901403876044738 0.111978276543439 0
0.1521925381241538 0.1192230256079504 0
0.241330422568058 0.1182169040072543 0
0.2856704396913594 0.1214935633446731 0
0.2265429275823371 0.1176802980694296 0
0.216185251053403 0.1259422803841861 0
0.2333712694950992 0.1262531884707579 0
0.1839946872312405 0.1266403610934669 0
0.27801585620058 0.1262418518970866 0
0.3143234635824403 0.1344967843463007 0
0.3126153417427393 0.1053416075577793 0
0.1267404572222729 0.1214994428124826 0
0.2138865041531203 0.1276249686490548 0
0.2124120633553863 0.1275883930781974 0
0.1692355362705907 0.107776848589541 0
0.3175616634123667 0.104436984934946 0
0.1062949608957685 0.1461459144122987 0
0.1386284485084905 0.1212776240083644 0
0.2883568535895896 0.133700387296271 0
0.2556775703969111 0.1175956916158916 0
0.1864126302915249 0.1110210998063987 0
0.1775352625179878 0.1186451455276575 0
0.1962598472701123 0.1130677977511567 0
0.1179415533358058 0.1235560890220423 0
0.2344144955015157 0.1217483611757042 0
0.1929438135182929 0.1093844888377361 0
0.3077927457708735 0.1011079910229594 0
0.187395333415128 0.1248460073333562 0
0.3059871518671628 0.09985227816129287 0
0.2217763312618846 0.1229521020884757 0
0.1359012461847597 0.1242911710891967 0
0.2321283084444793 0.1134636305290357 0
0.1004227026616808 0.09455285008747678 0
0.1093158593501766 0.1047960621249895 0
0.2862728238940215 0.1185480291011955 0
0.2616945015711564 0.1249843667353977 0
0.3180078136575206 0.1303198356036502 0
0.2272264563652254 0.1271348776233784 0
0.309935192639367 0.1399608443103227 0
0.3249608443446024 0.1150648073122876 0
0.3099351925151936 0.1000391556312096 0
0.2462182735670735 0.12118287250525 0
0.1998493530504141 0.1246814172640129 0
0.3217427547262784 0.1296934846290713 0
0.3233371292970613 0.1288260342477536 0
0.3138755382624771 0.1383252267359854 0
0.295159160966168 0.1365326661804062 0
0.2225290208250176 0.1217437481019509 0
0.2767164022873569 0.1113375549359521 0
0.1076895754660201 0.1267796180044289 0
0.143108944784177 0.1278953490430287 0
0.1086405468210099 0.1119527722437148 0
0.2527896068870456 0.1254383946526926 0
0.243379241560858 0.113557391524431 0
0.2154041340673936 0.1278275613376605 0
0.1076836158985886 0.1132262336650409 0
0.1486454104950322 0.1183088288287095 0
0.2234309636534907 0.1187295205293813 0
0.1865256193746319 0.1288133763859066 0
0.2662663772680269 0.1148398741438627 0
0.2147257871257995 0.1244059676094762 0
0.2511467175137663 0.1193994155716058 0
0.2957745566137692 0.1434763333006852 0
0.2502381374093678 0.1155765894767177 0
0.2615002374029871 0.1113438069666164 0
0.3099538070990693 0.143554786892411 0
0.2615002373816758 0.1286561930258622 0
0.1232665511179074 0.1146432292279989 0
0.218283389917403 0.1254702866940935 0
0.09262824039645234 0.1416654184303419 0
0.1250002187524178 0.1086905551975631 0
0.1273281547544229 0.1334834577619922 0
0.1252101284541143 0.1068436856032515 0
0.2118245627235926 0.1187947320808506 0
0.1522554788484895 0.1220635441587575 0
0.1120513453567024 0.1081289996123572 0
0.2307977508233378 0.1297789155737725 0
0.1052311856546164 0.0977379940137623 0
0.07631575275233166 0.1444261582351279 0
0.1052311856564609 0.1422620059865365 0
0.1811793044378765 0.1288213083471283 0
0.2929343661927662 0.09954505899445955 0
0.1198413801008032 0.1140323937048556 0
0.1710123749706088 0.1086397727848799 0
0.1147306738185379 0.1265745265145831 0
0.2011101499498341 0.1121128532608034 0
0.2094001515907003 0.1302156343994179 0
0.1256110124860158 0.1111359312156825 0
0.2730204717525832 0.1217207551276728 0
0.09841347697649945 0.1436617765202266 0
0.1611592765451738 0.1099798522385156 0
0.2056724004963618 0.1136051375114983 0
0.205766066143719 0.1302982646954743 0
0.2637227725639763 0.1180488821197957 0
0.2655815108651742 0.1177680959483416 0
0.1451467996307906 0.1282575832789678 0
0.1822838122353143 0.1215819681754236 0
0.324653952199163 0.1248660735286156 0
0.1237628121780256 0.1223085182377298 0
0.3020062975091277 0.1001135805688432 0
0.1927215397666537 0.1244236252135738 0
0.3153716139220035 0.09827874774321536 0
0.1108676536890692 0.1361277244675834 0
0.1108676534849938 0.1038722771184526 0
0.2551114704701977 0.1196491307609778 0
0.1636432813572655 0.1180981996963782 0
0.3270248355436624 0.1178658107228806 0
0.1709132618859733 0.1269471999502468 0
0.08899999995837682 0.08670425286149559 0
0.08238776128826585 0.1520237460513237 0
0.255652828937404 0.1107556743511452 0
0.161209257944729 0.1149577498119742 0
0.2884527225614439 0.1161141388191985 0
0.294704024230232 0.1069953177258272 0
0.1953973425868935 0.1230255795557402 0
0.2810986931088562 0.1259148728136197 0
0.2711613536856233 0.1158340779824595 0
0.1692361922914657 0.1321844058529432 0
0.1567559490955933 0.1261378287406076 0
0.1089999061456468 0.1330504017840174 0
0.2682027311486694 0.1284902045721618 0
0.1839671511556849 0.1163526995748777 0
0.2863333371991392 0.1088881273006127 0
0.1298951575254371 0.116416319364488 0
0.2391881381758028 0.1153977621654181 0
0.1868733451725951 0.1148425415623986 0
0.1194728610190923 0.1306550755188248 0
0.168392293310526 0.121508785834925 0
0.0869999999735894 0.08605483577290714 0
0.07345858451559154 0.09624527771639262 0
0.1035153791181404 0.09539894476281813 0
0.1035153791198054 0.1446010552348198 0
0.09936537308740509 0.1034375357473163 0
0.1197169217781655 0.1214119990453086 0
0.246743961317905 0.1107984324271423 0
0.2448764257621141 0.1295554740572451 0
0.2467439611902549 0.12920156758471 0
0.1956917811905471 0.1114195246257305 0
0.3020062974466602 0.1398864193605794 0
0.137747106277202 0.1307044548615833 0
0.3248864193814008 0.1229937023650964 0
0.3031027346443019 0.1386884330654303 0
0.07939233942775924 0.1440619825384881 0
0.1020561713622576 0.1050028029197943 0
0.1384225448338495 0.1177328046157159 0
0.2251051658381445 0.1190688796372443 0
0.1319921844486338 0.1271772412512362 0
0.3206327384429892 0.1027161581201111 0
0.235815256804675 0.1171614960090682 0
0.176755579573649 0.1169598870306802 0
0.2222192106419193 0.129958798075165 0
0.1547918613378607 0.1265107945375302 0
0.2221161086027916 0.1100376346902236 0
0.1070357630124253 0.1066282301649934 0
0.2647694742152329 0.1139363920252619 0
0.2946356047579821 0.09831080406743131 0
0.1754665347315431 0.1281648002929304 0
0.1829746869716277 0.1110522013360818 0
0.1012367355866192 0.1323079972983397 0
0.09893184910165244 0.1019362721532822 0
0.2172653865586399 0.1222128892249506 0
0.09936537311036432 0.136562464177848 0
0.09893184909799775 0.1380637278155927 0
0.1353172925794708 0.1074966177800123 0
0.1330680343043966 0.1198938638106484 0
0.3075524502203909 0.1369276449468395 0
0.111530664298902 0.09857339703231503 0
0.2076273579452396 0.1089657417642425 0
0.1179382236230154 0.1164886342228908 0
0.226956765530183 0.1126708455435933 0
0.1056505385673703 0.1186322927708258 0
0.2713004496850175 0.11363518998942 0
0.1947844746452224 0.1167815650833586 0
0.2861617628488625 0.1244232033939036 0
0.277284811983591 0.1211248608929919 0
0.12380912546189 0.1114539162749382 0
0.1610677164399151 0.1272001686900489 0
0.1836516283116528 0.1090538388817747 0
0.1957246959803695 0.1285414618864843 0
0.1371684055403653 0.1148330423393497 0
0.1731166702450185 0.1168346121444472 0
0.1805101132169955 0.1132157484324177 0
0.250167279764311 0.1131826289071641 0
0.2498271843191553 0.1269894448009938 0
0.2059985085050797 0.116700899823622 0
0.1443230183890672 0.1198972345400839 0
0.2339005257468059 0.1143344116296783 0
0.107475920820332 0.1157171241006216 0
0.3168259938135384 0.09924640698251995 0
0.09705672978061966 0.149441512156536 0
0.3089972306113847 0.1039577010465507 0
0.2091352440823893 0.1233298720467779 0
0.2797606477918614 0.116436752431514 0
0.1122376573257685 0.1218460510794734 0
0.1021175962870293 0.09257037458427642 0
0.2748377347560961 0.114186839764629 0
0.09135024870779919 0.09583173331927328 0
0.1101835051796304 0.1147136015644058 0
0.2125643935226927 0.1219935210348878 0
0.3015137362234488 0.0965802521711473 0
0.2889517478536264 0.1292158294332787 0
0.3284197478227465 0.1234862636227335 0
0.2916497668714935 0.1347698864045498 0
0.1086415813485632 0.1280482932933151 0
0.2397786788744402 0.1209449065181944 0
0.09105345742182963 0.08620408692317794 0
0.1166422936083242 0.1182398105203486 0
0.1025090039337441 0.0895907775546619 0
0.1433153769660386 0.1150548099641472 0
0.1257095871095646 0.1288164233090751 0
0.1143737027537282 0.1236466341468533 0
0.3089270907682643 0.1419516137440899 0
0.3167344532721805 0.1318854438445914 0
0.316734453248144 0.1081145560995235 0
0.1497880623289355 0.1321500765983491 0
0.1498598164343772 0.1078328226897256 0
0.1472091450113516 0.1219325679971603 0
0.07465577430164178 0.09498057593506566 0
0.1584774210786888 0.1223414454148983 0
0.07465577423223196 0.1450194240108799 0
0.2339696652990228 0.1102632083532972 0
0.2340042906689998 0.129677425049718 0
0.1330098865977076 0.1328367329467995 0
0.1330113604322038 0.10716459644094 0
0.1579332447646549 0.1207561481139621 0
0.08972688759162313 0.1490679655858641 0
0.08972688758090541 0.09093203442359707 0
0.100658305414152 0.1339974818247833 0
0.1006583053919535 0.106002518106753 0
0.1939153966651519 0.1285565028256062 0
0.1086651570517705 0.1092580981869718 0
0.1499213810173457 0.1234759494103116 0
0.1086651940217479 0.1307425023197783 0
0.3219276449449622 0.1174475497442304 0
0.307552450139974 0.1030723550433307 0
0.3060281987845235 0.1037785029094243 0
0.3210254743485679 0.1160407793169723 0
0.1884002289481855 0.1281911019955919 0
0.1148596070226986 0.1345359427428761 0
0.1148596070314513 0.1054640572631713 0
0.1127252489629544 0.1403776219725517 0
0.3135848153436041 0.140254290070065 0
0.3253103368294136 0.128530427519869 0
0.2486588952412514 0.1101188307745912 0
0.1611805485595741 0.1318962409302171 0
0.1631799735788886 0.1319912954504469 0
0.1429217978242695 0.126218368203057 0
0.301621162510977 0.136080551368965 0
0.1477944513170626 0.1074216180372621 0
0.2680740455050855 0.1147824272634097 0
0.07847499860650986 0.1465177207499116 0
0.1145796240213189 0.1133640398238532 0
0.2215901490129427 0.1255182478977516 0
0.3229271490294967 0.1140907601442677 0
0.3123693489713153 0.1377000291068491 0
0.1715892672948147 0.1164220904729679 0
0.2204480584684971 0.1094744549363815 0
0.1647650434969239 0.1150951125336554 0
0.1230852145882841 0.1306771971915145 0
0.1231845648962177 0.1094689411909798 0
0.2574878589571021 0.1174768178359164 0
0.2392851551825217 0.1245805339925702 0
0.2371031387576497 0.1240767832373603 0
0.2852100124877703 0.1328022468059632 0
0.2486588950956527 0.1298811692260624 0
0.1456458607164763 0.1251539475084336 0
0.2988559802011369 0.09906435886703738 0
0.1636936795080766 0.1166608644295175 0
0.1718245457579939 0.121823624825801 0
0.2418330104669733 0.1296137923085113 0
0.241833010608241 0.1103862076995744 0
0.1264108930927564 0.1300788164166077 0
0.09856799039431874 0.09286892068810983 0
0.1042394928546994 0.1149512800152375 0
0.2559541850375548 0.1143418074348289 0
0.2085504768008866 0.1282648668397451 0
0.2526345464381222 0.1106801917202827 0
0.1282757931094563 0.1099486537223879 0
0.1768458613012617 0.1269502988025507 0
0.1038632058784432 0.09720944423319562 0
0.1282458505810741 0.1299831188480271 0
0.1292790148389949 0.1087610645563251 0
0.1002602258676514 0.1004141508167633 0
0.1375652067356677 0.1327852931111743 0
0.1375664625341341 0.1072140171058002 0
0.2114516203733537 0.1138546596821508 0
0.1095577554576899 0.09663650745514658 0
0.292934366088957 0.1404549409466691 0
0.2664996859178489 0.1236546895958075 0
0.2602984314460863 0.116288432690089 0
0.0793923394838541 0.09593801745823484 0
0.1349719415861096 0.1226263217625209 0
0.2852990520205364 0.1167471703066584 0
0.1424383897896142 0.1298349014423989 0
0.08021617251165923 0.1470536679771839 0
0.1300680412928706 0.1198514365469613 0
0.3195577634717027 0.1122553200569376 0
0.1049960639332785 0.1033772622248871 0
0.10499606393919 0.1366227377837409 0
0.2971939928141353 0.1054698479671955 0
0.3286077556766377 0.1274606324146504 0
0.2957745566508398 0.09652366670956605 0
0.1133034546615734 0.1147034432511244 0
0.2975385693051225 0.0963955161033847 0
0.2762744272691133 0.1175787186036829 0
0.3119074134819818 0.09887834718444956 0
0.2853257149975798 0.1259182529841272 0
0.1565376462565383 0.129288850856614 0
0.192174771164769 0.1189119802766078 0
0.2504499352985418 0.1210666479154561 0
0.2524715329421124 0.123910118226249 0
0.08417529116611114 0.09590185713642634 0
0.08417529122350541 0.1440981428426768 0
0.1195712351780818 0.1228960122796051 0
0.2981582438131201 0.1023761235375798 0
0.2994718735148146 0.10185410789286 0
0.119614715930538 0.1171493485200978 0
0.1290776859386106 0.1211032444879442 0
0.2852466138469678 0.1107416353810748 0
0.2364406642453696 0.118814244614087 0
0.2875944439506513 0.1121252805593068 0
0.2876016652453915 0.1278859797974605 0
0.2865183145015591 0.105825805996444 0
0.2047300205741029 0.1212968360814754 0
0.1212783736183525 0.1239021708571076 0
0.1881935585245999 0.1085749477218439 0
0.1563201490867261 0.1075860597384716 0
0.1373765654720785 0.1248738077479689 0
0.1548614534306093 0.1324578130918589 0
0.1563197999290615 0.1324208393416416 0
0.1838575811472122 0.112836965969402 0
0.09262824039858064 0.09833458156545496 0
0.2482374422511848 0.1161640709231876 0
0.09287957858979659 0.09662302830724193 0
0.1057712112594117 0.1073736903010335 0
0.1070357687981865 0.1333718009162513 0
0.1057712112907156 0.1326263097222687 0
0.07964514474775782 0.0881355701802087 0
0.07441707625504741 0.0986745717899477 0
0.08346106609562234 0.08898481502242597 0
0.3206327385417205 0.1372838418135273 0
0.3183456836827134 0.1064028238263454 0
0.3183456838591238 0.1335971761248341 0
0.2476845032216387 0.1243432619099914 0
0.1754086393545784 0.1118963656128466 0
0.280222740073807 0.1182932691263179 0
0.0844145609299426 0.0923989972844416 0
0.0844145609250428 0.1476010026785629 0
0.2655373898060505 0.1197558693723763 0
0.2714003788109091 0.1210768552354578 0
0.09267050448315253 0.08846060956887103 0
0.2632567625970585 0.1111466155860618 0
0.2630382539017304 0.1238285477451778 0
0.26325426453696 0.1288550117290055 0
0.2588096152310529 0.1237555107370346 0
0.1053814844819339 0.09229602870870958 0
0.3044773054125993 0.0965641457900389 0
0.3285405097859525 0.1187976500695491 0
0.3284358542047588 0.1205226944328338 0
0.2107197589599424 0.1265847450315606 0
0.2889438745057228 0.1107940431562466 0
0.1840693156296189 0.1242652999543487 0
0.3224960657007992 0.1076324299889861 0
0.3173225067350031 0.1374443551701135 0
0.1287711521464857 0.1113458189921621 0
0.2298586656995104 0.1188385451194086 0
0.1136360911503134 0.1085126394152185 0
0.2944207444321646 0.1381810245154798 0
0.2149910864755927 0.11788581396793 0
0.1198388668813806 0.1259794742976899 0
0.1544969577666087 0.1105951226408803 0
0.1544985201387404 0.1294091425523689 0
0.08721863706679422 0.1509402109414675 0
0.1243665605011661 0.1282980148724579 0
0.1081100775937358 0.0991324296914628 0
0.1134790438608142 0.1109938794617993 0
0.1548614209682449 0.1075437398979869 0
0.1134762042552541 0.1290051463695066 0
0.1218869684652095 0.1124432173910529 0
0.2947043302233311 0.1330047751151532 0
0.1249908938196946 0.1313256726699772 0
0.1759419384837864 0.1183447040129267 0
0.115465078577967 0.1376536114111495 0
0.1700224158676388 0.1291152116408834 0
0.1792456688409885 0.1221987210229415 0
0.2836344996397982 0.1211440802969615 0
0.2779783748750055 0.1137824376205625 0
0.2863417903097094 0.13112222624398 0
0.1974735008781068 0.1181896591335769 0
0.1174965283881491 0.1328625936039292 0
0.1174965278794123 0.1071374520258665 0
0.09448193934135958 0.08907657186753598 0
0.09448193936724728 0.1509234281479374 0
0.2095756957366572 0.1206207939127927 0
0.2011561058806567 0.1310662796289274 0
0.1682958958602025 0.129173975246454 0
0.230867338093766 0.1100579617748935 0
0.1080415681869025 0.1362404727497568 0
0.1351694826999888 0.1306482202818922 0
0.1351810335472681 0.1093869612059864 0
0.3217410869764949 0.1103051076819944 0
0.2951590505677187 0.1034673982127191 0
0.314786547125868 0.1365938569866815 0
0.2214916833929628 0.1145305674235273 0
0.09656376381659702 0.08890941662474681 0
0.0965637638253893 0.1510905833765387 0
0.1109837580887364 0.1071363444208778 0
0.2923379406634615 0.1030225508870429 0
0.3062023497500833 0.09645949021569508 0
0.3062023498057743 0.1435405097654476 0
0.2923398963116499 0.1369796237643645 0
0.1069709441203875 0.1005681939928091 0
0.1069709441222715 0.139431806010904 0
0.07345858446443036 0.143754722242321 0
0.2693853534531229 0.1214174618390173 0
0.1519573122462354 0.1075061309280795 0
0.101438591837433 0.0978329844300391 0
0.09296336561219655 0.09126618654040324 0
0.0929633656278259 0.1487338134735617 0
0.3194246606655141 0.1012234887936692 0
0.323699954535895 0.1055483471347171 0
0.3236999546433614 0.1344516527769409 0
0.2684502162656479 0.1188166142890639 0
0.2275845262494814 0.1215620290276333 0
0.323619231835179 0.1204091357642411 0
0.3045908641028936 0.1013807681536345 0
0.1310927568431758 0.1252207844383009 0
0.07883263349227904 0.1414226404646192 0
0.07883263345826408 0.09857735955003015 0
0.2255407595368517 0.1302352768586915 0
0.2271893139522076 0.130160318882251 0
0.1471614882416977 0.1198965675079529 0
0.09566933290937077 0.1479877340696777 0
0.1038632058796705 0.1427905557666084 0
0.2204627608770547 0.1199388242342412 0
0.1718725331382139 0.1199110787665761 0
0.08298123070506278 0.1536143883862014 0
0.08298123075495373 0.08638561158952049 0
0.2735991143937381 0.1230101360406595 0
0.1279031715264032 0.1129258936993317 0
0.1291900594840894 0.1283945655848654 0
0.1246230409568218 0.1209439862597463 0
0.0938978679146765 0.09403499375013546 0
0.09389786791594378 0.1459650062482871 0
0.2791435255163278 0.1237775971810842 0
0.08582944307003224 0.09127112137728138 0
0.2167847558578538 0.1135823801980573 0
0.2473977310102709 0.1148647139614573 0
0.1948825271156203 0.121496911446426 0
0.290762550706556 0.1114816626094763 0
0.1611805475700072 0.1081037566390673 0
0.1592547118503994 0.1077074105318312 0
0.1592545973367567 0.1322943451590684 0
0.08633502095729721 0.09410748470876973 0
0.08633502097555051 0.1458925152848006 0
0.3031027346454981 0.1013115669323934 0
0.3236884330577003 0.1218972652202165 0
0.1377552347512878 0.1093048267275084 0
0.1242568839718558 0.1170007278630072 0
0.08482241041595218 0.0880755744708972 0
0.306028198869273 0.136221497078543 0
0.2897424501765886 0.1049284864354658 0
0.09105345744380272 0.153795913079839 0
0.2904955983050286 0.1318080367827479 0
0.1609615347689914 0.1131630656834551 0
0.2904849305015282 0.1082051604943665 0
0.3043151048043766 0.09849708540276333 0
0.1649912320997343 0.1250232756930505 0
0.3028970595210323 0.09894698741076323 0
0.3260530125528852 0.122102940321868 0
0.09066822393702262 0.1413732752841556 0
0.09066822391973464 0.09862672470784045 0
0.08795735837935276 0.09622727182867781 0
0.08038461541334294 0.1411680589602343 0
0.08038461533300506 0.09883194106278931 0
0.1515488201678227 0.1117789075293784 0
0.3200160705135014 0.1089422640111938 0
0.3200162080145398 0.1310577343830663 0
0.1920876670840707 0.1220070187136561 0
0.3231474137505199 0.1255327473202334 0
0.1497836906621328 0.1302481623728656 0
0.1404359896004719 0.1329589206309991 0
0.1814942788731554 0.1185809572893758 0
0.2144123844745672 0.1159083814204453 0
0.123109278965185 0.1337534798748761 0
0.1231092789850911 0.1062465201151899 0
0.2068639170190333 0.1213704148470528 0
0.2075887123760351 0.1227822360601329 0
0.2076281891607631 0.1310377649135105 0
0.2020072337052988 0.1185067765310173 0
0.1099852016222704 0.09978505233624961 0
0.2355747946734764 0.1141548046362656 0
0.1122045612998826 0.133621513446442 0
0.11220456194359 0.1063784866107264 0
0.1946794161508212 0.1085026457242921 0
0.1135921843090082 0.1371668475023459 0
0.1409333596886858 0.1131520128378788 0
0.1411136433397853 0.1268304711104818 0
0.2131197745668396 0.1239220943480768 0
0.2587017113636469 0.1159839681478759 0
0.1573560006178198 0.1147399437660016 0
0.3226991846650452 0.1126293955126947 0
0.102683474668142 0.1418268248268673 0
0.1014385918389183 0.1421670155660884 0
0.1741553988312463 0.1267652203482769 0
0.1612775479375876 0.1300351915233472 0
0.1514448899345421 0.1101927538009566 0
0.1390659402489647 0.1191265343733363 0
0.2378620991529492 0.1098244036899149 0
0.263363678222914 0.1252137223852529 0
0.0869999999529733 0.1539451642217307 0
0.1388237439687591 0.1160071124615377 0
0.1514676032757822 0.1250973391400092 0
0.220472837669568 0.1305455620494174 0
0.2283087622560915 0.1116911508078304 0
0.2278902668584946 0.128675433736046 0
0.1241597994531216 0.1237992197523433 0
0.1123533648827455 0.1386229418784296 0
0.09267050450228621 0.1515393904414397 0
0.1072511475197399 0.1303967560479042 0
0.1072511920801758 0.1096035055209159 0
0.1115306643039406 0.1414266029520186 0
0.2691523286063106 0.1160430487559625 0
0.2064596389881471 0.1283862940831587 0
0.2064596389856874 0.111613705921605 0
0.164183016683509 0.113142494758379 0
0.162102078825529 0.1184659693723343 0
0.3071341891699028 0.1420248355236297 0
0.165695451031824 0.1124708428970795 0
0.1656836027206038 0.1275718759508512 0
0.1020300338398832 0.1390135208494316 0
0.09287957859643438 0.1433769716890668 0
0.09043457862887416 0.1471893890873795 0
0.1288989435773874 0.1182264729713043 0
0.1776841687022001 0.131895126141216 0
0.1776936167529011 0.1080956492363187 0
0.2021781974602151 0.1228578282892091 0
0.1459210222872397 0.1328819070318641 0
0.1460260817098573 0.1071455277603713 0
0.2228879608232326 0.116430074697501 0
0.1107238473195117 0.1302289635029254 0
0.1740000765774521 0.1297434771077078 0
0.1941891591814305 0.1185683196828434 0
0.1596650483222696 0.1104028052738466 0
0.1596218518623765 0.1296160889957394 0
0.2255551925422881 0.1098434431513099 0
0.107889238374198 0.1230904832324769 0
0.3224961395263403 0.1323672631403445 0
0.1768850352741859 0.1131451421543016 0
0.08929329612192151 0.1460762628796788 0
POLYGONS 4278 17112
3 610 1031 863
3 749 1908 552
3 399 1909 1234
3 782 1549 739
3 950 1407 785
3 836 1908 749
3 1234 1909 688
3 1447 2061 300
3 106 2062 1941
3 1622 1763 792
3 792 1763 1647
3 689 1747 393
3 622 1299 726
3 792 1647 1294
3 426 1354 1994
3 632 1922 1774
3 779 1809 1361
3 876 2200 727
3 567 1852 758
3 426 1294 758
3 1647 1779 1294
3 387 1399 1225
3 1003 1514 448
3 1635 1831 860
3 659 1513 1037
3 542 1703 956
3 1225 2132 387
3 567 1647 752
3 1112 1254 791
3 482 1514 1003
3 752 1116 660
3 752 797 567
3 786 2139 1057
3 956 1703 629
3 1774 1922 1118
3 575 812 927
3 1129 1268 872
3 1227 1256 479
3 960 1006 602
3 1359 1219 562
3 552 1972 749
3 1234 1753 399
3 1228 1160 501
3 479 1169 1227
3 1074 2139 786
3 2181 2317 419
3 808 1886 1019
3 884 887 888
3 931 1634 646
3 602 1006 1223
3 446 1581 429
3 858 2200 876
3 642 1287 674
3 1031 2166 863
3 1153 1322 809
3 416 938 1359
3 646 1893 931
3 575 1851 822
3 619 441 979
3 927 812 784
3 382 1116 752
3 919 1159 920
3 920 1159 622
3 1099 992 340
3 660 797 752
3 1112 1852 567
3 429 1503 446
3 446 1503 641
3 365 2077 1564
3 596 1582 350
3 120 1001 119
3 287 495 286
3 1322 823 809
3 16 1634 931
3 163 712 162
3 244 743 243
3 822 2146 575
3 788 1305 429
3 674 1287 9
3 419 2317 940
3 456 1716 385
3 667 1994 1653
3 1653 1994 842
3 749 1086 836
3 688 1794 1234
3 617 2046 1256
3 1994 1354 842
3 1235 2039 902
3 1214 1902 1233
3 1153 1059 415
3 598 1059 1153
3 1126 1983 82
3 324 2240 1712
3 276 1377 275
3 131 1088 130
3 1226 1067 691
3 847 1067 1226
3 865 1559 1400
3 1400 1559 850
3 757 1307 1120
3 796 2028 476
3 1307 1675 1120
3 796 2072 2028
3 1354 1852 791
3 1992 1610 293
3 113 2193 1993
3 425 1831 1635
3 1037 1513 569
3 441 2084 979
3 1112 1091 1254
3 1262 1755 552
3 399 1757 1264
3 448 1498 1003
3 1003 1498 472
3 2185 1775 1358
3 1308 2317 2181
3 758 1354 426
3 1011 1407 1010
3 1008 1549 868
3 644 1235 902
3 1214 1233 755
3 3 1162 949
3 1062 1578 1
3 1980 1583 2188
3 429 1581 788
3 1254 1091 389
3 419 940 1317
3 633 1505 401
3 675 1000 871
3 730 1784 503
3 1183 853 838
3 611 853 1183
3 1087 2015 1377
3 1088 1777 1089
3 595 977 950
3 641 1160 446
3 665 1042 882
3 882 1042 543
3 1283 1559 419
3 850 1559 1283
3 1782 1737 1706
3 1144 1433 772
3 609 734 678
3 529 458 801
3 960 1587 735
3 840 2052 1315
3 567 1342 1112
3 1228 1762 1160
3 859 1737 1782
3 1001 983 525
3 767 1579 495
3 1204 2061 1447
3 1941 2062 1208
3 791 1852 1112
3 468 1211 1527
3 3 949 56
3 37 1062 1
3 555 1433 1144
3 1243 1965 793
3 1272 1614 738
3 497 2108 443
3 1001 1106 119
3 287 2023 495
3 2188 1583 723
3 1366 2063 548
3 283 873 282
3 124 880 123
3 713 1775 2185
3 1530 1795 522
3 793 1965 518
3 1527 1211 553
3 1535 1679 636
3 478 1935 1955
3 1229 938 416
3 548 2063 439
3 678 2075 609
3 801 2076 529
3 758 1852 1354
3 386 2212 940
3 609 839 391
3 412 1274 801
3 920 1027 919
3 940 2212 1317
3 594 1027 920
3 1656 1535 636
3 478 1955 1657
3 486 1900 1150
3 1747 2071 393
3 622 1012 1299
3 997 1478 523
3 1002 1476 1097
3 868 1549 782
3 785 1407 1011
3 633 764 1505
3 1000 1506 871
3 603 1092 739
3 950 1039 595
3 811 1881 1529
3 1473 1880 403
3 960 1963 1587
3 423 1614 514
3 1377 2015 1124
3 1778 1777 1088
3 1150 2138 486
3 1019 901 808
3 888 905 884
3 784 1838 927
3 897 1925 608
3 899 2118 398
3 1003 1660 482
3 391 1931 609
3 801 2113 412
3 1529 1881 1277
3 1278 1880 1473
3 1461 2165 489
3 752 1763 382
3 523 2251 997
3 1097 2252 1002
3 952 1643 1225
3 758 1779 567
3 663 1861 880
3 873 1459 597
3 660 1305 788
3 489 1978 1461
3 110 2316 1299
3 1747 2315 296
3 239 1415 238
3 865 933 1308
3 774 1343 1889
3 385 1485 456
3 168 703 167
3 882 1902 665
3 393 1331 689
3 1005 1560 787
3 1298 424 488
3 488 424 821
3 514 1971 1489
3 50 1028 1776
3 570 1984 698
3 1010 1609 1011
3 868 1316 1008
3 584 1043 1740
3 1740 1043 532
3 1019 1983 1126
3 1712 2240 884
3 435 1444 411
3 739 1430 603
3 1298 1503 429
3 888 887 1339
3 1341 1886 808
3 560 1614 1272
3 1359 938 1219
3 787 1560 510
3 552 1908 1262
3 1264 1909 399
3 385 1749 821
3 1740 1841 1960
3 585 1700 1409
3 280 2312 579
3 1200 2313 126
3 1833 1965 937
3 514 1489 423
3 1301 1210 43
3 605 1193 571
3 1105 992 1099
3 674 984 642
3 1564 2077 707
3 724 1582 596
3 1053 2073 729
3 941 1766 911
3 1833 1454 1965
3 911 736 941
3 339 1099 340
3 365 1564 366
3 349 596 350
3 821 1765 385
3 985 2073 1053
3 463 1811 697
3 754 1279 1897
3 1765 424 402
3 1362 1784 730
3 821 424 1765
3 949 1162 770
3 804 1578 1062
3 1795 1357 522
3 872 1268 1441
3 1530 2069 394
3 1315 2277 840
3 1740 1960 795
3 113 1993 112
3 294 1992 293
3 306 2262 1403
3 1850 2263 100
3 1748 1746 610
3 610 1746 1892
3 1006 2285 1222
3 1397 2195 561
3 509 2196 1398
3 1500 1424 810
3 1052 442 1319
3 739 1435 782
3 785 1959 950
3 873 1316 282
3 124 1609 880
3 1319 442 410
3 1403 2262 954
3 601 2263 1850
3 394 2069 1350
3 1085 1660 1003
3 1070 1475 750
3 639 2223 1495
3 22 655 348
3 367 1439 24
3 21 578 338
3 561 2169 1397
3 1398 2170 509
3 1361 1809 612
3 698 1270 570
3 951 1133 1300
3 1300 1133 543
3 443 1899 497
3 612 2174 1361
3 730 1854 664
3 1633 1703 542
3 83 1126 82
3 324 1712 323
3 1011 2313 1200
3 579 2312 868
3 927 1976 575
3 840 1797 584
3 692 1012 1159
3 1159 1012 622
3 838 1970 984
3 443 1903 677
3 788 2002 660
3 954 1446 550
3 776 1367 601
3 1489 1971 647
3 998 1382 1056
3 1225 1643 506
3 874 1703 1633
3 889 1355 432
3 1256 2046 479
3 427 1382 998
3 677 1899 443
3 1299 2316 726
3 689 2315 1747
3 402 424 1883
3 571 1988 605
3 1076 1375 528
3 642 1970 1289
3 1409 1700 809
3 598 1663 1059
3 963 1169 479
3 1289 1970 573
3 564 1435 576
3 497 1959 1054
3 358 1719 1890
3 1375 1815 528
3 1883 424 1298
3 833 1124 1368
3 1369 1778 652
3 1359 1800 416
3 911 2082 1246
3 947 1512 1827
3 728 2195 1397
3 1398 2196 1145
3 822 1730 1366
3 1539 1357 1326
3 664 1267 1362
3 597 2161 1885
3 195 2198 1217
3 546 2199 211
3 963 1434 603
3 1093 1267 664
3 984 1970 642
3 2125 1475 1070
3 1495 2223 2124
3 1110 1334 648
3 1256 1504 617
3 1512 436 1827
3 731 1610 1992
3 1993 2193 714
3 411 1885 435
3 1377 1215 275
3 131 1803 1088
3 1368 1124 400
3 433 1778 1369
3 565 2162 878
3 276 1615 1377
3 1088 2103 130
3 782 579 868
3 1011 1200 785
3 1054 2108 497
3 664 1362 730
3 106 1941 105
3 301 1447 300
3 1329 1910 687
3 777 1939 1335
3 576 1785 564
3 876 1872 430
3 727 1872 876
3 432 1702 889
3 581 2285 1006
3 969 2162 565
3 1377 1124 833
3 652 1778 1088
3 92 2064 1146
3 1072 1616 314
3 603 1430 963
3 1339 2150 888
3 808 1670 1341
3 1500 1882 1424
3 1539 1326 520
3 1317 2212 626
3 1633 519 628
3 641 1363 1075
3 429 1883 1298
3 983 1136 525
3 767 2173 1579
3 855 2075 891
3 1413 2076 827
3 432 1799 878
3 803 1085 472
3 407 519 1633
3 608 1793 897
3 398 1266 899
3 1308 2181 865
3 1364 1455 582
3 732 1455 1364
3 270 856 269
3 137 1135 136
3 449 1085 803
3 141 993 140
3 266 989 265
3 479 1702 963
3 488 1363 1298
3 576 1092 969
3 965 1977 184
3 204 1979 1391
3 222 1395 967
3 1217 2198 471
3 1327 2199 546
3 1817 1640 1250
3 1253 2083 1818
3 1816 1729 1247
3 1184 1334 1110
3 646 2222 953
3 1889 1343 805
3 1384 1674 830
3 1073 1556 1387
3 110 1299 109
3 297 1747 296
3 500 1744 1233
3 1233 1744 494
3 1235 1259 516
3 745 1259 1235
3 779 1964 1809
3 1075 1142 641
3 1226 1405 847
3 850 1593 1400
3 1736 460 308
3 98 1186 1546
3 388 593 1408
3 17 1656 277
3 129 1657 8
3 821 1276 488
3 382 1677 994
3 783 1419 658
3 1609 2313 1011
3 868 2312 1316
3 929 1490 701
3 828 1490 929
3 1994 2209 426
3 663 1348 1861
3 1459 2161 597
3 1243 793 1272
3 791 2009 1354
3 878 1434 432
3 603 2162 1092
3 944 1275 57
3 36 1576 946
3 1272 793 560
3 994 1677 720
3 933 1737 1308
3 32 1000 31
3 62 1505 61
3 1092 2162 969
3 176 1479 175
3 712 1590 162
3 244 974 743
3 518 1143 815
3 459 1800 1359
3 50 1776 49
3 22 2238 655
3 1439 2013 24
3 21 1645 578
3 1372 1963 602
3 763 1963 1372
3 1885 2161 435
3 231 935 230
3 85 1055 1303
3 1769 1767 321
3 833 1215 1377
3 1088 1803 652
3 1303 1676 84
3 322 894 1769
3 815 1143 627
3 969 1057 576
3 953 2222 1735
3 400 1110 1368
3 44 1301 43
3 695 624 1514
3 163 1842 712
3 743 1844 243
3 1368 1110 648
3 882 1565 1902
3 976 1423 1380
3 1383 2144 778
3 891 2075 678
3 529 2076 1413
3 1516 1544 975
3 1034 2044 1401
3 2020 1068 1175
3 264 1592 263
3 143 1203 142
3 1250 1724 1817
3 1818 1726 1253
3 1247 1989 1816
3 2039 2040 1300
3 466 2274 1159
3 931 981 16
3 842 959 1653
3 1326 1357 1293
3 1397 1015 728
3 1145 2210 1398
3 129 2103 1657
3 1656 1615 277
3 1369 1421 433
3 1043 1797 1882
3 1374 1971 514
3 471 1149 608
3 899 672 1327
3 452 1971 1374
3 634 1193 605
3 619 981 931
3 1081 2108 478
3 1412 812 575
3 922 1752 1206
3 1488 1754 926
3 891 1575 461
3 549 2308 1413
3 560 793 815
3 815 793 518
3 9 1306 674
3 682 1917 1190
3 1207 2235 1245
3 443 2108 1081
3 698 1984 634
3 1377 1615 1087
3 1089 2103 1088
3 689 1331 590
3 280 579 279
3 127 1200 126
3 1373 1502 828
3 815 1374 560
3 1043 1882 421
3 120 983 1001
3 495 1579 286
3 691 1928 1226
3 1400 1930 865
3 674 1306 658
3 798 1312 1060
3 1048 1276 643
3 321 1767 19
3 6 1055 85
3 92 1146 91
3 315 1072 314
3 135 1009 134
3 272 1139 271
3 1001 1356 1106
3 2023 1571 495
3 1317 1320 419
3 73 1221 72
3 334 759 333
3 891 654 855
3 827 1385 1413
3 1432 1557 656
3 618 1406 906
3 1183 1812 611
3 658 1419 674
3 1048 2046 617
3 1060 1312 542
3 1065 1263 474
3 697 2184 463
3 1897 1471 754
3 561 2195 901
3 905 2196 509
3 1321 640 570
3 627 924 815
3 523 1920 1600
3 1596 2068 1002
3 1776 1028 772
3 571 1727 1324
3 982 2039 1300
3 20 1310 329
3 77 893 5
3 626 1518 1317
3 608 1925 1217
3 546 2118 899
3 643 1276 1749
3 585 1267 1700
3 1133 823 534
3 532 1839 1455
3 1455 1839 582
3 542 956 1060
3 720 1751 994
3 994 1751 638
3 1434 2162 603
3 375 2074 942
3 320 925 319
3 87 710 86
3 608 1217 471
3 1327 546 899
3 812 1938 784
3 921 651 595
3 878 2162 1434
3 554 2276 1838
3 595 1039 921
3 648 1878 1368
3 1369 972 392
3 880 1609 1010
3 1141 2151 526
3 141 1522 993
3 989 1197 265
3 544 1291 1961
3 1960 1333 490
3 191 1879 190
3 209 1682 208
3 198 1167 197
3 180 1933 179
3 216 837 215
3 227 1296 226
3 570 1270 1321
3 655 2238 769
3 578 1645 862
3 1180 2013 1439
3 600 1275 944
3 946 1576 881
3 456 1348 1716
3 1716 1348 663
3 468 1210 1301
3 584 2052 840
3 173 1586 1346
3 1190 1917 1204
3 1208 2235 1207
3 1351 2041 233
3 1324 1988 571
3 931 441 619
3 901 2195 740
3 896 2196 905
3 1933 1859 179
3 227 2065 1296
3 1961 1291 513
3 557 1333 1960
3 877 1700 465
3 809 1700 877
3 235 1634 16
3 9 1287 171
3 1284 1475 1648
3 1480 2223 1474
3 730 1999 256
3 150 1998 1361
3 1371 1330 420
3 1514 624 448
3 889 1702 479
3 330 1310 20
3 5 893 76
3 1159 2274 692
3 270 2172 856
3 1135 741 136
3 726 895 622
3 830 2152 1384
3 1387 1386 1073
3 380 1334 1170
3 196 1693 1196
3 1689 1966 192
3 1692 1690 210
3 214 1688 1328
3 85 1303 84
3 322 1769 321
3 1361 1998 779
3 503 1999 730
3 191 1966 1879
3 1167 1693 197
3 209 1690 1682
3 837 1688 215
3 479 2046 889
3 461 1855 1384
3 1387 1857 549
3 573 2123 1246
3 1151 1650 503
3 1120 2068 757
3 476 1920 796
3 750 2150 1339
3 1341 1670 639
3 526 2036 1141
3 670 1716 663
3 679 1716 670
3 1329 2006 54
3 39 2005 1335
3 1048 2213 2046
3 392 1421 1369
3 54 1910 1329
3 1335 1939 39
3 580 1973 1289
3 670 1449 679
3 599 1449 670
3 639 2237 1341
3 1339 1171 750
3 687 1280 1329
3 1335 1281 777
3 1346 1469 173
3 586 2248 916
3 910 2249 914
3 485 1509 1515
3 1537 1353 477
3 1648 1475 1140
3 657 2223 1480
3 233 1741 1351
3 477 1917 682
3 1245 2235 485
3 860 1831 1510
3 930 1513 659
3 598 1706 1663
3 569 1513 902
3 1214 1831 425
3 902 1513 644
3 755 1831 1214
3 1495 1360 733
3 756 702 1070
3 658 1469 2096
3 783 1715 1419
3 383 1330 1371
3 283 1459 873
3 880 1861 123
3 418 1360 1495
3 1070 702 431
3 873 2319 1316
3 747 702 756
3 733 1360 1138
3 1299 1012 1046
3 1078 2071 1747
3 558 1453 451
3 434 1869 1114
3 1886 1983 1019
3 884 2240 887
3 566 1137 1139
3 1009 1229 416
3 430 1837 876
3 1139 1137 817
3 1134 1229 1009
3 1242 1529 1277
3 1278 1473 1492
3 1373 2126 1502
3 944 1481 600
3 881 1517 946
3 472 2059 803
3 89 2133 1717
3 1232 1422 317
3 508 1529 1242
3 1492 1473 492
3 789 1741 619
3 503 1650 1259
3 849 886 451
3 1060 956 650
3 1305 2304 429
3 1106 1356 464
3 990 1571 2023
3 562 1661 1359
3 1289 1973 721
3 866 1751 1109
3 638 1751 866
3 512 702 747
3 1138 1360 536
3 493 2277 1315
3 477 1353 1466
3 1079 1509 485
3 1444 2173 767
3 1046 1509 1079
3 1466 1353 1078
3 1133 1802 823
3 396 895 726
3 545 1930 146
3 260 1928 1076
3 1359 1661 459
3 2096 1469 1346
3 505 441 953
3 951 2040 1151
3 318 1232 317
3 89 1717 88
3 461 654 891
3 1413 1385 549
3 953 1735 835
3 878 651 565
3 1515 1509 692
3 1077 1353 1537
3 1043 1839 532
3 421 1839 1043
3 1366 1730 790
3 264 1197 1592
3 1203 1522 142
3 256 1854 730
3 1361 2174 150
3 1415 939 238
3 778 2153 1383
3 168 1739 703
3 1380 2155 976
3 842 2009 959
3 484 2174 612
3 664 1854 1090
3 1351 1741 789
3 1368 1636 833
3 652 1534 1369
3 473 1122 635
3 197 1693 196
3 192 1966 191
3 210 1690 209
3 215 1688 214
3 1246 2082 573
3 635 2000 473
3 803 2001 449
3 388 1819 593
3 1315 2052 846
3 734 1921 678
3 529 1332 458
3 1113 2085 1182
3 1182 2085 616
3 550 2036 954
3 601 2037 776
3 961 2025 655
3 968 1637 578
3 1439 962 572
3 577 1557 1432
3 906 1406 613
3 510 2201 787
3 559 620 1241
3 467 1402 807
3 568 1737 933
3 892 1292 677
3 1374 924 452
3 369 1101 370
3 375 942 376
3 345 1707 346
3 1170 1334 1184
3 1890 1719 1083
3 178 1859 1022
3 1032 2065 228
3 1313 1636 437
3 459 1534 1463
3 815 924 1374
3 306 1403 305
3 101 1850 100
3 1700 1267 465
3 786 1874 1239
3 1490 2192 2127
3 1107 1587 667
3 1653 959 604
3 1772 890 434
3 790 890 1772
3 757 2068 1596
3 1600 1920 476
3 525 1356 1001
3 495 1571 767
3 1000 997 31
3 62 1097 1505
3 677 1903 892
3 565 1874 969
3 525 1136 1485
3 1484 1456 661
3 1066 1268 1129
3 1057 1874 786
3 775 1547 928
3 967 1392 222
3 1391 2136 204
3 184 2134 965
3 1384 654 461
3 549 1385 1387
3 1914 1291 544
3 490 1333 1912
3 1139 1501 566
3 416 1472 1009
3 515 1015 1543
3 1967 2210 422
3 1284 1648 454
3 455 1480 1474
3 1004 1244 1027
3 853 2123 838
3 239 1898 1415
3 1316 2319 1008
3 908 2267 995
3 703 813 167
3 1255 2016 453
3 530 2017 1163
3 735 1587 1107
3 537 2123 853
3 1135 1436 613
3 577 1870 856
3 437 818 1313
3 1021 2276 554
3 1463 1800 459
3 655 2025 348
3 578 1637 338
3 367 962 1439
3 1241 1789 559
3 1503 1363 641
3 380 1170 753
3 461 1575 934
3 1606 2308 549
3 912 2016 1255
3 1163 2017 1115
3 847 1405 1592
3 1203 1593 850
3 1490 2127 771
3 535 2284 1523
3 1064 1007 589
3 386 1825 1084
3 1846 819 413
3 1771 1424 527
3 810 1424 1771
3 506 748 1500
3 942 2074 870
3 1374 1614 560
3 590 966 689
3 726 2026 396
3 1791 1021 554
3 1084 819 626
3 912 460 1736
3 1546 1186 1115
3 656 1638 1820
3 514 1614 1374
3 1296 1840 226
3 180 2079 1933
3 216 1166 837
3 198 1172 1167
3 1682 1168 208
3 1879 1174 190
3 450 1456 1484
3 612 1809 1059
3 135 741 1009
3 1139 2172 271
3 1581 1996 788
3 590 1331 1482
3 1063 1263 1065
3 1523 2284 714
3 731 1007 1064
3 999 1478 997
3 1097 1476 645
3 1159 1986 466
3 435 2173 1444
3 46 1704 45
3 626 2212 1084
3 605 1971 452
3 1484 1563 457
3 677 1292 753
3 647 1971 605
3 710 1055 86
3 320 1767 925
3 543 2097 882
3 451 886 558
3 1194 439 993
3 989 1791 1201
3 907 1446 18
3 7 1367 978
3 695 1514 1231
3 928 1547 725
3 975 1544 1014
3 1608 2044 1034
3 1175 1068 1165
3 1600 2205 523
3 1002 2206 1596
3 440 1055 710
3 925 1767 404
3 1231 1514 482
3 1271 1948 47
3 390 1655 928
3 773 1603 858
3 858 1603 499
3 356 1558 357
3 1735 1237 537
3 1183 2070 1812
3 892 1903 433
3 448 1181 1498
3 807 2219 467
3 840 2038 1797
3 358 1890 359
3 391 1811 463
3 1897 1279 412
3 576 1435 1092
3 1039 1959 497
3 410 2080 1319
3 1543 1015 1397
3 1398 2210 1967
3 1114 1772 434
3 2040 1650 1151
3 444 2256 1179
3 875 2256 444
3 993 439 417
3 637 1791 989
3 1455 2110 1841
3 993 1522 1194
3 1201 1197 989
3 48 1271 47
3 1118 1795 1530
3 817 1557 856
3 1135 1406 1134
3 856 1557 577
3 613 1406 1135
3 417 1185 993
3 989 1864 637
3 978 700 661
3 1657 2103 1089
3 1087 1615 1656
3 892 1421 392
3 1202 780 548
3 1067 1846 413
3 559 2219 807
3 537 1667 1735
3 1065 2236 475
3 636 1785 1195
3 515 1543 1206
3 1488 1967 422
3 615 1021 849
3 1455 1841 532
3 775 1904 907
3 638 1370 994
3 605 1988 647
3 993 1185 140
3 266 1864 989
3 295 966 294
3 112 2026 111
3 1485 1136 456
3 1146 1086 91
3 315 1794 1072
3 475 1845 1065
3 722 1759 1432
3 906 1625 908
3 1203 1202 1194
3 850 1202 1203
3 437 1878 875
3 917 2327 586
3 914 1551 1155
3 452 915 605
3 856 2172 817
3 1134 741 1135
3 1309 2321 866
3 1182 2322 991
3 1409 1742 585
3 1510 1831 755
3 644 1513 930
3 452 924 698
3 698 924 627
3 1608 857 521
3 943 1541 1014
3 945 1612 1165
3 866 2321 638
3 616 2322 1182
3 1871 1872 2126
3 691 1375 1076
3 1195 1785 502
3 23 1521 1130
3 605 915 634
3 1146 2064 830
3 1073 1616 1072
3 380 1238 1179
3 967 1395 943
3 521 1977 965
3 1391 1979 945
3 1022 1418 178
3 627 1270 698
3 843 1352 1239
3 1871 2126 872
3 809 823 1409
3 228 1678 1032
3 1027 1244 919
3 776 700 978
3 1769 894 1121
3 781 1676 1303
3 678 1280 891
3 1413 1281 529
3 698 915 452
3 622 895 920
3 846 1389 1061
3 1644 1643 952
3 648 2256 1878
3 1878 2256 875
3 195 1217 194
3 212 546 211
3 609 2075 839
3 1274 2076 801
3 1450 1352 843
3 907 1904 550
3 1285 1759 722
3 451 1759 1285
3 659 1291 1914
3 1912 1333 860
3 856 1870 269
3 137 1436 1135
3 634 915 698
3 10 2079 180
3 12 1172 198
3 226 1840 15
3 208 1168 13
3 14 1166 216
3 190 1174 11
3 847 1846 1067
3 597 2319 873
3 410 2029 2080
3 57 2109 944
3 946 1847 36
3 1765 1485 385
3 742 1515 408
3 1539 1537 704
3 995 1260 908
3 1625 1869 434
3 451 1453 1759
3 949 1937 56
3 37 1940 1062
3 795 1389 1740
3 1740 1389 584
3 875 1892 437
3 1855 1674 1384
3 1387 1556 1857
3 999 997 1000
3 1505 1097 645
3 1053 624 695
3 662 2267 908
3 1625 1962 908
3 943 1410 967
3 965 2246 521
3 945 2247 1391
3 1228 1470 583
3 769 909 655
3 862 2202 578
3 1439 2203 1180
3 472 1085 1003
3 908 1962 1442
3 1717 2133 749
3 1234 1422 1232
3 595 651 1799
3 998 1649 427
3 1549 2056 739
3 950 2326 1407
3 294 966 1992
3 1993 2026 112
3 587 1815 1375
3 57 1275 3
3 1 1576 36
3 1592 1197 1201
3 1194 1522 1203
3 411 1444 1142
3 649 1679 1535
3 1955 1935 885
3 753 1292 380
3 42 1668 41
3 52 802 51
3 1851 1730 822
3 920 1016 594
3 1634 1786 646
3 1293 1357 1795
3 433 1421 892
3 1523 2148 535
3 589 2149 1064
3 1305 1343 774
3 860 1333 1635
3 1037 1291 659
3 1137 1638 656
3 1538 1315 712
3 493 1315 1538
3 1721 1399 387
3 743 1399 1721
3 91 1086 90
3 316 1794 315
3 796 1733 431
3 418 1577 1120
3 807 1591 559
3 784 819 1846
3 1283 1320 708
3 419 1320 1283
3 1101 1788 370
3 345 1701 1707
3 447 890 869
3 642 2164 1287
3 1795 1705 1293
3 581 1705 1795
3 994 2278 382
3 465 1295 787
3 662 1344 428
3 524 1871 1441
3 1441 1871 872
3 2003 2310 896
3 740 1452 2004
3 908 1442 662
3 662 1442 531
3 1562 1851 575
3 1558 1521 357
3 1037 593 1038
3 569 593 1037
3 732 1047 1635
3 1635 1047 425
3 687 1910 1937
3 1940 1939 777
3 708 780 1283
3 1162 1620 770
3 804 1867 1578
3 919 1986 1159
3 1448 1924 381
3 749 1972 1717
3 1232 1753 1234
3 1109 2148 1523
3 1064 2149 1113
3 787 2201 465
3 555 2008 1531
3 1484 1340 450
3 1533 2010 553
3 1620 1205 1157
3 1158 1519 1867
3 563 1544 1516
3 1401 2044 445
3 504 1068 2020
3 740 2004 901
3 905 2003 896
3 1570 1356 525
3 767 1571 1573
3 656 1483 1432
3 1432 1483 722
3 638 2321 1370
3 545 933 865
3 787 1567 1005
3 600 1205 1620
3 1867 1519 881
3 1009 741 1134
3 817 2172 1139
3 834 1396 1379
3 1806 2244 718
3 1240 824 409
3 457 1340 1484
3 1071 1984 970
3 725 1438 928
3 849 1969 615
3 392 1273 892
3 1076 1928 691
3 865 1930 545
3 434 890 447
3 1059 1809 415
3 411 1504 1256
3 1425 1428 1016
3 355 1314 1104
3 880 1338 663
3 40 1936 2005
3 2006 1477 53
3 522 2069 1530
3 1037 2121 1291
3 1108 2227 360
3 392 972 1094
3 1479 2100 175
3 661 700 1484
3 1060 2294 798
3 631 1996 1581
3 858 1894 773
3 626 812 1412
3 1004 1027 1258
3 1258 1027 594
3 1828 2275 2024
3 1466 1917 477
3 485 2235 1079
3 928 1904 775
3 447 1188 531
3 542 1312 1633
3 906 1260 618
3 928 1438 390
3 231 1554 935
3 1633 1312 407
3 1130 1719 23
3 1094 2086 392
3 2163 1667 853
3 531 2101 662
3 1284 2150 750
3 639 1670 1474
3 33 1191 871
3 633 1288 60
3 531 1442 447
3 715 1696 1022
3 1032 2145 1033
3 395 1129 1373
3 1649 1862 427
3 428 1323 863
3 1191 2248 586
3 914 2249 1288
3 770 2060 949
3 1062 1604 804
3 664 1815 1093
3 808 2004 1474
3 1284 2003 888
3 187 766 186
3 220 832 219
3 202 1725 201
3 914 1974 910
3 916 1414 586
3 684 1932 1189
3 1246 2123 537
3 729 624 1053
3 1370 2321 1080
3 46 867 1704
3 586 2327 918
3 751 1551 914
3 176 1290 1479
3 1077 2275 1828
3 869 1851 1562
3 1680 1589 673
3 184 1977 183
3 205 1979 204
3 223 1395 222
3 1774 1152 632
3 2146 2261 708
3 835 1667 2163
3 1016 1428 594
3 935 879 230
3 980 1375 691
3 1153 2143 598
3 1116 1343 660
3 753 1450 677
3 469 1555 917
3 1155 1552 539
3 1283 2224 850
3 413 819 1084
3 1243 1948 1271
3 908 1260 906
3 759 1491 333
3 73 1497 1221
3 2169 2182 1397
3 1398 2183 2170
3 1225 1399 952
3 1380 1423 470
3 1853 2144 1383
3 798 2219 1789
3 1783 1832 554
3 502 1805 1195
3 660 2002 797
3 1785 1679 564
3 1448 737 635
3 1347 1739 169
3 381 737 1448
3 1596 1390 757
3 476 1856 1600
3 762 1117 1104
3 1036 2121 1038
3 1355 2213 643
3 889 2213 1355
3 865 2181 1559
3 275 1215 274
3 132 1803 131
3 1263 2217 474
3 1303 1055 440
3 404 1767 1769
3 636 1679 1785
3 1104 1117 355
3 733 2117 1495
3 1070 1524 756
3 1059 1663 612
3 535 2148 1236
3 1624 2149 589
3 1236 2148 720
3 1111 2149 1624
3 851 2158 2049
3 825 1848 681
3 237 939 864
3 592 1390 1596
3 1600 1856 760
3 451 1969 849
3 1529 1553 811
3 403 2295 1473
3 1500 748 421
3 611 2163 853
3 1067 2030 691
3 96 1164 95
3 311 814 310
3 1482 1750 604
3 516 2039 1235
3 1233 1902 500
3 1131 1015 515
3 422 2210 1520
3 1075 1504 1142
3 1039 1662 921
3 738 2324 1704
3 521 857 1977
3 1979 1612 945
3 1395 1541 943
3 515 1205 1131
3 1520 1519 422
3 431 2125 1070
3 1495 2124 418
3 1199 1860 955
3 1195 1805 400
3 863 1548 428
3 960 1705 581
3 735 1705 960
3 1108 1325 507
3 1010 1338 880
3 1404 2121 1036
3 360 1325 1108
3 1022 1859 715
3 1033 2065 1032
3 1334 2256 648
3 994 1370 805
3 105 2001 104
3 302 2000 301
3 725 1862 1727
3 600 1620 1162
3 1578 1867 881
3 655 1919 961
3 578 2234 968
3 572 2233 1439
3 974 1399 743
3 712 1315 1590
3 1592 1832 847
3 1254 1624 904
3 1218 1236 1622
3 691 2030 980
3 1061 1389 795
3 861 1643 1644
3 1179 1334 380
3 887 2288 1339
3 1341 1906 1886
3 610 2226 1031
3 1424 1882 705
3 650 2151 1141
3 1501 1956 566
3 416 1915 1472
3 337 0 25
3 68 4 69
3 958 2147 1738
3 1627 1642 388
3 750 1475 1284
3 1474 2223 639
3 640 2029 450
3 1179 2086 444
3 1177 2152 830
3 1073 1386 1618
3 1372 1244 1004
3 1892 2226 610
3 728 1015 1131
3 1520 2210 1145
3 1607 1957 1231
3 428 2267 662
3 581 1006 960
3 487 1640 1817
3 462 1729 1816
3 1818 2083 491
3 253 483 252
3 154 1486 153
3 1407 2122 1010
3 1432 1453 577
3 613 1869 906
3 635 1122 1448
3 1817 1724 551
3 406 1726 1818
3 1816 1989 438
3 1716 1673 385
3 1204 2176 1190
3 1207 2177 1208
3 1179 2256 1334
3 863 1323 610
3 420 1683 1371
3 1434 1702 432
3 1162 1275 600
3 881 1576 1578
3 121 983 120
3 286 1579 285
3 540 1136 983
3 1579 2173 1161
3 1403 2158 851
3 681 1848 1850
3 408 2274 466
3 520 2275 1539
3 1783 1846 847
3 949 2060 1937
3 1940 1604 1062
3 1885 1652 597
3 1635 2225 732
3 1008 1934 1549
3 1362 1267 585
3 1289 2082 580
3 1220 2319 597
3 1937 2060 687
3 777 1604 1940
3 444 2226 875
3 1228 1954 1470
3 710 1985 922
3 926 1718 925
3 237 864 236
3 1142 1504 411
3 628 1770 1302
3 1498 2142 472
3 170 1347 169
3 465 1267 1093
3 423 2324 1614
3 1257 2166 1031
3 838 1376 1183
3 1466 2259 299
3 107 1025 1079
3 1941 2001 105
3 301 2000 1447
3 768 2236 1065
3 634 1984 1071
3 87 1985 710
3 925 1718 319
3 461 2057 1855
3 1857 2211 549
3 1861 1348 540
3 1161 2161 1459
3 503 1259 1261
3 1261 1259 745
3 556 1744 779
3 494 1744 556
3 1009 1472 134
3 272 1501 1139
3 146 1930 145
3 261 1928 260
3 600 1481 1131
3 1520 1517 881
3 911 1683 736
3 1791 2137 1021
3 1766 2082 911
3 693 1781 1130
3 386 1835 1560
3 1076 2207 260
3 146 2323 545
3 1104 2099 762
3 507 2098 1108
3 722 2101 1285
3 1130 1781 611
3 810 2132 1225
3 781 2169 1126
3 1712 2170 1121
3 805 1343 1116
3 1084 1825 1807
3 888 2150 1284
3 1474 1670 808
3 248 852 247
3 159 496 158
3 1206 1543 440
3 404 1967 1488
3 855 1242 839
3 1274 1492 827
3 299 2061 1466
3 1079 2062 107
3 1510 1468 860
3 659 1913 930
3 1890 614 507
3 1704 2324 1512
3 575 2146 1412
3 573 2082 1289
3 1510 2048 155
3 251 2047 930
3 497 1662 1039
3 667 2043 1107
3 1318 2178 870
3 1105 1821 690
3 1083 614 1890
3 1258 1428 1218
3 1310 2214 329
3 77 2215 893
3 1181 2217 1498
3 1613 1949 547
3 703 1949 1613
3 1580 2179 707
3 724 1824 1192
3 502 2139 1074
3 1202 2224 780
3 1696 2185 1022
3 853 1667 537
3 575 1976 1562
3 284 1459 283
3 123 1861 122
3 586 1414 917
3 1155 1974 914
3 539 1974 1155
3 917 1414 469
3 1310 1773 756
3 733 2115 893
3 862 2011 1443
3 1804 2012 1180
3 769 1943 1336
3 1371 1683 1127
3 1502 2126 727
3 1219 1548 562
3 995 1548 1219
3 701 1658 987
3 987 1658 1415
3 762 1951 1558
3 394 1511 1530
3 1530 1511 1118
3 1032 2188 2145
3 1704 867 738
3 461 1017 2057
3 2211 2280 549
3 770 1620 1755
3 1757 1867 804
3 1558 1951 693
3 482 1607 1231
3 874 2218 1703
3 103 1069 102
3 304 1768 303
3 700 1563 1484
3 1531 442 1052
3 755 2048 1510
3 930 2047 644
3 1056 1382 1533
3 381 1924 1302
3 18 1446 307
3 99 1367 7
3 1079 1025 1046
3 1078 2259 1466
3 1695 2218 874
3 454 2003 1284
3 1474 2004 455
3 437 1636 1878
3 972 1534 459
3 140 1185 139
3 267 1864 266
3 781 2182 2169
3 2170 2183 1121
3 536 1675 1307
3 2028 2072 512
3 738 867 1272
3 871 1506 33
3 60 764 633
3 911 1952 1683
3 1548 2267 428
3 1120 1675 418
3 431 2072 796
3 1373 1129 872
3 1107 2043 1128
3 1302 2204 628
3 1241 2095 1789
3 442 2153 410
3 928 1655 1904
3 1383 2153 442
3 1019 2128 901
3 905 2296 884
3 440 1731 1206
3 1488 1528 404
3 596 2025 961
3 572 962 1564
3 1099 1637 968
3 152 556 151
3 255 1261 254
3 1527 2114 800
3 630 2112 1144
3 19 1767 320
3 86 1055 6
3 1224 1845 475
3 550 1446 907
3 978 1367 776
3 674 1419 984
3 475 1416 1224
3 1051 1862 725
3 954 2262 1446
3 1367 2263 601
3 1285 2265 451
3 466 1632 408
3 1222 1632 1223
3 1223 1632 466
3 799 2114 1527
3 1144 2112 986
3 427 2155 1382
3 510 1304 877
3 450 2029 1095
3 1382 2155 1380
3 1013 1894 1949
3 528 2207 1076
3 876 2300 858
3 1103 1788 1101
3 1707 1701 719
3 1181 1619 474
3 756 1887 1310
3 893 1525 733
3 1415 1658 939
3 1216 1619 1181
3 1111 1929 1896
3 1156 2185 1358
3 805 2278 994
3 1013 1949 1041
3 750 1524 1070
3 1495 2117 639
3 742 1957 1607
3 505 2084 441
3 713 2185 1696
3 1505 764 61
3 32 1506 1000
3 179 1859 178
3 228 2065 227
3 1081 1903 443
3 869 1188 447
3 1379 1396 498
3 621 2244 1806
3 409 824 511
3 604 1345 1482
3 1482 1345 590
3 935 1420 879
3 1290 2239 1479
3 449 1660 1085
3 1095 1456 450
3 1084 2212 386
3 1546 2017 384
3 671 2016 1736
3 774 1889 1760
3 1760 1889 606
3 1658 1147 1297
3 103 1743 1069
3 1768 1654 303
3 1736 2016 912
3 1115 2017 1546
3 1265 2191 336
3 70 1907 1761
3 1221 1995 72
3 334 1997 759
3 1980 2188 883
3 2145 2188 723
3 871 1681 675
3 401 2250 633
3 1045 1658 1297
3 1340 1860 1199
3 1435 1858 782
3 785 1686 1959
3 1755 1620 1157
3 1158 1867 1757
3 1206 1731 922
3 926 1528 1488
3 664 2293 1815
3 1739 1949 703
3 598 2143 1304
3 1206 2050 515
3 422 1487 1488
3 308 460 18
3 7 1186 98
3 155 1468 1510
3 930 1913 251
3 936 1563 776
3 550 1655 1141
3 708 2261 780
3 602 1244 1372
3 1960 1841 557
3 725 1547 1051
3 349 2025 596
3 1564 962 366
3 339 1637 1099
3 447 1962 434
3 258 1090 257
3 149 484 148
3 668 1958 1449
3 541 2070 1376
3 1084 1807 413
3 269 1870 268
3 138 1436 137
3 782 1858 579
3 1200 1686 785
3 433 1903 1081
3 18 460 907
3 978 1186 7
3 1058 2242 1080
3 1041 1739 1347
3 784 1846 1783
3 1879 1178 1024
3 1682 2020 1175
3 1020 2019 837
3 1296 1516 975
3 1034 1401 1933
3 1026 971 1167
3 533 1951 505
3 408 1957 742
3 1130 1521 693
3 864 939 1045
3 417 1710 1185
3 611 1812 1130
3 693 1951 533
3 1379 1884 834
3 718 1723 1806
3 409 2305 1240
3 441 1893 953
3 2005 1936 680
3 709 1477 2006
3 980 1567 587
3 1005 1567 980
3 464 1868 2228
3 2022 2283 990
3 1738 2147 1438
3 797 1342 567
3 1169 1430 414
3 606 2242 1058
3 1065 1619 768
3 763 1994 1587
3 1587 1994 667
3 963 1430 1169
3 663 1338 670
3 1107 1326 735
3 520 1326 1107
3 165 1561 1189
3 901 2128 561
3 509 2296 905
3 952 1399 974
3 1590 1315 846
3 828 2066 1373
3 1373 2066 395
3 357 1521 23
3 604 1750 1653
3 1680 1550 241
3 1061 2054 160
3 246 1230 1644
3 474 1619 1065
3 292 1610 1064
3 1523 2193 114
3 985 1942 1350
3 907 2167 775
3 661 2168 978
3 476 2028 759
3 1221 1307 757
3 1111 1896 948
3 488 1905 1363
3 1363 1905 1075
3 400 2015 1195
3 17 1535 1656
3 1657 1955 8
3 1271 1965 1243
3 1131 1205 600
3 881 1519 1520
3 1189 1932 481
3 847 1832 1783
3 1505 2089 401
3 675 2090 1000
3 164 1842 163
3 243 1844 242
3 973 1589 1680
3 1160 1762 446
3 1350 1942 394
3 1256 1885 411
3 374 1569 1318
3 690 1814 341
3 704 2105 1539
3 1318 2254 2178
3 1821 2255 690
3 1151 1784 585
3 721 1973 1347
3 1302 1770 694
3 761 2217 1263
3 1580 1775 2179
3 1824 1583 1192
3 364 1891 1580
3 1192 2157 351
3 708 1518 1412
3 1222 2285 1922
3 645 2089 1505
3 1000 2090 999
3 1565 2269 500
3 1832 1790 554
3 1531 1829 555
3 970 1601 1071
3 1014 1544 943
3 521 2044 1608
3 1165 1068 945
3 1347 1973 1041
3 594 1428 1258
3 810 1532 1500
3 525 2306 1570
3 1573 2307 767
3 1262 2194 1755
3 1757 2281 1264
3 553 1981 1533
3 934 2060 770
3 804 1604 1606
3 1215 2007 716
3 1282 1462 1803
3 1376 2070 1183
3 864 1330 383
3 650 1585 1060
3 866 2104 116
3 290 2107 1182
3 1189 2129 165
3 858 2300 1894
3 1138 2115 733
3 756 1773 747
3 870 2279 942
3 719 2032 1707
3 1101 1499 1103
3 1045 1330 864
3 836 1086 1146
3 1072 1794 688
3 1500 1532 506
3 786 1352 1170
3 42 1210 1668
3 802 1028 51
3 473 1697 1122
3 241 2131 1680
3 768 1619 620
3 1218 1623 1258
3 515 2050 1205
3 1519 1487 422
3 392 2086 1238
3 564 1858 1435
3 1959 1686 1054
3 421 1882 1500
3 963 1702 1434
3 1449 1958 679
3 670 2122 599
3 625 1178 1879
3 1023 2020 1682
3 837 2019 1029
3 1933 1401 715
3 1167 971 711
3 1033 1516 1296
3 709 1921 734
3 458 1332 680
3 1150 1900 1132
3 408 2289 1957
3 587 1375 980
3 1170 1352 753
3 1600 1508 28
3 65 1388 1596
3 1634 1411 383
3 620 1619 1216
3 2169 2128 1126
3 1712 2296 2170
3 1141 2036 550
3 776 2037 936
3 602 1963 960
3 1592 1405 263
3 143 1593 1203
3 466 1986 1223
3 438 1336 1816
3 551 1443 1817
3 1818 1804 406
3 336 2191 335
3 71 1907 70
3 1300 1982 982
3 543 1982 1300
3 1443 2011 666
3 685 2012 1804
3 1336 1943 829
3 1596 2206 65
3 28 2205 1600
3 1523 2154 1109
3 1113 2106 1064
3 2208 2293 1090
3 484 2292 1598
3 1142 1444 820
3 1141 1349 650
3 235 1411 1634
3 574 2165 1461
3 116 2229 866
3 1182 2230 290
3 757 1390 1221
3 759 1856 476
3 224 588 1014
3 1608 2081 182
3 206 2078 1165
3 1408 593 569
3 425 1047 1627
3 1990 2120 1269
3 806 2119 1991
3 1069 1743 803
3 473 1654 1768
3 721 1826 1287
3 586 1681 1191
3 1288 2250 914
3 1554 1796 935
3 1177 2268 2152
3 1386 1617 1618
3 1755 2194 770
3 804 2281 1757
3 1479 1526 2100
3 1195 2015 1836
3 454 2310 2003
3 2004 1452 455
3 922 1731 710
3 925 1528 926
3 1287 1826 171
3 818 1956 1313
3 566 1956 818
3 1138 826 75
3 331 1602 747
3 732 2225 2110
3 1333 2225 1635
3 627 1143 1319
3 1103 1098 1198
3 1787 2180 719
3 1793 1187 897
3 398 2141 1266
3 772 1433 1776
3 380 1273 1238
3 534 1666 1926
3 1298 1363 1503
3 765 1485 1765
3 1227 1885 1256
3 1047 1642 1627
3 746 2138 1150
3 1191 1681 871
3 633 2250 1288
3 382 1763 1622
3 240 1898 239
3 1223 1006 1222
3 167 813 166
3 570 640 1199
3 1738 1727 571
3 953 1893 646
3 1957 2289 632
3 93 1944 1177
3 1618 2299 313
3 1301 1211 468
3 755 1233 1486
3 1486 1233 494
3 483 1235 644
3 745 1235 483
3 998 1489 647
3 710 1731 440
3 404 1528 925
3 1071 1193 634
3 1292 1273 380
3 1461 1978 845
3 977 2326 950
3 464 2228 1106
3 2023 2022 990
3 1254 2290 791
3 792 1623 1622
3 904 2290 1254
3 1622 1623 1218
3 1782 1304 510
3 598 1304 1782
3 1816 1336 829
3 1817 1443 666
3 685 1804 1818
3 160 1888 1061
3 1644 1588 246
3 1728 2125 431
3 418 2124 1732
3 1064 1610 731
3 714 2193 1523
3 957 1193 1071
3 1378 2016 671
3 384 2017 996
3 953 1628 505
3 972 1950 1094
3 567 1779 1647
3 1193 1801 571
3 1249 1640 1026
3 1050 1729 1020
3 1024 2083 1252
3 58 2249 2109
3 1847 2248 35
3 1061 1888 846
3 952 1588 1644
3 1201 1832 1592
3 75 2115 1138
3 747 1773 331
3 415 1322 1153
3 957 1801 1193
3 1064 2106 292
3 114 2154 1523
3 1250 1640 1249
3 1247 1729 1050
3 1252 2083 1253
3 1131 2220 728
3 1145 2221 1520
3 579 1858 649
3 885 1686 1200
3 795 2054 1061
3 1644 1230 861
3 775 2167 1255
3 1163 2168 661
3 1004 1834 1372
3 1515 2274 408
3 1539 2275 1537
3 570 1946 1984
3 1151 1742 951
3 378 1695 1122
3 1789 2219 559
3 835 1628 953
3 696 1342 797
3 528 2293 2208
3 1598 2292 1213
3 866 2229 1309
3 991 2230 1182
3 940 1835 386
3 333 1491 332
3 74 1497 73
3 1122 1695 1448
3 1984 1946 970
3 770 2194 934
3 1606 2281 804
3 413 2030 1067
3 585 1742 1151
3 1052 1829 1531
3 463 2008 986
3 1533 1981 1056
3 799 2010 1897
3 988 1961 513
3 861 1961 988
3 2109 2249 910
3 916 2248 1847
3 959 1626 604
3 607 2008 463
3 877 2143 809
3 1897 2010 480
3 1622 1677 382
3 389 1929 1254
3 1827 1211 947
3 676 2120 1990
3 1991 2119 683
3 1177 2064 93
3 313 1616 1618
3 420 1330 1297
3 503 1784 1151
3 1294 1394 792
3 450 1340 1199
3 1297 1330 1045
3 553 1211 1827
3 1318 2074 374
3 341 992 690
3 1580 2077 364
3 351 1582 1192
3 1738 1438 725
3 1797 2038 705
3 1560 1923 510
3 1013 1973 580
3 465 2201 877
3 937 1433 1833
3 1776 1433 937
3 1789 2095 407
3 1041 1973 1013
3 636 1836 1656
3 832 1843 219
3 1725 1248 201
3 187 1251 766
3 984 1376 838
3 3 1275 1162
3 1578 1576 1
3 1063 1845 1224
3 662 2101 1344
3 947 1211 1301
3 660 1343 1305
3 1224 1416 955
3 1833 1433 555
3 766 2186 186
3 220 2187 832
3 202 2135 1725
3 178 1418 177
3 694 1437 1302
3 980 1722 1005
3 995 2267 1548
3 1156 2239 1290
3 901 2004 808
3 888 2003 905
3 96 1464 1164
3 814 2160 310
3 1291 2121 513
3 1302 1437 381
3 961 1671 596
3 968 2257 1099
3 1564 2093 572
3 253 900 483
3 1486 2286 153
3 1809 1964 415
3 964 1877 572
3 961 1916 1756
3 968 1918 1875
3 1164 1599 95
3 311 2018 814
3 958 2102 1154
3 1016 1431 1425
3 1185 1710 669
3 879 1420 883
3 229 1678 228
3 1122 1697 378
3 1350 1465 985
3 1224 1860 457
3 833 2007 1215
3 1803 1462 652
3 1071 1601 397
3 751 2250 401
3 675 1681 918
3 81 1886 80
3 326 887 325
3 1005 1825 1560
3 1355 2159 432
3 841 1746 1748
3 34 1191 33
3 60 1288 59
3 628 2204 1633
3 381 1605 737
3 1660 1607 482
3 737 1605 1190
3 1207 1607 1660
3 779 1998 556
3 1261 1999 503
3 870 2074 1318
3 690 992 1105
3 507 1715 783
3 596 1458 724
3 707 2092 1564
3 1099 1566 1105
3 955 1860 1224
3 499 2200 858
3 1127 1237 1735
3 872 2126 1373
3 1322 1666 534
3 457 2156 1224
3 544 1961 852
3 496 1960 490
3 390 2147 1154
3 707 2077 1580
3 1192 1582 724
3 483 900 745
3 494 2286 1486
3 1223 1597 602
3 1093 1295 465
3 1559 2181 419
3 979 2084 762
3 1065 1845 1063
3 1902 1565 500
3 1109 2104 866
3 1182 2107 1113
3 1319 2080 627
3 984 1419 541
3 716 1956 1501
3 1472 1915 1282
3 1014 1541 224
3 182 857 1608
3 1165 1612 206
3 459 1950 972
3 500 2269 1744
3 1154 2147 958
3 1154 1349 390
3 1436 2302 613
3 577 2301 1870
3 474 2217 1181
3 862 1443 1379
3 1806 1804 1180
3 769 1336 409
3 934 1017 461
3 549 2280 1606
3 1663 2292 612
3 1656 1836 1087
3 256 1999 255
3 151 1998 150
3 679 1673 1716
3 830 2064 1177
3 1618 1616 1073
3 453 2016 1378
3 996 2017 530
3 1114 1710 1772
3 1834 2209 1372
3 624 1901 448
3 1408 1713 388
3 388 1713 1627
3 1627 1713 405
3 1224 2156 1063
3 939 1658 1045
3 488 1276 1048
3 1799 651 878
3 1063 1953 1263
3 480 2318 470
3 1853 1536 607
3 1116 2278 805
3 1562 2171 869
3 597 1652 1220
3 470 2318 1380
3 1383 1536 1853
3 1560 1825 386
3 615 923 1562
3 1258 1623 792
3 1562 1976 615
3 1704 1512 947
3 1231 1152 695
3 248 2042 852
3 496 2021 158
3 1255 2167 912
3 1115 2168 1163
3 977 1449 599
3 644 2047 483
3 1486 2048 755
3 668 1449 977
3 650 1349 1154
3 798 1789 1312
3 134 1472 133
3 273 1501 272
3 166 1561 165
3 716 1611 1215
3 1803 2272 1282
3 241 1550 240
3 1883 2045 402
3 1160 2245 1572
3 72 1995 71
3 335 1997 334
3 796 1478 1733
3 1577 1476 1120
3 852 2042 544
3 490 2021 496
3 376 2014 377
3 346 1393 347
3 368 1968 369
3 1752 2050 1206
3 1488 1487 1754
3 354 1314 355
3 23 1719 358
3 1596 1388 592
3 760 1508 1600
3 1294 1779 758
3 1041 1949 1739
3 1456 1429 661
3 1647 1763 752
3 1717 1972 922
3 926 1753 1232
3 775 1665 1547
3 1970 2123 573
3 1312 1789 407
3 1402 1212 807
3 330 1773 1310
3 893 2115 76
3 904 1626 959
3 426 1834 1294
3 360 2227 361
3 1160 1572 501
3 1627 1639 425
3 569 1698 1408
3 895 1016 920
3 2303 2035 1760
3 157 1912 156
3 250 1914 249
3 1154 1585 650
3 653 1493 711
3 1023 1691 1822
3 625 1687 1100
3 1823 1694 1029
3 1048 1905 488
3 617 1905 1048
3 788 1996 2002
3 516 2040 2039
3 797 2002 696
3 661 1429 1163
3 1255 1665 775
3 576 2139 1785
3 1319 1975 1052
3 1864 2053 637
3 185 2134 184
3 222 1392 221
3 204 2136 203
3 647 1649 998
3 233 2041 232
3 805 2242 1889
3 1805 1074 1184
3 26 1720 25
3 68 932 67
3 174 1586 173
3 1412 1518 626
3 677 1450 1899
3 1633 2204 874
3 1310 1887 2214
3 2215 1525 893
3 445 2092 1096
3 1102 1458 563
3 1822 1566 504
3 2102 1585 1154
3 767 2307 1444
3 1014 588 975
3 1034 2081 1608
3 1165 2078 1175
3 544 2042 1914
3 1912 2021 490
3 44 1173 1301
3 922 1985 1717
3 1232 1718 926
3 56 1937 55
3 38 1940 37
3 75 826 74
3 332 1602 331
3 1899 1450 843
3 1756 1916 943
3 521 1877 964
3 1875 1918 945
3 783 2096 486
3 996 1507 384
3 671 2273 1378
3 1407 2326 2122
3 1081 1798 1777
3 606 2303 1760
3 165 2129 164
3 489 789 979
3 242 2131 241
3 538 1585 2102
3 922 1972 1752
3 1754 1753 926
3 506 2088 748
3 534 823 1322
3 1038 2121 1037
3 809 2143 1153
3 405 1780 1627
3 318 1718 1232
3 1717 1985 88
3 1735 1667 835
3 1816 1119 462
3 1817 2031 487
3 491 1708 1818
3 1358 1775 903
3 1772 1710 417
3 1901 2311 1216
3 947 1173 1704
3 697 1881 996
3 1378 1880 754
3 715 1859 1933
3 1296 2065 1033
3 918 1681 586
3 914 2250 751
3 486 2098 783
3 693 1521 1558
3 510 1923 1782
3 1782 1923 859
3 795 1960 496
3 852 1961 861
3 2010 2297 553
3 1056 1646 998
3 1704 1173 45
3 996 1881 811
3 403 1880 1378
3 555 2298 2008
3 744 1583 1980
3 979 2099 489
3 783 2098 507
3 1051 1547 976
3 1370 2242 805
3 778 1456 1095
3 665 1902 1214
3 902 2039 982
3 383 1786 1634
3 790 2063 1366
3 1053 1942 985
3 762 2099 979
3 658 2096 783
3 1306 1469 658
3 979 789 619
3 1287 2164 721
3 1098 1209 1198
3 1787 1125 2180
3 695 1568 1053
3 1092 1435 739
3 950 1959 1039
3 829 1119 1816
3 666 2031 1817
3 1818 1708 685
3 1783 1838 784
3 554 1838 1783
3 551 1884 1379
3 1806 1723 406
3 438 2305 409
3 1096 2092 707
3 724 1458 1102
3 1105 1566 1822
3 1636 2007 833
3 652 1462 1534
3 481 2129 1189
3 1355 1958 668
3 1706 1737 568
3 619 1741 981
3 258 2208 1090
3 484 1598 148
3 1752 1972 552
3 399 1753 1754
3 933 1540 568
3 2187 2305 832
3 766 1723 2186
3 2135 1884 1725
3 1680 2131 973
3 1164 1553 1599
3 2018 2295 814
3 1265 1720 26
3 67 932 1761
3 162 1590 161
3 245 974 244
3 975 1840 1296
3 1933 2079 1034
3 837 1166 1020
3 1167 1172 1026
3 1175 1168 1682
3 1024 1174 1879
3 401 2231 751
3 918 2232 675
3 1205 2050 1157
3 1158 1487 1519
3 309 1736 308
3 98 1546 97
3 942 2279 2031
3 1707 2032 1119
3 1708 1499 1101
3 583 1714 1228
3 937 1965 1271
3 1485 2306 525
3 2069 1770 1350
3 2204 1924 874
3 694 1770 2069
3 541 1376 984
3 1813 1721 387
3 973 1721 1813
3 493 1538 1365
3 1365 1538 481
3 1820 1638 841
3 587 1295 1093
3 278 1535 17
3 8 1955 128
3 1344 2101 722
3 942 2031 666
3 1707 1119 829
3 685 1708 1101
3 877 2201 510
3 599 2326 977
3 331 1773 330
3 76 2115 75
3 566 1638 1137
3 1118 2285 1795
3 425 1639 1214
3 902 1698 569
3 1214 1639 665
3 982 1698 902
3 2122 2326 599
3 522 1808 2069
3 328 831 327
3 79 1176 78
3 41 1936 40
3 53 1477 52
3 1761 932 70
3 336 1720 1265
3 70 932 69
3 337 1720 336
3 1302 1924 2204
3 1838 2276 927
3 1782 1706 598
3 1947 2292 1663
3 155 2048 154
3 252 2047 251
3 247 1230 246
3 160 2054 159
3 502 1074 1805
3 1914 1913 659
3 860 1468 1912
3 729 2311 1901
3 678 1921 1280
3 1281 1332 529
3 585 1784 1362
3 453 1423 1255
3 1163 2144 530
3 1244 1597 919
3 657 2231 1732
3 1728 2232 1140
3 1657 1798 478
3 1255 1423 976
3 778 2144 1163
3 1189 1561 684
3 389 1091 1123
3 1123 1091 696
3 701 987 929
3 929 987 673
3 706 1187 1793
3 1266 2141 717
3 556 1998 151
3 255 1999 1261
3 1820 1748 794
3 1653 2043 667
3 673 1550 1680
3 653 2178 1493
3 1691 1821 1822
3 1823 2180 1694
3 1687 1098 1100
3 846 2052 1389
3 1515 1245 485
3 477 682 1537
3 1258 1394 1004
3 792 1394 1258
3 471 2140 1149
3 672 2325 1327
3 448 1901 1181
3 618 1863 1406
3 1557 1595 656
3 362 1381 1664
3 426 2209 1834
3 1663 1706 568
3 937 2051 1776
3 651 2260 565
3 675 2232 1728
3 1732 2231 401
3 921 2260 651
3 371 1788 1198
3 1787 1701 344
3 2178 2254 591
3 686 2255 1821
3 1320 1518 708
3 379 1953 2037
3 498 2202 1379
3 1806 2203 621
3 511 909 409
3 861 1230 852
3 496 2054 795
3 1371 2222 646
3 1210 1672 1668
3 802 1631 1028
3 811 1507 996
3 1378 2273 403
3 1313 2007 1636
3 1534 1462 1463
3 1684 913 353
3 1271 2051 937
3 1107 2024 520
3 1552 2195 728
3 1145 2196 1555
3 1128 2024 1107
3 814 2273 2160
3 1464 1507 1164
3 61 764 60
3 33 1506 32
3 819 1938 626
3 1127 2222 1371
3 536 826 1138
3 747 1602 512
3 2179 1775 713
3 723 1583 1824
3 409 1336 438
3 1379 1443 551
3 406 1804 1806
3 1928 2291 1226
3 1400 2034 1930
3 1664 1426 362
3 1089 1798 1657
3 373 1569 374
3 341 1814 342
3 390 1349 1655
3 382 2278 1116
3 150 2174 149
3 257 1854 256
3 1664 1381 746
3 568 1540 1947
3 740 2195 1552
3 1555 2196 896
3 363 1891 364
3 351 2157 352
3 563 1516 1102
3 1096 1401 445
3 653 971 487
3 1823 2019 462
3 504 2020 1822
3 491 1178 1100
3 903 1426 1664
3 1563 2156 457
3 1397 2182 1543
3 1967 2183 1398
3 501 1954 1228
3 1219 1260 995
3 643 1958 1355
3 263 1405 262
3 144 1593 143
3 353 1457 1684
3 1071 1911 957
3 1379 2202 862
3 1180 2203 1806
3 409 909 769
3 1664 1629 903
3 397 1911 1071
3 845 913 1684
3 513 1404 988
3 988 1404 1018
3 2037 1953 936
3 1776 2051 49
3 1093 1815 587
3 1280 1921 1329
3 1335 1332 1281
3 218 1050 217
3 200 1249 199
3 189 1252 188
3 45 1173 44
3 234 1741 233
3 1684 1457 744
3 1123 1996 631
3 1655 1349 1141
3 173 1469 172
3 556 2286 494
3 152 2286 556
3 1261 900 254
3 745 900 1261
3 1689 1687 625
3 711 1493 1196
3 1692 1691 1023
3 1029 1694 1328
3 377 2014 2011
3 347 1393 1943
3 2012 1968 368
3 1133 2097 543
3 1300 2040 951
3 684 1837 1932
3 936 2156 1563
3 625 1966 1689
3 1196 1693 711
3 1023 1690 1692
3 1328 1688 1029
3 746 2243 1664
3 2080 2029 1321
3 132 2272 1803
3 1215 1611 274
3 943 1544 1756
3 964 2044 521
3 945 1068 1875
3 1785 2139 502
3 65 2206 64
3 29 2205 28
3 1157 2050 1752
3 1754 1487 1158
3 1560 1835 1923
3 16 981 234
3 1533 2318 2010
3 2008 1536 1531
3 1301 1173 947
3 818 1638 566
3 83 1676 1126
3 1712 894 323
3 744 1542 1684
3 372 1991 373
3 342 1990 343
3 401 2089 1732
3 1728 2090 675
3 2010 2318 480
3 607 1536 2008
3 1668 1936 41
3 52 1477 802
3 172 1306 9
3 715 1401 1096
3 711 971 653
3 1102 1516 1033
3 1029 2019 1823
3 1822 2020 1023
3 1100 1178 625
3 1196 2198 196
3 192 2197 1689
3 210 2199 1692
3 1328 1651 214
3 574 1796 1554
3 28 1508 27
3 66 1388 65
3 402 2035 1765
3 480 1471 1897
3 463 2184 607
3 471 2198 1196
3 1689 2197 897
3 1692 2199 1327
3 398 1651 1328
3 559 1591 620
3 156 1468 155
3 251 1913 250
3 2100 1526 1132
3 955 1946 1199
3 1684 2241 845
3 1372 2209 763
3 1738 1801 958
3 2228 2229 117
3 289 2230 2022
3 631 1714 1123
3 161 1888 160
3 246 1588 245
3 1412 2146 708
3 1123 1896 389
3 583 1896 1123
3 1265 1460 760
3 592 2116 1761
3 524 1584 2067
3 1126 1676 781
3 1121 894 1712
3 791 2290 959
3 959 2290 904
3 54 2006 53
3 40 2005 39
3 897 1187 1689
3 1196 2140 471
3 1327 2325 1692
3 1328 2141 398
3 508 2189 2152
3 1386 2190 492
3 1732 1577 418
3 431 1733 1728
3 39 1939 38
3 55 1910 54
3 94 1944 93
3 313 2299 312
3 1142 2245 641
3 820 2245 1142
3 1965 1454 518
3 118 2228 117
3 289 2022 288
3 643 2213 1048
3 1812 2070 1083
3 182 2081 181
3 207 2078 206
3 225 588 224
3 116 2104 115
3 291 2107 290
3 734 2112 630
3 800 2114 458
3 1419 1715 541
3 772 1631 1144
3 1527 1672 468
3 147 2323 146
3 260 2207 259
3 1774 1511 394
3 1118 1511 1774
3 1144 1631 630
3 800 1672 1527
3 519 2073 985
3 1081 1777 433
3 609 2112 734
3 458 2114 801
3 1876 2219 798
3 299 2259 298
3 108 1025 107
3 483 2047 252
3 154 2048 1486
3 440 2182 1303
3 1769 2183 404
3 81 1983 1886
3 887 2240 325
3 1299 1451 109
3 297 1745 1747
3 618 1260 1219
3 169 1739 168
3 114 2193 113
3 293 1610 292
3 290 2230 289
3 117 2229 116
3 1046 1451 1299
3 1747 1745 1078
3 1303 2182 781
3 1121 2183 1769
3 1886 1906 80
3 326 2288 887
3 385 1673 1749
3 238 939 237
3 532 1841 1740
3 1018 2088 988
3 1765 2035 765
3 919 1597 1986
3 823 1802 1409
3 666 2014 942
3 829 1393 1707
3 1101 1968 685
3 1953 2156 936
3 1558 1117 762
3 1063 2156 1953
3 144 2034 1593
3 1405 2291 262
3 565 2260 1239
3 1732 2124 657
3 1140 2125 1728
3 1163 1429 778
3 976 1665 1255
3 356 1117 1558
3 1289 2164 642
3 359 1325 360
3 571 1801 1738
3 1842 1538 712
3 481 1538 1842
3 1844 1721 973
3 743 1721 1844
3 1272 867 2
3 1777 1798 1089
3 1239 2260 843
3 1589 1659 673
3 1176 2215 78
3 328 2214 831
3 1916 1410 943
3 1918 2247 945
3 521 2246 1877
3 848 2053 1864
3 1199 1946 570
3 721 2164 1289
3 1877 2233 572
3 961 1919 1916
3 968 2234 1918
3 88 1985 87
3 319 1718 318
3 48 2051 1271
3 2102 1621 538
3 370 1788 371
3 344 1701 345
3 157 2021 1912
3 1914 2042 249
3 646 1786 1371
3 355 1117 356
3 1537 682 704
3 742 1245 1515
3 1126 2128 1019
3 884 2296 1712
3 2067 1584 1082
3 1882 1797 705
3 1774 1568 695
3 822 2261 2146
3 506 1532 1225
3 1749 1276 821
3 852 1230 247
3 159 2054 496
3 1371 1786 383
3 765 2035 2303
3 832 1989 1843
3 1725 1724 1248
3 1251 1726 766
3 942 2014 376
3 1707 1393 346
3 369 1968 1101
3 839 2075 855
3 827 2076 1274
3 1149 2119 608
3 899 2120 672
3 439 2063 417
3 696 1996 1123
3 1225 1532 810
3 423 436 1512
3 1239 1874 565
3 437 1746 818
3 1953 1865 1263
3 683 2119 1149
3 672 2120 676
3 733 1525 2117
3 1524 1887 756
3 1324 1862 1649
3 1338 2122 670
3 841 1748 1820
3 383 1411 864
3 1593 2034 1400
3 1226 2291 1405
3 1304 2143 877
3 864 1411 236
3 1058 1356 1570
3 1573 1571 1040
3 1238 2086 1179
3 695 1152 1774
3 668 2159 1355
3 1890 1325 359
3 1347 1826 721
3 562 2166 1661
3 1293 1705 1326
3 1326 1705 735
3 681 1496 1069
3 1768 1849 851
3 396 1431 1016
3 464 1356 1058
3 1040 1571 990
3 170 1826 1347
3 1572 2245 820
3 534 2097 1133
3 725 1727 1738
3 107 2062 106
3 300 2061 299
3 583 1470 948
3 948 1470 616
3 397 1601 1402
3 1199 640 450
3 1242 1594 839
3 1274 2175 1492
3 1149 2140 591
3 686 2325 672
3 507 1325 1890
3 1069 1496 102
3 304 1849 1768
3 959 2009 791
3 1123 1714 583
3 1110 1805 1184
3 1643 1830 506
3 1402 1601 1035
3 846 1888 1590
3 974 1588 952
3 1050 1166 217
3 1249 1172 199
3 189 1174 1252
3 400 1805 1110
3 956 2151 650
3 776 1563 700
3 1069 2059 681
3 851 1697 1768
3 1236 1677 1622
3 1254 1929 1624
3 49 2051 48
3 1904 1655 550
3 1661 2166 1257
3 395 2130 1129
3 1735 2222 1127
3 1501 1611 716
3 1282 2272 1472
3 273 1611 1501
3 1472 2272 133
3 2127 2192 499
3 1772 2063 790
3 417 2063 1772
3 1026 1172 1249
3 1020 1166 1050
3 1252 1174 1024
3 93 2064 92
3 314 1616 313
3 1195 1836 636
3 579 1764 279
3 127 1709 1200
3 898 2215 1176
3 831 2214 844
3 1799 1927 595
3 1227 1652 1885
3 563 1671 1756
3 964 2093 445
3 504 2257 1875
3 1044 1621 2102
3 649 1764 579
3 1200 1709 885
3 763 2209 1994
3 774 2304 1305
3 2300 2027 547
3 1870 2301 848
3 669 2302 1436
3 531 2264 2101
3 2101 2264 1285
3 1146 1674 836
3 688 1556 1072
3 988 1830 861
3 1759 1453 1432
3 906 1869 1625
3 641 2245 1160
3 1752 1810 1157
3 1158 1758 1754
3 1198 1049 371
3 344 1417 1787
3 830 1674 1146
3 1072 1556 1073
3 2152 2189 1384
3 1387 2190 1386
3 1949 1894 547
3 1447 2000 635
3 449 2001 1941
3 552 1810 1752
3 1754 1758 399
3 1761 2116 67
3 26 1460 1265
3 1184 1074 1170
3 803 2059 1069
3 1768 1697 473
3 1157 1810 1755
3 1757 1758 1158
3 350 1582 351
3 364 2077 365
3 1841 2110 557
3 374 2074 375
3 340 992 341
3 1436 1945 669
3 848 2266 1870
3 138 1945 1436
3 1870 2266 268
3 1755 1810 552
3 399 1758 1757
3 1749 2033 643
3 418 1675 1360
3 702 2072 431
3 1570 2303 1058
3 1040 1572 1573
3 746 2227 2138
3 1761 1907 592
3 760 2191 1265
3 1270 2080 1321
3 2124 2223 657
3 1140 1475 2125
3 604 1626 1345
3 1345 1626 1427
3 1978 1314 845
3 1416 1212 1035
3 802 1669 1631
3 1672 1445 1668
3 701 1147 1658
3 1864 2266 848
3 669 1945 1185
3 267 2266 1864
3 1185 1945 139
3 1861 1792 122
3 540 1792 1861
3 1459 1895 1161
3 284 1895 1459
3 1631 1669 630
3 800 1445 1672
3 1878 1636 1368
3 1369 1534 972
3 218 1843 1050
3 200 1248 1249
3 1252 1251 188
3 384 1464 1546
3 1736 2160 671
3 1198 1788 1103
3 719 1701 1787
3 1760 2045 774
3 1058 2303 606
3 501 1572 1040
3 1389 2052 584
3 119 1106 118
3 288 2023 287
3 63 1097 62
3 31 997 30
3 1194 1574 439
3 1791 1790 1201
3 1052 1454 1833
3 1324 1649 1988
3 629 1987 956
3 1546 1464 97
3 309 2160 1736
3 614 2070 541
3 1827 436 1056
3 582 2087 1036
3 1036 2087 1018
3 1579 1895 285
3 121 1792 983
3 983 1792 540
3 1161 1895 1579
3 1842 2129 481
3 338 1637 339
3 348 2025 349
3 366 962 367
3 1188 2264 531
3 475 1212 1416
3 973 2131 1844
3 618 938 1229
3 1365 2067 493
3 524 2067 1365
3 626 1938 812
3 794 1748 1323
3 1585 2294 1060
3 703 1613 813
3 813 1613 684
3 1727 1862 1324
3 580 2082 1766
3 1898 987 1415
3 673 987 1898
3 164 2129 1842
3 2096 1900 486
3 1844 2131 242
3 25 1720 337
3 69 932 68
3 736 1683 420
3 2152 2268 508
3 492 1617 1386
3 1483 1820 794
3 656 1820 1483
3 951 1802 1133
3 614 1715 507
3 1988 1649 647
3 1839 2087 582
3 1364 1819 388
3 489 2165 789
3 1050 1843 1247
3 1249 1248 1250
3 1253 1251 1252
3 2214 1887 844
3 898 1525 2215
3 762 2084 1951
3 1124 2015 400
3 433 1777 1778
3 1144 2298 555
3 553 2297 1527
3 839 1594 391
3 412 2175 1274
3 940 2317 1835
3 627 2080 1270
3 1587 1963 763
3 1094 2320 2086
3 2086 2320 444
3 1828 2071 1077
3 405 1982 1042
3 393 2071 1828
3 1360 1675 536
3 512 2072 702
3 1365 1685 524
3 1066 2130 1813
3 1321 2029 640
3 194 1925 193
3 213 2118 212
3 1807 1722 413
3 1311 1954 1040
3 1040 1954 501
3 394 1568 1774
3 818 1746 841
3 584 1797 1043
3 526 2158 2036
3 2037 1848 379
3 432 2159 1799
3 1364 1642 732
3 831 2288 327
3 79 1906 1176
3 1018 1404 1036
3 1795 2285 581
3 1899 1662 497
3 1263 1865 761
3 732 2110 1455
3 1494 1584 527
3 931 1893 441
3 240 1550 1898
3 813 1561 166
3 1317 1518 1320
3 278 1764 1535
3 1955 1709 128
3 996 2271 697
3 754 2270 1378
3 1346 1900 2096
3 51 1028 50
3 43 1210 42
3 843 1662 1899
3 806 1049 1198
3 1787 1417 1269
3 1378 2270 453
3 530 2271 996
3 1624 1699 904
3 1218 2253 1236
3 1835 2317 859
3 2186 1723 718
3 1240 2305 2187
3 834 1884 2135
3 637 2137 1791
3 282 1316 281
3 125 1609 124
3 635 2176 1447
3 1941 2177 449
3 413 1722 2030
3 1535 1764 649
3 885 1709 1955
3 527 1268 1771
3 1771 1268 1066
3 759 2028 1491
3 1497 1307 1221
3 1447 2176 1204
3 1208 2177 1941
3 1756 1544 563
3 445 2044 964
3 1875 1068 504
3 547 2027 1613
3 789 2165 1351
3 1855 2057 836
3 688 2211 1857
3 1057 2139 576
3 582 1337 1364
3 1236 2253 535
3 589 1699 1624
3 1339 2288 831
3 1176 1906 1341
3 84 1676 83
3 323 894 322
3 439 1574 548
3 554 1790 1791
3 15 1840 225
3 181 2079 10
3 13 1168 207
3 11 1174 189
3 217 1166 14
3 199 1172 12
3 1198 1209 806
3 1269 1125 1787
3 396 1016 895
3 109 1451 108
3 298 1745 297
3 929 2066 828
3 1042 1982 543
3 645 1476 1577
3 1733 1478 999
3 729 1901 624
3 2138 2227 1108
3 1382 2318 1533
3 1531 1536 442
3 361 1381 362
3 673 1659 929
3 1170 1074 786
3 1238 1273 392
3 1038 1337 1036
3 1104 1314 1978
3 1589 2287 395
3 430 1467 1932
3 1586 1900 1346
3 353 913 354
3 1132 1900 1586
3 1491 2028 512
3 536 1307 1497
3 1066 1545 1771
3 533 1781 693
3 1351 2165 2041
3 2041 2165 574
3 1096 1696 715
3 1033 2145 1102
3 387 1545 1813
3 1192 1583 2157
3 1891 1775 1580
3 690 2255 1814
3 1569 2254 1318
3 292 2106 291
3 115 2154 114
3 1873 1331 393
3 1482 1331 1873
3 1527 2297 799
3 986 2298 1144
3 969 1874 1057
3 59 2249 58
3 35 2248 34
3 2157 1583 744
3 903 1775 1891
3 1814 2255 676
3 683 2254 1569
3 1112 1342 1091
3 1091 1342 696
3 1148 2105 704
3 1934 2282 414
3 1444 2307 820
3 835 2163 533
3 548 1574 1202
3 1202 1574 1194
3 175 2100 174
3 890 1730 869
3 102 1496 101
3 305 1849 304
3 850 2224 1202
3 362 1426 363
3 232 1554 231
3 1056 1981 1827
3 277 1615 276
3 130 2103 129
3 352 1457 353
3 1220 2282 1934
3 1833 1829 1052
3 1403 1849 305
3 101 1496 1850
3 171 1826 170
3 1148 1808 2105
3 236 1411 235
3 748 2088 1018
3 2036 2158 954
3 601 1848 2037
3 478 1798 1081
3 986 1931 463
3 1897 2113 799
3 36 1847 35
3 58 2109 57
3 1813 1545 1066
3 1239 1352 786
3 1018 1711 748
3 997 2251 30
3 63 2252 1097
3 841 1638 818
3 463 1931 391
3 412 2113 1897
3 512 1602 1491
3 1497 826 536
3 1995 1907 71
3 335 2191 1997
3 1090 1854 257
3 149 2174 484
3 371 1049 372
3 343 1417 344
3 513 2121 1404
3 533 1628 835
3 1229 1863 618
3 656 1595 1137
3 1134 1863 1229
3 1137 1595 817
3 765 2306 1485
3 1473 2295 816
3 699 1553 1529
3 2228 1868 1309
3 991 2283 2022
3 442 1536 1383
3 1380 2318 1382
3 869 1730 1851
3 977 1927 668
3 468 1672 1210
3 1028 1631 772
3 1082 1584 1494
3 505 1628 533
3 487 2279 653
3 462 2032 1823
3 1100 1499 491
3 684 1561 813
3 1898 1550 673
3 1219 938 618
3 1850 1496 681
3 851 1849 1403
3 428 1734 1323
3 595 1927 977
3 1771 2132 810
3 2085 2149 1111
3 1424 1494 527
3 1242 2189 508
3 492 2190 1492
3 1958 2033 679
3 1269 2120 1266
3 1793 2119 806
3 538 2294 1585
3 2126 1872 727
3 836 2057 1908
3 1909 2211 688
3 1354 2009 842
3 1599 1553 699
3 816 2295 2018
3 1991 1569 373
3 342 1814 1990
3 444 2320 1031
3 1031 2320 1257
3 1813 2287 973
3 481 1467 1365
3 388 1642 1364
3 1217 1925 194
3 212 2118 546
3 1762 1714 631
3 1228 1714 1762
3 1113 2149 2085
3 1095 2153 778
3 1030 2269 1565
3 1630 1713 1408
3 405 1713 1630
3 976 2155 1051
3 720 2148 1751
3 1751 2148 1109
3 870 2178 653
3 1100 1098 1103
3 707 2179 1096
3 1822 1821 1105
3 719 2180 1823
3 1102 1824 724
3 460 2167 907
3 978 2168 1186
3 74 826 1497
3 1491 1602 332
3 2024 2275 520
3 593 1819 1038
3 1991 1049 806
3 1269 1417 1990
3 1036 1337 582
3 817 1595 1557
3 1406 1863 1134
3 1766 1286 580
3 177 1290 176
3 1932 1837 430
3 692 1509 1012
3 2071 1353 1077
3 1012 1509 1046
3 1078 1353 2071
3 453 2270 470
3 1853 2271 530
3 230 879 229
3 67 2116 66
3 27 1460 26
3 372 1049 1991
3 1990 1417 343
3 420 2216 736
3 1879 1966 625
3 1682 1690 1023
3 1029 1688 837
3 711 1693 1167
3 1031 2226 444
3 1090 2293 664
3 612 2292 484
3 1827 1981 553
3 1316 2312 281
3 125 2313 1609
3 555 1829 1833
3 524 1685 1871
3 1871 1685 430
3 1793 1209 706
3 717 1125 1266
3 410 2153 1095
3 470 1423 453
3 530 2144 1853
3 1026 1640 971
3 1020 1729 2019
3 1178 2083 1024
3 806 1209 1793
3 1266 1125 1269
3 1008 2319 1934
3 1934 2319 1220
3 421 1711 1839
3 1051 2155 427
3 941 1641 1766
3 568 1947 1663
3 1441 1268 527
3 692 2274 1515
3 1537 2275 1077
3 831 1171 1339
3 1341 2237 1176
3 736 1866 941
3 773 1894 1013
3 1297 1147 771
3 653 2279 870
3 1103 1499 1100
3 1823 2032 719
3 1992 966 590
3 396 2026 1993
3 971 1640 487
3 2019 1729 462
3 491 2083 1178
3 1894 2300 547
3 790 1730 890
3 580 1286 1013
3 1750 1873 1128
3 1482 1873 1750
3 1297 2216 420
3 1013 1286 773
3 430 1872 1871
3 771 2216 1297
3 849 2137 886
3 886 2137 637
3 261 2291 1928
3 1930 2034 145
3 1836 2015 1087
3 1540 2323 1213
3 1552 1452 740
3 896 2310 1555
3 1794 1422 1234
3 749 2133 1086
3 1458 1671 563
3 445 2093 2092
3 1566 2257 504
3 1896 1929 389
3 1453 2301 577
3 613 2302 1869
3 558 2301 1453
3 1869 2302 1114
3 347 2238 22
3 24 2013 368
3 377 1645 21
3 1323 1748 610
3 219 1843 218
3 201 1248 200
3 188 1251 187
3 2166 1548 863
3 562 1548 2166
3 316 1422 1794
3 1086 2133 90
3 2268 1944 699
3 816 2299 1617
3 1080 2242 1370
3 561 2128 2169
3 2170 2296 509
3 1021 2137 849
3 506 1830 2088
3 97 1464 96
3 310 2160 309
3 1128 1873 1828
3 1828 1873 393
3 1493 2178 591
3 706 1098 1687
3 686 1821 1691
3 1694 2180 717
3 279 1764 278
3 128 1709 127
3 1204 1917 2061
3 2062 2235 1208
3 1075 1905 1504
3 1504 1905 617
3 1155 1452 1552
3 1555 2310 917
3 2061 1917 1466
3 1079 2235 2062
3 836 1674 1855
3 1857 1556 688
3 2160 2273 671
3 384 1507 1464
3 271 2172 270
3 136 741 135
3 1441 1584 524
3 519 2095 2073
3 683 1569 1991
3 1990 1814 676
3 470 1471 480
3 607 2184 1853
3 1750 2043 1653
3 705 1494 1424
3 1309 2229 2228
3 2022 2230 991
3 1129 2130 1066
3 203 2135 202
3 186 2186 185
3 221 2187 220
3 1719 1812 1083
3 457 1860 1340
3 1130 1812 1719
3 681 2059 2055
3 2058 1697 851
3 1834 1394 1294
3 285 1895 284
3 122 1792 121
3 224 1541 223
3 183 857 182
3 206 1612 205
3 395 1659 1589
3 211 2199 210
3 214 1651 213
3 193 2197 192
3 196 2198 195
3 148 1598 147
3 259 2208 258
3 1046 1025 1451
3 1745 2259 1078
3 687 1575 1280
3 1281 2308 777
3 1438 2147 390
3 312 2018 311
3 95 1599 94
3 861 1830 1643
3 1883 2304 774
3 1280 1575 891
3 1413 2308 1281
3 1231 1957 1152
3 1152 1957 632
3 608 2119 1793
3 1266 2120 899
3 679 2033 1673
3 78 2215 77
3 329 2214 328
3 265 1197 264
3 142 1522 141
3 47 1948 2
3 90 2133 89
3 317 1422 316
3 1095 2029 410
3 2049 2158 526
3 379 1848 825
3 828 2192 1490
3 1502 2200 499
3 427 1862 1051
3 1109 2154 2104
3 2107 2106 1113
3 2 867 46
3 774 2045 1883
3 780 2224 1283
3 602 1597 1244
3 722 2314 1344
3 954 2158 1403
3 1850 1848 601
3 1128 2043 1750
3 82 1983 81
3 325 2240 324
3 30 2251 29
3 64 2252 63
3 1277 1594 1242
3 1492 2175 1278
3 414 2056 1934
3 307 2262 306
3 100 2263 99
3 771 1147 1490
3 1490 1147 701
3 1241 2311 2073
3 948 2085 1111
3 1177 1944 2268
3 1617 2299 1618
3 760 1460 1508
3 1388 2116 592
3 1470 2322 616
3 1311 2322 1470
3 1502 2192 828
3 268 2266 267
3 139 1945 138
3 1926 1666 1030
3 2073 2311 729
3 434 1962 1625
3 274 1611 273
3 133 2272 132
3 1892 1746 437
3 1323 1734 794
3 1489 1646 423
3 1934 2056 1549
3 1661 1950 459
3 1257 1950 1661
3 1442 1962 447
3 254 900 253
3 153 2286 152
3 590 2258 1992
3 1993 1431 396
3 1992 2258 731
3 714 1431 1993
3 616 2085 948
3 296 2315 295
3 111 2316 110
3 145 2034 144
3 262 2291 261
3 1344 1734 428
3 104 1743 103
3 303 1654 302
3 126 2313 125
3 281 2312 280
3 249 2042 248
3 158 2021 157
3 327 2288 326
3 80 1906 79
3 780 2261 548
3 1035 2094 1416
3 1969 923 615
3 2053 2301 558
3 395 2287 2130
3 1685 1467 430
3 1416 2094 955
3 518 1975 1143
3 1526 2239 517
3 1190 2176 737
3 1660 2177 1207
3 615 2276 1021
3 1479 2239 1526
3 213 1651 2118
3 1925 2197 193
3 882 1926 1565
3 620 1591 768
3 1796 1420 935
3 2114 2113 801
3 609 1931 2112
3 1744 2269 779
3 2118 1651 398
3 897 2197 1925
3 623 1420 1796
3 1446 2262 307
3 99 2263 1367
3 720 1677 1236
3 1624 1929 1111
3 855 2189 1242
3 1492 2190 827
3 958 2091 2102
3 2087 1711 1018
3 779 2269 1964
3 2005 1332 1335
3 1329 1921 2006
3 680 1332 2005
3 2006 1921 709
3 2102 2091 1044
3 2046 2213 889
3 1246 1952 911
3 875 2226 1892
3 527 1584 1441
3 1295 1567 787
3 469 2221 1555
3 1552 2220 539
3 1547 1665 976
3 778 1429 1456
3 499 2192 1502
3 1889 2242 606
3 825 2055 761
3 629 2058 2049
3 981 1741 234
3 681 2055 825
3 2049 2058 851
3 1732 2089 1577
3 1733 2090 1728
3 1181 1901 1216
3 1908 2057 1262
3 1264 2211 1909
3 1964 1666 415
3 1030 1666 1964
3 519 1465 628
3 985 1465 519
3 727 2200 1502
3 172 1469 1306
3 811 1553 1507
3 2273 2295 403
3 732 1642 1047
3 1010 2122 1338
3 1756 1671 961
3 572 2093 964
3 1875 2257 968
3 1132 1526 1150
3 1507 1553 1164
3 814 2295 2273
3 1461 1796 574
3 1150 1526 517
3 1997 1856 759
3 1221 1390 1995
3 623 1796 1461
3 838 2123 1970
3 2134 2244 965
3 1391 1396 2136
3 967 824 1392
3 429 2304 1883
3 2 1948 1272
3 718 2244 2134
3 2136 1396 834
3 1392 824 1240
3 1995 1390 592
3 760 1856 1997
3 1272 1948 1243
3 1725 1884 1724
3 832 2305 1989
3 1726 1723 766
3 1912 1468 156
3 250 1913 1914
3 1216 2311 620
3 405 1630 1982
3 1937 1910 55
3 38 1939 1940
3 1035 1212 1402
3 1843 1989 1247
3 1248 1724 1250
3 1253 1726 1251
3 174 2100 1586
3 2117 1525 898
3 844 1887 1524
3 1565 1926 1030
3 1918 2234 498
3 1916 1919 511
3 621 2233 1877
3 1586 2100 1132
3 1989 2305 438
3 1724 1884 551
3 406 1723 1726
3 587 1567 1295
3 379 1865 1953
3 2041 1554 232
3 706 1209 1098
3 2180 1125 717
3 591 2254 1149
3 672 2255 686
3 2099 1978 489
3 486 2138 2098
3 574 1554 2041
3 1149 2254 683
3 676 2255 672
3 955 2094 1946
3 1678 2188 1032
3 1104 1978 2099
3 2098 2138 1108
3 1742 1802 951
3 1022 2185 1418
3 1277 1881 1811
3 1279 1880 1278
3 455 1551 1480
3 1648 2327 454
3 423 1646 436
3 883 2188 1678
3 1418 2185 1156
3 973 2287 1589
3 1481 2220 1131
3 1520 2221 1517
3 1932 1467 481
3 1801 2091 958
3 1581 1762 631
3 446 1762 1581
3 892 1273 1292
3 1148 1605 381
3 848 2301 2053
3 704 1605 1148
3 1042 1780 405
3 665 1780 1042
3 537 1237 1246
3 1480 1551 751
3 918 2327 1648
3 1982 1630 982
3 854 2264 1188
3 1427 2258 1345
3 1345 2258 590
3 1454 1975 518
3 1577 2089 645
3 999 2090 1733
3 1409 1802 1742
3 545 1540 933
3 2057 1017 1262
3 1264 2280 2211
3 784 1938 819
3 498 2247 1918
3 511 1410 1916
3 1877 2246 621
3 1662 2260 921
3 475 2236 1212
3 748 1711 421
3 1212 2236 807
3 843 2260 1662
3 391 1594 1811
3 1279 2175 412
3 2002 1996 696
3 1807 1825 1005
3 539 2220 1481
3 1517 2221 469
3 1811 1594 1277
3 1278 2175 1279
3 1461 2241 623
3 1590 1888 161
3 245 1588 974
3 845 2241 1461
3 728 2220 1552
3 1555 2221 1145
3 1760 2035 2045
3 2045 2035 402
3 517 2243 1150
3 654 2189 855
3 827 2190 1385
3 545 2323 1540
3 1150 2243 746
3 1384 2189 654
3 1385 2190 1387
3 539 2111 1974
3 1414 2309 469
3 941 2127 1603
3 1543 2182 440
3 404 2183 1967
3 794 2314 1483
3 1483 2314 722
3 1614 2324 738
3 737 2176 635
3 449 2177 1660
3 407 2095 519
3 916 2309 1414
3 1974 2111 910
3 1828 2024 1128
3 592 1907 1995
3 1997 2191 760
3 854 923 1969
3 1986 1597 1223
3 1951 2084 505
3 223 1541 1395
3 1977 857 183
3 205 1612 1979
3 1148 1437 694
3 378 2218 1695
3 1923 1835 859
3 381 1437 1148
3 1771 1545 2132
3 2060 1575 687
3 777 2308 1604
3 2105 1808 522
3 869 2171 1188
3 912 2167 460
3 1186 2168 1115
3 1004 1394 1834
3 934 1575 2060
3 1604 2308 1606
3 1190 1605 682
3 1245 1607 1207
3 541 1715 614
3 682 1605 704
3 742 1607 1245
3 946 2309 1847
3 2109 2111 944
3 1054 1935 2108
3 844 1171 831
3 1176 2237 898
3 2108 1935 478
3 2159 1927 1799
3 1418 1290 177
3 876 2027 2300
3 1188 2171 854
3 229 879 1678
3 1847 2309 916
3 910 2111 2109
3 2208 2207 528
3 1213 2323 1598
3 1943 2238 347
3 368 2013 2012
3 2011 1645 377
3 2236 1591 807
3 1481 2111 539
3 469 2309 1517
3 694 1808 1148
3 1259 1650 516
3 1703 2218 629
3 1114 2302 1710
3 1710 2302 669
3 451 2265 1969
3 1969 2265 854
3 944 2111 1481
3 1517 2309 946
3 975 588 1840
3 2079 2081 1034
3 1175 2078 1168
3 768 1591 2236
3 643 2033 1958
3 957 2091 1801
3 467 1440 1402
3 1381 2227 746
3 1946 2094 970
3 845 1314 913
3 1819 1337 1038
3 1603 2127 499
3 1156 1290 1418
3 1678 879 883
3 1943 1393 829
3 2011 2014 666
3 685 1968 2012
3 1524 1171 844
3 898 2237 2117
3 680 1445 458
3 734 1669 709
3 1964 2269 1030
3 458 1445 800
3 630 1669 734
3 1891 1426 903
3 750 1171 1524
3 2117 2237 639
3 1080 1868 1058
3 1040 2283 1311
3 1058 1868 464
3 990 2283 1040
3 744 1457 2157
3 517 2239 1358
3 1348 1136 540
3 456 1136 1348
3 2161 2173 435
3 1161 2173 2161
3 883 1420 1980
3 1980 1420 623
3 1083 2070 614
3 874 1924 1695
3 1358 2239 1156
3 508 2268 1529
3 1473 1617 492
3 1529 2268 699
3 816 1617 1473
3 1402 1440 397
3 623 1542 1980
3 1052 1975 1454
3 1980 1542 744
3 753 1352 1450
3 1201 1790 1832
3 1358 1629 517
3 903 1629 1358
3 34 2248 1191
3 1288 2249 59
3 2066 1659 395
3 538 1621 1876
3 2000 1654 473
3 803 1743 2001
3 2092 2093 1564
3 596 1671 1458
3 1099 2257 1566
3 2031 2279 487
3 1119 2032 462
3 491 1499 1708
3 302 1654 2000
3 2001 1743 104
3 1470 1954 1311
3 415 1666 1322
3 948 1896 583
3 1562 923 2171
3 436 1646 1056
3 1364 1337 1819
3 2097 1926 882
3 620 2311 1241
3 470 2270 1471
3 2184 2271 1853
3 548 2261 1366
3 1082 2038 2277
3 2104 2154 115
3 291 2106 2107
3 769 2238 1943
3 862 1645 2011
3 2012 2013 1180
3 1698 1630 1408
3 982 1630 1698
3 1627 1780 1639
3 1639 1780 665
3 2069 1808 694
3 516 1650 2040
3 998 1646 1489
3 1143 1975 1319
3 859 2317 1737
3 1737 2317 1308
3 1106 2228 118
3 288 2022 2023
3 557 2225 1333
3 629 2218 2058
3 761 2142 2217
3 467 2219 1876
3 2058 2218 378
3 2217 2142 1498
3 1840 588 225
3 181 2081 2079
3 1168 2078 207
3 2055 2059 472
3 378 1697 2058
3 1950 2320 1094
3 1257 2320 1950
3 1811 1881 697
3 754 1880 1279
3 649 1858 1679
3 1935 1686 885
3 1613 2027 684
3 2132 1545 387
3 1699 1626 904
3 1218 1428 2253
3 1427 1626 1699
3 2253 1428 1425
3 1679 1858 564
3 1054 1686 1935
3 2112 1931 986
3 799 2113 2114
3 1512 2324 423
3 2008 2298 986
3 799 2297 2010
3 1839 1711 2087
3 522 1357 2105
3 2105 1357 1539
3 2277 2038 840
3 1213 2292 1947
3 886 2053 558
3 2030 1722 980
3 1096 2179 1696
3 2145 1824 1102
3 526 1987 2049
3 533 2163 1781
3 761 1865 825
3 185 2186 2134
3 2136 2135 203
3 1392 2187 221
3 534 1926 2097
3 1696 2179 713
3 723 1824 2145
3 1876 2294 538
3 1005 1722 1807
3 1463 1915 1800
3 1237 1952 1246
3 1800 1915 416
3 1648 2232 918
3 751 2231 1480
3 1781 2163 611
3 798 2294 1876
3 1430 2056 414
3 1815 2293 528
3 1366 2261 822
3 739 2056 1430
3 2134 2186 718
3 834 2135 2136
3 1240 2187 1392
3 414 2282 1169
3 1570 2306 2303
3 2303 2306 765
3 1572 2307 1573
3 820 2307 1572
3 472 2142 2055
3 467 1621 1440
3 1922 2285 1118
3 1169 2282 1227
3 2049 1987 629
3 632 2289 1922
3 941 1866 2127
3 1683 1952 1127
3 361 2227 1381
3 825 1865 379
3 1427 1007 2258
3 1431 2284 1425
3 2258 1007 731
3 714 2284 1431
3 1922 2289 1222
3 1451 1025 108
3 298 2259 1745
3 2264 2265 1285
3 854 2265 2264
3 2088 1830 988
3 295 2315 966
3 2026 2316 111
3 913 1314 354
3 929 1659 2066
3 684 2027 1837
3 966 2315 689
3 726 2316 2026
3 1876 1621 467
3 2073 2095 1241
3 1947 1540 1213
3 1673 2033 1749
3 628 1465 1770
3 699 1944 1599
3 2018 2299 816
3 1632 2289 408
3 1222 2289 1632
3 1652 2282 1220
3 1227 2282 1652
3 1976 2276 615
3 927 2276 1976
3 1770 1465 1350
3 1440 1911 397
3 1440 1621 1044
3 1044 1911 1440
3 1695 1924 1448
3 668 1927 2159
3 1493 2140 1196
3 1689 1187 1687
3 1692 2325 1691
3 1694 2141 1328
3 517 1629 2243
3 2055 2142 761
3 2243 1629 1664
3 1477 1669 802
3 1668 1445 1936
3 709 1669 1477
3 1936 1445 680
3 2151 1987 526
3 1603 1641 941
3 773 1641 1603
3 2241 1542 623
3 2127 1866 771
3 1684 1542 2241
3 2205 2251 523
3 1002 2252 2206
3 2067 2277 493
3 1082 2277 2067
3 956 1987 2151
3 1568 1942 1053
3 29 2251 2205
3 2206 2252 64
3 394 1942 1568
3 1699 1007 1427
3 1425 2284 2253
3 589 1007 1699
3 2253 2284 535
3 796 1920 1478
3 1476 2068 1120
3 1480 2231 657
3 1140 2232 1648
3 1837 2027 876
3 1478 1920 523
3 1002 2068 1476
3 511 1919 909
3 2203 2233 621
3 498 2234 2202
3 363 1426 1891
3 2110 2225 557
3 1494 2038 1082
3 2157 1457 352
3 2130 2287 1813
3 1365 1467 1685
3 1956 2007 1313
3 1463 1462 1915
3 716 2007 1956
3 1915 1462 1282
3 909 1919 655
3 1439 2233 2203
3 2202 2234 578
3 66 2116 1388
3 1508 1460 27
3 1080 2321 1868
3 2283 2322 1311
3 1868 2321 1309
3 991 2322 2283
3 2171 923 854
3 637 2053 886
3 1471 2270 754
3 697 2271 2184
3 1344 2314 1734
3 1127 1952 1237
3 1687 1187 706
3 591 2140 1493
3 1691 2325 686
3 717 2141 1694
3 705 2038 1494
3 2194 1017 934
3 1606 2280 2281
3 1766 1641 1286
3 1286 1641 773
3 1599 1944 94
3 312 2299 2018
3 2216 1866 736
3 771 1866 2216
3 1452 1551 455
3 454 2327 2310
3 1155 1551 1452
3 2310 2327 917
3 1598 2323 147
3 259 2207 2208
3 1391 2247 1396
3 967 1410 824
3 2244 2246 965
3 621 2246 2244
3 1396 2247 498
3 824 1410 511
3 1601 2094 1035
3 970 2094 1601
3 1911 2091 957
3 1044 2091 1911
3 1734 2314 794
3 1262 1017 2194
3 2281 2280 1264
CELL_DATA 4278
SCALARS Von_Mises float 1
LOOKUP_TABLE default
311825.90424120944 138746372.69536197 138734636.6512324 265035960.679875 264121416.3024724 165729738.57313642 165717066.44304425 535094295.7020477 535389134.5799631 134615761.71326634 144004652.71425653 468371971.48977995 464430844.012002 81629786.38275523 77795042.549759 86931769.61118013 77332784.6200812 2787820.9120995654 21565349.439852834 8486538.392451992 77574511.38217792 20135280.572636887 230168553.62162757 42882544.94400963 47252719.3420737 284539285.3140696 20435486.963415567 80031353.95611085 132651982.87383226 313649596.86462 84724832.38480756 3995417.334700333 87212840.81851459 277382862.44362485 93548813.9407298 26515741.38189513 7047728.094880653 133376173.11690761 70847053.34688501 105638925.61802363 111326884.84788615 111316289.27737232 197221223.81976882 172571859.05511352 103465516.31558977 54171783.19998821 36061485.07294607 36064278.06188232 6252133.841588443 69905426.22507049 80876330.91643585 3214248.7219807818 464743.78086759604 9101644.829129903 20237687.047800403 151696400.39203012 4070065.460360942 18921291.03505795 1034155.1704824768 52808650.06073069 142762377.79985633 303137891.34061116 303371426.82424897 104304.85480699349 59363533.46582334 82138887.07996908 44082280.93968662 107226074.05357014 200464.3658890781 242612.3934309119 486685734.1643889 487421978.61352867 5184666.19354336 7727459.516351465 26679684.034313112 32216978.561388884 35465629.20339301 13343255.480343385 519376.5116986239 53887692.29628046 232779866.6084587 147998940.1657873 126351746.95709065 110845705.02345096 110834605.50789118 70143196.34442544 71202911.8163418 45543817.52000258 40282500.85427795 47764214.95712159 35240698.17879382 30380000.705735262 30383478.16413319 340485973.4258883 337693543.1624311 115593079.73215087 130286961.63427775 107637455.21212657 121999033.84515566 15026179.826256534 15026671.305128826 16833251.69169576 16833717.802901644 79450761.53496869 488594353.35772747 488913443.12982786 32654260.72810906 36739945.09556904 668389.8932232624 142865244.08414197 197925253.9619705 197911775.72851372 317746662.3533459 325666048.45165914 58767.91016030859 78560575.49225524 16328529.700438853 320972343.19763607 319729706.8950138 62138761.53033808 56812834.08427323 640486077.4196879 640477846.4561992 46152.52309763738 12718004.726183064 192907135.4044901 27028315.66378479 23291962.165531643 23292174.32616768 84359516.5005628 1561396.611296574 940059.8711126276 280408446.8122467 276391218.2149305 153434230.21217203 116641064.02734874 20789348.739476856 7528438.940985116 80473072.6778192 98296677.69104217 54203214.92019061 94608322.49527422 217760212.5154291 217717646.07259896 79269351.63829279 19073571.933685124 51428504.65954533 184363522.7135447 31788692.055692874 406496750.35585743 407039880.9919446 540233526.7964567 540521658.3629338 114979530.19448873 94768416.23008011 571019387.20776 571017380.5458089 133755064.85250063 31137352.09494536 10477692.515155308 159977436.9533753 428334566.5202136 428608002.8722814 183614.09612835414 110388581.88981725 443415095.75561005 438702821.033019 184575.42034987084 51628970.726790816 8864952.898629036 133686712.23898757 261622867.07555798 265129277.28979436 191057246.09756485 108771982.72183833 209131998.77367985 209099236.79275686 88360412.18874884 4636566.094722094 211486709.59948373 211442030.69752985 216269073.35545653 27728922.801888768 290369117.49836254 320554329.31190014 317925100.3638488 127408.75243189599 405941823.4471421 396367732.9763161 9785572.624347065 9785436.956669394 265730778.58761117 266005955.10905048 21085561.58628333 21085930.51242847 135299976.15625578 144824162.0682644 251437654.52429095 251432286.84655157 13921819.168620525 2050471.6019765814 228992212.39878127 224799577.5030981 30428.50537664555 40090503.6085827 40093034.50263192 62370932.4210555 53967.33686879582 57764.146885846756 332467814.6208197 212350559.26308662 212292612.37286773 221393083.07636085 221391186.12139887 224513.13298562876 140824570.6979771 10070283.037551494 10069944.929464027 27675748.590137724 22703903.642140113 378403230.89355767 383325187.8281675 52957426.42627234 185460.19370842646 508994714.9692252 510670280.6271294 12660432.802845247 100336448.53005078 118847703.18631169 247612165.6390668 6321749.849976723 21121054.552033696 400468983.25094956 37635705.03298253 20212991.800073437 80797100.00264105 11529232.965896215 157390209.2291028 34641046.08648552 330434801.9289824 331375038.7917912 16342772.750427159 11669008.001769736 30948817.48355769 30952092.975030366 252342623.06030652 173599845.06474414 6630189.817337891 32569453.930782456 32566749.350566253 5090868.83145397 124814101.40100408 12462259.738651639 173473984.57979834 173458653.16352385 109574338.89949636 22444641.65907122 29267177.16465692 369554449.74765646 367441893.01137614 42977689.27857744 7818379.648084151 156041578.13238665 34768319.913025156 100099.40564848966 447396.5154052536 145737.39615457784 172664.71875472082 50630884.07562259 3726378.7654824583 58524025.50044349 5320534.411076614 179527.64255287056 328798.09703484504 405767.9302308083 167862166.24704507 12428008.849907441 247090391.6971124 247111625.3492438 125246889.96908855 72676822.08050111 96410153.31520407 294406164.8607278 294386429.8020023 127294600.50852962 5073095.680969445 50742535.6568463 12508773.167242186 32419765.044703603 553633644.850429 552867519.3462598 653659464.104633 654033490.1736577 80205424.50933598 72331648.37231319 51706424.22311862 59645842.06072755 59647624.132876836 10416930.180819875 57682026.48475484 202280090.07132557 204249792.24492395 382033086.0557375 379217638.5945353 126067360.26658757 605375604.0208226 605957772.5062741 72936047.44392286 390975077.0705726 32408579.44619413 32407403.579851165 387161.27173393266 288104.55289076775 254392.6027232128 51145727.385583825 51147368.02060898 88005996.7744413 57546438.0188835 23593075.94805622 9807864.938754667 163225870.8977323 91844464.22716255 93221669.91489317 205314201.4387535 22665235.4390401 22669771.672519445 345145438.34101385 346977962.62203944 39922326.73836701 13572374.665475193 333679936.1086498 397430401.41318697 875888.491012081 148587587.85567492 23881834.26352669 490853012.0769337 491806383.206036 39182435.62815773 58242583.533264495 22428839.4221571 271817315.7471498 9495104.448534837 121230177.51160851 125581132.36164099 99970984.03089416 493969022.165331 499764457.7582688 68138758.91430409 58060301.85399884 122992273.18003006 954494.6946307879 24699281.452749245 60132118.255032845 113565447.29494853 1817997.0181479172 205598723.8118362 205223898.31524852 31602.004571673948 97926174.47900921 77174996.63095596 223417035.236262 219104185.6027858 168798158.3180342 3245528.2793526268 43008450.85399739 61895886.71198482 61898346.28569432 50997604.52204811 154434957.3891334 74957030.08708139 304716349.262049 28511.808247303874 20087.42560924132 120501899.7316105 69903353.54439831 994179.7178148864 33582457.09947704 33581285.31384469 101316169.70598972 126697990.10862009 61784103.75422669 496040609.25154305 496148882.6686568 240002258.5299385 279818859.00403184 275922234.4491366 174523011.30765495 172553439.48803145 13956653.064285267 315776105.76806706 312365059.27383864 328074291.1255325 327609316.3727548 214202214.2142494 92600390.3875194 610877836.3656172 609778886.1437187 157114273.24333662 157107705.26314113 197195064.43278036 4263999.295980023 3649140.2021515155 16226844.965086376 51697005.38434266 71533677.29942404 226186173.3440786 221595986.32940945 112539862.2599723 112529898.54077059 115630976.58551176 37768933.54972527 37766602.35124515 6011253.076185945 225109471.2948869 7932955.23027619 153439761.74460948 105184627.84380843 11804415.104069907 320229628.6058289 320964013.0464465 268806213.2425333 268783067.56502527 8322668.3146475665 418580607.41735214 95397549.52162041 55809.28896490751 71941.84926396766 78641806.1989691 4203009.98666488 10426780.29443681 271176226.7876995 267007775.1779146 477370376.6944276 220233392.157316 225127314.34532648 114967383.04333901 23858735.560137536 142930190.61391953 204909.14083318648 78233.30732012099 251600.69599887135 46048.424047739434 50982.79269912629 18649.504244151776 16737.8130437341 33445.43013932178 88245106.07192083 5673867.4486257 187147389.98312724 197964079.070695 197946667.30886394 574672503.682598 575446780.4613137 61729031.49036824 61477332.15155808 66450303.47413107 66709498.11589853 71102986.01216896 113099737.36363298 137312864.47267973 130888097.2924709 335763329.32321113 335763378.94401026 16926036.04406426 368283101.8891652 367848250.2858619 52982984.63102031 261965026.67624128 105700.50327671427 377687580.92738765 378995497.68876505 10887269.186768498 9211005.870066822 4594946.084599593 309338810.34725475 308832954.3941759 11112971.970035255 141104938.91453126 7772412.005070469 128107017.73673874 159820216.26605964 159825157.32619503 4475398.606978253 260006365.62018389 77530757.5541634 746236.3754335176 746671.5645341304 77786239.4459705 286259.17680335365 25754818.84804827 31568850.69511408 13665436.059891602 129642056.80113183 217954491.17501825 212415.62320979373 148535.97989713034 173510.1750324075 62280001.57313261 17815441.594489 252855298.6792897 367057.3588598877 13754156.295470588 13755274.044208035 282201969.31663483 278080719.2206391 21436968.045738686 21439430.495872248 37564454.36453949 92157274.60712446 3900575.4701939393 169409481.41019073 219534589.43778345 141979212.23827755 20644379.295762897 26248622.606102996 123303370.37840252 37182168.02245398 205919824.25633347 205876225.576387 244118237.84843656 244094967.3477672 164276.74183661776 147934.68054371438 2111.1242729800956 202811215.26534888 197109788.1357201 44199.171641630586 50865.91790489904 78238.91568349348 41353507.54090804 295077169.6467369 4106282.355600525 201213154.9214101 161634105.86208332 78472321.2612862 78473152.20428714 312913735.9348081 316216545.4907153 169838236.3915981 7544320.028656951 11367606.1029937 67827.8434525151 75591.84780859227 5915647.36389624 29633400.73451257 1572732.8030132088 205271403.54749247 3816540.9903466515 60877361.840635486 60872997.33576496 300357979.9134243 300345547.51474184 2182113.4036645056 5086902.815545879 511080.6612071336 409734219.2691516 411043760.51106334 208875338.7470786 29243914.829153873 278302177.9900818 274218290.831702 423023346.21910584 407388062.1162462 404125824.69093114 7435792.202512793 3132203.3750105775 3493285.5482300464 405781761.5930959 406157955.54320836 136322943.16619873 130712182.27223837 101824.03229844543 138271684.97334793 60802392.984842785 5861841.61416407 5862763.445770059 100752917.87435968 100742322.23620287 289961353.1457636 295134142.9117403 429895825.14949465 430254146.78792113 50470672.04887469 20978481.87189709 20979919.961119212 262671284.13904044 262653663.45114154 141046818.9547344 136711988.6631371 1009267.6145877645 169974.31676608036 62964461.645015016 182369390.1389025 202434140.54673988 200795034.9107992 200848365.77504167 50575064.64734664 50577514.564591855 80952942.29960014 13756761.87885291 10660268.823917434 10659785.971520904 152365233.0486964 81910254.3669402 26039910.229281772 6730885.464039155 6730110.101903918 21391882.43058817 46695.11672509574 56110.672207161755 57572982.15786483 51956178.73654074 6518975.943455992 10382975.913614832 4059425.797183352 196228223.28005275 295239151.9566754 338918694.5253077 64915566.07901366 121153.37265236882 6478968.166931108 6479247.496174296 34122.77772180046 50057.16422144511 37390440.830783 91020191.4401335 68679253.84592374 77137232.41815408 102572858.41614671 116839392.71400002 116216904.8573881 369949994.5790333 328521921.6740483 185625614.00990468 190269627.17002943 41558629.0897493 36208700.85006505 15684.3029831682 26014.494572953554 37294.28297943416 155120.38095448716 37058.45477020347 174836.1206557435 59616173.196544915 194609.61021314954 147909.42093444153 140639.52571000517 155320121.40213695 155333334.1829851 248842206.99287626 309974029.8929892 148497756.85667592 13937709.127687505 290770.41013052774 451749661.54139465 450884280.2005422 774386.0227870636 59811458.48502783 1325232.4696541734 62203125.806710616 62205090.80946108 144980.92224194953 162450.5312351785 42679502.073340945 36766039.12063448 34221573.15981298 11184831.074287863 7102524.979311279 581563.1544135283 41115986.74692127 41114404.23497469 103301239.0759934 98751887.83583546 8311497.63510766 231979422.0677331 65127809.32204554 7208197.36950127 7207534.613297886 294169510.58772016 247976598.57878038 243855258.30149108 387010360.3417823 211121679.1140524 211106880.13768622 42299750.748934716 28231.698820825717 25678.350448517085 15865.717799074795 32789.32682134371 3912143.8620906645 3914367.161008259 93042896.19322588 94388070.52498676 19007.8916000066 30286.809035566388 20035.97208955397 34356.08119175507 60855490.72473925 252046796.3500874 252030829.3947402 2522952.24217148 60866331.0669963 13681995.274282549 13682376.42000018 34578495.87837251 34576736.86646507 364952257.24622333 235600513.108346 234253471.2550619 101269974.84892672 101259714.69037685 5429331.856037068 135519669.43836153 113102715.75742568 113089441.79737018 1349990.6147930012 166658084.85941133 219427406.70120597 28504718.57472662 28506844.606565487 230165781.72643217 230153263.35180572 294187.3213712984 63590855.984778404 63589184.36371386 410146946.7445591 407941001.9660135 41759225.67780551 41758296.53375426 468130.1287521086 397026347.3372821 398424831.7248799 49805917.15467159 55345585.63323761 52869101.312078714 43276760.65215273 38365205.468456775 50286021.88668313 45561968.996525615 24475089.29742715 24475960.168011717 157713.57074814336 175938.46293087146 9007372.341956217 380013211.0754806 380193733.9580356 24233927.930835195 24234824.079432383 388584594.7390064 18137559.885547422 18136609.93491649 483337138.7195776 484862054.2333499 134058280.258552 128787290.23484863 32452815.73524066 32456122.08479212 204451611.94429564 191669838.09055558 5424465.175938189 219778200.37012762 217373841.41362208 231546832.1329437 231533097.02484486 5472889.736603637 162056638.7970121 162063295.06323633 496674553.29521185 42764038.9690398 42760226.0350645 237495135.25908282 237481261.88539118 520489.94150245155 75711506.38019511 98847110.08889791 242839765.7530725 56643588.49500207 369794610.1243306 369806313.663289 84608231.5887864 1675424.4221125033 417793411.91475576 344970684.5894587 17932804.310404245 17932089.678347744 13849870.618943341 408047921.9425339 411049047.74226516 322147060.1401087 485939269.66176355 484025887.0043043 6010648.683288927 434731787.74189687 142390286.43667328 146652853.60851806 132370268.49037877 305856.46523816785 1955814.1885605573 44927996.055909425 28373198.274263073 28376595.438113566 278723863.8110888 278705406.99942404 3397310.2055447423 18745102.190987337 338371850.807705 335836502.1386642 8764762.285161471 3960017.5513505545 82428730.60525148 187090245.62245047 182094936.21844798 116314882.15533213 113232606.74781689 12075076.125894908 197171417.20339742 5038521.4757945165 197233933.69257843 131023661.84802432 113323431.34001015 117001802.43838458 582166.4620434106 168922004.95596576 166379223.48918825 467375664.17320997 45655.73832395993 17528.123211158072 32018.537560328976 40487.65432767915 2488715.9605913567 508332539.16615087 502502228.0848979 11478830.476935549 19001303.719730917 173678825.52025124 173651563.40336746 419500427.77209693 352152098.7348853 419117579.6868704 420312386.0600151 178117.07064660365 136377.44113904078 130399.12015735845 180755962.30761334 175620147.28094652 23925459.185849752 12739846.472953932 30492892.39252765 78825214.5407175 91146364.041215 1923476.1074908166 78410.43076823275 197510.065229289 151366.2373501797 47103998.23400942 141563.89340267327 181130.1211028671 198566.72031636763 169985285.47930944 165927264.83283114 11276647.57763338 686636499.7328684 686311194.9373486 39656816.15721265 54565795.1185755 7193492.547201011 155151261.83071494 200582741.45320353 89228952.18148845 85551060.58349076 14247255.304749902 14247962.412491325 349026110.43527716 348555812.84570956 9784095.417055946 9784151.800621647 100139213.79929781 45370940.911547616 320935398.39689755 222778203.38003254 9275204.469486501 52277333.44152615 222905939.17418194 229900.4243253426 87449.63292793612 180189.3065784749 264032450.07414272 264014510.7351397 52626994.05030188 47553202.284399904 255792506.0436296 248045130.56620845 72377592.2743499 72377379.2603576 49917447.2812 49916177.95166025 135858910.33083224 1273485.0189726125 13979921.988765167 318684535.8288722 66480059.332468174 7350640.400021261 266355173.47688618 266345416.274399 87946021.23914264 2327175.5752001796 220147721.1039595 224702462.879572 159392942.56263134 106883952.51389909 173042900.37839243 242648.0747371393 152232.41277332316 185100.54959739393 21705805.894557703 47303134.622845076 11256476.076700654 309339536.4597236 309322722.2021247 382817506.0178612 382824777.1466626 169005614.32364842 162802451.73692337 7425001.209963901 390140234.4874828 389389234.2414019 26569698.28612144 68634906.67584556 6342719.982127618 10511140.156690322 12795094.567062866 106090.73713000621 3376348.017262174 465802065.2935319 453373704.5805006 109264404.30933678 28761751.185368758 474695050.9756213 474678395.2813885 150516059.36009818 5042178.990381045 162474.42918742617 142352.93580388295 42174.424215411804 40387.571392568694 30091.559296356034 21419.1786715227 230759410.64110127 70600482.98121253 246388031.57216325 251665002.5683532 84264416.23896083 407966216.2011902 243948127.25567052 440267465.8110263 439612343.5974619 14534259.025848238 14534257.75326211 220798447.40469784 255166374.70239437 160869037.15474093 12670467.484385483 19470583.928750597 241435369.21862453 54203565.609869406 21308844.857814636 7438609.894765383 7439276.450362191 10167046.806419218 134909004.26639605 162779633.88571036 166654473.094495 551372853.0709103 551363193.1988083 224667730.8593061 230657880.0568702 210005.05403882024 182853.62218449157 29479.6057981628 12775688.824340267 12775048.914110107 24717537.73655077 24717030.859952487 223935969.23326924 88151128.72553983 241257785.337785 3189468.1153649525 3633560.8216008455 750575.2207149988 3302812.362908065 447931.2741747222 146262197.99820158 217553547.71625653 29931012.951717217 7600697.089304921 274418.2908686606 212253250.3645458 212249188.70701107 148900095.1422809 167943729.24042407 58709965.917649925 57412814.03187722 57413569.34514615 115174893.10199301 51300966.85195846 12234112.450281039 60120277.4474747 150516803.25890175 158412243.60055408 20070624.477369014 182011119.09761554 186726806.5256183 162864566.39456907 53678590.20446901 214858448.15938708 211186806.5703863 179995335.86559296 174869231.13152632 190256598.7743331 196302805.54729348 312579757.8723375 310408879.1992323 313957596.9205901 99985862.67564477 104446547.7298632 88447281.12538894 14286691.799679978 3343114.1764512383 127267448.13057132 202686341.00326383 61588366.71034653 61586866.236432016 97786192.2636978 11265998.53344716 312649947.0177059 269508493.3524938 44760289.50100853 190395750.44790804 196345191.86965528 562840891.4947106 567474077.5071874 250089930.1525034 79557265.85038033 79549689.69681232 163436927.19036826 100938843.33919346 95789083.43820871 158243514.49057293 128538818.60225655 122191196.524096 70692472.81750587 70690532.78127794 9693041.822689576 229670144.96877596 225582345.6584851 413259637.7468992 415442891.209638 39587393.688119695 57329494.9903947 62124763.72872841 19290052.102160715 22460109.667029377 167715.46541828912 196213.90527778494 35801.263494719504 362430948.8225899 361810484.2147489 3955356.0673185727 108995930.57211791 201911780.52360386 164032.55290154502 11655111.01976999 141052824.29027766 141038999.99852738 6203530.459653738 183320.1101045354 150026.89149981423 48303.16187959187 167144.9826072341 43909272.74268048 2416828.451133956 3954231.8446365115 3559043.939339857 186871.4887737062 217533209.14520073 386750113.6909703 20067555.09044153 20065492.741364356 244046752.8839463 244033460.24631464 9600308.477973321 390506701.8354585 27046564.76561153 31743224.557605166 103917971.58834103 67396895.03311835 32366.546473890456 23510.307879988308 248193866.76894426 248154654.06842032 52960460.95299787 387434716.8562802 68864897.13750908 99592387.05222675 51720945.9457651 46873392.7813254 222307757.51327592 218005109.60037673 11852680.351225676 134982.34044065233 39053.09089044694 154864.86284516432 29218.270630852134 42032.760294710795 20498.242214205227 107779683.43261021 313763882.2203495 123782808.31205985 81955909.05522165 81964657.94652037 175946190.94362202 284445075.02977765 282697204.44829273 65032800.89453185 95800027.02319223 98970740.12289384 184460668.0866503 184458454.96865973 24553018.31140377 19804104.583776593 78536469.11117388 211501709.59808946 211487098.9442758 10785084.063198727 10785271.693404002 140549311.17778105 34496173.73803632 65530399.952476874 155453.15070135382 130521.3926960856 28955.48169475024 223185921.72553518 123880.58626134678 114521.51753982565 84938.58991404736 416919861.75411016 67455693.1346525 65463956.211819395 65456181.16749477 43189194.37896623 61708014.34958154 212837305.6580612 210353402.80370638 496766199.3194939 500521816.9856632 99060832.97678956 68877485.5298874 68899114.63251851 174371145.22213402 167605828.250807 189337614.25045216 316267743.70793235 316760198.0028696 15211398.231398134 203516605.5109888 203132192.88947892 50668304.36070594 307115219.1193591 8205535.6955128545 107408982.71829958 137254283.27192286 361316312.2370158 361335644.2365872 120503675.5278963 40511705.72895398 45068062.23232377 148979403.18760827 17345849.278072704 18039356.16127282 23928111.057780363 24461539.59413572 75471600.82171537 75463413.2143267 20231460.22089299 20231192.74021476 23131849.511627115 64939569.95636814 49662002.067783356 62914065.5440207 34370.66004409421 72956.64877190323 38602872.74943217 993266.8222006605 53535156.722216174 57639118.10479608 190809620.3073679 40187290.55715039 3304247.270814738 3793785.069645968 3777388.088453237 61842770.765918516 61840404.39125737 38794898.12773741 12474517.325630879 6178858.801799305 114989.74236732592 21499395.289242543 34015487.758975744 17854127.75412491 30079169.19387228 230411143.22788844 230403358.83853793 81101917.68078212 273866140.1117756 273854265.68608505 221611722.3528588 305671164.2400132 90838654.18948726 90830825.69386715 429540791.72849065 428876648.7051646 37778281.04545993 122111649.24559692 167864761.06981507 122050734.46281794 117478181.70062952 117472588.87204945 204324.1500685802 184330.70203619907 9965.244892534163 53324246.2595917 53326584.560059644 330623384.64288455 329218199.4755723 139115236.98426872 101139236.69671997 336846538.6002055 106225442.44460407 42449883.75513523 161157464.07862073 161154853.9897755 240803820.16674995 245898398.9830555 22675.219569049306 83739.85556050653 103648.249609975 205453197.13920343 33971651.42957874 167805041.18748918 66099765.494587384 94452044.2435068 133737079.22753358 127197938.23962705 64379272.54128751 56332781.16152303 138490870.5360865 351153264.48774457 299220.9332766253 304601654.40611356 103614893.05369705 103616504.91589378 117501173.50391825 35120762.680668294 228669.7502070373 84325815.90169504 211760.32774366988 324074976.6906551 115702569.01125142 77728128.53658953 2004571.8389102146 14863465.88933783 207620674.19352755 204704420.3748183 284954264.2613898 455259240.9946935 456322466.99067444 324171917.5228872 6656313.419232712 173422223.29184467 133050981.93632743 205037831.1496186 277752.20401183 152680451.97450766 47817.95346159637 75499551.86968917 1698459.8030422768 6514182.509779903 34810956.56228225 34809155.00273199 22770027.64866253 22769866.5530598 39205055.393826865 191029.4877767083 203397.3305571667 9144980.50259804 123937243.26797853 3463752.801339441 38567669.035414815 38565618.32985868 443162606.46016186 443152038.1772557 93729714.11962989 44574377.45494662 44576107.69356693 172696.0262737408 244420.90741890686 143010.6582154773 69342762.31638049 69346001.34798618 9342122.414586848 2520140.9867733363 79025829.77858512 308933001.3303695 73133364.40537892 55295232.75481953 55293330.3763013 197209.2047681359 322961535.0190332 20037231.12774599 15844676.308806889 284432.8372238913 126483.36084133001 353151.6833647923 152929131.3678416 53034458.19383333 2460319.0219627763 290759682.00905657 227668.8672296623 107254197.74965191 31362301.551472466 127753361.46188292 49033200.71546622 83193165.4662006 83190196.76795226 105209757.5495305 48765547.47544314 73129382.75260422 97258663.47976947 17164916.3552955 17163748.53576288 41779914.45791883 41781613.38211323 27278428.665465187 241618330.95310193 241521597.24249682 46489734.15718051 107853123.20581701 146051701.04209983 6159622.903850911 208168708.73635495 385021411.1322365 3400577.930161638 381701086.8852272 14517886.501705574 14518709.624600621 401556.3875497914 18459704.107793752 47390455.64469332 10576371.880621333 100996003.57891022 332977990.292428 330106157.23597544 285645467.4096501 14524596.415381797 14525737.140160391 262732539.9938356 221628.57290778917 23815875.55970373 23817150.57516533 71001020.81728439 363054647.7520597 363108448.6659864 299720031.7266716 301776766.13506323 505248662.46261585 505045691.7619533 10863999.769998478 16064490.523584139 16065606.224594334 98972660.51016098 211637536.52068606 211629930.27101907 10746253.117579695 1647054.5824611844 108294634.90662593 213553516.51073095 213531916.65172616 277683635.4312156 53255914.795000136 49268338.12350974 87565555.63129847 87565725.8120772 123217928.11497821 97164915.49961469 30723168.48843982 220225.32909096387 76223.04656748247 266825.69699264714 102546596.8382205 102546698.7776735 29792973.99641033 29792362.475983594 123035824.58810602 189266474.235823 8381482.196503709 10687347.47759037 64963965.12314088 153411.27750657315 330645185.97142464 26334347.38091618 137087.71043513998 138860.6045724155 151539.02778666787 54824955.34655291 261440256.55050674 617575692.3437244 618065670.3289393 127056299.95504723 152984701.7156898 152981711.21789283 105214.73676127435 93775.88070619566 75218.92554782805 29954286.3414948 23734417.40111617 135043299.2035602 256996776.54048613 257550811.08321664 83675346.38092294 31866745.819932826 35953853.34818869 6162963.421926865 31350734.455290508 31347681.673721336 47513594.160540774 4392485.836194093 308365913.3635008 210614805.94648018 207841894.11225802 22071918.765774313 22070822.525957875 123550550.88461976 9087741.000675853 39490261.21339355 39488723.49199139 129373865.41918078 17752362.435497772 186978454.56361094 186961888.32752687 139704407.41172945 45203905.81536196 77805240.91478555 77807098.42521633 222955820.15384462 12926611.953958135 13378849.241557142 17432.142903009968 7374.752571601223 15041.329765710461 94677720.2550199 89557547.77493669 272120600.41298324 136921558.5075676 131101965.20984294 451202198.75009716 10490.673773698118 18384.00994569727 24660.26510835332 181819763.80760217 456933562.4210936 453534189.51943344 59876521.073803596 42645997.08539976 6977974.164959027 65321082.47784157 265428378.9807639 265437128.91851017 470707926.27019787 471891358.3761382 379100011.0792362 381468262.3002087 511396186.0365214 511093032.58236223 229955924.68158895 220222269.43908796 100330903.57286291 359356196.5107461 359342968.89096063 239400342.493584 29756564.7316026 271457592.65586776 56544534.48105115 1991700.0297147746 304819860.61892813 256163606.55622393 256157423.79348165 38306679.93222505 275171362.6564057 25514541.81920691 25512202.383177634 8887814.121917957 168106933.1818713 156663020.7968815 370761510.0148218 1886102.3758391205 61218527.4107463 16205430.178061299 42183193.89773709 689505.6859969479 545968119.1185799 546414159.7545449 546705750.3266377 545877117.5060743 101219495.79948923 16943267.029773135 19584047.283539686 19583124.26919404 242544859.83216122 242526551.55863613 377652910.1355844 378351699.9202111 76392106.35873894 84468409.3219192 72929485.24394344 78419261.89357646 251208681.2639685 255876932.3434943 165257508.02475652 170290207.19243672 123854730.37192439 123858397.52633016 5309122.434759299 130255369.91895008 3456019.543766812 342011.3532814635 8110733.042440364 142981531.90464 136313307.2557761 286563.29789102235 142925.0690643649 68030748.37752779 844633.1453977656 16363037.911799517 32272993.95773018 32275340.39850909 137420275.00705293 25139920.821829285 38056466.15207342 38054079.22277272 56493762.19105835 51252225.81157719 53393907.14929783 53392857.69771089 255637319.8545887 255613824.2478877 534176749.3974823 534323898.27032673 59885189.599797696 65011879.694871336 138586.91915595072 39791034.03200048 6547895.834344516 1349201.2233251673 71840011.64587763 76714912.49602939 144429285.1958165 176009871.69784594 78113.8389897612 81084.20079176714 243243.12598387004 256354330.93781242 17145625.670291495 17144043.20977855 288996946.99990374 4560746.261888138 5560339.05069442 154953.19726894342 159464.74742784232 120760874.81101404 108197098.58904971 133348.56177096098 2408030.231224211 9962996.996381562 449277244.45576936 452491675.3236528 74190749.35306317 74188624.31561968 94250854.70096558 94254025.09997761 14275517.506859332 14274518.280277932 97060.47574323248 71029.12754808756 102520.76837750089 6874268.132252818 4356166.647917294 80839477.48873858 68032442.72461323 11161915.898711998 12532671.543479932 252236.00345862488 6045700.509861007 19389856.327730834 138454.2245944363 69283833.34282766 268912192.75632507 268896230.52649736 196153008.16012898 196139045.3046422 411539.57294778776 308132359.1527305 271040383.19483 641759618.1843749 641913219.511789 263992734.8120706 138527025.9968962 60231076.731360406 65333665.194882736 138763562.48146313 309032100.6944758 958156508.979052 958005924.3516842 486249845.6100892 484851283.17054725 347789751.0366932 49458541.58043909 49456437.032060355 125862899.9056721 133402591.87160146 231629209.8092502 237153863.32116306 42316988.34308963 42318112.89951475 17334739.785143465 17335304.777632684 29024918.905146092 14452536.882845039 14451467.68588526 5425679.627021888 38350111.33402863 20416811.19186908 20417225.411374167 7711682.493682755 195037098.1823947 225926648.85738838 55266746.49601004 122442425.42503262 261236307.43535143 155597562.9826599 41938285.17460316 41940931.495382234 40295784.28354031 40293871.04529379 204904.68560891703 158642.33593060114 127736.33758171504 106919829.13723041 111865671.28554116 136091503.97973043 136309634.1884077 1542826.2341463335 1542332.7869555592 171381203.34353736 459359368.84751344 458941899.46936995 387545.7708227715 110666996.33616848 160508115.10325843 635485877.3830032 636269642.8325156 64542403.149822675 230639367.00008306 136477720.21651992 167752296.9345814 171706205.65144113 171871401.51117048 122609955.96561456 6113032.040476753 158062714.3515922 155696587.8802807 2261941.5280238716 127480520.56256682 3264477.6189633557 66729.0563871323 94050.65353555763 196943086.97188705 18898362.096526343 18897025.73642582 11467169.12695759 156064465.2179771 243498338.4575259 184525.44102605354 197960640.69193184 3675862.9303046046 29572450.73326866 29571056.879251618 293629107.5950794 1444801.3419915938 187301.4636197054 10959424.639241124 10959257.152494412 204076.4493135351 227364.15672643078 151007001.7120695 26835252.134952165 22086.300674992315 31792.61407086681 34340.97968523545 349594876.8661981 348235568.40934575 263888.3256618355 188207.27642325894 411565426.60465616 164064702.98872912 5050842.062361407 323313779.1301078 323311626.8453853 186910012.27694014 185816459.37853438 9799206.923757004 572634608.788317 576334978.3324358 324736054.23885304 324735912.28230363 22391193.07773115 22389882.285180923 20515831.019651726 20517112.809521254 200720.3037918262 193273.2416607802 39746508.8532017 39745950.90804843 10397269.765460597 145719701.78138092 271520618.0228113 272597367.5061848 184470499.33976108 184460344.723736 58660583.15654246 58656448.3256287 92108490.63516559 4912694.881558153 12926356.159520956 80297863.20944357 80295369.33963944 681071364.522023 681000073.1108372 63481127.114661545 68690264.82312708 294850136.99282444 291830979.3878049 64928247.54414256 70607149.02850528 28780176.3922282 164488520.11333445 216387.27957753878 167248.6994255051 133523.36697141136 66866000.826806314 140422404.7991268 135808782.72556418 103734855.12548034 323694.7854098469 47647865.1141486 260586897.494142 256155262.89855486 271040766.7506322 272931856.9950464 181931624.07948172 520599185.9682697 520490784.6176922 312573466.7832549 2732993.77857225 93248133.94956674 17665.77012758315 22537.696047077734 37190.64455370082 225311.6548683593 201068.73209265462 35744.40560620031 1196141.1787016545 228831978.3360396 300059.8261758788 9745511.470018098 155313769.1132531 437603.3930749099 593070.1911069301 45265.36744002368 91775.75663797554 121255.6336539809 3118599.6590917897 164393347.62776864 164393838.71021727 78452662.36911008 60084946.68200228 381318412.5881908 381359664.65796584 146032647.1363158 13761576.076518556 172241088.0043588 249530920.47003826 158073007.73845074 79983935.13642457 74823120.39749807 176518978.04646766 306613927.1169257 158884637.12207156 172567711.282347 11508859.386943046 48629699.29347527 48631739.57854708 28924331.326267105 24469321.048978217 8461218.952709889 10564661.658456972 770376.7465243605 272763627.60676306 17831759.353837717 39756565.953021474 44683317.96312202 179955008.75222138 495041444.79534346 495197040.1096208 29245302.17252175 416941660.27088606 416921421.4555829 14727010.51809446 14726267.728562448 296326176.3101481 42477563.610532 43153927.205604486 199674407.71589303 323265643.1506496 319023005.30862904 40532609.57624179 123376316.5922812 123378201.89988354 12617555.85249509 136814295.2268399 26321450.218838554 26321659.390955195 21796303.164649688 27447178.849740766 18540652.573552232 152188572.11205828 2167792.5656879637 189823392.8106416 97917.6931595458 79995.5612618403 232710552.73909912 68702.6009055674 74697.75202531012 53102694.32644026 1360732.8014220481 185864253.56202468 282172127.8102645 124633.5221982639 124151.5519575921 242060.67951169738 280103.1279861174 24391992.993819013 102282734.98582909 18700042.210750956 18700273.325381164 52986858.20047315 138866800.46609637 109689134.932707 29959678.82653365 179821.53621819313 155196.7903605577 24403.78089040649 2882811.498844038 278208463.47764987 12347278.028514609 318117740.7688273 316576493.21524096 214377116.03539315 214360551.36950573 109419549.264035 324052141.1320627 324035157.437087 264027937.59143087 259651152.7030291 924049.9436291667 9334327.097537007 167806531.1193522 471917882.90575665 472848961.3343512 15831165.712323474 3279634.0817637932 17487268.53308992 17488239.618578367 96421.42429245828 87013.42382431176 61436.28046545609 10171556.973934997 144094613.1373569 144082504.27072042 17268658.408808123 41351658.62919513 148319087.7816041 148339644.40755856 478301356.5012853 21561773.316943944 98365751.917241 198660367.89675912 90451671.19359998 90449099.30284621 32675741.514974125 209560222.42286044 217044485.28475815 5276919.674720337 61230437.16909062 167673102.99618086 232983005.27003112 20061.077824583113 10451.921925506316 19578.286786335844 153327.9103344287 6259.905944157646 165596.60072976412 161425754.01393768 161393970.43977895 70306.80811333162 220836044.9556368 77252244.0974715 7300003.761712474 15904018.46283728 15902979.164756177 9131865.157824049 122702526.21468931 40752202.74768455 40754200.80296666 410201785.135159 398810652.99238336 8952098.372246003 166299494.83584133 160396014.4198657 210595281.1944716 10897.641719639403 21390.70963368072 5321.44518819928 25578725.490034934 25577284.48700133 25208690.30844951 10615617.740015289 95790.68228526063 59260.71663288499 89892.6394210798 15274809.37002761 15275857.851029694 429366510.3944892 428972968.27334255 126106546.75168237 120358018.39124323 225835100.98415548 222954600.76391953 9184421.017626824 90120.99159629236 464264883.7939106 464944053.358429 16576931.726685734 16577944.179864753 237473.5083304756 202008.23353527123 54172.80905862191 19281682.690945346 17332970.71388792 79368.57756657607 78374.2461396291 570461374.5108293 571768695.7734164 696020.8831390527 49254589.14948351 49253347.691228636 345310.3786187129 189693400.2723873 189679989.94201648 262643415.0187173 262629339.0610279 201863.53284444692 229859694.92618808 56052259.755734615 56050445.97794921 43067696.47596002 43065092.17915134 1075974.175504385 172192344.72611842 209942087.41986993 14317342.629902173 14318346.96715166 19590113.56318087 28940225.055995937 29422479.206203446 69021.11654640266 77647.67083957608 65468.104117929746 63265.1607911828 137411531.49190116 25023996.939936105 27891281.563426174 49823416.187362984 225908168.85235465 192056046.19594878 9889530.094092002 107055.66159028531 27975396.426318448 27974215.47998127 201916997.45253876 15646678.93184376 127580279.0593968 9495329.577414028 113546708.35527039 114184022.27722144 3922875.7549232035 164970444.61912704 159574723.12564746 159560748.80331 140232225.9902485 58338089.45854976 75199046.52309573 63550104.06832487 80058032.38211192 28514490.91549633 25726339.781791113 25725945.516801883 16876256.75037183 53761217.22370023 174068.70743225992 192574643.2224992 438546910.99040955 438278659.16655165 202070985.5462829 199913217.52543616 197545136.7909005 197863272.34443653 13573289.22741757 28637080.409579404 35312.453094246135 50430.11152421014 26218.24992952575 33287022.665337436 38650794.18288271 28788566.112208664 28787826.521947805 435011940.84328467 435603657.05662835 34434541.91459394 269641321.77214694 269633192.79577 1909226.927205263 81234322.18477194 22742633.028817732 69504577.90745077 40786.809921577864 52616.12977323812 26292.095980401176 39197596.48713978 39200823.371316895 32791205.892211515 37198280.837595366 164788100.39246517 9592368.958117748 9593159.298963962 24371508.434211638 42419800.058598675 478620630.73449504 478507341.34961957 41551.53710411261 73054.69981597613 46160.945314945515 102983304.24069846 102985863.70520823 324824881.95180357 324404157.2621743 32675297.59537165 37823758.78083914 304020091.7843893 304033684.2031353 66226848.359704986 286103264.91557336 282983736.0909243 69004775.77618346 37496339.938038655 425039337.9361252 47219646.51218405 2496964.90809951 55660843.43553066 114952744.29545446 107084940.88709892 410365668.29727274 412073038.04728216 18785047.983492922 17883302.499496873 17881963.135628663 372289261.9068842 41752163.01418779 298818334.5676505 298802081.11975557 85119663.57281528 52366673.53816967 75798870.89235936 156810713.53248966 77046007.17136629 156850227.36881447 31735675.31958436 38834885.43237735 54911983.69188927 54914652.850217424 278794505.9250061 194672667.52005127 7647342.355045161 194744156.51020712 194576224.06444904 190636430.7637289 102485741.77874242 74358.43529570308 63975.069779771504 124897353.99512184 124884914.09126209 8949141.458762573 67873747.43671802 127872862.85061711 170192350.46449775 9579207.482700102 58989763.40219773 100375.58624474397 89954.45672598427 191622.95495975311 224923.25813674388 170017970.47383934 7814692.370473208 8574055.407282373 2073401.3064598774 21559387.397175197 104523115.66145837 91859488.7230843 50934075.314556755 1830739.3407982623 258991690.48457113 148628.53014202055 81612.24447091373 103890.39035785416 789453.8587794482 270063897.92363584 270082770.153636 169354133.20368645 32139304.09742777 88750857.39091504 50453081.259931624 112726544.19777139 59525807.3331713 134195.93564163012 182097.13005406002 86926.94620216402 242975.8089826951 237067935.150306 64919184.964684755 42034548.241397195 123507.61822858811 47794767.536561534 47797252.823695436 215461632.91636264 215443695.38188818 34002657.502860844 234777773.78780234 106913.99912131451 79558.83180386348 90368.2342433143 90520105.46348883 85618389.69512463 58528422.05777585 93634.80400326659 103921.91574190366 30272.021388009558 185127759.31429166 185110945.11190766 112188907.6434498 349172921.59932894 193307170.700579 153369.1763327714 269536.5156323711 446533493.4624629 66661860.6538567 153407308.54424423 223464429.67052004 219087751.68858504 15263145.108248929 40834707.068905786 40835806.69389016 31361695.0876904 31366169.625398707 25826360.370864287 46048810.44169608 100355897.78509927 8084028.724384681 8081616.780582311 173399055.0600598 329240337.84657514 311199379.64610046 391735500.0883281 388535495.4803902 92256122.39463128 96698534.57277627 100359.45663674417 90545.77026753227 131176.0493627385 131685.61510340887 105103.31506494615 99838.76687828197 153934601.72172877 3511047.19572714 4384265.251459672 5350044.02493629 18247537.115361925 217716416.6504666 49962170.93824375 44090880.4827628 153417285.82776475 170161.1881839442 199999.01328227407 82496061.41829745 77335846.71359284 143149072.653905 57607797.572920956 82337418.3802687 462562.1650940522 162722668.57400978 36062953.17710941 413830422.98606014 415563772.3350791 76894078.5333189 269535.3100691289 259145519.00894812 256909117.86281398 266590.95600195706 221625.8325132955 73186.15026598821 117003862.95467815 52210862.50626027 153865908.2056741 217052049.3321759 172431686.6709891 176804455.2205313 211445579.28077117 58025.56425435455 22573.19693421572 38146.16252832198 291614308.298368 291599115.9421708 88925748.66681364 288437418.06029046 123313808.70947385 117997208.04720679 169363591.1171441 158835294.88915974 158822879.69539782 327562327.26825947 327556288.0831715 127876320.36632566 69730485.35384503 148321597.5413203 6321872.746873068 5525627.282723838 4384809.1771011315 219264277.17297307 10914510.87495619 18790884.291447658 44447031.36977668 251085726.72303367 203906994.12558684 203773058.92961296 202372422.57624438 15584750.426736703 287872581.5937778 161679645.16685846 161445504.14717916 12657957.430874417 39546211.1066747 205492645.76311916 41798695.47902129 83277665.64003968 149599977.50807765 56136099.059314944 50779580.00371903 363998360.1240621 363990590.4594686 157854073.65452665 78906414.88636352 74021280.56086177 158527191.4569303 219640653.90099937 102797917.22488695 305423495.9236614 308779876.9162523 13281902.285465676 274670239.8069187 271022651.88600445 19127533.256886184 121611613.67359075 178098514.54305094 24222466.510348443 24223988.242122393 18778962.803991 18778798.628897194 50649104.75292402 45178108.04446185 244908.0261900167 244450.57962534024 153085.06431806416 92042195.9895826 92037090.99581198 250873.60577152003 601084.5230442286 18267610.838565536 18268785.15698613 35988608.79360505 3296940.755723862 285520842.56521046 74568914.46149202 53140161.6782442 53134532.39138506 285400208.47304964 1435547.4266431988 86425374.5477233 31094453.83220669 10267068.060172783 10266185.132606361 254603050.16465497 56943691.640442446 285935.9491050015 249454639.9945369 23145089.24534627 28395182.655674726 347406166.1529745 181348317.7434089 65494485.852539025 70630465.86101593 169280832.4227989 32269.67007564196 45142.550680203036 44022.76514876945 45040.584261165735 3697125.980030602 54759305.986213 22866444.68297932 40071736.69951794 23395783.763687782 313061587.8663255 313002468.8053494 152978066.79970017 72396820.84168467 164527493.3898605 264622.24956379423 338500.2215691437 140907.2159821243 75038945.25454774 837663.9893377526 192939757.5963434 96454156.39879973 25054781.948101096 25053448.85577011 375176.8977321179 9900089.926972741 97754802.48672041 199991085.12082863 14445756.572195908 14444515.4173962 126145.9363537574 131399.78986500966 42163.19204242587 152615324.86400294 263152414.58700758 211538.63317087732 181551.66948928422 38176.404373843616 58422439.74722645 53412485.219367824 138483054.0960808 53477200.43528612 53472486.27155286 172096147.60203606 172101353.80577287 13030733.556416735 13031823.860811299 52302720.05132212 62896.68106183198 60860.45887382075 29188.744030569407 152098.2738192171 293917280.93533576 293917571.102234 266443377.41859496 226773451.051027 250684786.49333397 17046318.07529498 326393.665892176 22840851.602133323 109011948.02822696 91452131.72308104 91444535.60047767 20319873.875524983 16069293.6147342 31413082.371110126 11059588.43560793 10675419.516482105 20553046.07911805 20554482.09140157 2621007.680850873 11148.476312550456 23031.31825327819 20620.953241319265 192443.7033248018 154813260.47373554 135149117.41727802 81849084.65422201 277292986.5525086 277306295.11110234 183677.72681643395 200452.04565486475 49046770.30246178 49046071.95097151 73478.47237270384 257736.96699116044 10968192.722324707 31544125.575212136 32926764.918618318 38440452.265313216 141544601.4939946 73869599.89304166 135162767.86674532 233762901.73397616 233770256.04567286 141526378.6552183 177287.45460852317 372369.9532863033 99684.85071986075 217889573.78548676 248500150.2466064 217974142.37805372 39593450.220797606 44736590.48756553 7879687.4236355545 82446475.33615747 6271918.171463278 405466.34408040065 115813.13681940896 372419.85446454363 435498.46510246646 1108528.1715212069 63071.93109870218 70957.14783639109 66144713.290596426 201066729.77333772 196833190.88550738 64455.087685712264 72752.7079142675 45774.454671362386 77188889.09170236 107128350.05752823 10152.757485479837 24559.205402303025 30864.33776563312 141203.31862307404 148351.43043564598 61502.46117945154 224926428.04821673 220718703.98387092 12558543.02439662 106032345.88780418 53807831.50109496 678669.1214643897 128379709.86036628 121831740.87809609 99447796.80561672 99439066.91823143 92769487.1850801 190086.06003823865 139736.24391053407 92638.15134735467 18754421.501392443 214537792.2736994 214522435.24223647 24086414.904058356 24085037.48917565 32481102.006192777 38134985.79142167 194163.50789499364 171471.5351441627 41761.46265738088 32585.165171531742 21964.79914943945 18786.735373297728 43225140.94632297 43225681.383732684 115864302.36946489 115859193.87038146 368069242.8816317 368076314.51888037 63650.66917423236 58456.450590492605 47546.00498325462 221665598.90265584 84999125.14001824 260869710.71207717 112365580.96195729 288312271.3166943 136215192.97730228 674319.4177417561 18312138.363269843 20524719.415681105 12316089.155697227 14630117.961598452 113563022.56901664 75227935.75921185 383555716.7811058 382120010.5448472 30829592.047621865 84464.21023995781 80713.53476909333 59531.460736429595 7717037.320436178 212678239.05629647 9763057.218899608 9762263.387493042 198817587.9778325 24925791.466597453 29970039.87322107 35168593.28479173 23692636.260385137 28274899.696554583 219408062.5327888 122458783.44688858 24238023.9784577 24235094.122985933 180055837.34951702 179985742.81963378 23538775.59864067 23540028.3611657 24311305.296383087 24312583.133120988 224614565.66114607 76099164.74395247 36501511.39790123 92666504.0107085 81162484.8722363 86237568.05449769 49616098.787820056 44219910.03212029 143876601.80519143 62284206.55823461 56949676.961059816 74380285.23499519 219326931.31316182 219306806.6940601 72660114.35619327 307493281.0868638 307497761.1908306 144948721.33477706 36071323.388134524 36071978.5294269 256346632.18129346 256224251.4087698 256235204.76571786 12180576.187325014 159545945.8615724 137769382.04025358 11510018.012180557 13203225.102230411 64750.69429629987 72870.22258344371 94264272.78768478 98135635.87213002 73754137.91316113 191316119.6810916 18159629.01508131 25672.338692426878 40548.13606750776 48452.42481016808 56063.25256010315 23219543.373683885 352069263.71946406 355396451.190457 137420121.10118803 141622368.03795975 27991.23475224648 50319.77492885429 219334988.48499435 177044433.19011962 181708860.1359979 258537.42450902076 6465812.088256217 73409850.42224975 151249101.1355006 37790523.431579925 37145315.68569235 37144484.79688171 37383108.26307665 38069.26229398113 58693.83028063279 52182.62946545955 65837.91051238637 50395978.94688821 391523000.4704438 28266.774886120435 46338.35906347242 55634.65527096949 46916130.19823786 41931747.199124195 5733992.589689456 176859478.801882 177030135.4464932 249123134.5527864 249119303.8567009 173674727.9978911 175471859.40755957 265344.01898020395 92220998.06349234 213122655.41063765 80108779.69555931 80110807.57916293 257684004.42924398 249564476.88761705 249577867.01426882 481678.5209669214 482795.5568861347 41539644.76470757 5965112.463176157 13667001.986549363 13667820.357026992 134654.28461957836 127555.92291006855 28440.024750226745 25421.36496574058 20246.40258272462 149349103.79036394 144763487.80759746 292181.32950382394 282326105.0930319 114044.5019528274 86909.65965205368 217089213.6460291 195053614.77912515 125442539.44515316 129631475.27581094 218571.67330346402 95838312.08573663 64591394.52775194 64594260.93973375 339995.22719018115 387409.0344818985 135452.28665144087 129864.53574406583 23279.58962528262 27043.20134523959 33075.64340317632 32829.844905078025 195935.02625177286 219870831.20562172 54300226.09201443 54300517.47312185 244913163.71630195 101756398.75820795 57062620.18408912 193959042.2555557 188684922.94576547 275023.4241201983 29751767.631508738 73064.63051417093 43547.83495294675 65361.383048171156 178288.10256337165 14387259.161129447 187508.7243051959 30487913.779338572 25016469.18070194 308165153.9550209 141436380.49074757 73531559.99940327 179697890.0171541 179691090.54980618 117246.867040588 94572.87825642807 69757.03809192809 212066551.4374206 1736612.2565294306 217183.98890213267 137059701.8392408 299927580.7507648 525096.4771746922 86545895.70679484 88639333.59983917 93543120.86434107 91301868.09041464 44478.587338522164 3813.316184685907 21248.23332347178 35248.298882990006 173513.5940312735 165257.469871395 102719.35545730316 5643462.067127187 26489658.443869714 9339604.34565847 299350860.2685642 28085.027506482813 22651.791334113546 27498.435460554134 33825.83013753683 135972.64312736358 73291505.93874781 288647736.6548505 291890919.1112512 177545.07373201312 155660.54231189573 16750.402455955184 149983630.6737817 14020169.69096418 14021033.229131678 92150405.75330497 92144824.06270722 12143698.770371668 1129425.0760326511 164803006.25570622 164617979.57498646 148773217.4364304 156862291.6860258 23917437.294407945 23920235.30239616 118773.00797330496 78394.55229859173 52674.82548320098 28132587.882316027 28132631.06434316 142744655.6379923 142614527.57490784 126477731.5406415 126448197.30729784 685469.1280518436 195665.51567960347 10896.3177854293 211589.1509564672 21268.92698381022 8808.8831890787 30480.15773959158 37936.29138214086 23613.258590450998 32382.224547851758 37600.44521998347 268735.29367781576 20288226.883411355 20286985.214328732 158802857.05389202 214396431.2620424 214321184.33009624 22630.138645561026 39362.32551154637 28639.740521636326 42333.668955449 61220388.67725372 74516772.3778924 79594769.50209358 123143.5788456691 103424750.20415726 168397.1840789968 9637196.79588727 104445669.86291555 452126784.1955703 452317815.2921428 152539540.34103748 39187699.87810375 44336244.17965177 37479197.01878166 191099742.76522753 228904188.68694863 20468394.259905327 20467109.828224573 5388187.580758112 30127618.91889129 30130271.520730946 202635773.5245653 197524107.96734506 140402766.11240608 140388601.7046105 53389.508571362654 40239.17238530978 54138.87576438242 57839.268663913426 224969901.83062318 224954235.73003632 26155377.79165227 26155624.47724561 101158798.24795625 101179712.2551075 149594780.48098922 149577608.00713968 166762527.96240553 166774992.0003629 18433485.16838766 510182043.9696149 510174471.6201126 4382839.546827753 463974.73348943784 250849.9806187053 81244.38584705838 298014.32837065595 531284261.4012071 531886069.5659723 189093192.18952003 188983247.24874663 381540.2419684768 156771711.5394474 156030019.11706445 158966933.91135365 163225162.48551694 10717405.081934698 27974563.42118531 138492524.64755875 138210310.08508858 22681156.668631826 199512835.22167072 161432305.93044546 161342347.91400978 81494281.94577728 602030692.9467446 602116652.3003349 77801609.51541856 72921237.37467332 35103820.974097855 35104094.523049295 30956481.339869197 30959974.066866264 525237719.6008284 526962083.2830494 100404623.04029845 3814838.694004058 549652045.3520861 550293075.5343682 526628259.93599284 526283885.9815933 486844407.4291759 489041470.4730198 28763382.773240957 28765108.433527615 29731896.38337282 29734995.72246242 168122871.20490953 10440489.33572143 22317955.62016458 22128077.154993344 166215358.31479555 215680573.39983183 21526507.07582961 135610.70511618952 118697.42702584491 72471.4661783667 291113620.85341895 216308.22691203185 246987868.9925208 158424341.15256375 163400097.05020753 8240837.494800499 35738779.301398575 35739531.67231754 261909066.75248614 261837932.14599165 207893.6905960445 776676.9198077501 126658.47749377308 73554544.51812778 20881779.48357684 14571843.638677211 20763607.613966648 26396111.38493551 55094552.31994326 247803635.07871622 42954215.44463308 15604543.868008157 21382146.705091108 21384152.151987508 151109.95953371917 25938.481965684343 127869.77633290128 198874081.4681661 73048704.81823018 1073918.0793236692 52218.58242825736 71503.65147089092 77390.13418051467 14396950.124748774 14395083.215632744 143488058.28069907 109391857.34803113 37709.042424838815 96750.97737774318 53332886.54680172 58445009.97195119 7763763.202071122 643624.8156041038 316080098.67430794 329511390.95290047 34856678.861762114 34859890.631930836 6409624.51456096 3477048.0753964307 77624069.91468082 42758175.26241318 20741395.94697426 108765089.99830306 46076366.02507701 41127016.58958311 7412314.119760814 230418890.0842075 151978.58096155888 87515.60110488365 104849.98062777832 136723.4572947874 119066.53992956426 71559.93666183934 232899690.11637112 232871939.0284833 51687.06147939097 72948.37709221912 147407322.5614991 84436617.43436769 15836047.339280788 15580584.146393368 9843704.828760542 126955954.26147778 319612369.38641554 77652.74329918857 82352.60289205467 24008077.686860044 24009413.539675206 74972851.6509657 259011454.98392004 114604120.13293216 9084393.023658797 159679017.11558113 164709598.85908064 13022593.639070123 9620528.555389965 307887838.35334235 306021132.7935573 34681371.318854794 148887283.42815882 45759847.56797139 108028.0904434799 2006099.5431430764 84548037.9456453 107979618.84167698 92014829.17464362 574809454.4348396 575038295.6512518 416089382.790282 358848651.3418496 359891337.2556546 1502036.081267325 232489835.62524277 10538247.948461192 111439641.51286738 612190455.00028 611654509.7885305 292563696.78727484 289821897.6743019 21692300.237662766 110707643.53219064 229275987.59674788 229255064.1943718 56809.191946764666 69218.47041515479 127468.72455632236 591576988.666146 591024786.9507017 139064653.70347515 173702227.38978618 125695752.6107381 26869481.801088735 33014530.705409467 28964006.86722375 34265078.08349409 72449.52943946961 54243.8321036224 41914.633777213705 131912056.51182473 246309072.85803062 343606573.71352315 518263043.0005058 511939877.9590306 248777397.58643407 244693883.4791046 210768231.15216705 343704497.1007531 44243588.29828448 11975878.124597993 5203756.827950893 265384560.13118023 263020245.12457582 287796550.39435285 283964221.9129181 5809907.376423471 116589238.07892533 114891927.36313955 59672.41332616527 77352.04509290021 44671.442025451244 129485587.70750454 129471211.46161835 259908420.73738852 352716730.06905377 351904692.04260695 22963596.820514873 22965748.904047426 100547915.61818585 234272787.20129883 133022.46768117198 123338.7608942863 30386.834267752256 63202470.37179984 337506861.9708493 336979634.5447052 25149153.416653235 53600232.29486772 5012556.97605895 202325210.33820215 198370955.5389167 34245382.32543123 30459584.102687526 150279900.0333253 150266962.39909753 28740343.756315295 132307694.21861096 127681162.69296008 174110508.51982203 135859079.3358537 135849551.50849783 39012.359677732406 50102.332553972985 168510038.02662784 168498099.37484738 226135560.9602423 226117435.5475445 4128304.3611489683 537240783.438321 539574550.3403479 136734107.4493593 136723311.4959278 24194169.94607004 24195565.76027076 93321285.30696666 506122933.5744489 521323642.17115724 136280746.9204353 136270276.0094462 439273.4863716236 368267.84838167747 19707859.368199937 173122.24473575182 143848.19222354097 213441810.04294372 217758179.83404213 219968047.04861805 224564163.39754313 136953807.8264525 136942353.97195202 108077267.00395896 20699385.525530793 20699844.940303866 309477668.95787096 308890248.8047881 128378.60176031965 22550338.318150025 22551681.98713 78818328.75969207 35806772.539063744 35807784.39147672 288865481.65960824 351378851.7717114 256745.051242057 67760779.75270635 129267342.86489154 129117820.4020397 10831136.347929861 203558740.94361997 197128542.5210485 221982866.41281524 217343296.41581047 415871238.00015485 386577729.0676941 388741656.3822176 418481029.6593991 165356528.88810712 165154990.63683105 165625462.26745474 161871841.6060859 115476.76359690775 71882.66545968592 75760.83925167396 307707152.42850906 307703295.7036322 49291.45002342374 75300.2206716116 120715977.20318013 249350084.25846794 248016137.17106885 20105572.35489571 504670136.2740358 504611667.91173804 6223939.874010966 6224136.289400561 135813280.3364958 139490682.39507407 50618883.43170601 82569585.45784853 340299807.4722484 254176867.55533558 254160669.0982116 456788.3080140799 53768831.32266248 8873962.85198799 15850230.731913157 420385491.20698774 420281185.1592998 400618665.87183064 402545109.79341584 17662794.740369648 242113.79452395008 453938.92060497316 355216.7651028131 3398444.95709593 102682909.65968733 23224539.043091558 144102965.49959943 11144430.834702598 8769114.521470793 24986689.044198163 75433363.16806133 173712138.16559878 7101405.961547265 7500931.264824752 111222189.1365106 2085014.1176952675 13479213.36747853 14192900.79666772 17072658.458831027 29253.531547153616 22861200.551569134 23329308.111835048 23328107.76516904 7005334.813494143 213006386.26246473 212989106.0275553 107373179.17587283 106213285.96640375 20819144.46445992 265026.08046647115 46783616.70145984 4153381.750728882 4545254.352497347 173042.7355476614 102785.9668645727 69708.73030395443 64429.17740417543 22037260.47247728 22035591.872234464 530797.8329944875 224097809.73440924 220403279.4271676 110075803.36289708 110146117.10153034 237906712.28823623 237879763.67511266 24529975.456794094 45581609.063847035 19170507.099294383 30081993.044510253 28227509.853987616 335890365.4692618 3876544.626843641 408131133.8634417 17774208.452790055 17774910.555768378 7034487.545896039 12968533.238304636 112225212.88441575 24631.976587666704 27259.20705003997 67775267.30311494 312939379.3915847 268404378.80076793 66424118.13817451 118147838.9966109 7476851.028134409 430707665.1775579 420739265.8178672 40528703.02527523 7951929.120575414 28049871.275984205 28046927.09321682 16776129.973922912 8221466.463272033 106424182.71513024 340708281.06268835 14252435.229539813 3833634.9665637086 3901051.5637747324 16586013.365660215 10175491.047989735 20686357.299441215 352112098.4401936 351509711.009167 242853714.07746208 242879975.81964615 240199.29152774916 223599006.32280394 224716344.91123366 104333879.72991957 60415.9862044489 62035.634171792044 247302955.25139076 247266947.0707134 288804435.3174122 290115311.5356059 32716963.779018987 92959.97729295694 120500.78021043456 39292.39154107531 146619836.89350504 442979356.6255204 440289347.72452086 470795961.59765804 475085535.20984846 65384536.998048194 327290867.4614577 329044168.2103138 7075682.39336945 10357533.746522801 16406004.816402504 16405062.562056022 474368094.06388575 474592945.8275625 89894.22985261108 87016.09523457647 32118.42451157168 5002076.858325823 600700.9885336682 215823848.69600728 215809848.4722646 134929356.71350783 3811899.55098774 314582663.4919354 314003886.92732376 27344964.1227183 27342280.217531182 11143837.562211001 11147836.52683303 136027756.95896226 141578052.05333588 166899.2654135805 142783.15014346864 42048.094908490115 29694.729206189382 55935.785746033755 53741.559816780275 66124.26860804671 85061.35132046978 386063938.7748338 599653651.1802611 599855059.190522 10486000.836942613 3854628.7142114923 15708222.803311132 15708303.970019916 149707651.03057453 164226.01744236925 108847644.65845421 108398143.31994098 404725.4836720901 13174443.4727168 49943067.97224598 65723350.683512144 17814462.240977682 297403.60542731517 14980226.145002859 8972391.288511027 195038.38804675103 295718.76298125007 199166.28633805667 15248839.688019255 15248072.179634439 11350781.549985707 786768.1170143089 335555.2531120746 518978.12412734557 116156.89787539399 116004.60601061296 17240506.378216825 201667.9021711424 193584.14762876282 87207.71440371839 87128.49465489357 544464642.6740563 543855878.3225261 402024097.7696399 340007880.70491695 117260618.39107768 117266804.90197265 92965410.08560368 9971989.800740805 9976044.270765984 134973.2864894977 132246.75170880894 75845.31703409799 73560.9292889825 113774230.39461993 69199762.92564484 246963874.39800853 218907677.54242992 254627760.06785384 1511738.0505083397 126747157.7411956 126574467.46198022 315495.2894919134 56599177.921736024 659762791.4289992 659722512.4481194 130369488.81430659 385673.48371157056 509152.4211835612 66785471.075467795 370255958.406139 368392655.83462995 402659.5445300859 269304188.8245276 64797397.78175839 600426595.4750484 600349842.6794927 339631.4812449014 204399142.84045717 7798083.208931287 16381660.38509336 460611088.9776955 462502302.14648265 257678029.9591964 209806824.32384977 209770492.11694488 18517899.259356707 18511064.36776857 14437875.782941783 4531987.364118315 14397057.161066553 9035169.428827085 9034920.74224704 157627599.88271126 192692129.23119333 192669223.0067274 16038097.47732627 16037224.881807875 21940130.86859044 21941423.24807413 117372479.41370931 112165265.9180877 48344.64311602732 49013.59993291556 27476941.868392624 2044919.5790694563 180731084.97173476 187692063.8752419 178252832.07270262 185144831.73707443 246476022.83876723 217723662.54233545 217733500.97574762 416434012.7068401 414348169.8216035 177876617.96900186 178170494.61732718 19769643.774111982 101810329.1898259 124093369.79776567 124627325.54953787 3666124.5098075178 1369695.269341708 29708.88557968008 33728.98117735941 40015.16075444639 9211000.4216673 15596595.073804101 144355421.07867014 598648582.4351866 598746574.7970551 38911972.10366267 105126123.12126367 12000033.24649587 359049773.4993268 5190350.875490624 235480935.2369385 235461686.405877 115015844.82857738 78168.71871649352 63301.67767232205 115368481.95201574 3215237.821777794 177813719.14096797 177797904.07341358 132730673.79530054 182208044.2003137 182195853.06547636 67139.98727553817 51155.131552538995 7713436.219339286 34267406.91927536 16112390.778960092 9982345.617818048 4991147.576476927 23086.774724047053 23280.080740763082 150813233.27784175 172105167.0621681 355201821.5409206 161435967.42448005 40333311.769972995 14223936.852903461 6334261.347301805 161426556.07555944 358297671.68893087 356063437.25476676 60990.04476868628 57203.77144357893 94470.28310453116 67947.81908672105 67032.16399762627 94842.36164350527 397356430.27426755 397297874.66589135 15358577.457794886 15359696.284609178 263478433.3291267 21418654.870121278 63913.71494608129 72411.5139223147 9348357.51914611 178231311.75629765 173865544.23029408 2413939.275173179 265096.7287204005 6884182.074361929 406427738.8209679 405298492.93764687 402273395.72928846 401542915.9862926 276705436.99841976 276662875.61906916 304845.1521867783 22963571.60627831 22964936.7977696 46248.76171813742 34478.18506901185 7124079.754310521 19570.447252072943 10948.848443875471 25312.652685183235 24400.57895515842 8129022.782072378 108594517.77567725 96699292.3835166 100880949.58273645 378207071.0053189 376409165.7545115 100473684.29837729 5035313.219423909 6374833.998789198 67090.07598476198 72565.98357751982 163211346.2722453 221433815.7470933 221361915.91578692 19777.59452408681 33941.85211916294 19097.98836836393 77917.47018980289 79929.96571134045 321674936.52964205 267234360.68902174 4145393.159508388 163270823.16217306 3875085.273536589 72381696.0078968 4689463.1816512 337394296.49464196 330324978.8856195 29435850.663293682 29433590.043132015 5561065.907031731 3099706.46969905 8777944.898304818 51317.80756886682 56642.87789183777 58361.50148917071 482792067.6592592 487002163.0012314 16559.112743736074 16887.640924769123 14630.27984415155 2749477.2880938477 60170376.17340259 2134889.129785664 271534978.52179873 335000820.6932849 7944350.003065614 1878932.0931914968 3133645.3168190727 8429558.524934808 133912303.31310381 133779326.91788737 160892333.0560344 156738067.6247928 248114507.74492756 111910399.01913345 69549677.29924306 69551704.04291125 107980941.80840176 107990029.35107853 109157.94339430219 102082.12724542465 63380.90264049986 246253042.1120894 180021848.27159008 174796342.07890072 139292876.06126538 130428020.64777622 357292.0783023273 247906.25313953054 285696.6319532833 39224669.9882705 183611.11835839902 126664.09780024968 120467.96816124766 45336203.15778983 43858984.4307315 51916734.66005819 51922193.73362583 185609123.60551092 185596804.4834405 279031979.84924227 44151366.51927886 44153510.074805096 96994110.90300953 20800193.162423685 267094066.76942724 267073241.8730376 329776094.4695542 330348962.26840174 58255.35531942625 61189.21915641454 68843.19595320373 67977.95283357905 411828647.9042431 407894288.7852146 477995601.9757687 476759144.43916 106111113.11555754 66677217.9585347 76178676.09168686 76181302.78084862 503180594.9428164 503744003.45750964 196672080.6002729 196655468.21941444 236367742.3886643 236375373.67214715 293967147.2905367 289718745.07112855 3947371.536300007 48068359.5004891 91901.77259464332 86906.54079513691 215664556.98424286 215556032.66417348 200146223.44113663 3827564.5322258375 451072077.85943043 451226707.00615335 11239449.032020034 149130.37122000675 224852.1995612776 300719.3611210757 287494.0278030113 175182354.5049847 184858.35609665027 502861193.5745236 491878823.6885288 58297890.172365986 482183318.91598517 482154556.90724933 356964.2890982799 294753.4488866478 111458.84984223753 13277813.270993374 28265.62238373333 37551.952770897224 22035.50911568603 42529.0936179083 148064161.98889825 153919292.53505662 537067069.9553643 536769318.67483 269320059.6054899 269313660.9610244 175251643.36630118 180479450.72211835 180499047.57220194 30673067.39935797 65787109.40752133 277157003.5551472 277140934.6027309 221984468.02484387 145024604.49342084 79419.66806392669 80625.55514386516 168964916.53381902 14858877.025400134 14860690.659318212 221305797.8942244 217066074.00374457 64062129.31717145 48330382.043990664 48324685.53861253 122326368.3354769 412262896.6879631 411556161.3089636 8194064.25285484 4552785.228742121 122405717.22367197 477128676.3138312 477718771.04250175 65635782.42016144 120611859.55484067 80893398.40632045 137245680.50499496 68729998.96213529 551907941.8824939 551437184.6854244 269413169.37523377 28087853.533457905 28092914.355103105 10844422.027209003 10843846.305720428 250620532.96690086 250605228.5933826 221563803.90326825 787957273.8656496 789246415.5570409 8799256.265415853 9638670.009125752 10575169.1853705 293056217.1457188 166330900.25103378 166315632.99916115 19778355.64734064 19777048.670101855 344076728.36254114 314432345.626 6883173.597308697 258733024.97264138 254020479.62813544 34745440.12526896 76989907.07229368 96740736.47490722 335865725.7605202 332755776.6249857 110427960.04859309 37355729.32084492 18277801.82196615 267548268.44439173 89038410.30428618 84553890.93573564 38153352.125773065 107022827.76372658 101841127.04064977 426497497.7070917 432093810.91736454 445756366.3242015 444174783.17402446 352384556.9508093 587606880.3729014 584995441.0252283 181042100.91618776 185585770.10321432 32257165.684695058 642172429.782446 644552841.2035958 428107354.6868433 430894652.6009977 65507417.59953782 60258424.49341125 29360444.088358518 29356469.076443747 94336705.02502935 70901538.48841457 67343827.42629726 169120861.7079673 12711784.473184248 6168444.175861702 97144036.64882015 17448925.588360414 113300.53712912845 399949711.525462 395742643.9175512 69330639.16277148 121273.00518764014 27803.398894417933 18469.369672264515 23906478.12335682 59677854.347628534 182444.0918831121 202687997.65691784 202765291.92822418 70360611.03376141 50044.55983476854 40683.675600144576 189227.23439921584 673182415.2869859 673638004.381946 299357871.28492135 301153418.3983922 242604374.93916175 242585969.10456836 103388028.98923735 8972937.669046266 56671707.11410634 152399225.37061682 152413389.01519448 124309033.51651856 124321350.37953496 73956123.43149334 23418046.52881525 4191558.933138189 78328750.57460275 3745763.7745323377 58552614.32236067 97750425.84709832 97747362.23009324 217175342.49254686 217197945.0631319 5662826.850311407 251007290.83389112 427646272.9169236 425831420.67653733 879211.9331974314 426603092.2775449 425318170.82287145 24927212.75243349 24927605.642367825 135403463.45566806 215418330.62210426 215403957.28822672 45219671.22286279 41513183.50443165 82045439.6206734 83599197.86169185 4194461.730879553 320690.2967724692 248951227.3766547 248946990.5645646 17650726.0412706 302607380.76704353 72807.46950036375 57860.60491789594 76899.44672625589 156643.6995683566 208118932.17610356 208107529.46078902 303841.588118804 63356.56978353468 16610455.232595814 16609340.750729421 126941.98897667359 1747549.2212732297 158845.10096658958 59468.55808702918 196601.7049575863 66537174.96484623 59871676.48021058 110451.49997365139 47528.99738801241 141866.86280810085 19455396.561218057 19456605.96073304 34666524.119257964 41242.710909739144 102870.73054419189 75059.09082739559 59239352.197045736 64439846.282353505 66781320.46774474 11039983.062989848 84169012.71569762 84163617.37490872 65686171.14603611 74583.12612813205 34937.70796538404 49826.473344597434 233334.24395690378 21538928.513433922 21540478.22514963 40536025.57191917 31129.48210352975 62727.75142793244 55935.170230588774 233847.46627639068 106769.81979277772 49691.88798342392 76115.79611642638 57070539.7944471 328318944.50015754 428258.3969446796 71164.93514695384 72249.97910517093 54079.8912871285 69038.80409439861 193582.48983924332 85327.23439621528 488194.8417913232 69407.91818599959 81137.87715882293 75676063.96252404 208954.71130670104 346612.7384049241 108836.08640633833 33366254.51451782 190917.70325220746 254404865.87489325 254403608.33390194 51425861.08166128 51427561.71783197 44420298.71907381 114139.86712304082 103183.93831380668 15992408.050330112 105857351.28731656 105861444.40857951 9964295.054709285 76935740.32065491 131674623.54199329 90689535.23308742 55947232.7294715 310149443.4598963 168304980.8900062 281518142.2258501 6714956.082744661 11926416.261674557 3738435.857146209 57536440.94321902 57537670.55806545 15595924.301685976 30620114.159067117 349100611.22043645 420562264.77489245 40890073.642469995 21878283.94243962 21878250.82686785 22574009.51377531 107832402.30538298 231990159.14216197 231972655.33619857 55482978.51900941 30311.43388463624 35519.54887258574 35579.06697221289 89124992.25582768 88339692.88879234 8108034.334680791 73204131.74021439 51058188.20184718 239516547.20356488 239508853.2459661 81684568.14148003 47029861.539938755 99846675.44979496 99850692.24918388 226032515.05699655 226023787.89345556 44026.020406174335 30753663.250940967 36084086.33869037 42558.802240187346 81623920.63138203 81627031.13119417 178592452.05675542 118176634.49833275 36358.61382734822 261120431.48030767 261098928.28833857 126798673.39073159 136078.25717399144 247406698.30982 247389717.5734646 90232289.96987216 90236418.64532347 4846538.735380576 35020875.14722097 35021218.714805275 71396592.25660445 73296341.13545586 24594142.942039136 464165692.729548 463671482.76671195 94207080.66145939 97942298.67144452 97939538.50745031 255323638.90929765 20102680.865187872 20103985.228783734 39530931.33978305 142238947.37808093 572249.0654631202 257319.39015273383 213181.52170941752 71509.21252649881 245309695.19686282 347514191.7162381 13449742.199501352 241313313.10073996 14966639.587890962 318011698.15515596 317998726.6207306 183410637.1703678 5265154.482771666 410488579.7160038 410489469.3615317 131712855.92133424 369493443.3682764 369483454.8532504 358704729.51112485 357938770.34186673 190114.75904646967 337621383.3362392 308683422.5155308 125400041.5936658 125396608.97398312 215902062.2557252 24567224.92888197 24565321.132270537 266064621.27624682 47215259.71499572 180330.3423707732 3450067.682788913 14465433.46384943 202724.4867897192 91582140.70338401 91577210.87677364 135886440.35239038 130425023.02779356 218796.8516434236 151775.85738364808 181822.72161705725 53806311.026147775 119307037.46704075 119311895.54309133 176702114.1577639 55948363.63357018 356695187.63748735 162479979.54613456 163875564.22700146 68165614.16356014 62220072.54584634 116539453.7232119 116546103.84183544 222321.9654062165 192080.08553003724 43767.07948971273 103548199.91234897 104379294.26529945 68126661.74195063 24027391.90668247 217714.5817068085 67080979.03668165 276288.8346869731 10864579.274135001 4843250.156830488 198740.32157842087 239997.60568026034 143724.46673584878 131948.968700149 98025.95240219263 25624785.033299666 25622959.637396425 168665066.57612127 168699662.12429824 56184286.06285486 130636328.49580301 130754693.3865483 238112.32840863251 26713487.482162576 26711967.810645655 311531107.2934183 312404014.9756048 374073029.0997607 370907681.15254074 239478.50388145522 79715.39600167448 312070532.5241707 313017576.3357225 309870877.12803817 309854250.53289926 127958.40641055394 97287.3963402625 250467.17445608124 292535501.59771854 97368.25579028307 205799543.22364783 205787672.8485883 204212786.34004116 204197912.88203216 4763445.517082414 79973.43834724558 32530001.36440678 98814.70290722276 20460967.309812248 134958329.89790887 98574.40294109874 89268.39277265032 32997069.779918928 32996481.506298564 11714950.35855812 66695608.075817 549972875.1105291 549038914.1253437 91703.08613089542 102187.91136216943 64974.808221058134 66247.77746731535 63809.41024740539 51028.76510130955 583753806.6614547 577912216.4590013 279909854.1044089 37332950.518211216 226261768.29791555 13713835.934695514 28327010.139656525 10644895.382263921 21948962.156312924 69919385.95264533 215352168.79386148 215287000.05149308 78149317.95479117 6908591.089756479 476184581.0482434 476618900.1051392 140812.41005523887 138161.75656382763 92109.5880876581 16709536.151112648 28901420.89635452 11063172.13819858 24290559.7768174 179706483.17053172 56023108.85390022 45331009.50075598 44399009.55954837 49018275.4058481 60083133.079065435 439089221.4458388 439030190.11647874 29408038.561179183 354014404.5480909 359915668.8422548 28120538.95466825 421767837.93068576 287978966.1132624 211360.09438413754 181443.4086637834 43422.18711721777 424951083.376462 424525296.0706992 74344920.10118337 42916167.88161036 220115631.88747695 220125060.93339798 263053255.48059157 264762653.31281653 7182685.142107929 15359865.892425988 297492856.76358587 296180011.6422397 320446499.6273244 322788898.24706644 264226836.09632412 266739191.48549986 149068876.25384864 148969473.88428673 30843589.263897084 163014170.1259812 163000476.46301365 9001054.82878984 148656218.48892924 214631479.22714138 12128138.300741503 102323276.1615961 139373003.66861162 84874777.91223012 171425.33474782505 176412.49508253974 409610079.64519614 1355661.7660359815 345958510.9687628 164024.10997004082 89805.21669189468 214095.72702838792 11252475.111034818 105115.49150169341 101385.64735945563 114730478.12081112 45558297.06722062 175406633.82074484 3702653.2473376105 199297344.3093678 44329532.44410521 44328521.87546004 833513.8112214697 87508589.73747183 213746912.57270205 115131831.2444006 75525667.8630713 199124935.4521431 167281.91312207995 91513.99742504733 218111.8054300658 218462320.135398 262493093.14759865 243794245.86380365 264617789.52466714 247196460.23413503 412123897.1968836 25158338.8502892 22912978.433273017 182228044.99148542 343622643.61389196 158568590.69013023 5840647.676400136 5380989.025057577 272644.842262869 410728367.2275951 388297351.59389 389533298.2902307 397489990.92667776 401138279.9246788 110136682.207554 534912426.7691797 534750979.48595303 63679050.412238315 32119571.949655995 29047530.653594665 519011999.858485 513766190.1301683 231576.31611984895 11730313.16890492 5992979.71604354 503510895.5245763 506207404.676911 65630810.89261756 19411562.20858169 107165908.25151719 112877476.86020446 154003898.98472616 187329389.93475473 187312890.43135986 173435857.77268812 170034019.93875355 239436717.39448726 224626844.18773162 63917754.19033689 44970302.60555618 90741471.47878015 24902892.77913379 61207387.93769153 33931859.15141806 369572629.3824731 101993350.85584044 32644.71256720723 52867.75223237978 47528.13440400991 54715.66310183395 84728.87854972917 359551191.5868344 125872.14376609458 170614936.4318776 170608765.62495774 121965619.6725673 121940964.55936466 333161571.3961671 3676049.7378014633 2856709.0798191116 40105.233762279655 7021837.936057986 125176.5788515175 8773308.112830494 8772785.043098738 10373996.502254272 9264268.061065339 310366562.7679751 70164863.08645177 13273547.453251755 13272818.157667495 3343899.82971636 348868651.58641547 349745231.77743685 362408102.83347356 362469648.66609013 13512850.901645727 13512681.464828914 42831162.31488994 42832254.86342083 5998297.254589934 13923568.688077133 13923302.236790016 62091.70899003439 40624.21520002256 74552.00723641242 232279.68946871866 29678075.246912003 7055379.93371688 263379.3989598017 15912745.121565921 10381117.234812802 217592579.93988022 212510900.53273916 216912550.9894769 211568591.88505507 74972.96771605761 53933.273960776445 73962.04727590233 21438866.01855009 21440157.22105198 357357788.4514089 360319748.8279111 365921679.6024716 367768273.4318789 38510807.52247162 164402149.84260723 262136212.87947825 262091899.17105705 38045018.41054739 5097505.474450568 61173.51211612052 24664.371517659303 45889.59866670389 55975.708128839186 3545424.096677299 280942502.6818328 280924461.12191427 2448791.4623507936 2917164.90693519 165021613.88059223 165006685.79354998 6924777.739447258 7313385.024182388 63084058.239795394 63085962.31527966 63391455.19850112 63393535.28162026 130604835.32129218 135795891.8481836 23974.96893849571 124738.5751019617 102840.38604058312 93218.22479965733 21259.387775798987 112290.64699029953 57662616.11097651 40685706.71829833 41454791.16516298 58827305.94670057 71527872.79428516 271810941.97178316 271795549.38892484