# vtk DataFile Version 2.0
Really cool data
ASCII
DATASET POLYDATA
POINTS 1868 float
10.0 25.0 0
10.5 2.5 0
14.5 2.5 0
15.0 12.5 0
20.0 12.5 0
20.5 2.5 0
24.5 2.5 0
25.0 20.0 0
13.625 5.0 0
12.5 6.125 0
11.375 5.0 0
12.5 3.875 0
23.625 5.0 0
22.5 6.125 0
21.375 5.0 0
22.5 3.875 0
13.625 21.5 0
12.5 22.625 0
11.375 21.5 0
12.5 20.375 0
23.625 17.5 0
22.5 18.625 0
21.375 17.5 0
22.5 16.375 0
12.5 15.5 0
20.0 15.5 0
20.0 14.5 0
12.5 14.5 0
10.00806451614194 24.63709677361278 0
10.01612903231258 24.27419354593386 0
10.0241935484938 23.91129031777878 0
10.03225806461129 23.54838709249173 0
10.04032258071191 23.18548386796397 0
10.04838709682194 22.82258064301263 0
10.05645161296179 22.45967741671925 0
10.06451612913326 22.09677418900329 0
10.07258064533511 21.73387095991988 0
10.08064516149915 21.37096773253857 0
10.08870967759623 21.0080645081696 0
10.09677419375892 20.64516128084849 0
10.10483870990822 20.28225805413003 0
10.11290322607429 19.91935482665694 0
10.12096774224832 19.55645159882557 0
10.12903225841202 19.193548371459 0
10.13709677455406 18.83064514506724 0
10.14516129073117 18.46774191709723 0
10.15322580686834 18.10483869092457 0
10.16129032303272 17.74193546352748 0
10.1693548391806 17.37903223687297 0
10.17741935534539 17.01612900945749 0
10.18548387146244 16.65322578418995 0
10.19354838763403 16.2903225564684 0
10.20161290381374 15.92741932838155 0
10.20967741997008 15.56451610134622 0
10.21774193613836 15.20161287377394 0
10.22580645230157 14.83870964642906 0
10.23387096844209 14.47580642010597 0
10.24193548458432 14.11290319370539 0
10.25000000073421 13.74999996696068 0
10.25806451684794 13.38709674184244 0
10.26612903295814 13.02419351688371 0
10.27419354902925 12.66129029368375 0
10.28225806511086 12.29838707001138 0
10.29032258120948 11.93548384557348 0
10.29838709730668 11.57258062119947 0
10.30645161342799 11.20967739574034 0
10.31451612954823 10.8467741703298 0
10.32258064562724 10.48387094677422 0
10.33064516174957 10.12096772126913 0
10.33870967784367 9.758064497034947 0
10.34677419397089 9.395161271309828 0
10.35483871007663 9.032258046551387 0
10.36290322617298 8.669354822215917 0
10.37096774228375 8.306451597231394 0
10.37903225839794 7.943548372092563 0
10.38709677451733 7.580645146720181 0
10.39516129059989 7.217741923004883 0
10.40322580666075 6.854838700266257 0
10.41129032276591 6.491935475534158 0
10.41935483889413 6.129032249764203 0
10.42741935499985 5.766129025006942 0
10.43548387108066 5.403225801370201 0
10.44354838716179 5.040322577719254 0
10.45161290326106 4.677419353252181 0
10.45967741938996 4.314516127451607 0
10.46774193552708 3.951612901281566 0
10.47580645160294 3.588709677867938 0
10.4838709677258 3.225806452339046 0
10.49193548385171 2.862903226672901 0
10.86363636397148 2.5 0
11.22727272776948 2.5 0
11.59090908917042 2.5 0
11.95454545068175 2.5 0
12.31818181403819 2.5 0
12.68181817915301 2.5 0
13.04545454194173 2.5 0
13.4090908986116 2.5 0
13.77272726213363 2.499999999999999 0
14.13636363138024 2.5 0
14.51785714288412 2.857142857682448 0
14.53571428574426 3.214285714885328 0
14.55357142862196 3.571428572439232 0
14.57142857151165 3.928571430232919 0
14.58928571437537 4.285714287507488 0
14.60714285724751 4.642857144950152 0
14.62500000009455 5.000000001891001 0
14.642857143032 5.357142860640115 0
14.66071428594258 5.714285718851571 0
14.67857142887942 6.071428577588326 0
14.69642857180077 6.428571436015462 0
14.71428571474886 6.785714294977167 0
14.73214285764917 7.142857152983446 0
14.7500000004943 7.500000009885979 0
14.76785714328319 7.857142865663754 0
14.78571428612831 8.214285722566284 0
14.80357142896074 8.571428579214821 0
14.82142857173971 8.928571434794218 0
14.83928571444931 9.285714288986206 0
14.8571428572153 9.642857144306044 0
14.87500000002409 10.00000000048181 0
14.89285714286733 10.35714285734665 0
14.91071428569972 10.71428571399456 0
14.9285714285493 11.07142857098609 0
14.94642857139116 11.42857142782311 0
14.96428571424643 11.78571428492866 0
14.98214285713977 12.14285714279527 0
15.3571428591223 12.5 0
15.71428571719138 12.5 0
16.07142857423201 12.5 0
16.42857142974857 12.5 0
16.7857142846084 12.5 0
17.14285714112862 12.5 0
17.49999999772317 12.5 0
17.85714285297952 12.5 0
18.21428571083795 12.5 0
18.57142855939082 12.5 0
18.92857141386655 12.5 0
19.28571427430228 12.5 0
19.64285713574168 12.5 0
20.01785714292029 12.14285714159426 0
20.03571428577939 11.78571428441216 0
20.05357142862984 11.4285714274031 0
20.07142857152504 11.07142856949918 0
20.08928571434997 10.71428571300059 0
20.10714285726139 10.35714285477221 0
20.12500000019564 9.999999996087139 0
20.14285714320795 9.642857135840998 0
20.16071428614276 9.285714277144802 0
20.17857142904537 8.928571419092558 0
20.19642857186783 8.571428562643403 0
20.21428571479022 8.214285704195643 0
20.2321428577479 7.857142845042126 0
20.25000000069735 7.499999986052996 0
20.26785714347055 7.142857130588933 0
20.28571428619271 6.785714276145805 0
20.30357142900126 6.428571419974752 0
20.32142857178615 6.071428564277086 0
20.33928571464426 5.71428570711476 0
20.35714285745924 5.357142850815163 0
20.37500000029276 4.999999994144766 0
20.39285714311046 4.642857137790787 0
20.410714285854 4.285714282920003 0
20.428571428706 3.928571425880045 0
20.44642857148773 3.571428570245412 0
20.46428571431238 3.214285713752382 0
20.48214285711565 2.857142857687005 0
20.86363636516213 2.5 0
21.22727272581398 2.5 0
21.59090909243092 2.5 0
21.95454545450997 2.5 0
22.31818181891514 2.5 0
22.68181818017414 2.5 0
23.04545453949341 2.5 0
23.40909089990082 2.5 0
23.77272726283935 2.5 0
24.13636362860863 2.5 0
24.51041666667252 2.864583333538364 0
24.52083333335455 3.229166667409358 0
24.53125000003504 3.593750001226702 0
24.54166666672229 3.958333335280106 0
24.55208333340738 4.3229166692584 0
24.56250000009479 4.687500003317582 0
24.57291666676292 5.052083336702424 0
24.58333333342993 5.416666670047649 0
24.59375000011929 5.781250004175338 0
24.60416666678541 6.145833337489197 0
24.6145833334717 6.510416671509586 0
24.62500000015173 6.875000005310423 0
24.63541666684382 7.239583339533857 0
24.64583333354729 7.604166674155124 0
24.65625000022954 7.968750008033958 0
24.66666666691629 8.33333334207003 0
24.67708333359532 8.697916675836199 0
24.68750000028001 9.062500009800464 0
24.697916666944 9.427083343040039 0
24.70833333365369 9.79166667787921 0
24.71875000035885 10.1562500125599 0
24.72916666707987 10.52083334779526 0
24.73958333375135 10.88541668129731 0
24.75000000042991 11.25000001504697 0
24.7604166670681 11.61458334738357 0
24.77083333369809 11.97916667943294 0
24.78125000036938 12.34375001292839 0
24.79166666700398 12.70833334513953 0
24.80208333364604 13.0729166776115 0
24.81250000030942 13.43750001082962 0
24.822916666971 13.802083343985 0
24.83333333355412 14.16666667439433 0
24.84375000015083 14.53125000527908 0
24.85416666675838 14.8958333365431 0
24.86458333330886 15.2604166658101 0
24.87499999988007 15.62499999580261 0
24.88541666655004 15.98958332925141 0
24.89583333319863 16.35416666195201 0
24.90624999980522 16.7187499931826 0
24.91666666644808 17.08333332568263 0
24.92708333312806 17.44791665948182 0
24.93749999980001 17.81249999300037 0
24.94791666645933 18.17708332607652 0
24.95833333311969 18.54166665918899 0
24.96874999985664 18.9062499949823 0
24.97916666655788 19.27083332952599 0
24.98958333330658 19.63541666573034 0
24.65909090697006 20.11363636434331 0
24.31818181387862 20.22727272870713 0
23.97727272112545 20.34090909295818 0
23.63636362933978 20.45454545688674 0
23.29545454074166 20.56818181975278 0
22.95454545175678 20.68181818274774 0
22.61363635870555 20.79545454709815 0
22.27272726938004 20.90909091020665 0
21.93181817642107 21.02272727452631 0
21.59090908415283 21.13636363861572 0
21.24999999070893 21.25000000309703 0
20.909090898365 21.36363636721167 0
20.5681818062032 21.4772727312656 0
20.22727271532826 21.59090909489058 0
19.88636362288735 21.70454545903755 0
19.54545453222531 21.81818182259157 0
19.20454544067146 21.93181818644285 0
18.86363634917439 22.0454545502752 0
18.52272726008306 22.15909091330565 0
18.18181816691119 22.27272727769627 0
17.84090907624678 22.38636364125107 0
17.49999998161302 22.500000006129 0
17.15909089129634 22.61363636956789 0
16.81818180107666 22.72727273297446 0
16.47727271035784 22.84090909654739 0
16.13636362113641 22.9545454596212 0
15.79545453028867 23.06818182323711 0
15.4545454400335 23.18181818665549 0
15.11363634812483 23.29545455062506 0
14.77272725866684 23.40909091377772 0
14.43181816866006 23.52272727711332 0
14.09090907805834 23.63636364064723 0
13.74999998745307 23.75000000418231 0
13.40909089754563 23.86363636748479 0
13.06818180839043 23.97727273053652 0
12.72727271853859 24.09090909382047 0
12.38636362812021 24.20454545729326 0
12.04545453791708 24.31818182069431 0
11.70454544876188 24.43181818374604 0
11.36363635991656 24.54545454669448 0
11.02272727049761 24.65909090983413 0
10.68181818161208 24.77272727279597 0
10.34090909059876 24.88636363646708 0
13.53936447392977 5.430518861761812 0
13.29549512714208 5.795495130527656 0
12.93051886163336 6.039364473982978 0
12.06948113743464 6.039364473596931 0
11.70450486924562 5.795495126915347 0
11.46063552506678 5.430518859339278 0
11.46063552603309 4.569481138327832 0
11.7045048727207 4.204504869609567 0
12.0694811382365 3.960635526070925 0
12.93051886277896 3.960635526491545 0
13.2954951309342 4.204504873264463 0
13.53936447498188 4.569481140778189 0
23.53936447355998 5.430518862654571 0
23.29549512629944 5.795495131370292 0
22.93051885878755 6.039364475161753 0
22.06948113763989 6.039364473681951 0
21.70450486886492 5.795495126534648 0
21.46063552518245 5.430518859618539 0
21.46063552641138 4.569481137414567 0
21.70450487359473 4.20450486873554 0
22.06948114105052 3.96063552490532 0
22.930518862583 3.960635526410373 0
23.29549513128127 4.204504873611536 0
23.5393644748571 4.56948114047696 0
13.53936447365637 21.93051886242186 0
13.29549512687994 22.29549513078979 0
12.93051886148198 22.53936447404568 0
12.06948113686453 22.53936447336078 0
11.70450486830503 22.29549512597476 0
11.46063552461264 21.93051885824288 0
11.46063552634363 21.06948113757814 0
11.70450487312006 20.70450486921021 0
12.06948113851802 20.46063552595432 0
12.93051886313547 20.46063552663922 0
13.29549513169497 20.70450487402524 0
13.53936447538736 21.06948114175712 0
23.53936447334172 17.9305188631815 0
23.29549512485563 18.2954951328141 0
22.93051885758087 18.53936447566158 0
22.0694811368185 18.53936447334172 0
21.7045048671859 18.29549512485563 0
21.46063552433842 17.93051885758087 0
21.46063552665828 17.0694811368185 0
21.70450487514437 16.7045048671859 0
22.06948114241913 16.46063552433842 0
22.9305188631815 16.46063552665828 0
23.2954951328141 16.70450487514437 0
23.53936447566158 17.06948114241913 0
13.0357142863834 15.5 0
13.57142857334916 15.5 0
14.10714285783675 15.5 0
14.64285714470339 15.5 0
15.17857143070267 15.5 0
15.71428571720997 15.5 0
16.25000000702564 15.5 0
16.78571428904744 15.5 0
17.32142857412979 15.5 0
17.8571428511085 15.5 0
18.39285713616606 15.5 0
18.92857142211578 15.5 0
19.46428571101452 15.5 0
20.0 14.99999999601014 0
19.46428571160309 14.5 0
18.92857142040583 14.5 0
18.39285713577575 14.5 0
17.85714284336419 14.5 0
17.32142855637984 14.5 0
16.7857142655791 14.5 0
16.2499999775787 14.5 0
15.71428569556309 14.5 0
15.17857141150299 14.5 0
14.64285712475407 14.5 0
14.10714284117721 14.5 0
13.57142856006613 14.5 0
13.03571428124737 14.5 0
12.5 14.99999999867727 0
21.58758164101372 12.00059526512391 0
22.36359160330463 12.43269381200196 0
13.13650661331362 19.1575917655644 0
10.80513084355226 14.3056658535939 0
17.88283261615297 13.34754481112354 0
15.97464051219027 21.09968560254692 0
12.64552299788182 8.681690674946267 0
12.09393633308246 10.02690960629885 0
10.94724424271912 15.04204930514839 0
17.11825116427934 20.67655490899537 0
24.22877678425904 10.41379131789975 0
22.97554026634695 13.36539769253478 0
12.8782285713684 16.75517453344401 0
20.84832970282116 11.4710819781538 0
21.64257329272791 14.62264397561947 0
16.59295204796139 19.029074073984 0
12.97598676648135 7.853853165562912 0
16.86329647480673 18.32682956289245 0
13.9364793378881 6.281014254728467 0
23.58981028962303 13.25134649855709 0
15.65949697039605 20.93976881120641 0
21.51145810503915 7.35945169563737 0
11.95520300107685 19.04780815717715 0
23.93864999472186 7.883587789698373 0
16.05345031918955 17.9952670247803 0
13.67972181074709 13.06714823278153 0
11.52533633154406 16.75356839187176 0
14.40007109498275 18.87728670663613 0
24.41639448979773 11.44742045488183 0
15.57291152691123 17.41844810457131 0
15.34931763774318 17.96476379622396 0
24.5614073075166 18.39904064064679 0
10.76765259423154 22.00284939012784 0
12.80867016425855 13.1040127554167 0
19.50706306782334 18.54164653875241 0
22.09607495249676 6.866442692211452 0
21.6159990914142 12.6447642090549 0
20.29228479634597 20.51526461831715 0
13.67041056646351 19.90245843127498 0
12.82529335048828 23.31603600583144 0
10.87850885950828 18.6811290398953 0
17.17591017728283 16.21412993412755 0
20.36883831737354 16.63313832022483 0
13.6361945182216 6.987099008043026 0
11.96877733879491 12.44184017168414 0
10.85836478326877 12.12792962701509 0
11.48223698010569 11.9925039102408 0
17.96184530853929 19.06173821941259 0
10.9441736341503 17.1572177125565 0
10.88937503116464 23.42730684532076 0
22.42115465738642 9.317858837406002 0
23.95454788588175 5.234960769982466 0
11.72614496713029 8.571565305858073 0
23.35142895347676 7.442735354389779 0
13.60393709465332 8.88860253034387 0
18.44020598157929 21.18908931514645 0
16.9308306646684 20.00440335727552 0
13.65069906621179 3.436761482255766 0
11.69627380333404 13.18446689324695 0
23.1843143074241 12.0000852616805 0
20.48970430504661 11.37081254858765 0
10.73059885720239 21.27370563613965 0
19.58599077442032 16.32647134143785 0
20.55272175181118 17.8021920944633 0
12.33584884101084 19.53570381474452 0
15.98925066617864 21.96283594682457 0
24.07111613012153 4.52240014242305 0
12.72315199268479 11.31003663425643 0
18.25038577083686 17.03006418369532 0
20.93662439416286 10.09340388770073 0
19.26284482588009 13.12429435086304 0
20.77502853603195 14.76145033932631 0
19.23955969887395 19.23212425039256 0
13.90889084989506 3.982988543991132 0
18.90321795466756 17.4716770807719 0
14.12862542938839 23.11852760101247 0
12.0635167742355 3.235954611442069 0
13.18958691113038 9.393749071654511 0
22.18367534819577 9.41651030485549 0
23.66996963126734 12.61657999682036 0
20.95562110699549 7.773140301787408 0
23.58661003608365 13.85671702031425 0
13.53302984482149 22.98209332636665 0
21.09165131825209 3.983088571186 0
11.36922776686347 3.429917589602529 0
14.37353333957154 11.72664481700648 0
11.65686643038971 10.30530197994201 0
10.89585929129059 9.54190084872804 0
22.35849684488232 13.33724978937817 0
13.80072957716707 9.868012754785175 0
11.08366127890029 11.24539039837272 0
22.36012288536695 9.98415706274533 0
20.38998448488364 13.08558396616015 0
23.80148388038217 6.724373288656992 0
13.814696366907 11.92490034541565 0
24.07517897984373 7.246231556571349 0
21.5691277713069 9.528601180188694 0
11.00107878221652 5.960418230391567 0
22.50684919341834 19.27355244001685 0
20.79711777245097 17.16127566324144 0
16.45144088254715 13.12429434978326 0
21.06063698018336 16.44255851601269 0
14.06992431665739 12.16748358002055 0
23.55222719714758 10.71488346426696 0
12.40093296626188 23.07782546242224 0
21.47162764238395 15.69991567381825 0
19.69432133635175 17.69511608612038 0
18.40220896185541 16.18576288919894 0
12.9374036754907 10.82435805960526 0
22.86281199260152 14.35096611952033 0
12.49975706457826 11.65813634599365 0
22.78858862844131 9.687459472874147 0
15.17655340547052 18.35868733756877 0
14.27326955745382 19.69550054341151 0
10.56248282919982 11.48078927799948 0
20.98188779813718 3.008637674886922 0
21.05184087388705 13.15227065940065 0
11.74148916873808 7.961149580699271 0
10.78574787201008 19.32735430632308 0
18.35436270965247 19.4064325335692 0
13.9251692788 13.41099122412709 0
20.84443275530028 20.32585304916763 0
14.47608807242751 10.86001155503232 0
22.07351256102012 20.38291182539795 0
11.1116874027149 10.45358868211552 0
20.75619448554877 12.46377035166466 0
15.26374297837952 13.79704645135543 0
24.22659263174901 9.607849674211268 0
12.23713919280437 16.96151126195841 0
13.17797998306983 13.67493482759999 0
15.54495927401854 18.56855086218587 0
11.55828926248727 19.13188428729856 0
13.41371972282744 10.86833682380232 0
22.41620353982051 11.49024148125532 0
23.17153954563066 14.0141079466102 0
23.04037132764686 11.34391455452678 0
15.40034178939218 21.56932540957724 0
23.90732857101151 11.52800449787497 0
24.10703764270379 18.49738140679266 0
23.28115991940739 9.557888109226043 0
23.596134058617 8.497096340249607 0
23.14611361498564 14.82017915548684 0
14.01685025343374 17.40896867201754 0
21.63536891629843 13.85137300721038 0
11.32503586747334 15.77084306387683 0
11.44770761582747 9.751071452162627 0
20.91831516772683 19.68676371174432 0
11.11937813331781 12.65779034362035 0
12.49444621569848 17.9763717940695 0
22.43657479841969 8.419721577064502 0
23.00754345816829 19.70947009500498 0
22.07960282379732 19.76153575791604 0
13.10002656357678 6.65723339860669 0
12.57102648468019 9.632966614312977 0
21.91748707250955 11.06956817501999 0
16.61164025153695 20.25465292785952 0
14.87075438792636 21.99862685018166 0
18.11062978457988 17.47937795840497 0
11.67106795858007 7.286846242620211 0
21.29715345338635 8.456571929736985 0
15.89285714571177 13.5000000019311 0
11.92138210575537 17.57074728407928 0
21.12699562499633 15.67342721175638 0
18.67332321514644 20.29018542295589 0
11.82323623134112 10.82620295333621 0
22.59899813325884 15.82188434838424 0
11.69158603716278 3.002259605122319 0
24.31604259081427 14.49300901162413 0
19.8616884154032 13.53781875725751 0
15.57902996537063 19.73158872220009 0
16.94042471482459 21.38945602295801 0
11.25524814469328 6.510173966097627 0
17.02208545153932 13.5883793562974 0
16.27907940692393 19.70213463986771 0
22.40636517646178 10.62706477330058 0
12.64066389275207 12.07112899684521 0
20.89174941194024 9.0961955624591 0
17.77482493224609 20.45043823669263 0
19.30582495195257 20.5311112640032 0
23.83412813356576 14.1849063320101 0
21.26773957361372 10.81250617683133 0
21.80188642677131 10.24600729045012 0
11.10824688515812 3.969864459320677 0
16.82575708495042 16.85673858777288 0
21.3507077594212 3.436082831291676 0
23.78784502351399 15.74731190905161 0
24.24787309717457 12.96780933746175 0
14.22715140409027 12.52324977426924 0
11.03611513824863 13.6744087808141 0
13.87222753492537 7.956370918480653 0
11.34671100828638 14.32474140951532 0
21.50858907635028 20.33543740844424 0
11.71375096990676 19.83477046856999 0
21.06306512325617 18.65411076544003 0
12.11116697196312 13.05184794090327 0
18.8577408729104 16.72019959681607 0
13.65810368646289 18.32427373189667 0
23.79747680769858 19.26194275313975 0
22.37930521522901 15.39271097376351 0
10.86120347192682 16.3974168609987 0
18.86134180038304 18.24726536542022 0
16.65975393662677 22.08135591605646 0
24.18852435120422 12.28236127999927 0
10.73016471660538 23.99582600714979 0
14.14391992176891 9.244815092727324 0
14.57215203860258 20.25015071617608 0
21.10237699395228 6.659092666611233 0
12.62091120068639 10.44589089664651 0
24.41156222334873 18.9943232013723 0
22.93644233546299 3.234218630472836 0
12.8212080106436 9.24841209609032 0
13.87893761804183 16.5112882796676 0
13.2307816626168 18.02211325522197 0
11.27664876932893 17.94826242621218 0
10.60758909962567 23.36908715945265 0
21.86902440947814 8.892202209964953 0
20.86036706305169 7.275478200771741 0
22.44148768637078 14.2603324851426 0
20.31263192248218 18.62962749344047 0
16.96082298495266 17.96412713764256 0
24.09600598510998 16.41305881802202 0
11.18001941561938 7.883609468829733 0
20.05942766912441 19.67465544540057 0
20.98939309674972 5.925808933372688 0
11.18660419003686 23.36835354555643 0
14.17279475067791 22.62287298041839 0
21.49716003322336 19.752089494365 0
23.93199759721675 10.02034669640138 0
14.37706120531665 21.08574168774346 0
21.53561052257327 19.15491339797489 0
17.6493036951507 18.32738253503314 0
13.94017853696729 13.76166000060744 0
11.75525931596401 15.17015819330863 0
14.81167657781581 22.72351183852601 0
20.90056077056864 4.489224463159741 0
13.27518606889198 6.995073467283096 0
19.15311878811157 21.20605401285361 0
23.60745070257775 19.84006643165108 0
18.41916817833627 13.03664624275589 0
12.03527151821054 16.16794784747832 0
13.52760433837511 7.600832211776712 0
12.10826925533089 7.916847087530983 0
23.95790716484494 12.46220021146604 0
12.25945301196176 13.73661182548892 0
10.43167448676856 19.35069748518926 0
11.97484861259595 9.27737267777512 0
24.3299075435626 13.92118648762295 0
16.79617051339349 20.98953705304287 0
10.63426707740684 8.493843911794297 0
14.23577790558648 3.781561896815429 0
10.84147005202049 22.65866348980211 0
18.63037313396984 19.91901196498744 0
10.86681539224133 20.64163540897654 0
20.24186126406797 20.83193967398775 0
18.61481465875934 18.88843019471771 0
11.0022098062382 7.203123910934076 0
18.21627042557915 20.28457421343023 0
15.99108697966857 16.46226056778043 0
12.90065224381137 17.79646600550717 0
15.16617079337171 13.06611171577711 0
14.80222666278523 16.60938930373858 0
22.76517811443023 6.900049858109836 0
17.85731335610513 16.59285523590934 0
20.73596361136401 13.97641807143014 0
18.69220024875286 13.58837935758354 0
11.2039843572542 8.686366185836185 0
11.59773405821299 11.3045479293715 0
17.28269021038436 13.02203855497645 0
12.55456324461938 7.035329184071818 0
23.21004682473312 10.56708621693496 0
13.57807985568916 17.98420083860237 0
13.13242577732183 9.993377835953313 0
23.42758768015925 10.03218180955608 0
21.70051338733722 11.33497099570441 0
23.04658319719837 8.089166595910568 0
22.63461881429442 12.8943575732972 0
10.64496279226878 20.07829730192184 0
24.48669290165619 16.3799547660686 0
11.11818377060661 19.94891475280494 0
20.70040168251755 5.556095037333216 0
10.78556468076371 10.85161933898618 0
13.23757916879851 12.92422475187612 0
23.44297627482791 9.068049782767554 0
22.37629808864269 7.484335224376804 0
13.02096087140226 8.848353260624197 0
13.56004982304472 3.784404705782539 0
13.24269232718466 10.36249456321637 0
13.14498904930226 11.74858422806841 0
19.84883154273186 19.05955799945876 0
22.1148457628682 12.89537815066476 0
14.63317320739956 13.46638297062145 0
14.1992345777434 21.91457298433172 0
18.77331462822335 21.56940699284286 0
17.27400950168928 19.76909555396811 0
13.20799642070635 17.49925008145729 0
19.84488814481221 21.00373116803731 0
10.54375199473724 18.97310006378959 0
20.47014186790509 16.00374482597662 0
13.99199818581673 8.92686270411306 0
19.32300091794838 13.81885916983307 0
20.57892212772997 7.07066552786269 0
10.7799016448417 7.820817402743529 0
13.07348599776959 7.276973813442113 0
20.95284574714971 20.70707628790622 0
21.98020897143721 8.413817637328746 0
14.14070538613008 13.15709165314017 0
24.31548237756617 16.06851762624605 0
12.10919125875198 12.07260478240917 0
13.20165813927443 23.37425513623944 0
22.93425696081725 10.76755545668772 0
12.97151345408516 18.47223817985607 0
13.57031201283489 17.03231626349249 0
10.64761105535025 13.94720625012723 0
23.63587067662554 3.431944981482454 0
13.14698089333274 23.01840714302929 0
22.03052124541243 9.663931860915946 0
23.26898017255686 6.483897542547352 0
11.20748818541793 19.48200582580936 0
16.30583246990703 17.34363885625918 0
15.94233138040122 20.30926979253638 0
22.96813943292407 8.893382457646327 0
23.94918194648496 9.166940638173946 0
19.73549063780446 16.902850877615 0
16.12450445576827 22.37041834157423 0
20.65670701975959 9.623666027203884 0
19.03281837219101 16.11582638392168 0
14.17706835310645 11.14077676484877 0
12.09043018867012 23.43753673879645 0
15.87534322267673 16.98400326643359 0
24.13388764173197 8.528235688894814 0
24.17143988947829 13.56649989779405 0
23.0108137588074 20.33100273686062 0
17.91815382448581 19.90636593984948 0
21.82157345538531 15.80823877739856 0
12.75510041723297 14.01847817589816 0
15.92490681168359 21.40843603707076 0
12.2809272348027 18.77454246332092 0
20.6057568418755 10.03631522084356 0
11.71946402827433 18.41689684040334 0
16.37336799012456 20.94501196521598 0
22.54947575589175 7.960563049262348 0
20.72256506075058 6.785464266067192 0
21.74974827320613 13.25737030856295 0
23.89739457753071 3.974169537997503 0
23.68859948006735 10.30864979154941 0
18.32017670063122 13.89343365893288 0
23.94674907761474 5.982176220999104 0
17.44164963496835 13.89008620859283 0
19.02186408770157 20.21573433125172 0
24.20236658852518 4.197437700371986 0
21.63283908292487 3.301843917988507 0
13.88363683275847 10.82512409588919 0
23.18878022231882 19.1082189691139 0
20.64837719100493 10.91617358765367 0
11.14058953610676 9.041924384590388 0
13.9684225078463 20.53455628606186 0
24.31103387633049 17.9067394015712 0
15.26175978291073 20.33035595264054 0
24.05273557212913 14.95192828271163 0
14.79974830115778 18.63131299870436 0
13.86561819551596 21.71630468875934 0
12.56899974161696 16.06636406876846 0
17.68817853665754 21.58391432464259 0
23.74201630453116 9.639754058901946 0
13.64603575610329 2.818023316837447 0
12.41507066032667 23.7224847365487 0
24.00679221930267 3.007112924477759 0
12.00295764510087 6.68787593856806 0
12.45901017315466 9.008096391513186 0
11.23625042875718 13.12967632303975 0
10.95775887253167 6.799474586146744 0
10.7861972377023 13.12437616671566 0
23.03996114305924 12.6842536860408 0
10.90400628106097 10.1249084413796 0
11.55210906250331 9.281756278716484 0
11.2000818198151 24.06829737686904 0
17.25435582680421 21.97092419594598 0
23.0783405630022 10.21962546241467 0
13.97932707803859 11.55405037557104 0
14.37893616585329 9.85689413883277 0
15.06442643318723 18.97008850510401 0
20.9386518881914 17.5821222250818 0
10.94364709155602 4.506812227690348 0
14.77491072996449 18.0784699467742 0
14.31476509728479 16.01867874619044 0
16.4009177673681 21.54857620912792 0
12.05690010715723 11.53056045811562 0
17.30951622056869 12.70626016574502 0
14.16057787566426 6.78761492506592 0
20.58863412976483 10.42357167324156 0
13.57446276236842 10.32128609088467 0
11.87867348131011 14.61001993381552 0
20.87499999895179 5.20401785098375 0
12.57005136129292 7.52224647735479 0
14.23981430096278 10.49390837844487 0
15.89540869536591 19.14399932942334 0
16.9617686862284 21.83353614670829 0
21.81873788607733 14.2625153499717 0
16.43361608396647 16.07081495378927 0
22.10184978214671 11.9922179867527 0
12.94159420101757 3.23639731291175 0
23.97710782753074 13.18897029093733 0
22.9128553277444 9.231238427073345 0
22.05586622894916 3.230775738196876 0
23.55854095176371 11.18065543776579 0
15.26707044738458 16.06213193204139 0
13.35688856473643 6.310767337078078 0
17.51777073255419 20.81114252281752 0
10.71882540793687 7.419093817414137 0
21.61812806255831 8.280952118164475 0
14.1208666401696 20.07470107549669 0
20.26368442141751 19.94205662242392 0
11.63925395999581 6.696393997813821 0
24.12026019709452 6.407358635589974 0
14.41665062623248 8.046798599324706 0
12.49999510842119 2.939071985194744 0
18.48803586906119 20.90937824850887 0
22.49816619394725 2.93802090518134 0
15.45068624914344 22.45835257189591 0
19.58063241783961 21.37134755905276 0
16.77990239437898 19.54064207362686 0
17.22820801835033 18.87573874930648 0
13.24503909000171 12.45322065651515 0
21.8537610737255 8.032997378878898 0
21.09372124557619 9.634107878145755 0
13.37585805774108 16.03976638618464 0
23.399327449246 19.46367861928672 0
21.19722758356552 10.30394190399721 0
20.43024986763334 12.63611620458006 0
21.6825089955577 3.007043376983326 0
24.09405749996417 3.456850192747763 0
13.64623049726369 8.460899257970016 0
23.44857130345725 11.76355318076865 0
24.13881295266457 10.96756815339845 0
11.5164032444342 12.45103809715296 0
20.74758227182895 12.85202421691962 0
18.77195178578297 19.22386176322735 0
21.86713572387076 16.17877815122378 0
11.0118335103459 5.226106370163174 0
20.62668068133261 15.33276622056659 0
23.08779816581603 15.43659865862065 0
21.9333496108452 15.35990515897956 0
23.69529707824822 11.97064969190998 0
15.43913044378522 19.2819038281706 0
21.35362593623259 5.847092992439222 0
14.11414385809587 21.47591425652222 0
14.22857950447964 8.64741069514395 0
23.97153728127575 18.09670972951432 0
19.9320951324259 15.96187933234597 0
23.19834762490407 3.563358620255648 0
17.25708787738768 20.23928947390662 0
24.24602435492886 17.23640652855447 0
10.39169017211052 23.70358146451217 0
22.80577675271122 11.64626805948492 0
12.33768487167691 10.93070453758241 0
23.28476828009963 15.98365640415621 0
13.31472153176301 3.008397453987472 0
11.34649204438771 10.84892244353753 0
22.04511328105861 13.75825303481182 0
24.30391115007541 8.86431950645361 0
19.9665430721011 20.61091108166869 0
15.97702020854784 17.61494114293579 0
18.58055518269303 20.60449642880557 0
10.87358535561691 23.12964428813276 0
12.70653727227537 10.01577961549228 0
22.05277261382613 14.93084731471399 0
23.51021111138669 8.062148921997581 0
23.61722524434659 14.51144674574116 0
14.84404497509947 19.55347511138558 0
24.36404546197453 19.55642396223476 0
12.13150896877917 10.49786793899156 0
17.62128998902183 18.75804362731566 0
10.49073574194903 17.17892714271319 0
22.67091951575222 12.0335561769695 0
15.52517232885715 12.84958088775027 0
20.96345475395886 19.13008183428715 0
17.41292664379868 17.90982234409737 0
14.24799791417867 5.978830323653817 0
10.5908114908957 16.85489674193178 0
20.58910553605327 8.08810924165686 0
22.59568743461465 20.17342595307333 0
22.64221157395487 13.7658316554697 0
11.7784747871019 13.83404068440964 0
14.13776637749382 7.453323402436894 0
16.96428571286854 12.70836442144616 0
11.89094108401084 7.626500428036902 0
12.94898086780229 9.662553126114837 0
23.32439064671411 7.057994302345823 0
10.77497544861978 15.7573575024705 0
17.83542864540762 21.03672380829137 0
21.12679621156722 3.677641018388891 0
11.38615591398526 22.57663445437941 0
10.74093644201918 10.48033723513978 0
10.95507348477489 8.457781912284187 0
22.86840377548696 8.46844792375704 0
12.91358780032543 10.27569424151371 0
11.62167754787298 23.85814010359893 0
11.66872776250016 11.63061484821564 0
13.25655397375627 8.411500890029602 0
15.87958928834025 13.02774768679079 0
17.99982925281633 18.02098302587257 0
13.20668605897299 3.562605082738094 0
23.45253874451746 12.11674503170501 0
10.44968240270641 20.82425759288054 0
19.44695454768023 19.808261404025 0
11.19134332692238 22.95641539536191 0
12.85720620754015 12.7085107858894 0
11.44136002427067 17.49252703328698 0
10.55456449437901 17.56361888385567 0
24.30146070993859 8.192436181268208 0
20.37117643084745 10.26286215625163 0
23.73427296216421 16.16873015710231 0
23.67637240483947 7.127374837868558 0
21.77746562538588 19.47719957883584 0
21.22857910843474 7.070317873072224 0
11.88773372893207 15.67049153959112 0
10.50706098154598 22.32995999841092 0
14.49880917843272 23.10840465005854 0
21.0369234453627 15.19460526262002 0
23.63406344484064 12.92516244867399 0
14.31952410848083 5.320898298508099 0
10.48769813681583 21.59024859565589 0
21.41136348592231 11.41134826358658 0
20.74954469356599 8.42475291554764 0
12.01489707208332 23.86456428122976 0
20.71918829342919 4.835925324730704 0
20.6594600560004 7.529478076705107 0
24.04010172105207 19.92513715272083 0
20.22405539984071 18.94323246753413 0
14.49893468740446 19.35914184302225 0
24.32486545601133 15.45827765110873 0
10.99555010868607 3.006919171820489 0
13.59232118125987 11.36786665704856 0
20.52255107091133 18.23014102703338 0
16.2019355700786 12.84050249654628 0
13.85674525944928 22.19907603042464 0
24.19882847249627 12.01205572466696 0
21.36456474748539 9.046594256812526 0
16.42857142937082 13.87244898555863 0
20.28122051964506 21.21029733064553 0
20.78642249094106 6.344484553917913 0
24.22743386884372 5.609231134427175 0
11.62402743772725 22.9630197097012 0
20.48860686170719 19.23088351469212 0
14.60885683179806 12.57569940959397 0
14.5043632020029 9.525030272702432 0
10.7185383029868 17.93568046232897 0
13.98394600575168 18.75876358682985 0
20.48915000462117 19.6381725112205 0
20.76473999653476 3.781403251579973 0
21.76877529960882 20.63029695284735 0
11.07242829471292 14.02029207389297 0
22.68420066667451 7.317281797829345 0
22.45510347491985 6.620622961451687 0
13.81019453805407 19.11366972504413 0
11.80933885394441 3.556536253235454 0
19.82142856787083 12.98405612181365 0
13.25294646477798 11.09430363265622 0
12.9779112412071 19.76927549488219 0
21.4457663037041 3.785712970474884 0
12.47266972142241 23.41404633814554 0
14.1343143148796 10.12556611848894 0
14.10785398571847 5.613600676459349 0
22.70352792637804 10.59894744844272 0
12.01720290608666 11.10525751942134 0
16.530672558629 22.43944343159308 0
20.78470013690397 19.40164569057712 0
24.43880747574344 13.27410200822434 0
13.01453177819935 8.182194201729812 0
18.9601934817248 21.76694412876439 0
22.80084157329448 18.94368659439137 0
11.78848926385411 12.792460643615 0
16.04518133714334 18.63364405748846 0
18.95849901619131 19.56963914153082 0
19.06181722153529 18.73916935394142 0
23.86351372250997 8.784863416419242 0
24.69096942121796 19.78915249627858 0
21.84943293043589 11.57687293134189 0
11.42545460998589 19.76712318082741 0
17.30484295595693 17.38828956761672 0
13.81862071205593 23.32894210208381 0
21.16071648787745 7.45370477626027 0
23.65352028173378 6.337400879362228 0
13.47469084378707 18.85091722649097 0
20.04909341868367 13.22186194298303 0
14.85446837019668 17.32829918507988 0
13.02649764178009 12.10133684645881 0
18.58546758875389 21.81995914675241 0
21.08350834580988 12.00748276163496 0
18.26502389339603 20.71806113251716 0
10.57427817239289 16.09734012146243 0
22.59638626722602 14.80825738845873 0
20.68539317273811 19.98579543817638 0
22.13844945768024 9.156567241396985 0
11.29638604815141 20.38249788511571 0
22.04082686173158 19.0538020226123 0
21.89320263776975 9.316283781683724 0
14.09943922565914 4.489224469236449 0
22.63445731807994 10.32381733410953 0
13.17135322628048 14.10871710770838 0
12.63099669761178 8.240337023725681 0
12.40888388819748 14.09142696975391 0
14.61200976811228 10.51986983159374 0
18.24001201567426 21.69949755730542 0
14.47988555570691 17.15335001425262 0
11.04708555282679 20.99810844115533 0
11.21855407419499 10.06417983802622 0
15.0025019732778 20.84630136996595 0
19.77782794212669 20.33320478705584 0
20.16500745819399 17.67466317124932 0
13.94449461906984 12.78071284382224 0
16.54690211491621 18.4570920567417 0
17.45892398084823 19.2892729975403 0
21.67301847686937 9.911851789643826 0
12.67217438049388 17.44883550139025 0
14.01811220171536 3.008637676190935 0
23.93174702431765 6.989286983510706 0
13.32046339601836 7.947366983135322 0
11.08448730914259 7.55881897647845 0
10.98995711973626 17.66300730241354 0
11.79224433707359 9.553211894613407 0
11.83031792963979 17.13319841055876 0
21.51173465705983 16.22222095777738 0
10.91180472979244 3.455157324217034 0
13.77345410316232 5.837521649300065 0
11.94591571803975 16.64926993110376 0
10.76592107069761 11.23653438902236 0
21.70423204333932 10.78104841540581 0
22.07427940372084 20.68605979608734 0
16.1420930281805 13.20010329531859 0
14.54807988173354 11.28320160912669 0
14.25387909234219 20.7322774719364 0
14.26384351615905 13.55758432188443 0
19.21609248888768 16.59354704198218 0
18.26482746713044 18.4214065150621 0
11.30532631861801 8.347309648710361 0
11.03963886184009 23.72844933218416 0
20.51634825076443 11.92293004705818 0
19.23426327293127 17.074314832218 0
14.63288764151606 12.91220298731423 0
10.79609885470483 11.63439838879007 0
12.19154555857199 7.01417921523397 0
10.41522719460402 17.92722059582564 0
11.78884985451564 24.11654958574832 0
14.03138178741965 21.00458490258756 0
11.48961614740426 8.844628191124357 0
23.9145484935559 15.33856616019132 0
23.96957388641602 13.86395522455655 0
21.65653874290638 6.425259084667311 0
15.57688890920274 15.88265632227061 0
19.57727285491499 17.26670879502738 0
19.98746006212321 18.0935669278125 0
15.03282245611992 13.46602308412201 0
10.73067887816452 9.233681573207223 0
22.31832808828023 8.907826134845045 0
23.7706596758557 13.5447733947817 0
23.55122526661385 15.17324004771817 0
20.53023904851583 20.96517474850551 0
19.51045473097214 12.8342608436049 0
19.63697932052879 19.45455902459934 0
21.10437798216361 4.811352856406535 0
17.86413903902963 21.99168306361701 0
23.97912176035888 16.89627712437461 0
14.27513157857143 18.35468384838485 0
24.02131223010307 17.62617724130646 0
21.47752366110612 15.31639649480271 0
10.48108351930949 24.34012799163647 0
20.92615560901652 14.341276092285 0
17.22722674255281 18.41801870296247 0
15.92029788068515 19.92186863309372 0
23.3518333140548 6.116303830087744 0
19.44747555006415 20.20404434975787 0
23.68876966021903 16.57799282472557 0
21.3009310995849 14.34820260431377 0
11.66769728456115 17.90216192194883 0
18.0470129203567 21.38262333672601 0
13.85294254182601 21.29740213147475 0
20.99367674762627 11.16737777422509 0
21.3788677275028 20.68532525961919 0
11.78042028429911 12.17739942323989 0
13.57293823184199 12.71882149482126 0
13.74109080907261 9.472755955407136 0
15.62446616164266 21.32794079224989 0
13.34393970690918 19.57731971279793 0
12.56164893509008 12.56356874531279 0
19.29235136104726 17.99823884574874 0
21.81496037797331 7.109760717755728 0
22.53986562299562 11.14916479989118 0
21.64094816326871 8.59226923928976 0
12.25202000724776 8.34313174160344 0
13.75785647059278 12.36880098911127 0
12.14382625857818 3.63147168507004 0
22.89285136876814 19.3400541368547 0
24.25247068171508 4.865064204225988 0
21.27443063033753 6.282190743785421 0
14.51229839895414 21.72972573878906 0
23.23124889506474 8.609689553475132 0
23.42415018462126 12.45905390173338 0
12.82882644277699 3.597994791330582 0
10.82835614493058 6.363611116864384 0
13.6928134827916 22.56994313973225 0
23.63111305869966 18.73611704931449 0
13.69282259914938 6.564544460086442 0
11.27508547853664 20.75924554840719 0
23.64010195355997 2.815400862767231 0
14.42007522923507 7.686312243252807 0
11.01937555403463 13.35867253393343 0
20.88951828365659 3.45687694268955 0
22.86849028970284 15.03970365597554 0
11.15088071405659 24.36852053584319 0
11.41965898952269 14.79758655657497 0
10.79049031580459 3.785678093188384 0
15.19808382737716 19.67099441223508 0
14.63634426915474 11.59784262796625 0
11.64211697293845 15.94771003962179 0
13.55949394389015 13.95145593156604 0
23.24650129957978 13.08181688445402 0
24.00336984229407 18.92157209563527 0
12.23585226253008 22.80912821912943 0
21.52985440895893 11.07609492153868 0
16.83437427221022 17.51106945852705 0
10.75370144313661 4.852861969594589 0
22.65999037322878 12.56535643635454 0
14.95566696234272 20.486633533642 0
23.97061493653528 12.79477141743549 0
23.30731443153989 3.003963301041265 0
15.80654116432958 22.26982972631894 0
10.76640750284946 5.595741101950704 0
15.59938638109709 20.14284420305357 0
18.85355422900524 12.9624903908972 0
15.53574600974032 22.01250402543306 0
21.00213042420465 8.735186197053237 0
12.76432466492694 23.69587381802418 0
16.67196806831305 13.42979870806988 0
20.77057577660461 4.178109713155743 0
13.65182539989011 20.70964324100953 0
24.17395283220522 6.859168250945926 0
12.04373284734526 18.01202110247443 0
17.00817413063507 22.22712141579544 0
10.9288616978455 18.23504924506162 0
22.81819173342571 3.601222605795743 0
21.3973035579163 9.990586251633518 0
11.50900445123945 16.28965519725776 0
18.77536704770797 21.32059169494372 0
14.2891494592094 4.739972715841471 0
22.05532242996553 7.710090066511538 0
11.6788501337874 14.2207829146621 0
24.48615374119815 9.618543449279695 0
22.01869265957543 10.03322295807613 0
23.80337723386381 7.515934493168406 0
24.0974793139146 11.28297609908444 0
23.34151616897131 12.76663401517563 0
10.47261630447932 19.71354271233778 0
12.66464101229778 19.14537250832104 0
12.88865805712897 8.457912946195542 0
21.09455884340483 5.544434759197632 0
20.11588541962923 16.95608572105035 0
24.62014825720583 15.42869743034426 0
18.62741376544006 19.58023333617706 0
21.39015862578842 8.020306387277225 0
14.11794415524277 5.048640906517149 0
14.44075141931625 6.677348039541404 0
23.85574948735931 5.636449622012082 0
13.83441719228795 4.33250708306605 0
24.40038036546347 16.81547952583681 0
14.47656826986206 22.73312167926589 0
21.18812982523996 4.329171107470062 0
21.16765520277235 12.6538678957262 0
23.73111874827303 3.135926626568523 0
12.74156504980357 13.53782550131843 0
15.55006735147681 22.8456024085072 0
17.39628891266277 21.23430779901191 0
14.69289205753425 11.95135035049951 0
23.83927926799013 11.00148484681996 0
14.44321353218165 12.15522825099368 0
11.45961669969612 3.770858550555417 0
22.49666091565434 3.404230135001129 0
14.90364060734204 21.50253183105536 0
14.03567737111127 8.268911074601299 0
14.3636130811025 5.704989722873305 0
23.54925185827624 3.772942410425921 0
10.58474425099859 15.40216565235688 0
21.09527122544124 13.6371940373032 0
15.32478159562875 20.74431904173024 0
16.31223451882706 20.48867995404711 0
20.24488060170248 17.29550463258182 0
16.47030651670961 17.94657986633436 0
10.40915160706369 21.18453135693921 0
20.92650874431992 21.08030759979125 0
21.55050893032524 6.941972349087273 0
16.32797692407281 22.12362440471409 0
23.1168239242136 6.80041091380062 0
15.39718378657538 16.83949562501586 0
22.70951270692404 20.50365132752855 0
18.14358486931601 13.19740389025794 0
11.45624974417907 8.556378374284876 0
24.35867821152216 18.70016456093195 0
14.54057503860404 10.17400065315027 0
23.24883807252095 20.06018077815659 0
23.97025584298859 10.63504465278264 0
13.83768772726975 19.54169260233138 0
22.94846448610236 7.59100364276455 0
11.0254684112026 10.99619852827509 0
13.33363394491577 16.57085241193028 0
24.16867526739974 11.67635690207051 0
17.69112219780436 16.10125464008967 0
23.70864733937897 11.71560118617616 0
24.52910505077828 17.60880161574321 0
21.36629518217819 14.9875288793164 0
13.92360287814612 10.47702066982082 0
13.9869014842018 17.91446769870074 0
22.08970824457332 7.289294970008584 0
24.23349202637462 7.603271838882807 0
14.477053523206 7.384774701189974 0
20.15511340516403 13.93281960885648 0
11.00112730375514 9.316898704490281 0
13.31976764186155 22.68106064279273 0
11.69557886652522 20.26390034112018 0
13.47082373391023 9.75995756786387 0
24.37016057324465 12.57457019198468 0
24.61596361331521 17.19852676799444 0
11.10981892087096 6.241203524206022 0
21.09237794122481 16.8786200042859 0
22.86091347182829 6.451278619153806 0
10.49906052212791 13.20125069892529 0
24.43847377123262 11.0840224842103 0
22.93710687987652 13.7039359334758 0
13.53283165350162 11.69942028740262 0
11.199920120559 12.25085452632912 0
22.94941140005244 2.816520354987553 0
11.03333710375852 14.57009096396635 0
15.23144143883474 18.69000605689179 0
18.26341073783915 18.78211802079773 0
18.47597629380986 21.49501605970979 0
14.24338400436395 3.19585250364822 0
14.1104817164185 3.456876944165339 0
14.23385327611618 22.26569003228811 0
12.18586445698588 11.82753038495839 0
23.20924119915495 7.808546147670555 0
21.65508911932476 7.731693099639122 0
10.8293957188735 19.02522831376501 0
20.49651296905547 7.767988919367869 0
12.0495026803814 7.30665533773443 0
22.65447094462746 9.077719595395132 0
22.57897672613795 8.728388154573228 0
20.60142268715605 8.831567152499028 0
18.99218479135315 13.80228234676072 0
24.56471218326985 14.72166298948778 0
22.84994136595465 11.07304042562423 0
10.52491726121735 23.02089563413429 0
10.23814015363645 23.00687012410406 0
11.26733704428672 18.39440916179629 0
12.16488557735257 9.647175229225832 0
11.03219240697615 8.167759287831549 0
11.84632569183579 11.34458812520115 0
16.59715941050183 12.7828031925008 0
23.85819097150957 19.59814047312625 0
22.91212591860211 10.49540638371792 0
12.32173979714566 10.25710663705308 0
12.10316325864413 18.4044637427217 0
21.03194181311276 12.29218188714002 0
20.96204197548779 18.09391665997487 0
18.50105545729534 17.37271232037656 0
24.62154786989777 18.01210821440031 0
14.26719654933596 16.83443972630568 0
10.7848612212603 2.791122675312066 0
10.6932234703907 12.53039909179196 0
12.35570250008052 8.606239315612886 0
23.94855872020066 12.1681757893111 0
16.86073147696559 12.96249038891501 0
16.58653569781133 21.30216431198415 0
23.00323788978757 9.491863322081644 0
12.14286082253611 8.809643741752042 0
23.47509739822758 6.73843654851864 0
21.20991200990379 16.01859837783493 0
13.57219073633191 10.64315573056882 0
10.76873491461602 8.806024560846172 0
22.10460304864066 11.6827671883739 0
17.29684979545143 22.29260581486334 0
24.35987688930148 7.139433516605276 0
14.54520260099715 22.33694442370187 0
20.68993326190603 13.38263101473487 0
24.12906474606158 15.7373674265431 0
21.79883075542313 3.555606942542305 0
18.51611855017629 18.14368820399338 0
17.62997958210883 19.74045066590035 0
11.6531861735846 3.296173019983924 0
21.82670129213521 20.07937397785022 0
10.41531821098699 18.65528662393434 0
14.53693795427291 21.38572851338066 0
12.29102755056402 6.441361105197679 0
11.10665951967967 22.2568421088449 0
20.58920739311151 5.189728220691739 0
18.49973400069312 17.72914788168656 0
12.38074385735514 12.30057186853794 0
13.00060227142898 18.82153303152461 0
11.12787546171206 5.607993037038641 0
22.39382981921508 13.93010202001543 0
12.34283801020639 8.10602226476627 0
10.6065790222808 14.65761398165698 0
14.38087237964717 8.937719420594016 0
24.2296590392997 3.197203651385216 0
12.05009207574424 2.816549568611461 0
15.98214286211781 15.95009807290709 0
11.58441567827259 14.50148025010164 0
20.4101446517444 10.62495058805071 0
23.80707219802543 11.29069801761084 0
22.42532021397512 7.074671830266216 0
23.89295043681123 17.26546048864952 0
12.47212436541928 16.56674471176843 0
11.36311289473467 18.74769022660629 0
18.03571428190872 12.69818993561667 0
23.21103653621201 9.226596148780448 0
21.835445728512 11.8629518852737 0
11.84903460017145 10.55191232141614 0
22.73995573102273 15.39530254323483 0
10.51987998485436 18.28692817524179 0
21.47092807520224 18.69536594034288 0
24.53651905580888 15.77455213616273 0
14.77754570165587 21.13472905279318 0
13.43108635161551 12.05650484557191 0
14.47351037994745 17.60796834073243 0
14.37963889816912 7.052570859770295 0
21.14207477648456 11.37908305758522 0
18.78678212776951 20.97602084759614 0
22.54583018669135 19.72402606496042 0
17.98006384517337 12.97713982583745 0
13.99303033471077 7.089164539124267 0
12.902524810956 6.965137847941727 0
20.46304168532611 20.27136223876743 0
12.38135980441237 10.63179543861987 0
21.27196121550433 11.18162353101746 0
20.57249116824859 20.61295764004598 0
21.21889480854988 9.330605257464097 0
17.00664339018548 19.15447925538457 0
17.74887493348421 17.13782351033893 0
14.47970429049828 8.407933351844632 0
11.48278678161278 18.16543258759016 0
11.38809672148452 6.975295089708762 0
24.39341111235716 10.69280330346032 0
19.28303787110663 17.59550784696716 0
13.49265099872646 9.249586961144928 0
11.22539510866532 11.66526059234886 0
14.42102911454003 16.45140818171409 0
13.81905350460191 10.17684056416512 0
19.62829700622925 14.12649071321785 0
14.83573626890489 16.05906285450951 0
23.36649154496693 16.29414508170621 0
15.87010515957755 22.66859414886904 0
24.01708869999383 16.03356985551669 0
18.72314574085912 17.06212429097025 0
23.3294161260025 13.54115143653095 0
16.40964728985778 16.75904198455679 0
11.95607617297768 20.10938874605575 0
11.69340704488514 6.328454945746622 0
18.29227483760144 13.4282846813149 0
21.12909159444169 20.06180250341153 0
22.2948994069533 10.93524137232766 0
24.16606381444878 19.25662895674454 0
22.59686141037197 12.28564428627763 0
14.42639222348136 13.98131321066721 0
14.89521384234709 12.79670235552119 0
23.48278247511607 14.19911183075881 0
22.90508996425087 12.25415975839788 0
12.91789947727134 11.12795731940573 0
15.57660172170412 16.4236230243679 0
11.2282566416711 9.488175131704127 0
11.85656024381522 6.980170048948039 0
22.17433637707359 10.35523598862328 0
16.80660725359802 16.43060870604933 0
12.95180938042886 2.818577480453711 0
24.31584721909044 9.998901839235264 0
21.41851932709542 4.095883311813926 0
16.94756989308176 15.92731665039724 0
15.72896865044577 18.24811585764649 0
10.84262563635442 24.33776710033522 0
11.72209954725378 22.63622986961473 0
11.43144319406866 4.075220425273464 0
11.04517829682453 16.11381578597957 0
24.51182797886977 15.09183614440484 0
12.84314840233555 11.86771789097173 0
23.03001696074894 15.75329945986197 0
12.64658543571453 6.573013768719762 0
21.89670913204431 10.50861963506759 0
21.81117576665627 12.25188985580957 0
12.27269376577403 7.58856743955571 0
18.63732862919163 15.88716450738833 0
15.1795453783409 22.85106531187844 0
12.85816881027735 7.556655245562986 0
11.6232799368393 23.39475164299093 0
20.88019597732467 10.89417036226065 0
23.44025482081297 15.54870802454067 0
14.59643415071737 20.69683597286565 0
20.82708511077412 11.80838488669083 0
13.90128453066493 8.638537252434439 0
22.25839585341379 8.091097594318533 0
12.25332672345237 20.02989419344194 0
24.73222171770462 19.50939398486202 0
13.36468278256319 20.29614215001237 0
11.8878947066659 19.40981801828026 0
12.38523062149915 9.904751695747002 0
23.94384042682086 11.85865941465913 0
11.18501358732849 16.84525065939872 0
17.92057795891661 13.71082779404279 0
11.47235976936256 7.683486305589296 0
13.22353294087174 9.096962074245452 0
22.93956322710069 16.1042409999065 0
15.89290212340367 19.51353507308584 0
11.11339771884394 19.04135135589223 0
23.69429763163936 9.90784836985105 0
13.84487132464057 7.67227309995674 0
22.65742487724907 13.20084073980893 0
24.49038491562206 10.34521520640901 0
17.39863473868145 15.84854024492289 0
22.69898912618287 9.41991974027427 0
14.29184539941629 11.43841730056925 0
19.4329314210684 20.92946520554167 0
22.23470015315881 11.19836889771134 0
23.56258169852081 7.742590541384939 0
16.73158273287407 13.7778991087021 0
10.73843441967611 23.65071033726933 0
12.31494701265844 17.64765806513486 0
24.58924615791002 19.28148245999942 0
23.39015168855208 10.34631108331184 0
20.96334909343081 10.61135282707089 0
21.01855111506296 8.449753066450118 0
24.36299296740592 6.612503055581167 0
11.40631372288145 23.17063507340262 0
21.35296867170502 2.817532186422193 0
21.37282750054888 12.25989007669039 0
24.21757139385701 2.790858961803547 0
20.73127481065525 15.71143563475085 0
24.31655018471061 6.043293026207746 0
12.79340114807169 12.35731498888233 0
23.00262829197228 7.212822142740658 0
22.36807669897541 7.801667071545756 0
19.3971169980221 15.91296098614961 0
14.56747701298537 22.03258571846016 0
17.53286961464155 21.86819835813903 0
10.3581515974617 22.00602118276192 0
10.32865219776635 24.04500386540222 0
20.28645333123499 13.47733243033425 0
22.16139916448865 19.40212511126213 0
18.61861827901534 18.54449730379139 0
16.03238095026155 14.003022605189 0
14.54252076680488 8.687319532141514 0
11.33425647128087 23.6835984002399 0
12.61995479064683 10.74116412705401 0
21.33780624802124 7.678037451866999 0
20.46186851179143 8.419919535429157 0
20.85912512068538 10.34954686912257 0
22.18638329102705 16.02925990006555 0
20.57071416792326 9.254028937921488 0
21.56214856958435 10.47596695579662 0
17.87894977344045 20.1905647791115 0
16.66193081646297 17.14088994230728 0
14.80896225677208 13.14458704010311 0
18.75169086521105 14.0596511401029 0
16.96627131093164 14.04672706222914 0
12.67315652282883 18.72575791418618 0
11.42207587334374 13.50274969817474 0
14.31912685726564 12.86792865528454 0
10.69190576911354 8.19836708066292 0
11.44715571875509 12.84574516389908 0
22.36738980021484 13.04003345912298 0
21.02537588909485 8.182501223462612 0
21.84402060281451 7.477526426895107 0
14.3776135431713 17.98889745864805 0
13.07737912385499 13.32193684685637 0
10.64043328370569 13.48449580359622 0
21.26388745050238 18.96711267331936 0
14.94792193594123 20.02313085977933 0
14.12929450557145 7.819714916896057 0
19.62289800421973 20.62212986422918 0
20.24731637216466 11.96807619062035 0
23.88756564816266 8.257769869940697 0
11.19557606920953 16.52353359076586 0
20.61920717454828 4.475156783358723 0
23.39082360619756 20.31585980377831 0
24.38588267816926 7.861383428286755 0
19.90895411856575 18.58731108772951 0
15.27498546636886 21.16645556571702 0
12.08676316311039 10.7811149167134 0
14.2726380079084 6.413208406671644 0
23.34928997110851 3.299046971976473 0
16.37141886770226 21.82381249682832 0
23.66093158354099 18.36527492597119 0
15.18507404123115 12.75033107774204 0
19.62553916776025 18.19206810647777 0
12.50189235319067 3.414611423955083 0
20.26885692465864 16.3016158292535 0
24.00403558454731 14.58214310931982 0
23.6722587174166 20.15366298009048 0
22.78685603551382 10.01586772185548 0
17.27458962952835 16.77855712187669 0
20.75661599559277 3.195852502331676 0
22.04186488886071 13.45644564123785 0
23.26601211602705 3.893870688112082 0
21.68030385010058 6.133547803282902 0
15.07206204205957 19.3090606479035 0
14.15377043336982 19.20002256852263 0
23.23392824665255 14.4864066764465 0
11.34074378549227 15.31601499457993 0
12.71217795081269 19.50511582872747 0
20.87856514489549 16.05486952980992 0
24.46220844779591 11.82880377389103 0
23.21800295673848 11.00204481587864 0
21.13710110220358 9.906829431014637 0
12.09082631306994 14.16069294891334 0
20.35486618453974 15.58546297673285 0
11.94172372226475 10.27490154207851 0
22.06569656977943 10.7273808782155 0
19.42964346110953 13.5079719393016 0
12.14949422824296 14.92611882926558 0
11.09817344078799 9.79276792094657 0
20.48404309174449 14.40097384286993 0
11.38910920591349 13.92950259357814 0
22.37429466502238 18.95063992758805 0
13.73732092731181 20.2779416056018 0
11.33677348094171 11.12846971887645 0
23.51600103069922 8.816932390225727 0
15.02071318110057 22.42669746415424 0
21.81053576031976 18.77447379602362 0
10.6885233247781 5.96298634479556 0
12.36861561827326 11.26466717149657 0
20.37641079808812 11.04590474939283 0
23.12679780073747 9.828078034261612 0
11.0463106771139 2.722507819042926 0
20.38244324738176 12.24982183949916 0
22.04699932755827 2.817273271105603 0
20.89396092495218 9.803400004893014 0
20.71983522312642 13.11812746430382 0
22.77528037008727 14.02710959039536 0
23.26406053041726 18.72933191903486 0
10.46807244032049 20.43047889299701 0
13.77040830291672 9.135304473877518 0
20.65823680120955 18.85126898996134 0
12.00352989528738 6.379013925345554 0
23.49688648301172 9.72592984856422 0
21.55803120217877 11.67336808424021 0
10.49980592685191 14.29982046585956 0
10.56224187923059 10.99336286932653 0
12.23240169985448 15.80945962831217 0
19.27401834941304 21.57205509341139 0
15.98476459095512 20.71289068465575 0
11.11240316946072 11.93418940894479 0
19.02830102902753 13.42159415864784 0
13.41222366291523 6.702943534219466 0
17.56262814690851 22.1513470868784 0
11.12552363578302 4.744873919060177 0
15.20248885133587 21.86655443315304 0
14.22950167502479 4.178095426972102 0
21.46229109763505 13.00652875106736 0
20.66926111974854 21.21232885163196 0
13.22727272027667 2.727598130628303 0
17.29504652380786 21.64312311961113 0
19.13305419555966 19.87901623640174 0
11.36023296388217 2.814497248082075 0
11.7671251158992 3.869495721208846 0
24.40694129780598 6.333908824565681 0
10.92918771200804 21.59847089919438 0
12.84895071773168 11.60955320528683 0
24.33559485902347 9.313588214967178 0
14.47570129179 13.1857517548845 0
14.09716752009518 9.626928877755764 0
12.09664127693562 13.40018640719051 0
12.9189673057082 10.56059644574007 0
13.60139714399648 13.51147191222189 0
11.75120289009289 9.97877368893636 0
24.28037011842493 14.80082828953428 0
10.8068540564085 4.188776151562759 0
14.87457689670537 23.07162156146948 0
24.53534799028581 13.66520354834386 0
13.92092722111643 14.13888582856814 0
15.48573625013651 13.35815496250913 0
23.26093902268535 15.13948678559179 0
12.61352765538811 17.03267577297261 0
13.84962644085072 15.91394668240854 0
22.37003561151512 20.50551957525478 0
10.68219494291489 5.223651564159585 0
11.35459261164345 6.130610783470513 0
17.46521947136638 13.42129834321541 0
17.11963504026178 21.054538250242 0
21.7855848646838 13.54697555286795 0
22.18392194114908 15.68239983171829 0
14.60191937345968 19.8659001023637 0
19.11696512066813 12.78227244108257 0
12.11353834394071 15.35041602052646 0
16.25190950374445 21.29960028196304 0
14.75150019557431 12.28206602597498 0
21.50509665817194 10.20367831302768 0
24.65577095439317 18.7327517760026 0
13.27056355846882 3.897667979787829 0
14.36801493990581 4.469453946165036 0
24.21445656357466 3.792610873037112 0
17.94658234896207 18.57385745795098 0
21.6105678133677 20.8754480850284 0
10.56286288602882 12.8492463851734 0
20.33062668132015 11.67827962591975 0
14.92410045807333 14.11015105922125 0
22.45016355398956 9.65646031783499 0
24.40529396134355 7.383956257335541 0
15.63040470788382 20.53104503433085 0
20.12222865023178 12.83342569840964 0
10.53833012983681 16.50564806600973 0
10.99454871906062 15.45768610368651 0
10.6508732732323 6.699363624586985 0
22.9186630914958 13.05608055344914 0
21.24012799881465 19.43188248758497 0
16.52164798723916 14.20570822952649 0
11.97299494699391 22.99432294073473 0
21.20543668727567 19.766928153214 0
21.45582896399515 13.41143577251675 0
16.69176894749356 20.61999179269827 0
24.53958396843667 14.27419391046611 0
16.26953395245096 20.09026256131679 0
13.33763683349582 8.732698274982749 0
10.93060605248925 20.27446659351023 0
11.38105758306385 17.08821217251577 0
10.97850147247437 17.94549985900407 0
22.25160169493588 20.0818933881569 0
15.64034453088858 13.77068856694206 0
19.12938536306865 20.83025214625029 0
12.56573539706319 18.41063599036341 0
17.64072423634522 13.13902318219911 0
24.20885878402915 15.1943229501559 0
13.59848694824712 17.64355280158206 0
23.43829137104166 14.83539232534331 0
12.75008100333029 22.91993000116854 0
14.85604626469074 13.76418335519747 0
20.38844488176056 9.753911521985442 0
12.54450058807443 7.828258484945344 0
19.48414454171337 18.90443416711297 0
22.18416780821543 3.605249668129126 0
15.88258939573185 12.73371586312623 0
21.18504273054874 11.66398374094317 0
23.63103098819646 11.46665918644712 0
24.69369791805735 16.90228890198017 0
21.30264855629114 18.27692843262106 0
24.4671668252346 12.19480448256757 0
17.65774804073878 12.80089785230248 0
16.28464225422475 13.50797194154154 0
16.82195184104612 22.44915856980227 0
20.96033086680943 6.93584824924811 0
20.60869656539748 5.978706696651529 0
22.02324178462217 6.411884398588857 0
16.91087146479549 18.71020540021195 0
22.67713217022377 13.50281117274503 0
10.59194888250558 11.87108324139498 0
17.60654991145073 20.12088072647369 0
19.92038056346043 21.37273715300666 0
12.1619399951152 9.069315620860252 0
21.34273773875043 11.89408304622552 0
10.35094170667099 22.64753689358312 0
12.73296499185382 7.280464429270948 0
21.16784245557875 14.69614494673194 0
21.16276538014895 20.42309890170976 0
22.20492751835641 14.56808082427026 0
24.63651636565015 13.98984954160718 0
19.79189501976149 19.93080962020913 0
13.99579090151501 6.561225824652682 0
12.49749360829781 12.90081320966606 0
16.92191578107319 20.35897849214706 0
14.66569164041816 11.04681392307056 0
10.51642318088769 15.02843029187305 0
17.92752101028533 19.53123677739516 0
13.91443720976443 22.91354295800233 0
13.6580277668352 11.03914247981975 0
16.57419733399184 19.91841911198928 0
15.04443425827276 17.65499715629521 0
20.55283411081287 13.68569597911882 0
19.94921941446064 16.54659193996103 0
22.88298758178402 14.66863778439904 0
20.12707115234772 19.30074571992258 0
10.68486552946295 9.864194948871194 0
14.97766576144023 16.94673844491996 0
11.61332739622619 8.277852294780548 0
12.36535179199414 9.337091581228565 0
13.76543939309351 7.345547459957584 0
12.65422535419926 11.02684879488548 0
11.00202979621762 10.72613324561082 0
24.53414863723754 12.89813147889221 0
20.36900461491961 15.0029518467571 0
17.85714285031339 14.06498105623528 0
21.25685426742333 3.138487402640731 0
10.68537262566707 7.028787028371504 0
10.84579978495654 19.7100229798394 0
24.40372028460586 19.91972138496367 0
12.61353683883245 20.00985830831196 0
11.53188199723218 10.61631956210241 0
15.23045949485801 22.16372898890014 0
22.02021037819971 12.57950546698603 0
23.95471129163353 2.722674549809708 0
12.22105072400922 12.68040789877174 0
11.97104745044386 8.24588181856609 0
21.13618733098988 8.990498181362199 0
19.21673781389504 18.36009786734569 0
24.3440583982576 4.511300715387817 0
18.94076215526323 20.53759752693755 0
13.43927492175118 9.489087813230222 0
15.75928355038366 21.65546705480637 0
11.86762857529515 8.91437371203235 0
13.90657412378932 4.751390573013507 0
13.49628442275514 23.29763151872219 0
13.74313474223266 3.138811944595692 0
23.80088131064157 4.321257649788379 0
11.56739459207339 19.50893493285875 0
18.91135826172869 17.86874526465756 0
16.24014716582828 18.93122813087895 0
13.89096746518242 5.338635140464543 0
11.20832424362651 4.313981808585126 0
16.27470377302996 19.31286157976233 0
22.86904629247832 19.997038833249 0
13.11141571520013 17.072793866921 0
23.60775664070314 9.362114204436747 0
21.31878095413337 8.769914163798871 0
20.72952224070475 16.77453037466272 0
22.2302026053185 8.62123412919988 0
18.25982908833022 21.97749778483964 0
12.42521864692572 13.29653113170248 0
10.57933968877328 12.21988540009623 0
13.36239239186957 13.27171622011493 0
23.60711862677034 5.883057424414337 0
23.74001137383197 14.92215731099816 0
22.42265990220103 11.83619493199697 0
11.11744521813033 21.30289296184356 0
18.43318716827917 16.60800724560483 0
23.12418709858736 11.67452123960363 0
10.77444148537623 3.197551180680867 0
17.69043979337604 21.30127562349356 0
11.33220531236024 7.341876633150093 0
23.27891533086069 8.30204404770538 0
10.29601725246562 23.33854253858738 0
19.00464017710215 21.48747694306946 0
20.48019745456471 17.0348536161268 0
18.12699335801368 15.87717300960906 0
21.79366339981705 12.95348723863512 0
13.03055568695815 20.08738481618945 0
11.49740292900212 24.20752122445391 0
14.18145613328608 10.78866798941608 0
11.12292769421845 21.92019353599722 0
13.87183242120432 3.675586399959284 0
10.97012089167331 12.39892702800177 0
20.60241881014529 11.65029781728204 0
11.77272726992607 2.722011209909637 0
12.74225340865695 8.946037059248509 0
13.50201732972494 23.57423384751015 0
13.30228459920105 11.45841470677601 0
18.26505221855964 19.748592701655 0
23.53827633248678 19.05416157740619 0
13.19865785143606 7.583342824242054 0
22.35111228758062 12.7345420554748 0
15.51107451687194 14.12681162897224 0
21.77272727347045 2.727799606272081 0
14.56077880078301 9.185935794176777 0
20.77579009250865 2.788487852404786 0
21.76285863859944 6.730383955359617 0
24.70203154665292 19.01834641626773 0
14.22420990681591 2.788487852274786 0
22.11834457225056 14.10384724577868 0
12.37123596626085 11.98204656167543 0
22.76186948071511 11.33566221693367 0
24.28515026575425 18.21032950272851 0
11.06944509597949 14.29916872727465 0
24.65660025746611 16.62940721458478 0
21.18572747993358 5.228680569411572 0
13.46488219973049 10.06106255863916 0
10.30021204167748 24.59385003451255 0
11.15285916538779 3.66337758645432 0
10.24940109770851 22.28242396345374 0
23.31489116874551 19.77795245220629 0
21.54449909751844 14.18500404411378 0
13.09267798997802 23.67508174075042 0
20.89345835891045 9.443269885933443 0
18.34684734363695 12.73903449149991 0
13.58181250052333 4.09446723104939 0
23.87389674720284 4.752193984482806 0
23.85558561475485 3.667653426399884 0
10.46302197723192 15.75021463945901 0
23.69156588779062 12.29165798643767 0
11.49515448719463 10.08047512801599 0
21.20636492653725 14.05657797610938 0
15.16596138993018 17.23862131428988 0
12.93033122140554 6.381624090049551 0
11.83757118636643 23.63874819165402 0
13.02176989920397 11.38423947562528 0
20.62398989112799 16.36272472775905 0
19.29315883775084 19.55740622685758 0
21.14479387033063 17.23043273925989 0
24.42422052180515 8.522936388918977 0
10.55383306148665 10.7142516489616 0
19.63095343665554 13.7702280020029 0
11.40770921188968 8.047899431803378 0
23.9656827669945 10.30776519299123 0
21.69029009599274 15.0449080721331 0
19.61656309652987 13.22186891651224 0
14.1277288931981 11.89411206423332 0
15.57151978033963 18.9213905808959 0
11.62645929565815 11.02169943786625 0
21.77289495384753 19.7894328700474 0
13.42430653381832 7.290272712014696 0
11.80893020926451 18.7548006970244 0
21.35726587182649 16.63155405855666 0
17.98055057307532 21.71552985885753 0
11.87818578814018 11.88109885183995 0
16.65346994509357 21.66315018394386 0
16.12503489897627 21.60848537855343 0
13.62892079263372 8.152114819125401 0
20.71265295278428 18.50156306222836 0
22.67021416882144 8.21957571032221 0
11.40144142546808 10.30304868101275 0
12.33733588691416 6.750351842358258 0
24.61985429340676 16.11506439827176 0
20.56995532208166 17.42980268664112 0
12.832625794655 18.13556504500363 0
22.92746758203926 11.91199795546428 0
11.27155159891134 3.134971360211384 0
10.59937751414652 9.558600627830247 0
12.91336804958991 15.88516421669166 0
12.95098139431955 16.33186592054775 0
18.05562559094333 16.24988549425547 0
13.85802478639127 11.2411742797113 0
13.95948975162969 2.723029769060633 0
21.04031113066539 2.72293154274278 0
20.10881961967805 20.27321728289848 0
17.94297251122655 20.72894178352985 0
10.80571078686942 22.31207874679644 0
12.27506267523742 19.17010897320476 0
11.9534211301785 9.783481199579404 0
20.54335757448618 6.533279074685442 0
14.64755654497689 9.834068308326067 0
22.38471559532339 12.14245524766427 0
24.17529047478061 14.22616863329928 0
17.12986981677549 19.43837247012996 0
13.66358845571227 6.148119971788288 0
23.227272719697 2.72291929322988 0
11.34465503110255 11.39790425245683 0
22.64463407716337 7.702718181566473 0
16.23083215771354 22.66559654792402 0
20.37807514275907 9.502059117770207 0
12.03703884602192 19.73731768529602 0
11.44174178043545 20.06499066093375 0
20.46962006869473 7.331963133151445 0
13.50637032848988 19.24974426831567 0
17.7154207141272 17.58725928126611 0
23.98318302728539 9.746842580373068 0
10.87958243123936 12.85829766206822 0
22.5901950795356 14.50631371050631 0
23.97405423496285 9.472848228510692 0
10.35068098471798 20.09074013200436 0
21.73452006729629 3.890601929605905 0
21.55325784020306 8.913261079204057 0
13.36582144104817 3.303524028578975 0
18.39327704011464 19.07251614634491 0
20.71509909445041 11.1722210073577 0
18.15133451890335 21.02439670416816 0
11.85058375053541 13.53161110170215 0
10.74660493463559 20.97256646582548 0
22.36836163420141 13.62631657003779 0
13.32766311442887 18.49420086050024 0
21.43410600624475 6.642052418726562 0
22.1281836785982 12.27459927551434 0
21.46865955944505 20.02311467178858 0
13.97291862359465 17.02475775883322 0
12.02157510564839 8.564474227972266 0
15.73633366856751 17.84830718523157 0
22.37892274883697 15.04988912397065 0
13.27749999682023 19.92651612103138 0
10.89469219428118 16.73227656686533 0
13.89091743772485 6.803147126180622 0
10.59660681198398 10.21485585868679 0
21.57480806555245 9.231044343476396 0
16.98573603125583 17.14944432584564 0
23.33821691270994 11.38726114855833 0
22.62147607659344 10.85850237937901 0
21.79376700972603 20.36093537036628 0
19.82089890551464 12.71462375802827 0
22.08784021441443 13.17783244611405 0
22.84628204547137 7.897867828962522 0
13.64237198272736 7.867639790535513 0
12.24029625084613 17.31073637866307 0
18.65793623588414 13.26360964753846 0
17.12680080159829 17.69513827694022 0
14.74076051304686 19.10141298773998 0
23.6974757976108 9.032229096081615 0
17.05874442239196 13.26169686509717 0
14.19601873229382 23.37473031021108 0
20.51524783574617 6.260137383893516 0
23.8702752677554 8.516991328876088 0
18.74999998662868 12.70836442437949 0
24.31814048732668 5.23560122307714 0
10.66591194857741 4.500640335624159 0
21.18009589194725 17.85325603166476 0
20.42405811401183 9.028544820433416 0
12.40026425139859 7.293815442952195 0
15.16626880344702 16.51127522714298 0
11.34964731800682 5.797056754836044 0
13.21049165810921 10.72223685035238 0
23.20121086877458 12.30285952791151 0
14.29322296061327 20.44053361036575 0
19.91104547334172 17.32233752663784 0
13.23052423169642 9.645139892985371 0
15.30482077223774 19.993504852095 0
20.91668099024931 7.517916500620584 0
20.3072996214111 18.0015409530594 0
19.1856499132335 14.16383016268925 0
18.72766881330941 16.3599815905361 0
17.47182895054089 20.48949587358888 0
13.01018187841238 19.45507541551358 0
21.26735268026813 20.96900907277837 0
14.43044003499579 6.177854043043758 0
23.57496301569775 4.080145718651337 0
22.03715668865043 11.39213161156781 0
21.35205666002346 9.716346195976579 0
17.48912912417764 16.42220342832579 0
20.22912127465615 18.3251214123619 0
14.27823318222332 22.91689647524498 0
16.19781029345922 18.30290235263214 0
12.29581166520411 23.97849839754905 0
23.56600191698198 15.91704612510783 0
11.55495225919599 15.55739416474959 0
11.01915530483585 11.46446088608416 0
20.75145498788426 12.11950606405953 0
23.26481973364465 8.921387695351038 0
11.3926479290191 22.25642215491785 0
20.71434592945296 10.64597814679011 0
POLYGONS 3402 13608
3 1154 365 1091
3 536 400 913
3 278 12 393
3 1023 546 1506
3 431 1023 1506
3 669 707 866
3 1326 378 1371
3 141 142 1467
3 402 141 1467
3 620 618 1628
3 645 463 1598
3 26 1457 1624
3 1007 504 860
3 113 114 756
3 999 645 1130
3 467 1109 777
3 548 882 1036
3 348 626 1687
3 942 348 1209
3 913 386 1635
3 789 302 1006
3 361 861 743
3 437 1154 1091
3 585 824 1798
3 1039 714 1840
3 904 966 1651
3 899 474 1609
3 10 271 780
3 776 489 1170
3 1031 942 1209
3 626 348 1096
3 733 574 1052
3 592 1233 833
3 1223 1124 1612
3 769 411 1449
3 1083 769 1449
3 773 840 1749
3 55 56 1241
3 1023 431 1160
3 53 54 1123
3 388 1284 839
3 438 657 955
3 1218 835 607
3 1601 753 1766
3 423 521 1304
3 840 626 1096
3 110 1264 1103
3 485 800 1701
3 486 830 1547
3 847 592 833
3 348 710 1209
3 463 645 1274
3 536 913 1635
3 799 466 1631
3 110 111 1264
3 798 742 1312
3 630 1001 1574
3 378 1109 1371
3 387 982 1487
3 598 804 931
3 860 504 1373
3 320 321 740
3 830 486 1320
3 598 931 1767
3 466 715 948
3 982 387 1590
3 326 25 790
3 458 1124 1223
3 264 1008 1317
3 949 1065 1125
3 356 739 1599
3 148 149 1187
3 57 58 654
3 668 464 972
3 332 689 1625
3 687 330 1625
3 696 1218 607
3 448 993 1430
3 874 899 1609
3 49 50 820
3 882 565 1036
3 597 712 1280
3 1001 414 1574
3 587 716 1643
3 745 771 1471
3 1313 352 1735
3 840 959 1749
3 404 664 975
3 521 809 1304
3 755 435 924
3 427 1116 1738
3 519 598 1767
3 478 1119 1423
3 433 1542 1435
3 1218 696 995
3 665 407 1132
3 407 665 1068
3 657 438 938
3 721 903 1506
3 807 356 1599
3 476 423 1304
3 356 1015 1713
3 739 485 1701
3 562 648 619
3 599 740 1294
3 645 999 1274
3 1079 490 1201
3 25 1624 1451
3 715 466 834
3 1067 551 1171
3 1476 618 1559
3 903 431 1506
3 770 467 777
3 839 1284 1778
3 743 861 1066
3 43 44 638
3 486 1084 1320
3 780 271 1238
3 1161 528 1066
3 762 515 1653
3 710 1214 1209
3 819 360 966
3 759 551 1118
3 757 742 1431
3 672 588 989
3 45 46 1258
3 433 657 1542
3 369 1005 701
3 436 1032 1262
3 433 940 1310
3 940 516 1310
3 459 583 1636
3 1516 468 994
3 1241 56 1482
3 1187 149 1391
3 47 48 850
3 649 386 1021
3 564 753 1601
3 761 578 1358
3 824 585 1450
3 625 1153 1249
3 326 790 1378
3 53 1123 1720
3 714 1039 1093
3 1065 699 1125
3 882 548 683
3 874 720 1169
3 278 393 1104
3 953 357 1650
3 1032 764 1262
3 1009 605 1723
3 371 372 1611
3 606 687 1297
3 689 514 1523
3 1624 781 1451
3 594 1476 1559
3 1042 291 877
3 368 1084 967
3 904 819 966
3 1106 793 1004
3 688 755 924
3 745 759 1118
3 418 757 1431
3 513 712 1041
3 1288 602 1285
3 687 606 1399
3 514 689 1400
3 1015 1009 1723
3 418 508 1244
3 855 568 1550
3 490 1565 1201
3 657 433 1090
3 1043 480 1059
3 389 461 1607
3 732 628 1708
3 628 613 1708
3 545 717 1317
3 740 321 1315
3 696 716 1308
3 637 761 1358
3 664 404 1613
3 435 755 1078
3 357 762 1653
3 712 513 1280
3 224 225 869
3 540 507 1526
3 475 795 1666
3 598 674 1690
3 711 713 1788
3 57 654 1482
3 386 649 1236
3 252 253 859
3 480 1043 1428
3 733 1052 1246
3 489 711 1788
3 636 653 1568
3 1542 453 1435
3 177 178 1243
3 1607 461 1690
3 618 1094 1628
3 61 62 1208
3 1631 466 1752
3 628 1217 1839
3 995 696 1157
3 966 266 1651
3 581 703 1251
3 1153 377 1249
3 410 499 1277
3 714 1305 1840
3 781 860 1373
3 1124 605 1612
3 716 987 1643
3 571 855 1550
3 653 484 1568
3 41 42 1094
3 475 1029 1703
3 795 815 1666
3 78 79 1041
3 703 581 1484
3 316 317 726
3 623 375 848
3 916 414 778
3 1005 725 701
3 1140 579 1434
3 1300 811 1198
3 953 1128 359
3 716 696 987
3 628 732 1217
3 760 1329 1463
3 654 58 1411
3 829 395 1376
3 584 1161 1066
3 528 909 743
3 1386 502 1583
3 806 495 828
3 1249 377 895
3 842 818 1786
3 613 806 828
3 1329 575 1463
3 268 267 748
3 605 1124 1723
3 909 672 743
3 726 1288 1285
3 562 1106 1004
3 1630 406 1445
3 776 386 913
3 546 1023 1477
3 1116 444 1738
3 1258 46 984
3 163 164 1437
3 100 101 1176
3 648 562 1291
3 178 772 1243
3 859 253 1828
3 811 869 1198
3 1049 163 1437
3 101 1177 1176
3 1247 144 852
3 434 770 777
3 47 850 984
3 771 745 692
3 1140 1434 1420
3 996 557 1659
3 485 1124 1554
3 969 522 1395
3 522 769 1395
3 86 87 1670
3 993 1422 1430
3 474 899 1839
3 538 1005 889
3 993 448 951
3 567 1042 877
3 626 840 1558
3 342 1326 1371
3 1131 363 856
3 491 646 1337
3 202 203 1161
3 742 798 1794
3 93 94 757
3 170 171 759
3 1029 475 1359
3 1187 518 1394
3 330 687 1399
3 689 332 1400
3 861 361 1058
3 604 410 1277
3 715 1616 1456
3 596 916 778
3 1423 1119 1261
3 674 598 1396
3 899 450 1839
3 1187 865 1073
3 1128 953 1859
3 1109 378 1494
3 1206 602 946
3 965 86 1670
3 1102 105 862
3 614 719 1468
3 569 1313 1735
3 390 849 961
3 776 388 1021
3 989 588 1774
3 572 818 842
3 41 1094 1791
3 858 592 1595
3 51 52 932
3 492 1267 1034
3 1616 429 1456
3 400 711 1405
3 235 881 1495
3 555 849 1016
3 27 733 1450
3 1141 352 1281
3 386 776 1021
3 535 817 1478
3 593 598 1690
3 775 1141 1281
3 350 1052 1444
3 237 238 761
3 199 200 370
3 450 899 1306
3 43 638 586
3 518 1187 1073
3 445 746 1448
3 503 849 963
3 302 20 1006
3 603 1249 895
3 646 765 1337
3 300 1340 1077
3 499 410 1204
3 718 1080 738
3 592 1191 1595
3 1340 1460 1077
3 482 808 1417
3 686 445 1365
3 690 593 1498
3 458 1109 1494
3 25 327 1624
3 248 249 1290
3 1149 698 1006
3 495 552 828
3 1564 1266 1640
3 113 756 1047
3 13 895 1587
3 507 23 1393
3 808 365 1417
3 809 521 1433
3 719 614 1365
3 545 1008 1382
3 739 356 1713
3 557 646 1659
3 1170 489 1684
3 1005 538 1152
3 445 611 1365
3 583 459 827
3 1080 543 738
3 713 711 1048
3 250 251 1329
3 1156 605 1457
3 669 1331 1552
3 781 413 860
3 768 539 1198
3 388 776 1170
3 1084 368 1418
3 291 290 877
3 707 258 1860
3 1050 1257 1808
3 552 419 828
3 740 599 1245
3 105 1102 1086
3 725 372 454
3 498 1119 1492
3 24 703 1484
3 618 620 1559
3 647 367 952
3 1106 562 619
3 1217 474 1839
3 410 604 1668
3 395 829 854
3 963 849 1560
3 1266 804 1640
3 423 476 1293
3 793 1149 1006
3 1338 406 1630
3 1156 510 1383
3 959 358 1692
3 1109 458 777
3 1119 478 1492
3 582 959 1692
3 1433 700 1665
3 869 225 1434
3 107 108 1121
3 770 4 1470
3 831 1113 749
3 1084 581 967
3 849 555 961
3 946 602 1617
3 865 821 1407
3 1153 625 1087
3 880 1386 1583
3 371 1134 670
3 1175 397 1085
3 1027 448 1430
3 801 663 917
3 1005 369 889
3 1191 556 1674
3 500 1280 1309
3 357 953 1588
3 1277 921 1436
3 23 507 1348
3 235 236 881
3 1101 501 1407
3 593 915 1498
3 588 672 1514
3 669 866 1726
3 756 114 1278
3 422 1101 1407
3 575 1222 1463
3 551 1067 1426
3 268 748 1725
3 817 535 1412
3 671 801 917
3 150 151 821
3 1599 933 1808
3 731 679 1392
3 1590 64 456
3 258 707 1074
3 464 736 944
3 838 717 1388
3 192 193 801
3 1587 990 1440
3 755 688 1374
3 821 422 1407
3 1032 436 444
3 1015 356 1597
3 1041 79 1465
3 508 418 1228
3 1267 440 1034
3 696 1308 1157
3 1001 630 1615
3 836 616 1673
3 331 332 1625
3 330 331 1625
3 108 819 1121
3 504 1007 447
3 529 1032 444
3 381 650 1714
3 703 24 1760
3 885 817 908
3 309 964 779
3 564 1001 1615
3 925 1237 1801
3 664 980 975
3 552 495 1619
3 122 123 972
3 1740 906 1196
3 280 658 1165
3 768 492 1034
3 762 635 398
3 720 436 1169
3 466 799 1622
3 314 315 767
3 769 522 1366
3 998 988 1333
3 658 280 1012
3 36 37 863
3 733 27 1455
3 1331 884 1552
3 571 937 855
3 71 1218 995
3 659 460 1350
3 248 1290 1780
3 468 1516 1563
3 1187 1394 1835
3 764 623 848
3 58 59 1411
3 1245 599 1307
3 1320 1084 1418
3 1241 350 1606
3 320 740 1245
3 717 545 978
3 773 1120 1336
3 679 411 1392
3 913 400 1405
3 270 1296 1522
3 350 1123 1606
3 395 1143 1376
3 726 553 1519
3 29 1008 1709
3 849 503 1016
3 190 191 851
3 318 747 1288
3 1008 264 1709
3 413 781 1624
3 1113 704 1497
3 1310 516 1453
3 371 1611 1724
3 452 728 1466
3 1716 1268 1253
3 933 1050 1808
3 848 375 1603
3 865 1187 1391
3 467 770 1470
3 774 784 844
3 602 1288 1837
3 510 1156 1733
3 817 885 1478
3 1304 809 1443
3 451 476 1443
3 1443 809 1569
3 553 726 1285
3 646 491 1659
3 809 1433 1665
3 489 776 1405
3 1142 1025 1785
3 507 540 1257
3 74 75 643
3 914 953 1650
3 352 1313 1354
3 1471 771 1695
3 1280 754 1309
3 389 954 813
3 710 552 1619
3 392 996 1185
3 793 1106 1162
3 863 403 1502
3 401 774 844
3 422 821 1183
3 263 264 1317
3 932 52 1720
3 601 1516 994
3 71 72 1218
3 988 527 1333
3 1267 493 1384
3 792 635 1591
3 227 673 1420
3 209 210 1321
3 773 396 1558
3 650 381 656
3 567 877 1178
3 710 348 1687
3 716 587 962
3 765 646 751
3 314 767 1760
3 374 863 1502
3 746 445 1115
3 358 942 1573
3 327 26 1624
3 372 725 1611
3 1214 710 1593
3 218 219 373
3 281 1587 1440
3 1222 498 1463
3 68 1616 1812
3 1043 1475 1428
3 991 1245 1307
3 1084 486 1056
3 310 309 779
3 856 548 1802
3 745 1225 692
3 1120 773 1749
3 925 344 1237
3 435 854 1215
3 1370 168 1695
3 270 269 1296
3 487 716 962
3 507 1393 1526
3 1038 836 1673
3 522 969 1061
3 63 64 1590
3 484 653 1805
3 763 1010 813
3 1208 62 1662
3 760 1072 1068
3 598 519 1396
3 1008 545 1317
3 868 422 1183
3 752 380 1142
3 1203 405 723
3 143 144 1247
3 1016 680 1279
3 643 563 1195
3 1457 413 1624
3 663 801 1504
3 954 763 813
3 579 768 1198
3 736 464 1681
3 1523 346 1345
3 528 1161 1623
3 623 764 1022
3 473 659 1350
3 714 617 1064
3 409 452 1466
3 372 371 1807
3 1242 546 640
3 122 972 1605
3 96 706 1496
3 798 1312 1496
3 1422 993 1857
3 969 496 1061
3 1656 663 1790
3 157 158 621
3 670 660 803
3 371 670 803
3 633 787 1037
3 636 956 1655
3 520 690 1013
3 576 1076 1108
3 1493 939 1105
3 464 121 1605
3 1329 251 1513
3 704 1113 1671
3 788 1242 640
3 667 325 1378
3 570 787 986
3 521 423 989
3 521 989 1774
3 1026 848 1603
3 1071 412 1488
3 1052 574 1444
3 1191 1674 1192
3 622 834 1622
3 1124 458 1554
3 506 906 1740
3 1149 217 1205
3 693 668 1763
3 694 768 1034
3 463 1298 1598
3 1134 371 1724
3 455 752 1142
3 400 536 1507
3 434 1223 1383
3 840 773 1558
3 316 726 1519
3 557 996 935
3 818 572 1010
3 843 742 1794
3 1049 457 1626
3 74 643 1404
3 698 789 1006
3 957 1177 1646
3 753 564 890
3 863 37 1129
3 574 733 1455
3 517 452 1322
3 1293 361 997
3 807 1599 1808
3 1258 382 1230
3 1200 812 1452
3 192 801 1731
3 717 838 1680
3 1116 529 444
3 121 464 944
3 1128 561 359
3 500 1184 827
3 1037 787 1231
3 499 842 1786
3 1119 498 1037
3 1079 680 1016
3 496 969 1453
3 1010 572 813
3 1131 856 1802
3 1422 376 1430
3 890 564 1615
3 847 566 805
3 1289 311 1348
3 541 1320 1418
3 749 1113 1524
3 464 668 1681
3 849 390 1560
3 689 1523 1345
3 1298 463 934
3 712 597 1627
3 363 923 856
3 728 452 1179
3 950 1601 1766
3 748 494 1725
3 150 821 1391
3 834 466 1622
3 216 217 1149
3 351 589 1555
3 1447 201 1581
3 854 829 1215
3 1076 425 1108
3 415 1493 1105
3 747 318 991
3 1008 29 1382
3 1793 557 1813
3 1636 583 1240
3 1004 313 1014
3 565 882 1586
3 1194 587 1619
3 942 1031 1240
3 423 1293 997
3 148 1187 1835
3 731 1247 852
3 68 69 1616
3 382 638 1230
3 744 662 1254
3 360 819 1425
3 1020 533 892
3 119 120 1139
3 26 1156 1457
3 806 613 837
3 491 1337 1751
3 349 1200 1452
3 1109 467 1202
3 783 675 447
3 397 1266 1085
3 380 1025 1142
3 183 184 883
3 1475 303 1428
3 1152 484 1263
3 557 938 1813
3 670 1134 1307
3 442 1211 1075
3 708 772 1110
3 1071 580 1831
3 363 1131 1028
3 1113 831 1671
3 1071 1488 1823
3 725 1005 1409
3 561 818 1010
3 634 1175 1085
3 996 392 935
3 580 1716 1831
3 1404 643 1195
3 383 1436 1311
3 729 609 826
3 375 623 1410
3 1074 381 1714
3 820 390 814
3 393 12 1718
3 765 1087 1337
3 797 1289 1348
3 440 1267 1384
3 851 191 1731
3 609 1211 826
3 347 677 1024
3 829 1376 1133
3 451 559 1474
3 660 670 1294
3 654 530 893
3 806 549 1200
3 460 659 1628
3 501 1101 751
3 965 873 1758
3 1558 396 1347
3 646 557 1030
3 580 1268 1716
3 417 859 1828
3 30 31 794
3 367 623 1022
3 795 475 1703
3 539 768 1691
3 676 585 1111
3 1244 508 1686
3 765 1101 1181
3 1249 603 894
3 1007 783 447
3 345 1241 1482
3 587 1194 962
3 488 1298 934
3 608 1740 1196
3 748 267 1776
3 1275 438 1855
3 1333 797 1323
3 982 1284 1487
3 881 999 1495
3 1184 500 1309
3 390 820 1810
3 1075 1211 1827
3 820 50 1546
3 711 400 1402
3 173 1046 1777
3 362 347 1024
3 1267 822 1562
3 49 820 814
3 668 693 1681
3 1499 91 1686
3 1290 760 1068
3 485 1554 1525
3 452 409 1503
3 38 39 845
3 511 785 1349
3 1337 682 1751
3 925 538 889
3 1123 830 1720
3 1058 361 1293
3 599 670 1307
3 594 936 1045
3 605 1156 1612
3 495 806 1342
3 937 305 1459
3 281 13 1587
3 254 255 922
3 493 1267 1562
3 542 916 1385
3 928 764 1375
3 358 1573 1330
3 351 1555 1604
3 1436 921 1814
3 1507 585 1798
3 1191 592 805
3 1386 880 1551
3 345 654 893
3 526 1049 1626
3 348 942 1096
3 242 243 1003
3 1177 399 1646
3 1067 1171 1777
3 794 545 1382
3 653 553 1805
3 662 744 1185
3 1101 422 1390
3 1032 529 952
3 526 1225 901
3 705 1656 1790
3 949 1334 1065
3 654 345 1482
3 553 767 1519
3 726 317 1288
3 337 338 1302
3 1101 765 751
3 1212 512 1747
3 1436 525 1311
3 1116 427 1114
3 485 739 1713
3 258 259 1860
3 716 487 1308
3 195 196 1313
3 354 1251 1761
3 650 656 1645
3 246 247 907
3 808 482 1673
3 571 1550 1412
3 616 808 1673
3 967 470 963
3 529 1116 886
3 418 897 1228
3 512 1113 1497
3 800 485 1525
3 841 502 1516
3 761 238 1485
3 1541 468 1694
3 785 737 1349
3 368 967 963
3 1254 662 1865
3 887 721 1506
3 635 792 398
3 667 404 975
3 445 686 1141
3 888 850 961
3 1550 817 1412
3 851 671 1417
3 1206 553 1285
3 476 1304 1443
3 808 616 1180
3 1094 618 1791
3 674 1607 1690
3 353 1058 1293
3 791 551 1426
3 10 780 1491
3 405 1203 875
3 888 1258 984
3 365 808 1360
3 769 1083 1532
3 1124 485 1723
3 546 887 1506
3 19 298 1338
3 1225 526 692
3 1161 203 1623
3 772 655 1110
3 208 1189 1556
3 659 620 1628
3 96 97 706
3 757 94 1312
3 93 757 1244
3 759 171 1171
3 170 759 1471
3 673 1140 1420
3 819 108 1852
3 167 168 1370
3 940 433 1435
3 603 1376 894
3 1359 475 1854
3 850 888 984
3 396 1283 1347
3 675 964 447
3 553 1206 1805
3 835 977 607
3 299 19 1630
3 540 783 1808
3 229 230 1520
3 141 402 1540
3 472 454 1316
3 778 461 1795
3 549 806 837
3 126 127 816
3 660 1128 803
3 843 399 627
3 578 761 1485
3 365 851 1417
3 804 598 505
3 377 1153 1028
3 1087 765 1181
3 559 451 1789
3 475 1219 1854
3 199 370 1167
3 411 769 1392
3 227 228 673
3 635 762 1775
3 416 980 1282
3 1235 499 1204
3 426 965 1758
3 1591 635 1227
3 783 807 1808
3 1276 954 1775
3 617 714 1549
3 914 737 1739
3 452 517 1702
3 410 1668 1292
3 764 848 1375
3 396 773 1336
3 662 836 1038
3 936 594 1559
3 1143 395 1180
3 358 959 910
3 885 890 1615
3 154 683 642
3 476 451 1474
3 959 840 910
3 366 1128 1859
3 471 676 1111
3 4 139 1470
3 487 962 1510
3 707 669 902
3 531 1120 1749
3 1647 408 1718
3 461 389 1795
3 850 390 961
3 530 654 1411
3 949 1423 1261
3 1294 740 1311
3 933 1599 1789
3 851 365 1421
3 1251 703 1761
3 434 777 1473
3 795 477 1669
3 579 869 1434
3 763 954 1276
3 547 752 1527
3 656 424 1645
3 499 1235 842
3 457 1049 1437
3 1177 957 1176
3 620 936 1559
3 621 158 1234
3 1059 539 1691
3 613 628 837
3 663 1504 1790
3 784 774 1148
3 836 662 1186
3 355 402 1796
3 299 1630 1679
3 1264 730 1103
3 1237 652 1801
3 1290 665 1780
3 581 1084 1056
3 937 571 1464
3 1708 431 1286
3 767 553 1145
3 1160 431 1708
3 163 1049 891
3 1177 101 591
3 884 847 833
3 767 315 1519
3 764 1032 1022
3 608 839 1778
3 1655 956 1518
3 417 922 1608
3 267 966 1776
3 551 759 1171
3 742 757 1312
3 1193 680 1252
3 801 671 1731
3 70 71 995
3 1425 819 1852
3 1091 395 854
3 700 1433 1511
3 755 1374 1501
3 454 372 1316
3 119 1139 1772
3 797 1333 1861
3 399 843 1794
3 1376 603 1133
3 173 174 1046
3 766 1275 1855
3 835 1218 590
3 472 914 1739
3 1156 26 1287
3 556 1191 805
3 494 748 1489
3 711 489 1405
3 861 1058 1093
3 438 955 1855
3 721 1139 903
3 916 542 1638
3 752 455 1527
3 334 1386 1551
3 701 722 1825
3 351 792 1849
3 369 701 1825
3 942 358 910
3 1072 407 1068
3 1520 230 970
3 1445 1095 1850
3 90 91 1499
3 594 845 1476
3 165 1697 1437
3 1700 99 1176
3 515 762 1610
3 496 1453 1299
3 821 865 1391
3 1139 736 903
3 598 593 505
3 720 874 1763
3 916 596 1385
3 183 883 1832
3 772 708 1243
3 267 266 966
3 579 1140 1712
3 772 178 1536
3 1346 500 827
3 736 1139 944
3 336 1541 1694
3 202 1161 1581
3 426 897 1117
3 1095 344 1850
3 690 520 1640
3 932 830 1320
3 592 847 805
3 1333 782 1517
3 999 1130 1495
3 792 351 1604
3 914 472 1316
3 623 367 1663
3 785 722 1739
3 694 912 1475
3 1201 678 1743
3 1203 535 1750
3 414 916 1574
3 671 851 1731
3 845 39 1476
3 1321 210 1099
3 1326 342 1255
3 789 480 1428
3 300 299 1340
3 370 200 1447
3 1668 537 1292
3 873 965 1670
3 1317 717 1051
3 143 1247 1467
3 367 647 462
3 142 143 1467
3 1302 338 1515
3 86 965 1053
3 502 841 971
3 204 205 909
3 948 715 1456
3 741 1326 1255
3 382 1258 1081
3 1359 496 1299
3 903 736 1151
3 1313 569 1787
3 928 629 1262
3 350 1241 1172
3 553 653 1145
3 374 858 1381
3 1310 1453 1325
3 365 1154 1421
3 1013 690 1498
3 390 850 814
3 791 655 1122
3 1241 345 1172
3 1194 495 1342
3 293 1552 1318
3 254 922 1828
3 297 936 1159
3 469 1313 1787
3 801 193 1504
3 1026 1236 1375
3 643 75 750
3 647 952 1403
3 1402 530 1048
3 725 1263 1611
3 313 312 1014
3 554 636 1568
3 896 925 889
3 349 1194 1342
3 771 1370 1695
3 117 118 887
3 653 636 1655
3 724 1652 1491
3 23 310 1393
3 1043 1059 1691
3 1233 592 1768
3 1346 563 960
3 80 81 1069
3 711 1402 1048
3 936 620 1783
3 4 770 1545
3 805 566 391
3 717 978 1388
3 88 1207 1670
3 1619 587 1593
3 329 330 1399
3 332 333 1400
3 645 1020 1851
3 546 1242 1696
3 878 1447 1581
3 463 1274 1271
3 381 1074 902
3 1582 133 1253
3 932 541 1546
3 492 1140 1654
3 611 445 1448
3 895 13 1165
3 507 1257 1323
3 1078 187 1221
3 1074 707 902
3 651 611 1448
3 402 355 1685
3 260 866 1860
3 439 1041 1465
3 1305 714 1064
3 1152 1263 1409
3 897 426 1228
3 922 424 1608
3 1161 584 544
3 1020 645 1598
3 1052 350 1172
3 541 932 1320
3 660 1294 1397
3 706 798 1496
3 756 1120 1414
3 1128 366 803
3 850 48 814
3 862 106 1121
3 106 107 1121
3 1194 349 1770
3 340 27 676
3 972 464 1605
3 1236 517 1375
3 663 1656 1826
3 1218 72 590
3 762 357 1276
3 204 909 1623
3 1261 1119 1231
3 105 106 862
3 1251 354 1518
3 386 1236 1635
3 237 761 1592
3 646 1030 751
3 604 1277 1436
3 470 1251 1518
3 528 743 1066
3 1668 604 1762
3 761 637 1592
3 896 1142 1785
3 1288 747 1837
3 578 1266 1564
3 1113 512 1524
3 351 749 1524
3 438 1275 1813
3 1573 735 1330
3 28 265 0
3 373 219 1533
3 679 666 1472
3 635 954 1227
3 1372 176 1243
3 411 679 1472
3 73 74 1404
3 562 1004 1014
3 686 614 1351
3 1151 736 1681
3 693 1151 1681
3 1552 293 1060
3 916 376 1574
3 812 1200 1272
3 289 1647 1718
3 533 1020 1598
3 610 1324 1270
3 292 656 1570
3 401 1305 1757
3 998 1333 1517
3 1042 567 1608
3 569 686 1351
3 822 1267 1654
3 1324 494 1270
3 757 418 1244
3 759 745 1471
3 325 326 1378
3 1649 542 1226
3 1305 815 1757
3 471 1410 1663
3 955 1083 1855
3 638 460 586
3 760 1290 1112
3 987 394 1643
3 61 1208 1539
3 1140 492 1712
3 542 1027 1638
3 1120 531 1414
3 655 791 1426
3 764 928 1262
3 382 1193 1252
3 830 932 1720
3 959 582 1821
3 1263 927 1611
3 1123 350 1547
3 858 374 1768
3 724 1512 1652
3 728 906 1466
3 907 247 1780
3 900 1630 1445
3 7 223 918
3 1344 390 1810
3 1794 798 1646
3 1193 382 1081
3 667 975 1848
3 899 874 1689
3 907 665 1132
3 222 7 918
3 535 1203 1580
3 1013 950 1415
3 701 725 454
3 555 1193 1081
3 999 595 1274
3 592 858 1768
3 1017 397 1175
3 853 562 1014
3 681 1486 1126
3 945 1017 1175
3 1426 1067 1110
3 218 373 1205
3 211 212 1260
3 1510 962 1770
3 1520 465 1562
3 871 810 1527
3 1739 722 1173
3 323 1147 1355
3 1139 721 1772
3 1364 811 1300
3 495 1194 1619
3 1174 389 1537
3 1010 763 1588
3 1334 949 1261
3 51 932 1546
3 455 1142 1442
3 532 1052 1172
3 972 123 1055
3 912 304 1475
3 691 408 1647
3 164 165 1437
3 99 100 1176
3 955 657 1090
3 734 1002 1707
3 1094 42 586
3 570 986 973
3 513 1296 754
3 1222 575 1107
3 570 1334 1261
3 907 543 1584
3 794 31 1674
3 616 836 1751
3 822 1520 1562
3 1334 570 973
3 1324 9 1725
3 620 659 920
3 1223 434 1473
3 543 907 1132
3 656 292 1158
3 1235 1649 1226
3 595 379 1274
3 1120 788 1336
3 573 1302 1515
3 389 813 1537
3 1003 243 1490
3 659 473 1648
3 1154 437 1543
3 678 364 1743
3 334 335 1386
3 1448 746 1815
3 771 692 1626
3 842 976 1537
3 1078 755 1368
3 27 341 1455
3 1282 980 992
3 1267 492 1654
3 1002 576 1108
3 36 863 1381
3 374 1233 1768
3 895 377 1587
3 593 690 505
3 1042 424 1158
3 956 490 1363
3 665 1290 1068
3 816 127 1576
3 1329 760 1112
3 1260 212 1754
3 550 1364 1300
3 8 1102 1651
3 483 1443 1569
3 414 915 778
3 982 1590 456
3 1041 712 1548
3 508 1499 1686
3 693 1609 1217
3 1102 8 1644
3 461 778 1100
3 1031 1636 1240
3 508 1228 1758
3 356 807 1736
3 447 964 1216
3 572 842 1537
3 465 1229 1562
3 1509 471 1663
3 1046 1067 1777
3 1069 780 1238
3 1474 559 1239
3 1350 382 1252
3 1072 760 1632
3 1027 542 1649
3 195 1313 1089
3 700 988 1665
3 1189 509 1556
3 387 1208 1662
3 558 868 1784
3 305 937 1464
3 975 537 1848
3 988 998 1665
3 1235 416 1649
3 1346 960 1672
3 1111 375 1410
3 1019 355 1796
3 683 154 1771
3 780 1063 1491
3 477 1448 1815
3 252 859 1513
3 1468 481 1480
3 1609 474 1217
3 393 883 1104
3 455 871 1527
3 543 1080 1584
3 112 113 1047
3 785 511 1054
3 1296 513 1522
3 87 88 1670
3 882 683 1771
3 490 956 600
3 1280 513 754
3 1162 1106 1579
3 512 738 1747
3 554 1568 612
3 1512 524 1652
3 1035 393 1718
3 284 1002 1108
3 403 863 1129
3 1652 272 1491
3 637 1358 1415
3 452 1503 1322
3 311 23 1348
3 404 667 1378
3 972 1055 1357
3 816 841 1516
3 906 796 1466
3 770 434 1545
3 259 260 1860
3 322 323 1355
3 936 297 1045
3 448 1027 1282
3 132 133 1582
3 893 530 1458
3 596 778 1795
3 1088 532 1458
3 897 418 1033
3 1555 681 1126
3 954 1607 1227
3 698 1149 1205
3 1208 387 1684
3 1609 693 1763
3 325 667 1328
3 903 1151 1286
3 632 1302 974
3 787 570 1231
3 1242 788 1387
3 55 1241 1606
3 983 1184 1309
3 368 963 1560
3 887 546 1696
3 440 1384 1459
3 602 1206 1285
3 1252 680 1743
3 853 527 1291
3 1257 782 1323
3 1123 54 1606
3 1203 723 1834
3 424 1042 1608
3 774 401 1669
3 660 1062 1128
3 224 869 1629
3 18 295 1682
3 1259 306 1464
3 567 1222 1107
3 458 1223 1473
3 159 160 867
3 685 691 1647
3 575 1329 1513
3 1200 549 1272
3 28 29 1709
3 570 1261 1231
3 846 1013 1498
3 756 1278 1120
3 798 706 1646
3 412 1071 1528
3 846 1001 1601
3 305 21 1459
3 1313 469 1089
3 24 314 1760
3 1156 1287 1733
3 38 845 1129
3 679 731 852
3 176 177 1243
3 679 145 1572
3 776 913 1405
3 614 1468 1480
3 1358 578 1564
3 1001 564 1601
3 78 1041 1548
3 1242 116 1696
3 530 1402 1458
3 987 696 607
3 45 1258 1230
3 1546 541 1810
3 1502 18 1682
3 956 636 600
3 1258 888 1081
3 1092 370 1146
3 39 40 1476
3 437 1221 1543
3 368 1344 1418
3 640 546 1477
3 742 843 1040
3 390 1344 1560
3 621 734 1097
3 768 694 1691
3 1225 745 1575
3 1384 937 1459
3 734 867 1002
3 662 1185 1186
3 491 836 1186
3 378 1633 1678
3 1167 370 1092
3 479 1092 1146
3 27 1450 943
3 854 435 958
3 116 1242 1387
3 264 265 1709
3 597 1280 1672
3 986 301 1077
3 407 1072 1642
3 869 811 1629
3 988 872 1224
3 187 1078 1368
3 1310 523 1090
3 1621 450 1306
3 1660 1003 1745
3 946 484 1805
3 556 794 1674
3 966 360 1776
3 603 895 1165
3 574 857 1862
3 529 886 1403
3 13 280 1165
3 669 446 902
3 855 937 1384
3 181 182 1035
3 242 1003 1660
3 1229 493 1562
3 539 1300 1198
3 1211 442 1197
3 1616 715 1812
3 312 311 1289
3 1669 477 1815
3 1370 771 1626
3 915 593 1100
3 909 528 1623
3 1067 1046 1110
3 1079 503 1363
3 953 914 1859
3 416 1235 1204
3 830 1123 1547
3 601 1398 1303
3 489 1208 1684
3 728 1179 1746
3 459 1346 827
3 638 44 1230
3 1278 788 1120
3 562 853 1291
3 270 1522 1838
3 1389 450 1621
3 945 1660 1745
3 964 309 1744
3 467 1470 1864
3 425 891 832
3 857 581 1056
3 406 1341 1769
3 839 728 1746
3 1338 298 1295
3 923 558 856
3 376 916 1638
3 471 1509 1057
3 157 621 1586
3 399 1177 1683
3 871 455 1442
3 1139 120 944
3 1185 744 1356
3 153 154 642
3 947 594 1045
3 1049 526 832
3 82 83 1063
3 1251 470 967
3 209 1321 1189
3 278 1104 1664
3 1208 489 1788
3 1141 686 1735
3 279 278 1664
3 931 804 758
3 446 669 1552
3 802 637 1415
3 922 417 1828
3 915 414 1729
3 968 622 1144
3 498 1222 1379
3 630 1574 1422
3 881 236 1592
3 1055 427 1357
3 872 1321 1099
3 790 404 1378
3 939 1644 1105
3 197 1281 1354
3 272 1652 1319
3 552 626 1347
3 477 795 1703
3 665 907 1780
3 782 1333 1323
3 551 791 1082
3 881 637 595
3 1293 476 1168
3 306 305 1464
3 478 1072 1492
3 350 1444 1547
3 257 258 1074
3 377 1028 1698
3 1542 657 420
3 1337 1087 1377
3 1069 81 1521
3 360 1044 1776
3 1608 567 1858
3 1004 793 1250
3 527 853 1861
3 1284 982 1863
3 836 491 1751
3 9 268 1725
3 1296 709 754
3 1257 540 1808
3 1313 196 1354
3 1509 573 1057
3 15 286 1575
3 1518 956 1822
3 321 322 1315
3 286 1225 1575
3 914 1316 1859
3 1499 508 1758
3 1688 256 1714
3 769 1366 1392
3 1233 374 1682
3 940 719 1199
3 591 415 1683
3 404 790 1613
3 482 917 1462
3 1643 394 1806
3 1371 930 1594
3 388 839 1746
3 571 1259 1464
3 585 676 943
3 1266 578 1085
3 1302 573 974
3 1341 473 364
3 938 557 935
3 887 118 1772
3 291 1042 1158
3 240 929 911
3 1130 645 1851
3 866 707 1860
3 432 968 1144
3 342 1371 1594
3 737 914 1650
3 977 835 1195
3 104 105 1086
3 1106 619 1706
3 419 552 1347
3 1072 478 1642
3 655 772 1719
3 1280 500 1672
3 869 579 1198
3 1661 536 1603
3 815 795 1757
3 643 750 960
3 857 574 1529
3 1290 249 1112
3 886 981 1403
3 1644 277 1105
3 1486 362 1544
3 625 1249 894
3 1298 533 1598
3 197 198 1281
3 727 1212 1747
3 1504 469 1790
3 1302 632 1571
3 697 986 1077
3 527 988 1224
3 378 1326 1633
3 866 260 985
3 145 679 852
3 443 964 1744
3 35 36 1381
3 1087 1181 1408
3 563 643 960
3 405 951 1755
3 596 1174 1385
3 193 194 1504
3 965 426 1710
3 1586 882 1829
3 980 416 1292
3 964 675 779
3 470 1518 1822
3 381 446 1570
3 437 1078 1221
3 734 621 1234
3 1611 927 1724
3 1436 383 1856
3 1444 486 1547
3 1021 388 1746
3 821 151 1183
3 666 1394 1715
3 1073 865 1367
3 503 1079 1016
3 532 893 1458
3 1748 677 1530
3 1394 518 1715
3 883 393 1832
3 355 1577 1335
3 520 1013 1415
3 1574 376 1422
3 1083 955 1532
3 121 122 1605
3 1268 1582 1253
3 670 599 1294
3 1376 1143 894
3 1633 631 1678
3 668 972 1357
3 955 523 1532
3 21 304 912
3 548 856 1585
3 580 1071 1823
3 490 1079 1363
3 30 794 1382
3 62 63 1662
3 94 95 1312
3 92 93 1244
3 169 170 1471
3 171 172 1171
3 721 887 1772
3 719 940 1435
3 563 1346 1734
3 1019 522 1273
3 1647 289 1853
3 775 1167 1092
3 661 1486 1544
3 238 239 1485
3 642 558 1784
3 1597 413 1009
3 114 115 1278
3 1284 388 1487
3 1225 286 1792
3 1222 567 1178
3 1429 601 1303
3 437 1091 854
3 1211 609 1827
3 843 275 1040
3 1552 884 1318
3 1236 1026 1635
3 317 318 1288
3 425 1076 891
3 1493 415 591
3 460 1094 586
3 859 575 1513
3 1550 488 908
3 859 417 1858
3 522 1019 1332
3 924 435 1215
3 1577 930 1335
3 187 188 1221
3 678 1095 1769
3 273 272 1319
3 1346 459 1734
3 1118 15 1575
3 704 1003 1380
3 898 926 1737
3 1315 322 1355
3 1205 373 1704
3 1259 535 1580
3 909 205 1514
3 216 1149 1162
3 787 633 702
3 1095 406 1769
3 683 548 1585
3 250 1329 1112
3 240 241 929
3 838 866 985
3 642 683 1585
3 1206 946 1805
3 1078 437 958
3 709 1296 1479
3 406 1095 1445
3 1497 704 1380
3 88 1 1207
3 1 89 1207
3 616 1751 1820
3 1262 629 1169
3 558 642 1585
3 161 162 1076
3 102 103 1493
3 1331 838 1388
3 1097 283 786
3 1044 748 1776
3 422 923 1390
3 951 1127 1755
3 355 1019 1265
3 545 794 1362
3 637 881 1592
3 446 381 902
3 1174 976 1385
3 533 1298 1804
3 283 282 786
3 639 790 1451
3 152 868 1183
3 473 1341 1648
3 875 1203 1750
3 523 955 1090
3 872 1260 1224
3 637 802 595
3 980 664 992
3 339 340 941
3 26 328 1287
3 289 288 1853
3 1091 365 1360
3 165 5 1697
3 2 99 1700
3 652 554 1801
3 791 287 1082
3 50 51 1546
3 175 6 1372
3 923 363 1390
3 6 176 1372
3 48 49 814
3 1463 498 1632
3 5 166 1697
3 98 2 1700
3 243 244 1490
3 581 857 1484
3 137 138 1000
3 306 1259 1580
3 1160 613 1843
3 265 28 1709
3 730 1264 1269
3 65 968 456
3 302 789 1428
3 794 556 1362
3 930 1202 1864
3 179 180 691
3 1041 439 1163
3 424 656 1158
3 1281 352 1354
3 231 892 970
3 968 432 1863
3 547 1334 1841
3 200 201 1447
3 982 968 1863
3 460 638 1182
3 1305 401 1840
3 537 980 1292
3 518 1073 1637
3 718 738 1497
3 128 129 876
3 820 1546 1810
3 1260 648 1224
3 1233 1682 1866
3 554 538 1801
3 275 843 1534
3 433 1310 1090
3 666 679 1572
3 566 1331 1388
3 201 202 1581
3 964 443 1216
3 1059 550 1300
3 1341 364 1769
3 1680 262 1051
3 819 904 1121
3 525 1294 1311
3 190 851 1421
3 950 802 1415
3 817 1550 908
3 319 320 1245
3 207 208 1556
3 762 398 1610
3 842 1235 1226
3 1692 644 1742
3 747 991 1307
3 1266 397 758
3 84 85 1512
3 1411 713 1048
3 480 373 1138
3 1119 1037 1231
3 750 597 960
3 1057 339 941
3 307 1580 1834
3 897 1033 1500
3 894 1143 1779
3 753 934 1271
3 630 1422 870
3 42 43 586
3 1580 1203 1834
3 1651 1102 862
3 904 1651 862
3 548 1036 1802
3 804 1266 758
3 860 413 1597
3 436 1262 1169
3 891 1049 832
3 435 1078 958
3 1010 1588 359
3 651 1448 1190
3 555 1081 1561
3 1143 1180 1820
3 1462 917 1826
3 1062 561 1128
3 738 512 1497
3 863 374 1381
3 525 1436 1814
3 236 237 1592
3 638 382 1182
3 1277 499 1786
3 487 948 1456
3 601 816 1516
3 417 1608 1858
3 392 1185 1356
3 156 157 1586
3 1393 310 779
3 834 67 1812
3 1448 477 1190
3 313 1004 1250
3 269 9 1232
3 552 710 1687
3 63 1590 1662
3 607 977 1137
3 1111 585 1661
3 1015 1597 1009
3 1478 885 870
3 748 1044 1489
3 1516 502 1563
3 681 589 1212
3 787 702 1018
3 1145 653 1655
3 337 1302 1541
3 301 986 1018
3 658 924 1215
3 1627 77 1548
3 1000 898 1737
3 341 24 1529
3 680 1079 1201
3 1156 1383 1612
3 140 141 1540
3 1371 1109 1202
3 1689 629 1727
3 883 184 1374
3 205 206 1514
3 11 1431 1040
3 282 281 1440
3 777 458 1473
3 1263 484 946
3 1115 775 1092
3 1073 501 1657
3 790 25 1451
3 215 216 1162
3 530 1411 1048
3 1094 460 1628
3 516 940 905
3 925 896 1785
3 921 1277 1786
3 980 537 975
3 629 1503 1727
3 482 1038 1673
3 1154 189 1421
3 15 1118 1082
3 287 15 1082
3 354 1145 1655
3 785 1054 1441
3 344 925 1785
3 287 791 1439
3 1180 616 1820
3 418 1431 1033
3 841 816 1576
3 672 909 1514
3 539 1059 1300
3 277 276 1717
3 298 297 1159
3 1268 580 1136
3 520 1358 1564
3 484 1152 1568
3 566 847 1369
3 446 17 1570
3 233 234 1130
3 17 292 1570
3 838 1331 1726
3 315 316 1519
3 303 302 1428
3 1052 532 1246
3 606 1297 1823
3 565 621 1097
3 1177 591 1683
3 1523 514 1827
3 1413 699 1065
3 815 1305 1301
3 394 987 1137
3 245 1080 1220
3 285 284 1314
3 722 701 1173
3 1800 430 1589
3 702 16 1018
3 926 510 1737
3 1095 678 1401
3 1324 610 1753
3 501 1073 1367
3 575 859 1107
3 619 213 1706
3 1399 1188 1847
3 848 1026 1375
3 922 255 1688
3 1613 790 1432
3 251 252 1513
3 75 76 750
3 219 220 1533
3 73 1404 590
3 796 906 1424
3 275 11 1040
3 999 881 595
3 906 506 1424
3 213 619 1754
3 523 1310 1325
3 375 1111 1661
3 868 152 1784
3 1601 950 1013
3 1488 606 1823
3 589 681 1555
3 1105 277 1717
3 824 1088 1458
3 581 1251 967
3 929 634 911
3 1030 501 751
3 614 686 1365
3 434 1383 926
3 834 622 1732
3 912 694 1034
3 1361 1400 1551
3 145 146 1572
3 788 1278 1387
3 440 912 1034
3 524 1053 1710
3 968 65 1483
3 1682 295 1866
3 1188 641 1847
3 560 1478 870
3 344 1095 1237
3 9 1324 1232
3 458 1494 1554
3 513 1041 1163
3 656 381 1570
3 753 890 934
3 626 552 1687
3 1264 111 1155
3 1186 996 1659
3 1002 14 1707
3 547 1413 1065
3 1023 1160 1641
3 473 1350 1252
3 1298 488 1553
3 1545 434 926
3 825 1047 1414
3 1129 845 1799
3 686 569 1735
3 1326 741 1803
3 284 1108 1314
3 698 1205 1704
3 514 1075 1827
3 1003 704 1745
3 1404 835 590
3 29 30 1382
3 1342 806 1200
3 622 968 1483
3 1341 534 1648
3 743 672 997
3 1297 580 1823
3 376 1638 1430
3 178 179 1536
3 629 928 1322
3 609 1523 1827
3 626 1558 1347
3 120 121 944
3 494 1324 1725
3 621 565 1586
3 1033 274 1500
3 179 691 1536
3 550 1059 1138
3 954 389 1607
3 375 1661 1603
3 1334 547 1065
3 866 838 1726
3 498 1492 1632
3 613 828 1843
3 380 1340 1809
3 465 1520 970
3 948 487 1722
3 430 1353 1589
3 232 1851 1538
3 1394 147 1835
3 373 480 1704
3 880 1361 1551
3 19 1338 1630
3 1036 990 1802
3 655 1426 1110
3 650 1688 1714
3 304 303 1475
3 1264 825 1269
3 892 231 1538
3 1321 872 1567
3 611 719 1365
3 1076 162 891
3 102 1493 591
3 597 750 1627
3 732 1708 1286
3 668 720 1763
3 841 876 971
3 613 1160 1708
3 284 14 1002
3 524 1512 1053
3 1511 1321 1567
3 688 883 1374
3 1080 245 1584
3 126 816 1429
3 879 1793 1813
3 1268 346 1566
3 491 1186 1659
3 1425 109 1103
3 37 38 1129
3 1228 426 1758
3 676 471 941
3 1460 697 1077
3 846 1601 1013
3 780 1069 1521
3 80 1069 1465
3 896 889 1442
3 640 396 1336
3 85 86 1053
3 466 948 1752
3 977 1195 1734
3 1383 510 926
3 246 907 1584
3 501 1030 1657
3 676 27 943
3 691 685 1536
3 1512 85 1053
3 1331 669 1726
3 898 1545 926
3 422 868 1845
3 512 589 1524
3 1677 324 1328
3 1565 678 1201
3 292 291 1158
3 583 827 1327
3 1053 965 1710
3 162 163 891
3 101 102 591
3 33 34 1595
3 1185 996 1186
3 1431 11 1033
3 889 369 1442
3 362 1486 347
3 502 1386 1563
3 1507 536 1661
3 1433 509 1511
3 867 160 1419
3 934 463 1271
3 449 1677 1328
3 782 1050 1517
3 823 1474 1239
3 1536 685 1719
3 912 440 1459
3 60 61 1539
3 554 652 1756
3 1638 1027 1430
3 538 554 612
3 1296 269 1479
3 802 379 595
3 159 867 1234
3 399 1794 1646
3 1059 480 1138
3 639 1728 1432
3 380 752 1460
3 382 1350 1182
3 986 787 1018
3 636 554 600
3 1399 606 1188
3 968 982 456
3 1577 864 1481
3 398 792 1604
3 453 1468 1435
3 76 77 1627
3 1431 742 1040
3 1468 719 1435
3 1350 460 1182
3 1438 800 1525
3 559 1599 1701
3 868 558 1845
3 413 1457 1009
3 514 1400 1361
3 986 697 973
3 641 1287 1847
3 109 1425 1852
3 1115 1092 1248
3 116 117 1696
3 700 1511 1567
3 680 1201 1743
3 1036 565 786
3 198 199 1167
3 847 884 1369
3 527 1224 1291
3 1003 1490 1380
3 772 1536 1719
3 952 529 1403
3 1275 879 1813
3 768 579 1712
3 692 526 1626
3 181 1035 1639
3 67 834 1732
3 318 319 991
3 825 1352 1620
3 341 1529 1455
3 976 842 1226
3 1020 892 1538
3 136 137 1528
3 1035 182 1832
3 497 398 1604
3 395 1091 1360
3 1340 380 1460
3 827 1184 1327
3 1331 566 1369
3 261 262 1680
3 244 245 1220
3 1485 239 911
3 471 1111 1410
3 363 1181 1390
3 838 985 1680
3 115 116 1387
3 688 924 1664
3 412 1000 1737
3 129 130 1197
3 657 938 420
3 1316 366 1859
3 1118 551 1082
3 1204 410 1292
3 535 1259 1412
3 717 1680 1051
3 349 1342 1200
3 124 125 1114
3 1470 979 1864
3 1340 299 1679
3 1195 563 1734
3 923 422 1845
3 189 1154 1543
3 853 1289 1861
3 230 231 970
3 560 875 1750
3 1394 666 1781
3 406 1338 1782
3 492 768 1712
3 1697 457 1437
3 957 1700 1176
3 1494 684 1554
3 1555 497 1604
3 11 274 1033
3 633 877 702
3 883 688 1104
3 825 1264 1155
3 33 1595 1192
3 789 698 1704
3 720 668 1357
3 1063 83 1833
3 256 257 1714
3 8 277 1644
3 517 928 1375
3 1140 673 1654
3 644 577 1742
3 217 218 1205
3 82 1063 1521
3 136 1528 1831
3 727 1748 1530
3 309 308 1744
3 845 594 1799
3 67 68 1812
3 307 306 1580
3 1599 739 1701
3 403 1129 1799
3 558 923 1845
3 1366 522 1332
3 117 887 1696
3 589 512 1212
3 21 912 1459
3 1114 125 1531
3 588 1514 1600
3 379 802 1766
3 64 65 456
3 111 112 1155
3 1422 560 870
3 1197 130 826
3 169 1471 1695
3 336 337 1541
3 346 1268 1136
3 1312 95 1496
3 928 517 1322
3 493 855 1384
3 280 279 1012
3 1444 574 1862
3 427 720 1357
3 1171 172 1777
3 92 1244 1686
3 1269 825 1620
3 154 155 1771
3 480 789 1704
3 208 209 1189
3 1087 625 1377
3 534 1341 1782
3 661 1544 1070
3 483 1050 1614
3 1044 385 1489
3 1281 198 1167
3 445 1141 1115
3 220 221 1699
3 186 187 1368
3 712 1627 1548
3 223 224 1629
3 745 1118 1575
3 1358 520 1415
3 1005 1152 1409
3 353 1293 1168
3 1141 775 1115
3 884 833 1318
3 715 834 1812
3 1335 930 1864
3 892 465 970
3 232 233 1851
3 810 1413 1527
3 1028 1131 1698
3 1289 797 1861
3 20 313 1250
3 1294 525 1397
3 1047 825 1155
3 939 1493 1535
3 1076 576 1419
3 17 446 1060
3 245 246 1584
3 877 290 702
3 151 152 1183
3 1544 699 1070
3 675 1393 779
3 1032 952 1022
3 1476 40 1791
3 995 429 1759
3 352 1141 1735
3 429 995 1157
3 1025 380 1809
3 147 148 1835
3 954 635 1775
3 1193 555 1279
3 439 1069 1238
3 677 347 1530
3 184 185 1374
3 1207 873 1670
3 488 890 908
3 12 289 1718
3 538 925 1801
3 585 1507 1661
3 189 190 1421
3 802 950 1766
3 720 427 1738
3 648 1260 1754
3 728 839 1196
3 1599 559 1789
3 839 608 1196
3 1229 1804 1741
3 775 1281 1167
3 213 214 1706
3 876 442 971
3 708 1372 1243
3 500 1346 1672
3 1149 793 1162
3 566 978 391
3 1001 846 1729
3 1178 633 1379
3 1152 538 612
3 109 110 1103
3 123 124 1055
3 1352 825 1414
3 69 70 1759
3 335 336 1694
3 752 697 1460
3 1454 641 1488
3 408 691 1639
3 3 126 1429
3 1478 560 1750
3 1413 810 1054
3 1631 506 1740
3 144 145 852
3 1341 406 1782
3 560 1422 1857
3 1069 439 1465
3 799 1631 1740
3 1214 1643 1806
3 1486 661 1126
3 443 1164 1658
3 212 213 1754
3 398 497 1610
3 672 989 997
3 388 1170 1487
3 1047 756 1414
3 1058 714 1093
3 161 1076 1419
3 1493 103 1535
3 1325 969 1395
3 892 533 1817
3 811 1364 1339
3 930 1371 1202
3 749 351 1849
3 918 811 1339
3 788 640 1336
3 1577 1481 1594
3 221 1364 1699
3 952 367 1022
3 1512 724 1833
3 515 1557 1011
3 428 1631 1752
3 70 995 1759
3 1457 605 1009
3 694 1475 1691
3 793 1006 1250
3 577 644 1270
3 340 676 941
3 824 1450 1088
3 1050 933 1614
3 260 261 985
3 1259 571 1412
3 481 1468 1213
3 249 250 1112
3 918 223 1629
3 927 946 1617
3 1130 234 1495
3 526 901 832
3 373 1533 1138
3 691 180 1639
3 884 1331 1369
3 1000 138 1818
3 639 1446 1728
3 625 894 1779
3 890 885 908
3 960 597 1672
3 576 867 1419
3 108 109 1852
3 449 1668 1762
3 1222 1178 1379
3 867 734 1234
3 1393 675 1526
3 824 1402 1798
3 1475 1043 1691
3 1522 439 1838
3 1132 407 1427
3 699 1544 1125
3 1153 1087 1408
3 924 658 1012
3 831 749 1767
3 1147 604 1856
3 737 785 1739
3 690 1640 505
3 680 1193 1279
3 1411 59 1166
3 898 1000 1818
3 561 1062 1824
3 397 1017 1797
3 1402 400 1798
3 822 673 1135
3 403 947 1667
3 297 296 1045
3 465 892 1817
3 1450 733 1088
3 1595 1191 1192
3 1413 547 1527
3 1334 973 1841
3 54 55 1606
3 84 1512 1833
3 1441 810 1825
3 1642 677 1748
3 44 45 1230
3 810 871 1825
3 714 1058 1549
3 427 1055 1114
3 414 1001 1729
3 272 10 1491
3 1229 533 1804
3 72 73 590
3 619 648 1754
3 436 720 1738
3 565 1097 786
3 905 940 1199
3 627 399 1683
3 901 425 832
3 523 1325 1395
3 718 1497 1380
3 867 576 1002
3 1510 349 1452
3 938 438 1813
3 396 640 1477
3 1035 408 1639
3 722 785 1441
3 603 1165 1133
3 1625 689 1345
3 128 876 1576
3 428 1510 1452
3 582 1692 1742
3 1029 1359 1299
3 515 1011 1349
3 880 1583 1075
3 60 1539 1166
3 1398 981 1303
3 1486 681 347
3 1383 1223 1612
3 811 918 1629
3 1274 379 1271
3 308 1164 1744
3 589 351 1524
3 818 561 1824
3 1453 516 1299
3 835 1404 1195
3 1540 402 1685
3 1503 629 1322
3 393 1035 1832
3 1640 804 505
3 383 1147 1856
3 724 1063 1833
3 1080 718 1220
3 1165 658 1133
3 618 1476 1791
3 269 1232 1479
3 1591 519 1849
3 886 3 1303
3 857 1529 1484
3 494 577 1270
3 392 1542 420
3 917 663 1826
3 1453 969 1325
3 1062 921 1824
3 978 545 1362
3 469 1504 1089
3 147 1394 1781
3 1000 412 1528
3 407 1642 1748
3 1504 194 1089
3 604 1147 1762
3 225 226 1434
3 1147 323 1677
3 1058 353 1549
3 266 8 1651
3 203 204 1623
3 1097 734 1707
3 1344 368 1560
3 296 18 1667
3 1520 822 1135
3 1050 782 1257
3 1142 896 1442
3 713 1411 1166
3 749 519 1767
3 1751 682 1820
3 990 1036 1440
3 662 1038 1865
3 22 723 1730
3 1287 328 1847
3 816 601 1429
3 1656 624 1826
3 112 1047 1155
3 329 1399 1847
3 947 296 1667
3 415 627 1683
3 1063 780 1521
3 1804 568 1741
3 361 743 997
3 290 16 702
3 1402 824 1458
3 860 1597 1150
3 364 678 1769
3 876 841 1576
3 137 1000 1528
3 1539 713 1166
3 888 961 1561
3 1400 333 1551
3 671 917 1830
3 865 1407 1367
3 522 1061 1273
3 921 818 1824
3 818 921 1786
3 1466 796 1621
3 1425 730 1602
3 1017 704 1671
3 1263 725 1409
3 385 577 1489
3 792 1591 1849
3 1502 403 1667
3 651 1190 1816
3 774 1669 1815
3 65 66 1483
3 917 482 1830
3 730 1425 1103
3 594 947 1799
3 783 540 1526
3 323 324 1677
3 345 893 1705
3 876 129 1197
3 1470 139 1416
3 1229 465 1817
3 1017 945 1745
3 699 1413 1844
3 921 1062 1814
3 442 876 1197
3 409 1466 1621
3 763 1276 1588
3 1407 501 1367
3 231 232 1538
3 828 419 1843
3 1276 357 1588
3 675 783 1526
3 661 1557 1126
3 1179 649 1746
3 448 1282 992
3 362 1423 1125
3 710 1619 1593
3 906 728 1196
3 723 441 1730
3 927 1263 946
3 338 339 1515
3 1038 482 1462
3 939 1086 1644
3 719 611 1199
3 1851 1020 1538
3 1468 453 1213
3 951 448 1842
3 1467 695 1796
3 890 488 934
3 1557 497 1126
3 1062 660 1397
3 431 903 1286
3 402 1467 1796
3 611 651 1199
3 1170 387 1487
3 533 1229 1817
3 354 1655 1518
3 1147 383 1355
3 974 573 462
3 444 436 1738
3 1488 641 1188
3 79 80 1465
3 1381 858 1711
3 1514 206 1600
3 979 1470 1416
3 1308 487 1456
3 1180 395 1360
3 1443 483 1614
3 140 1540 1416
3 704 1017 1745
3 407 1748 1427
3 760 1463 1632
3 1086 1102 1644
3 1423 949 1125
3 900 1025 1809
3 1247 695 1467
3 853 1014 1289
3 439 1238 1838
3 425 901 1314
3 385 1044 1811
3 389 1174 1795
3 1494 378 1678
3 1050 483 1517
3 1044 360 1602
3 1417 671 1830
3 750 76 1627
3 1006 20 1250
3 831 1017 1671
3 872 988 1567
3 263 1317 1051
3 271 270 1838
3 257 1074 1714
3 778 915 1100
3 497 1555 1126
3 451 1443 1614
3 1202 467 1864
3 31 32 1674
3 66 67 1732
3 424 922 1645
3 664 1098 1842
3 790 639 1432
3 723 405 1755
3 682 1337 1377
3 482 1417 1830
3 1423 362 1024
3 543 1132 1427
3 1122 655 1719
3 497 1557 1610
3 426 1117 1710
3 1554 684 1525
3 360 1425 1602
3 1386 335 1694
3 1025 900 1850
3 1540 979 1416
3 677 1642 1024
3 988 700 1567
3 534 1159 1783
3 1557 661 1011
3 880 1075 1361
3 723 22 1834
3 511 1070 1844
3 346 1297 1345
3 324 325 1328
3 210 211 1099
3 783 1007 1736
3 978 1362 391
3 627 415 1717
3 1374 185 1501
3 666 1715 1472
3 1353 617 1549
3 807 783 1736
3 441 723 1755
3 573 1509 462
3 1715 766 1472
3 3 886 1531
3 649 1021 1746
3 1528 1071 1831
3 504 447 1216
3 661 1070 1011
3 1616 69 1759
3 468 1541 1571
3 875 560 1857
3 673 822 1654
3 367 1509 1663
3 947 403 1799
3 1017 831 1797
3 1116 1114 1531
3 962 1194 1770
3 22 307 1834
3 877 633 1178
3 1117 524 1710
3 1014 312 1289
3 387 1170 1684
3 1615 630 870
3 1333 527 1861
3 684 1494 1678
3 961 555 1561
3 383 1311 1315
3 1025 344 1785
3 262 263 1051
3 730 1269 1811
3 296 947 1045
3 344 1025 1850
3 149 150 1391
3 1211 1197 826
3 343 1064 1693
3 1529 24 1484
3 617 1353 1406
3 1523 609 1566
3 255 256 1688
3 1311 740 1315
3 978 566 1388
3 531 1352 1414
3 1490 244 1220
3 956 1363 1822
3 294 293 1318
3 156 1586 1829
3 374 1502 1682
3 1353 430 1406
3 587 1643 1593
3 486 1444 1862
3 1064 617 1693
3 584 1066 421
3 681 1212 1530
3 1542 392 1356
3 1352 582 1620
3 561 1010 359
3 633 1037 1379
3 481 1656 1480
3 1061 496 615
3 1557 515 1610
3 685 1122 1719
3 532 1172 1705
3 453 1542 1356
3 1582 1268 1566
3 864 1061 615
3 893 532 1705
3 706 97 1764
3 443 1658 1728
3 1656 705 1480
3 1098 1127 1842
3 1007 860 1150
3 476 1474 1168
3 56 57 1482
3 46 47 984
3 221 222 1339
3 196 197 1354
3 673 228 1135
3 1434 226 1420
3 1066 861 421
3 16 301 1018
3 1474 823 1168
3 604 1436 1856
3 35 1381 1711
3 301 300 1077
3 1093 1039 421
3 472 1739 1173
3 134 135 1716
3 904 862 1121
3 239 240 911
3 59 60 1166
3 861 1093 421
3 52 53 1720
3 697 752 1841
3 767 1145 1761
3 1148 479 1343
3 1046 174 1634
3 1509 367 462
3 1539 1208 1788
3 1643 1214 1593
3 131 132 729
3 167 1370 1765
3 701 454 1173
3 684 1678 1819
3 1278 115 1387
3 385 1269 1620
3 1565 652 1401
3 556 805 391
3 473 1252 1743
3 981 886 1303
3 405 875 1846
3 647 974 462
3 1481 864 615
3 541 1418 1810
3 1529 574 1455
3 125 3 1531
3 487 1510 1722
3 929 241 1660
3 1657 1030 1793
3 1728 384 1432
3 938 935 420
3 1054 511 1844
3 1595 34 1711
3 241 242 1660
3 191 192 1731
3 228 229 1135
3 97 98 1764
3 166 167 1765
3 308 22 1730
3 408 1035 1718
3 1070 511 1011
3 718 1490 1220
3 1450 585 943
3 339 1057 1515
3 371 803 1807
3 1063 724 1491
3 89 90 1469
3 919 1481 615
3 974 647 1505
3 799 1461 1144
3 370 1447 1146
3 752 547 1841
3 901 1225 1792
3 174 175 1634
3 90 1499 1469
3 479 1146 1343
3 493 1229 1741
3 994 468 1571
3 1674 32 1192
3 593 1690 1100
3 1190 1029 1816
3 1030 557 1793
3 833 294 1318
3 634 929 1175
3 957 706 1764
3 1172 345 1705
3 929 945 1175
3 1134 1617 1837
3 1364 221 1339
3 1438 430 1800
3 471 1057 941
3 535 1478 1750
3 987 607 1137
3 1613 384 1098
3 624 1462 1826
3 1064 343 1301
3 229 1520 1135
3 1011 511 1349
3 1418 1344 1810
3 286 285 1792
3 1642 478 1024
3 274 273 1500
3 1151 693 1217
3 843 627 1534
3 77 78 1548
3 1037 498 1379
3 524 1117 1319
3 855 493 1741
3 520 1564 1640
3 741 1666 1773
3 695 1332 1796
3 1127 951 1842
3 577 385 1742
3 767 1761 1760
3 168 169 1695
3 328 329 1847
3 95 96 1496
3 568 855 1741
3 276 275 1534
3 1328 667 1848
3 1122 685 1853
3 288 287 1439
3 1254 481 1213
3 333 334 1551
3 14 283 1707
3 1332 1019 1796
3 1370 457 1765
3 363 1028 1408
3 139 140 1416
3 664 1613 1098
3 295 294 1866
3 833 1233 1866
3 118 119 1772
3 234 235 1495
3 1219 919 1854
3 874 1169 1689
3 744 1254 1213
3 293 17 1060
3 146 147 1781
3 1164 441 1658
3 886 1116 1531
3 731 1392 1867
3 496 1359 1854
3 1308 429 1157
3 1588 953 359
3 708 1046 1634
3 449 1328 1848
3 1587 377 1698
3 1633 343 1693
3 945 929 1660
3 1392 1366 1867
3 534 920 1648
3 1630 900 1679
3 738 543 1747
3 172 173 1777
3 346 1523 1566
3 247 248 1780
3 1490 718 1380
3 580 1297 1136
3 1096 942 910
3 983 709 1753
3 91 92 1686
3 1297 687 1345
3 758 397 1797
3 1061 864 1273
3 515 1349 1653
3 152 153 1784
3 990 1587 1698
3 1169 629 1689
3 1690 461 1100
3 754 709 1309
3 409 1621 1306
3 741 1773 1803
3 632 974 1505
3 1485 911 1675
3 1508 628 1839
3 1028 1153 1408
3 4 1545 1818
3 1181 363 1408
3 856 558 1585
3 631 1633 1693
3 989 423 997
3 194 195 1089
3 158 159 1234
3 1499 873 1469
3 349 1510 1770
3 831 1767 1797
3 800 1438 1800
3 709 1232 1753
3 453 1356 1213
3 366 1316 1807
3 1181 1101 1390
3 40 41 1791
3 1189 1321 1511
3 858 1595 1711
3 214 215 1579
3 429 1308 1456
3 1356 744 1213
3 1447 878 1146
3 588 1556 1774
3 1590 387 1662
3 534 1782 1295
3 1767 931 1797
3 215 1162 1579
3 103 104 1535
3 160 161 1419
3 803 366 1807
3 1027 1649 1282
3 1054 810 1441
3 437 854 958
3 1782 1338 1295
3 1541 1302 1571
3 1556 509 1774
3 226 227 1420
3 1057 573 1515
3 364 473 1743
3 1287 641 1733
3 188 189 1543
3 1349 737 1653
3 400 1507 1798
3 931 758 1797
3 920 534 1783
3 1104 688 1664
3 253 254 1828
3 155 156 1829
3 1510 428 1722
3 319 1245 991
3 206 207 1600
3 138 4 1818
3 211 1260 1099
3 1761 703 1760
3 180 181 1639
3 185 186 1501
3 924 1012 1664
3 132 1582 729
3 182 183 1832
3 578 1485 1675
3 83 84 1833
3 791 1122 1439
3 1716 135 1831
3 1544 362 1125
3 32 33 1192
3 135 136 1831
3 1145 354 1761
3 1117 897 1500
3 652 1237 1401
3 127 128 1576
3 1055 124 1114
3 1159 936 1783
3 998 1517 1569
3 130 131 826
3 131 729 826
3 294 833 1866
3 901 1792 1314
3 1184 983 1836
3 134 1716 1253
3 555 1016 1279
3 813 572 1537
3 666 1572 1781
3 1297 346 1136
3 706 957 1646
3 519 749 1849
3 1522 513 1163
3 34 35 1711
3 762 1276 1775
3 1164 308 1730
3 81 82 1521
3 1275 518 1637
3 652 1565 1756
3 985 261 1680
3 450 1389 1508
3 1389 549 1508
3 601 994 1398
3 1533 220 1699
3 1503 409 1727
3 1023 1283 1477
3 1275 766 1715
3 1622 799 1144
3 879 1275 1637
3 1151 732 1286
3 518 1275 1715
3 457 1370 1626
3 1678 631 1819
3 133 134 1253
3 1649 416 1282
3 298 1159 1295
3 1238 271 1838
3 1565 490 1756
3 705 1787 1351
3 808 1180 1360
3 416 1204 1292
3 1056 486 1862
3 1283 396 1477
3 1046 708 1110
3 1364 550 1699
3 1747 543 1427
3 441 1164 1730
3 840 1096 910
3 412 1454 1488
3 1224 648 1291
3 983 610 1836
3 582 1352 1821
3 439 1522 1163
3 873 1499 1758
3 1305 1064 1301
3 385 1620 1742
3 620 920 1783
3 885 1615 870
3 450 1508 1839
3 1591 674 1396
3 1568 1152 612
3 1656 481 1254
3 878 1581 544
3 1036 786 1440
3 1210 584 1721
3 732 1151 1217
3 796 1424 1272
3 1029 1299 1816
3 1545 898 1818
3 624 1656 1254
3 443 1446 1216
3 1736 1007 1150
3 504 1446 1373
3 1269 385 1811
3 432 1778 1863
3 1492 1072 1632
3 1792 285 1314
3 1778 1284 1863
3 384 1613 1432
3 1534 627 1717
3 1270 644 1596
3 550 1533 1699
3 837 628 1508
3 369 871 1442
3 584 1210 544
3 233 1130 1851
3 1721 1039 844
3 429 1616 1759
3 506 1256 1424
3 1454 412 1737
3 18 1502 1667
3 478 1423 1024
3 1533 550 1138
3 1577 355 1265
3 899 1689 1727
3 1164 443 1744
3 1617 602 1837
3 509 1433 1774
3 353 1353 1549
3 510 1454 1737
3 1631 428 1256
3 905 651 1816
3 475 1666 1219
3 844 1039 1840
3 517 1236 1702
3 608 1778 1461
3 1573 583 1327
3 1256 812 1424
3 1438 684 1819
3 1410 623 1663
3 951 405 1846
3 1583 442 1075
3 993 951 1846
3 222 918 1339
3 542 1385 1226
3 1385 976 1226
3 1433 521 1774
3 1666 741 1219
3 1804 1298 1553
3 1159 534 1295
3 1424 812 1272
3 104 1086 1535
3 384 1658 1676
3 1446 639 1373
3 994 632 1398
3 609 1582 1566
3 919 1219 1255
3 823 1800 1589
3 624 1254 1865
3 709 983 1309
3 976 1174 1537
3 713 1539 1788
3 1236 649 1702
3 610 1270 1596
3 864 1577 1265
3 857 1056 1862
3 979 1540 1685
3 1352 531 1821
3 1607 674 1227
3 1573 942 1240
3 1117 1500 1319
3 1219 741 1255
3 568 1804 1553
3 1179 452 1702
3 735 1573 1327
3 1446 443 1728
3 577 494 1489
3 1260 872 1099
3 1348 507 1323
3 1581 1161 544
3 1389 796 1272
3 1134 1724 1617
3 610 983 1753
3 356 1736 1150
3 1439 1122 1853
3 746 1115 1248
3 1755 1127 1676
3 1081 888 1561
3 1703 1029 1190
3 1283 1023 1641
3 394 1636 1806
3 1582 609 729
3 1633 1326 1803
3 1209 1214 1806
3 419 1283 1641
3 1038 1462 1865
3 1740 608 1461
3 442 1583 971
3 343 1773 1301
3 343 1633 1803
3 1665 998 1569
3 1403 981 1505
3 1108 425 1314
3 415 1105 1717
3 428 1452 1256
3 1500 273 1319
3 1299 516 1816
3 1550 568 1553
3 488 1550 1553
3 506 1631 1256
3 276 1534 1717
3 1031 1209 1806
3 1332 695 1867
3 1636 1031 1806
3 1366 1332 1867
3 379 1766 1271
3 1232 1324 1753
3 784 1210 1721
3 1729 846 1498
3 1098 384 1676
3 1620 582 1742
3 1481 919 1255
3 549 1389 1272
3 1597 356 1150
3 509 1189 1511
3 1088 733 1246
3 342 1481 1255
3 3 1429 1303
3 722 1441 1825
3 383 1315 1355
3 871 369 1825
3 678 1565 1401
3 1583 502 971
3 1698 1131 1802
3 1210 878 544
3 441 1755 1676
3 922 1688 1645
3 1653 737 1650
3 1070 699 1844
3 874 1609 1763
3 1174 596 1795
3 915 1729 1498
3 519 1591 1396
3 153 642 1784
3 485 1713 1723
3 674 1591 1227
3 1766 753 1271
3 1377 625 1779
3 1787 569 1351
3 1658 384 1728
3 288 1439 1853
3 685 1647 1853
3 632 994 1571
3 1316 372 1807
3 1221 188 1543
3 1212 727 1530
3 1652 524 1319
3 795 1669 1757
3 1086 939 1535
3 347 681 1530
3 477 1703 1190
3 549 837 1508
3 1697 166 1765
3 98 1700 1764
3 647 1403 1505
3 1247 731 1867
3 446 1552 1060
3 600 554 1756
3 695 1247 1867
3 1362 556 391
3 682 1377 1779
3 490 600 1756
3 357 1653 1650
3 1207 89 1469
3 1481 342 1594
3 990 1698 1802
3 796 1389 1621
3 175 1372 1634
3 454 472 1173
3 283 1097 1707
3 1012 279 1664
3 1657 879 1637
3 1721 584 421
3 930 1577 1594
3 1461 432 1144
3 1454 510 1733
3 1073 1657 1637
3 583 1573 1240
3 1452 812 1256
3 829 1133 1215
3 503 963 1822
3 1732 622 1483
3 66 1732 1483
3 935 392 420
3 1669 401 1757
3 451 1614 1789
3 1694 468 1563
3 1395 769 1532
3 1517 483 1569
3 394 1137 1618
3 963 470 1822
3 1446 504 1216
3 207 1556 1600
3 879 1657 1793
3 1666 815 1773
3 1137 977 1618
3 786 282 1440
3 981 1398 1505
3 797 1348 1323
3 687 1625 1345
3 684 1438 1525
3 1363 503 1822
3 1480 705 1351
3 532 1088 1246
3 1556 588 1600
3 1283 419 1347
3 1232 709 1479
3 878 1210 1343
3 1386 1694 1563
3 641 1454 1733
3 1636 394 1618
3 973 697 1841
3 1713 1015 1723
3 430 1438 1819
3 1210 784 1343
3 1614 933 1789
3 992 664 1842
3 1133 658 1215
3 1413 1054 1844
3 900 1445 1850
3 567 1107 1858
3 781 1373 1451
3 1237 1095 1401
3 1353 353 1589
3 1773 343 1803
3 1692 358 1330
3 615 496 1854
3 1373 639 1451
3 355 1335 1685
3 459 1636 1618
3 1335 979 1685
3 457 1697 1765
3 1700 957 1764
3 919 615 1854
3 784 1148 1343
3 1147 1677 1762
3 537 1668 1848
3 644 1692 1330
3 1572 146 1781
3 1092 479 1248
3 1787 705 1790
3 823 1239 1800
3 469 1787 1790
3 1658 441 1676
3 1748 727 1427
3 920 659 1648
3 1449 766 1855
3 1372 708 1634
3 873 1207 1469
3 428 1752 1722
3 1239 800 1800
3 1771 155 1829
3 1146 878 1343
3 1668 449 1848
3 1724 927 1617
3 1679 900 1809
3 1677 449 1762
3 536 1635 1603
3 1273 864 1265
3 516 905 1816
3 1039 1721 421
3 1127 1098 1676
3 1398 632 1505
3 774 1815 1578
3 353 1168 1589
3 1815 746 1578
3 651 905 1199
3 1472 766 1449
3 186 1368 1501
3 1596 735 1836
3 784 1721 844
3 1107 859 1858
3 214 1579 1706
3 1693 617 1406
3 1330 735 1596
3 1811 1044 1602
3 644 1330 1596
3 559 1701 1239
3 631 1693 1406
3 1727 409 1306
3 1778 432 1461
3 401 844 1840
3 979 1335 1864
3 1083 1449 1855
3 911 634 1675
3 899 1727 1306
3 1701 800 1239
3 882 1771 1829
3 1836 735 1327
3 1184 1836 1327
3 1340 1679 1809
3 1085 578 1675
3 610 1596 1836
3 809 1665 1569
3 1168 823 1589
3 1752 948 1722
3 1368 755 1501
3 1635 1026 1603
3 411 1472 1449
3 1821 531 1749
3 606 1488 1188
3 448 992 1842
3 1618 977 1734
3 1688 650 1645
3 1062 1397 1814
3 1579 1106 1706
3 1462 624 1865
3 1019 1273 1265
3 1075 514 1361
3 959 1821 1749
3 622 1622 1144
3 649 1179 1702
3 799 1740 1461
3 459 1618 1734
3 479 1148 1578
3 523 1395 1532
3 1397 525 1814
3 1248 479 1578
3 1134 1837 1307
3 730 1811 1602
3 614 1480 1351
3 1773 815 1301
3 1846 875 1857
3 634 1085 1675
3 1160 1843 1641
3 727 1747 1427
3 1837 747 1307
3 430 1819 1406
3 993 1846 1857
3 1819 631 1406
3 1148 774 1578
3 1820 682 1779
3 746 1248 1578
3 1843 419 1641
3 1143 1820 1779
CELL_DATA 3402
SCALARS Von_Mises float 1
LOOKUP_TABLE default
80779099.18664272 76764919.19434687 165620933.54304624 65744140.19903446 65482781.05050204 40889730.94657026 86407192.07909754 79191893.7010592 70749126.00711212 65050640.69091559 59943579.27486022 185872267.64302894 8100867.423837696 76464534.46508282 85301001.19856879 124387388.79571688 87523710.73278339 65680167.61340454 64204911.489355735 79532270.42376876 45300229.050174356 63284544.3275492 86466922.05869177 74308215.40051553 67283834.08715746 103717259.36286554 67375848.50266743 164118540.803902 72829056.168174 65411628.15309435 64312348.911601424 33300752.7197184 33226319.77137971 121549493.97997585 64111561.32527954 63555535.807970464 66950152.27255887 52552330.56000764 65654283.19148877 43026400.42337287 74803206.1326122 62989585.39367095 81884527.26630335 44882108.58964626 44406080.51886862 64864483.087725356 82912000.21729763 70065097.74369419 24216239.5676938 18013718.368380066 66385565.76425304 72209497.91482404 82820724.200055 75594682.81320132 87792246.80910146 28837579.574946325 29151536.727675993 101976318.57602471 74638229.86964129 59707635.82379423 21854474.038054448 37721196.333670564 8685191.564527234 59404798.17374422 76725802.22929426 74517062.27389626 247544814.7037908 125154443.76850188 4248184.520273927 53410789.97500957 51886993.67791365 71814057.40146722 57933407.4782666 60532955.13070525 23202509.762926966 21546946.568104625 78297407.59932415 60420812.91945238 66382051.989136115 1007381.050829481 93554538.07483318 91261995.33687894 41448680.54693734 71218891.26381022 28788710.627605148 79175514.68633622 65114885.312783174 161909644.4050928 30506589.000449102 91638169.32666658 58113514.67404366 50560282.80749775 34050049.89971093 64687890.22701972 82183799.91177028 44610114.08646466 39631058.91913654 63640680.09604765 64765430.55699378 41097835.676198445 40711569.0072635 71095921.04789682 63843984.107951425 54174276.99615341 39496224.91031744 76486612.42299217 47378520.813600115 168502414.9120035 78352992.75112578 28400984.17394765 58839201.648435146 64827870.5287176 157658812.33900654 75672566.00168884 68711123.04542159 59416141.26066646 3594558.615732307 99573388.01057537 75458717.6741593 50103076.15860039 66301773.27593608 91795510.01256889 30928103.400093365 31187748.924069107 64104094.396503896 46626721.382511444 63654468.18059954 56517308.77182204 70164735.04157501 64325959.34635038 63376917.83914189 67365274.00086263 24450140.267859995 50382064.27299997 72632470.9996 25562818.34911724 77832754.85339238 49527448.711657114 80741071.33771849 77621110.27733873 58417617.781431206 176708028.758463 27928509.582707442 67758595.86852919 51271476.17548935 86944105.16568865 67353848.38838315 99762897.24457441 48946298.9597023 77668268.08183993 99105447.08617759 44433412.01429722 52352283.14513922 34098858.63518861 75120623.30160289 69128804.7798863 23600792.788902093 19737979.144920673 88050036.39299682 55417439.13394373 100069608.15668055 31418951.842273623 30243355.023726426 97210974.00742266 39092747.674444534 29987666.38748623 23236250.708359186 91685009.1949154 28311773.45407907 23759263.223248333 49467980.20103205 63259815.9473359 31148692.50400529 49341693.30832421 66222119.45536541 66450673.256563425 9791069.247308245 40405209.97734752 77006893.34089649 78060262.28069514 165496047.66172484 94943970.08732359 49146513.83294771 88225933.83690833 24813527.134816352 7872052.651408099 67475825.29918084 47125330.84689805 67049752.35210972 52634761.1342131 79518742.2845425 32067880.592523754 78660139.46444763 52902807.503400855 68858071.17918706 51997144.788401365 65751773.076453656 20242691.380356207 45505459.507068425 61317111.94571881 71756316.40374565 75208979.59919064 67215878.98230116 78538974.44838795 100158211.86669645 55967463.114802204 60280023.257946126 63750043.42088109 66519077.80849039 40970226.8598989 119988617.11814633 73826444.3139449 39540481.55562671 50968182.69994532 58647603.22386508 66745084.73039853 69183143.8645126 100553527.5851026 53175238.80563355 37844423.21626653 90850853.67547005 48104219.259114556 53350152.09415498 23192333.64358636 19475287.28253902 46695274.43878735 74315835.7102066 65350538.70560511 30694336.492679503 57988809.15770253 71377626.12310815 71571491.1656284 73432658.40355085 23024872.76129586 67676768.6989508 56777834.67453651 57870733.57342828 67264545.96373278 30726185.295835547 95080356.95241664 103100943.78301553 65683850.42282976 39781105.980474606 34210205.545948215 54125759.8981064 76370711.96768422 66225375.947202265 64343241.97224208 37331859.896634266 20058299.222578567 20100272.70815599 21077534.640214838 17418213.030029193 17005115.492240954 6115896.105708716 17099538.63837109 17145242.74374607 69063841.13864295 150095502.76178578 33260227.45038701 10596489.321854385 15704061.71474011 63189472.29329467 98356882.74247852 62766155.3557307 61791560.91348051 20179039.691409655 40011924.08087252 67911237.96764238 54191532.039859764 59319413.63419635 51468028.27571863 65080303.95251293 85180567.94678605 72154727.84081186 61379309.93185824 85366100.4910488 10146291.075511802 77699292.63758634 77645784.77205525 65407823.1394509 69833157.36395147 20294729.922278058 23230169.152781107 63785958.09711636 63764183.345800474 78332233.90907395 41682720.73045586 39502700.38449835 54580069.6245277 67997456.28651428 71024292.83248565 47839881.33020223 101031078.11090884 42124015.06178596 17340919.436242737 55113327.031786785 68459126.2091097 76540176.93724288 27236365.214645017 75124366.33482483 56180854.335368596 49085568.49544653 54749609.28518542 29221397.28523427 24171731.394601226 54192119.287209615 79504864.08053716 70806379.80763726 95822137.84071045 35297095.79291674 96512274.69273275 79157963.3144604 76847596.24976638 19620469.10746456 51271629.13228638 77737446.46608137 27918858.91111405 102059947.17284352 86396326.35139953 70357417.54828677 56734055.81451146 68751107.44491401 72483722.03044319 37822633.00156237 100416090.7937843 54751523.76704719 63196174.09022742 80869039.51951376 73742147.89237379 59164667.41753467 23148249.864288907 95078367.47380012 73072895.55504386 72119311.46851756 46996907.58293978 113849065.72289038 14914581.067915354 50338612.23701468 21500124.994676966 66861407.869464 70824936.7802035 75830206.6855393 61829192.440398626 56298496.212059 78542098.38348974 41469534.85455881 70824628.25735553 1620893.6813570117 61075903.57607492 63065841.52842577 70974494.37662056 54696458.10422664 71670234.70750292 66435176.02270968 52160931.02237456 61833140.067119256 43049947.064205445 136648791.59476584 31695877.099546745 14536789.842994357 36255103.04660298 74262146.39705771 18254333.800972566 57433918.00551062 57108341.24859108 12543824.68289537 66537127.62233917 36725844.97506542 45234340.484804966 48297880.2778918 34653678.947703905 101228136.41399373 71691606.27317493 73043169.20530008 62466202.64230112 66272032.21529051 68990308.5197837 72120616.91211087 30055577.476819586 59245784.167056784 48119440.130912036 24500636.14640784 68860470.65730435 194437802.3484012 63977726.64796595 132690183.93976176 31268328.628202967 66076588.98505848 36379178.53537088 11547112.938326815 63475814.54027894 166323069.76775423 60351166.60202447 33385244.00422105 35825714.30011397 42721065.80707355 72404313.82577047 60474511.459638715 16010683.331746126 39818442.27627116 73971222.59182213 61902724.800002925 77416122.32014751 58245099.945678115 16305507.564052861 74908998.43062967 47753425.48483628 51020684.476944685 37940445.7664426 109480854.45570691 67752346.19208889 51476465.35043404 64842835.171215504 26780865.507502284 72210912.46764293 71653615.6172545 27869167.478633814 10140525.731646761 70834240.80613968 25723106.582156066 80396275.49891298 77970007.5815217 17012088.581950802 67030678.26250429 76066368.84152049 36768664.47786478 61273039.59628337 21420652.67384672 84081019.9918067 87190172.9343221 93726413.19717468 72560779.06977193 70544773.24491464 64180106.48539454 90024248.6709593 9799010.628140276 34269356.04660494 77604870.73548976 36344481.04787667 65181951.801882036 24342575.95707701 24342575.95707701 71938263.91580565 18773623.122431066 68327571.35780872 7525551.027054625 88438576.87461217 18202250.396803003 50666451.569199316 34914177.83961894 54999456.19935097 128318387.37423703 67464347.97561091 59755371.57572232 74307087.64106615 67759903.00155863 46714549.029991746 48014991.58019982 65351493.30258735 76667839.2658239 47401000.06451137 62473074.555675976 12353891.248826208 85841959.7220194 14950651.032269731 40050396.87057448 12119049.438661516 982368.9191964306 81987522.48084927 58846526.32399393 44605270.771294646 15407807.816101706 69876648.90479718 84406324.71469319 60832091.42661722 37493017.75231257 7261912.438959938 44790770.841976896 37266390.05536576 8077341.595807106 68289517.58936462 65167968.18121527 73560246.30981791 85952163.36022323 36256334.2367449 63025911.930274375 43186040.2857201 1043706.1596245958 39482511.58394005 89339604.49056658 35722712.5075942 718079.8412250635 28745116.345116366 62854298.39052501 63600118.07947589 44226231.51596592 74738012.57285078 116690159.32591236 11660994.580065599 90653272.50246666 71252641.31508656 123269395.11526549 70124895.11465105 39012930.985816024 148214740.56131694 26405417.928652804 32184433.20523708 32258236.42620392 14528681.673827533 42064048.98709258 63063032.43042925 22803230.105583057 72137752.4898881 66133310.486308396 29456849.304504268 95758555.67403589 46133990.88368063 79423804.23768915 36503002.65476748 76280459.73117307 50108845.81380159 67348154.09422357 63782624.51132403 49403878.957581304 45983679.82630666 71304323.65021524 75632383.54279669 3573186.455311788 23933328.940836336 30495530.216805685 85936897.96390602 8228163.026360317 13648773.547748387 51537370.735030316 4918977.307012661 85465614.1114432 66355511.15602311 6324769.549342497 32395453.012633275 65429988.78508382 71836344.74986006 63073788.4650341 57342772.2023526 35776408.84248147 71923080.7972896 62810293.19191918 14914581.067915354 49366570.451420784 68370917.31904559 52921172.939849004 73946353.80887517 29233165.65114631 80101088.66730934 72902478.76431973 35714479.618963055 9866132.459571976 139181279.70321143 82466559.66601674 17674997.66827248 67313071.43264227 53409000.43033753 85093714.00918151 30981788.288366757 95232311.28561218 74402324.02860361 3424679.924892515 68722658.24664073 60502460.96446608 77174876.43471417 48012458.42630264 48977723.11953882 72360442.32055159 39694587.04147038 55421048.88627634 4122664.9427568074 78531947.44421057 77337169.47698745 29196983.950207163 72623873.45682602 43381019.76103801 82647769.5560024 94159263.94716729 80765216.7629947 44177574.902680285 30823003.926743858 62633137.955153346 48711212.73397849 76805072.36289623 85428359.75117187 63170877.26894926 67110644.56498523 74562997.77295925 46283469.12915313 66748908.53694695 59828726.77198575 31024935.692532003 36496032.2829962 35072457.42765463 63692389.97052578 76604382.03773648 47435826.53415431 41557164.799306154 42817911.116006024 43724455.8766217 53309876.091175586 53631445.76707849 49920615.77310872 48794292.293220244 60191621.136995055 29111708.277017158 57644110.572107226 68636125.13136604 108955455.53560582 64271046.08369035 47322327.982995115 53534303.20605365 86954751.48063663 129266020.43060838 36029914.013034575 18588332.507687815 78342939.18414979 107533363.82418743 74102437.15775684 3210735.867012789 63474662.75981077 75751568.47449261 58487215.67059827 42223515.651494764 74238988.28583805 82864447.46672982 146207390.21158665 65579665.32405882 39814588.68309494 63467293.31268615 53101338.14139671 17079314.43382177 12169025.411698883 87602321.37277654 36734504.842813596 12164525.440595727 34415551.872780226 32055646.077543877 48931021.89769583 78260101.38137826 59688935.0620258 31619875.679742448 45478076.59265335 71526277.23371534 83368106.91606636 17923356.714994237 62707050.079432614 61864186.3923281 45279228.18722164 68125998.19238487 34207022.092287496 55695019.37167859 26567996.997178074 45137363.530639105 61828193.89696916 47874792.49600133 80060169.85008122 47403951.64452384 39442603.68311737 7482526.037548106 67816952.70184837 2018856.3738920002 50827548.21303578 61589603.69270298 27336919.2066193 34289823.91503409 45374181.92587507 89608293.26438192 75066036.2265921 76545981.77306989 57906147.74669211 78423439.32284488 73916898.71258336 76959531.37905492 5974776.917751518 48409515.695693605 81336526.42849933 77896604.07159314 37480891.00594186 38597445.35864811 35428416.95892358 3290694.245137476 64356499.759984 64911613.18690577 52459980.11481657 83802395.7841624 69762371.36561137 64024449.649653785 49941667.31997741 70233639.46472122 69093685.69604191 82163261.13517061 53148244.09361081 66857030.61266597 84930907.85681197 67353234.66802427 62545347.82658216 241132063.49491107 67438553.621035 62769649.95255063 71654853.15256734 118709941.63700995 24770964.557271533 68953402.65193178 70818583.63572705 60923854.86119485 104066045.65070722 50024788.012561515 63779079.668416075 39710643.336588286 44664198.61032595 12384116.017848816 119035973.49003701 72397081.72111556 55378142.6497561 89594677.23256437 51677835.17329578 46692545.19587778 75138893.85430752 63760987.406200424 137594433.68296605 87405479.69450474 47016027.89821659 70934102.78745757 91383738.88112187 36655486.347695634 9590978.647090735 83203210.51982576 61126201.79739582 57193611.36908356 34152745.39063938 84215437.97931167 59239379.46809155 37095408.92246144 64724957.61879444 39391643.42567893 40789636.27710135 55361041.14767124 69012473.61081156 64390327.41009034 67186646.34193107 12372507.553597178 65608960.06556391 63642646.69081207 97239784.00143076 26541946.441238042 8509804.077861415 80361911.51415801 68640608.80486341 67864270.11933152 110968574.31354952 36120481.403191134 64912523.81342505 59422712.80746744 23431983.43956989 47480945.0232873 70586368.46099299 49365902.53034768 75018386.48975061 87321415.01663527 64513673.02926554 54655233.64074198 74150416.48496713 98213930.9589267 65676763.263328984 13857906.71446837 46374716.064556524 1014437.9432330177 64920782.98378123 30675748.916094035 43945579.38893802 28890908.017994385 15152772.233439807 61734589.21630435 30466112.72931788 34072728.16962609 83399655.61959653 74517702.40683153 23813600.542881563 53980903.28651314 61181814.39697691 57151419.29555633 30927400.584741697 55875568.93497473 37776840.83578829 85413413.90414706 130623262.05156934 68379302.16814175 11995199.600512836 87636322.51654135 8362900.665278671 19452724.304028966 54295557.32575579 80303136.91382328 60553351.07190181 49906479.794828214 50925260.76706476 86610618.55865274 20531652.881392702 13802460.507865684 50956928.25468032 12239722.977450944 64367385.030133106 77619586.35447614 12355484.367288273 36423266.146383904 5748880.242848609 49406192.86245343 66588473.95555168 69232934.68963712 73894743.45478198 15976057.31604011 74100495.45643757 52631790.44589852 54511843.32797714 43341790.366092645 36934411.011004 33029178.308689408 65560962.487196594 50502679.15350514 43832152.03684492 54809141.511309035 75479753.9673252 59161680.9962238 74511541.19892105 82442833.42065951 58216726.19705778 2853949.9646690553 58207145.24226185 72407883.80564308 21185893.328672104 69491906.40919971 37382558.6207803 64827366.57028057 16022653.10433855 51292250.60723452 76335563.43445356 23250120.968397655 87560910.18249072 12099030.205210103 51427008.77255391 34347618.71391543 68636922.52209039 64693013.41973647 46755152.760690875 124674569.93873043 73582923.83243775 32418603.011061043 19971985.172793947 81216272.49765788 42237401.17755514 28265795.09568119 67212924.23472574 58246180.93762107 50015179.066687554 60008785.56527464 16378310.548580881 82322328.96798691 37193470.41415998 40762505.7107782 73374745.13950627 63550997.086912654 90080180.71301048 66255122.729904026 90220057.59797254 5229003.392057151 78441066.97089426 12563505.563741144 67755059.13573016 70595221.10239117 29673325.602277346 41118531.61477465 40798306.95851339 40998633.50646866 41326605.83353591 25354446.65289674 80259426.07978103 29621165.02588639 64447521.77122621 56728914.53420504 67330639.81963575 28466764.41115681 65798013.432023615 20280296.10476636 47279853.50814735 77653734.15904649 108539890.01492329 8217379.834852775 59452743.36292062 68096660.75968304 48715621.13559117 47396055.1364998 69148935.65543306 59956686.52202573 45148008.57887666 16557610.568242013 86836768.30135211 79389342.34185131 52220197.16102891 60534564.820093244 64114295.77648674 27187438.804550495 66223252.75390845 81353479.31206863 65086481.0373005 12505733.741587132 47786109.67626742 95901018.00777999 70247947.9706924 12388279.389738636 46216193.90534617 26472435.76781619 47356541.74392605 66229131.00278377 49543994.537839234 77591477.98735084 86306572.70185184 85519315.57075605 66687821.27784783 66169683.973898694 70318620.50600737 68558917.08273832 63513294.99001252 28293782.898469962 84341936.94317923 32729750.82910234 65010540.581262365 44387162.14402414 109857434.92064631 76926492.7795081 72744415.43758425 26647413.477528784 70004505.8791952 71590727.97907916 44507688.7715466 24828861.939478382 57886955.25813319 44400933.787336834 39194041.389936134 27012072.07706898 85175505.84436822 63629621.09448043 158458366.56633633 69622239.70017886 17726699.584106933 49566174.25871434 73507571.32764861 24592986.411049817 62822065.463783674 15801158.890340142 15779948.32212305 74249241.15254 54495201.62020076 31134693.694286734 67098988.53947009 76903077.18659347 72793016.18024361 65311627.68668527 64197021.438377716 66985546.764614485 84171667.61614028 51651142.6651572 46301692.60890896 8995916.830114739 31107801.754929736 65124559.36528632 52887826.34721907 65918769.38106802 27253429.26006296 27213411.03197858 13881637.256506689 46173246.09118709 77535685.02046478 74857167.2133419 50733875.380325496 33380698.13346969 95074068.70109278 41696755.501039624 41606583.552784376 49856817.18848071 81657084.11655013 84297986.29679145 82723953.46561153 78004920.03865711 35596245.41552476 90639673.71792349 50260839.59662604 63880322.28231569 30800739.488715023 5153015.712506963 66075836.053910054 28432080.85961183 65514812.88838295 82811083.66076164 50437996.712406546 312615356.2218741 16406980.401152248 82662194.32349575 67968516.87750709 63729291.724634655 63796350.38693202 64253692.66807964 45366344.39572661 72414184.45744845 14329193.756698875 58587564.463858895 53499815.86074844 58516512.79600168 62636027.28808505 33231616.5403819 59730366.492828414 56455731.83182239 28073367.85768449 45751288.10523596 7716907.037360244 7714072.955227913 45776659.63521484 63849254.266766764 74379276.55107103 63072486.065405264 55113196.66076405 64433487.75714222 48218829.09124065 65941283.26783628 15971734.363702754 128907400.7515118 39673449.67492646 27706916.13777244 70550175.97419095 62894708.05256386 12658402.482293572 80014659.75463182 15661214.15657849 52989086.445645206 62520495.9567024 19282687.7905301 23021210.05296122 18711810.78389977 90777619.5934145 45980964.39596621 51429535.78826806 87799965.18573399 53470114.91046871 78793756.6736945 50685005.20930548 25793028.34570909 36573764.50439681 84082127.12690969 45794118.699396364 70454950.95490445 77446999.6727223 47651531.151810676 100581903.78705621 81667675.82279113 86988433.54018307 15860388.985483754 10342423.913590606 69353789.46244068 74274773.64753522 76596374.17587094 44430191.82509646 27866999.99896598 35960370.30111176 82244786.82052293 77770408.80289756 74609255.5894481 45130606.52547965 64313637.95803412 63918746.51446525 76716474.54149623 76520951.79169925 38002586.683355436 48865132.20036895 27908485.84333267 62457290.0881797 87541144.58066988 57239034.39730742 22382921.09494836 16975985.123952463 48829714.55961283 69087527.21470381 30047053.597157586 13942259.227097306 86899442.9203281 79480051.80627604 80832646.37885512 83771839.08639477 90853580.85321838 71467381.688612 59518650.82213509 46924404.919584095 101257547.57781433 51356280.229933694 57940853.48665685 70564022.58283299 26955820.34882046 65227617.282292016 51083665.11139853 71973442.72005875 50911980.52281843 70268488.39273132 26338119.656753223 81388586.69204593 61540513.79652784 66373656.42446496 87523479.24198599 137943991.9689688 8925210.712950751 9226176.348385356 7528912.339581503 68993151.27798991 4327786.481781192 19647027.199200235 73420307.91104543 68285843.99428344 81870693.33146733 58370168.67496042 19912838.35354301 104190332.88367678 12429407.045652041 38319266.82669318 69163124.48561378 57859353.40582043 29635169.352384627 95045714.78884341 44714118.01801797 69545353.00567225 63154944.123957865 42092226.25080782 95428768.7413594 70428938.99835083 50697782.83133745 4401660.277137002 31665225.346833136 77313256.51620933 75401003.21932139 43848332.301286645 5231502.456291776 42335897.96479946 26895423.518296655 72165371.35793298 45349668.1345078 18751538.445990186 61854789.26540843 46117777.503879964 70579012.42408338 104982826.67800376 59454935.8481764 80707166.98052755 74044838.56696643 85412105.9351424 45842088.96462849 77005425.35841818 37637916.35894069 27920769.463240206 52304002.90318642 81591222.74436817 90567755.79118587 64714268.270928964 57447528.25973291 53587635.547503434 67402843.23049249 70631517.37583245 92038817.93985821 64001452.16031585 36605083.60932474 67868740.41592547 57450156.17177511 54014815.898531556 64320638.72105544 60832657.08365973 36353.91147724179 19089188.179895725 67608725.32688473 50910429.6482649 7604574.020109139 65945641.52260687 92374124.22494215 57097877.40026788 73516430.99316436 62496510.12675722 63903743.55014071 44963589.39916349 40468992.18212129 71036148.83425051 54950368.63095761 56691488.28707555 54803800.18842868 29531487.568474445 68227827.2790167 22954345.62828869 36065672.29173496 73592340.76894362 22141421.49266191 65716619.992262736 41408470.00637439 41654838.73147613 144634640.6772522 60516180.58434065 69832484.30356307 94444086.03332692 63539626.02329695 56567278.76058838 41637608.349131055 71532973.7082586 68019550.06662236 29470854.040667262 55412656.87707726 71167318.82803369 4792073.771513327 78419110.01884454 46821384.03936041 18253162.707186423 67379449.80998491 47103339.561437115 31923491.83494651 36389029.333429135 53621150.78957377 74757829.91467682 48496045.25802084 62991935.74899987 4863524.312090727 15847147.605375843 9675283.985055685 45166413.50096469 126697479.57601877 69170539.71211338 47811299.00096819 7988904.381972306 59120616.06529779 57095422.225304425 52766292.60921351 41298688.92080034 75601822.34013571 27731833.089563392 68452424.28102502 28332808.3863582 43693869.82677604 71117293.27807638 9254476.679323424 8500577.890888251 107706490.81726284 72815515.05147992 42332356.367196985 66144393.641164415 55507911.75685987 55048275.83459753 63448341.63155819 3874610.0550292674 68709632.52626373 48227256.50052296 47880664.651818596 52405866.399180226 9853466.485593611 70578344.85984395 43595547.78253708 56986768.11317613 77303404.98480113 52691782.42313486 9817711.40830846 9861964.026247624 63188198.20705276 88051235.4638253 57588273.784922846 62227158.305583075 82197727.01111025 37644773.35479512 52257603.45871955 54572730.95288292 13163164.235950753 65407104.51852533 20899722.64791866 64731618.13066726 68334029.19448039 72637020.6417621 153265369.7761243 47572879.29810954 9749592.172332566 62630919.11893966 71300041.85949239 69628210.02056988 57654583.08428519 47973089.385096416 67365730.69345766 64614330.1550274 86996697.94652693 54585251.30205358 9520234.433719683 69437391.91605555 9692114.438773176 55453043.3320787 92286815.56763597 11126556.366545787 97813173.96794137 30906437.78872432 70397232.16699803 28022346.878508404 34856832.982576974 66189994.03229442 54932363.498257995 28531548.34650975 48342062.64176205 43095745.07253389 46244626.138726994 37619504.78999909 76132220.87881298 4926492.27816655 102615276.68377668 17936410.900104262 40737325.45222613 76303048.00145857 94739119.77565283 25777849.14252758 64931456.88659039 71988241.83909598 44160654.46508498 65412402.35800834 8946423.301768547 39219697.24352921 26771232.99791903 52541292.92620774 30489019.28597036 86346268.8662889 26055087.426055126 100030588.79281978 44026862.43111665 54460114.81186847 27431409.602400552 64493921.06349252 80724022.12187761 17195700.415885206 68298091.19063751 70903925.20082553 79025459.98915224 45934784.572551645 102053034.38550644 16973537.432820488 74077499.16806468 77911422.46558031 97775396.34291051 60988563.941254295 84671938.17268446 85066899.20560478 70262185.71482445 24803026.384601854 69689182.82486345 65732342.24187953 102012535.30725977 68543713.32517867 57195481.07367205 81059497.30717467 56616087.10696951 104141916.35094799 9639944.229615096 84185120.8956611 50908685.367788464 88949045.00809796 54397753.06733683 48826254.15854754 52639275.77984246 39054505.14183185 86962656.34430407 54037488.76539202 30027533.172023665 53937764.60470567 77240916.51539193 75097751.87002505 75798387.90107885 168450533.50158206 58967070.0345841 38541871.756296545 72960277.48373333 189223384.7985979 58152971.39610635 47861002.32500465 82429785.88521267 75202893.73565392 98679862.3887094 54033394.598617874 49654737.99250665 52304956.04692131 16523859.485424703 47208566.15236823 46781247.15901092 15833659.786359334 72694909.53877544 63516974.0846336 108015442.51014766 63964594.97812516 47195904.223706655 49354822.658780664 68094995.88446337 41831062.865853556 65400965.19395854 25400860.018226877 65913148.68226953 22457417.496950813 42914391.67110138 50011516.47312313 12299936.07156248 48625104.85545361 38693723.59051362 44446423.93050789 40352924.38997981 68689834.76374246 42875665.99974745 6460180.184894236 78908089.28718922 41339252.0274711 31016836.276772935 135149659.99629968 21055266.251094226 39180045.092921495 35003140.334493 70990054.73682635 409010.3250500029 48382331.81021392 47092281.97220154 73116060.3509272 13820974.4023975 127193691.35364105 47948598.22339426 66754864.72378171 79736320.72084807 60419619.02914825 183427463.67729118 36619329.85884787 67112946.94142409 9797310.022880115 68720984.59291849 74068178.9897551 70990439.00158033 73357611.32540081 37850799.89497454 97866660.88304651 66912626.14212686 58070775.49077993 78071998.93496655 48621081.08803554 3206100.83032779 50188122.296691746 50027307.23593068 37983132.066941746 77624509.18541881 37505192.078883566 94195915.23226282 14190909.83166227 67339093.95254563 13518782.70524115 18413930.449910138 75899953.4897189 51096674.527120575 13162582.189625815 22942824.789955597 67826450.88405818 64554851.02998451 63734381.04373764 87902551.04610689 81676512.57316962 78134713.53785332 144712880.5081707 85013722.12010641 69770976.55804162 659373.3035770068 80317304.06084648 78947792.38292952 39267894.96382526 7199780.040944257 22205065.18165594 96315630.83380996 63250462.7342544 70210041.271538 75096823.13152151 47526022.99399092 10722436.313243305 104178453.4449628 62522332.36906835 12434259.4615507 67642804.40816873 91659771.63784249 43944933.01466955 15174720.806430621 22996051.637700915 72842984.93531984 30021575.64195823 26137427.105680294 52643074.066702746 80435506.3866489 120162743.75485298 68386167.72379756 13911054.093128031 45411980.647438094 75469420.60134666 13755444.370614871 44466815.66125668 49105166.10222589 73231167.74294308 22336116.8892106 46320373.337748595 71350902.82528901 76372340.97515932 70170243.8572258 49992908.69760014 69515785.52525763 34627813.74611933 106889016.22145472 70883608.5680373 71591710.82540487 79539829.45755902 102669742.39911251 31420823.91321411 16941342.60642758 57268250.47586013 75453725.48727211 73775313.94650711 74722052.26401517 48720188.06459695 75652592.14534654 74256146.41067578 23031385.487321727 67634507.37746373 62389400.35180652 65103973.311307415 88581342.95403032 75633948.44127646 22890953.519684494 23233633.03568955 44926755.25499687 65957514.991922036 116443766.01818235 68364773.09634842 75929338.72629988 126303442.25937715 57530919.6894837 20435241.675628547 66448724.184067465 19954844.443910994 45836782.59479525 77481563.06916182 30940966.0410694 34167367.71235862 93177985.81705184 57337889.69257032 63281934.92742051 167667990.89878917 66454863.86977461 81069506.47186081 35026221.24559892 65642703.962088235 67134722.4015272 48876769.90534133 39805930.498432234 13222436.543221474 81857555.03213418 45474709.52865226 103129602.2788921 31157727.221542265 32277678.143752314 61693669.22563319 69651986.5230832 63743779.63343928 61793350.88535981 66704437.03064177 91067138.93388039 41440150.78222386 20632921.153728202 18436802.084678117 75732994.26913571 62419308.72574132 91150805.18114719 80942506.38389763 7918860.639027611 80856098.230588 75149551.74070147 54150142.32167342 51219605.8605159 41853329.51924739 35651313.41864806 45590346.14703662 13644218.662490549 26538845.56103688 63260704.0105122 34440265.32672416 66640948.77054134 31799014.77533927 216979933.51342386 72893653.4660851 70067986.51962976 82235665.81524353 76115893.0926513 36488981.49016536 126602475.32973997 76595443.8689717 49066131.342660725 58758060.989481136 63583730.06170852 64400368.1332426 10379841.477321813 82531391.138403 91596639.90894587 30769645.467542615 76451982.2765809 79237233.19952112 51817848.34164427 81728487.75086978 20309649.38050395 58455416.67478182 65676111.04883741 34643959.726270735 23510388.453743987 80248291.36205184 28001121.369285677 89817980.02799177 69083157.13683802 90081278.20290108 8701649.773491181 37785503.87550087 62813418.53892269 51541100.52696471 47417971.52667651 56668423.386831276 55329752.751693256 84247124.28140292 45965679.563806415 79379884.35720779 41942730.977034524 86800679.98575684 13330387.987265578 86073965.01627424 32077335.408144627 68979445.30077314 48801282.13102877 18450525.78862698 62743024.27635332 82673779.43123484 54629386.864062905 49244231.93721981 82890143.74901251 23184763.15824676 78540380.05286883 89292908.07137652 44927135.135065444 46361851.02200536 26010583.9971908 90541721.17151257 62254309.56140387 43597096.43094086 46329323.68467823 15864903.161064489 75820011.75714712 77527622.83026965 68232711.40690196 69139964.17506763 42760054.47532439 50341566.6275727 38754487.56162088 67762119.989813 73201794.52042538 67516649.23335177 64877330.12950944 37541922.29105157 62506316.279333636 60912189.97324213 93649815.05144607 39001696.45352764 63764486.11040167 83655189.66189922 59188024.884778395 63020502.8245618 65836135.233840525 81686244.83197741 115573313.68763828 47654831.091155924 4322156.948776823 75100937.54784998 73261962.2722856 72484970.83365962 73050634.1827357 72494220.76693852 65267589.08709704 66309356.165706314 74948733.33461723 62499497.225541726 34131279.42490584 77643144.90281384 45527109.69162767 100278929.53550738 83357392.85298039 75980867.08687569 72856778.29428925 75342085.64465539 13864940.524508763 39255847.879367605 41023108.65667878 79692366.40855007 60938529.27243792 35063354.05555785 21366827.0873311 82686791.89813209 35719277.93848537 35553736.56139238 35443547.65437049 58575111.10373523 31276560.185696363 24211419.498632506 35764639.81376668 60961347.09332734 90718325.04193681 69618275.75519964 101855027.2827005 55436066.6353583 37020816.25708486 74347580.96881771 37474528.526616566 66234839.58842122 127080418.56527491 46808008.74161631 25811869.91181437 41680839.82246182 73260384.78894307 39961620.49457039 45045250.8755183 55705999.64136014 81459031.14601208 34668872.51635039 89399824.79654174 28959401.07002852 84393892.15853117 47086462.71156498 89838464.11070727 72506096.84501804 57477224.9542379 58799743.53672596 1794448.4095240308 1588853.221891819 62328167.81239409 71950651.98305929 79240556.27174239 29976766.618979927 29934610.61139098 18069983.055813193 108552266.66482586 96008160.25368933 72875380.09177144 82289803.4113829 64597376.55205333 3034121.1366140693 91600663.58170053 29464749.503294077 49915788.78430682 44990495.33080378 123852179.55679089 164316490.375896 78664236.6997299 68051375.18791302 24522475.261894036 62114200.56842394 51445688.938045084 80555397.89185518 113594144.13820966 77150822.28402293 92694542.12746426 36767488.58846498 79678453.16439982 1913445.7515478837 1919732.985627408 53188184.53655468 35166945.138002865 12755052.09693989 1630169.4665837714 70326823.53113227 1847567.6724402837 12995866.237494495 29268619.45035047 1780287.6760588188 1784264.3624916691 73769191.05341595 27529895.69067391 242734145.89139345 71037024.91996732 66471815.7124794 189449.60635991534 81172966.80359174 77244342.84629962 103424744.6990836 8977072.593932994 88224988.05332698 29902494.65824405 100945057.64540109 17285432.348936718 80738567.31354755 63391457.176125586 75731222.55285797 67811906.3108605 87481962.78803769 76438424.51820572 56493137.98419206 70464051.91086933 104925506.1175664 68576152.45665745 53865291.047111645 58043794.07217125 2729229.9316494414 44480095.85542918 35783279.24586979 52949130.225823104 14351404.289724918 62601012.58144259 67737480.21135268 5436538.547583918 87596187.1942147 56810963.58425031 16348274.607296858 59792904.98106054 13499608.495747259 81046852.45936134 44120999.98675452 87047457.81499435 69058828.3497104 35721216.806845896 35701346.54887482 78418251.64290923 49955447.40625155 62011600.236082755 66055803.44992812 35916712.67112676 68422673.4347403 30474437.295720674 63784320.80931028 23049090.339877997 41070137.85257153 86357216.41286063 65975215.56237468 56849617.8272942 12681393.570158228 59111382.469308294 44880307.3997346 31186754.098699674 62066860.99185509 45615532.22206805 65005064.26875786 75872061.22196266 90771821.96620499 66606577.86082423 47594845.21528603 71926517.78754516 23021395.61004845 86772249.404246 46418503.269736 67751439.47061907 37873667.86200148 62334595.91347977 74225678.03114213 48356896.30017367 58011295.38299011 32470032.015155975 44518964.75622055 107187499.24864766 51453948.494715795 59193361.31444793 76262398.735277 29440574.746745832 31249047.122156948 65000073.067330085 66522177.711751424 39841056.76839315 80100729.39047946 68115591.82238767 42099683.50071275 94786349.46693103 65642017.77271247 74035503.23395474 77224795.68774904 96205324.44392365 80049497.55746172 16544488.817004833 80812680.0419938 27036564.34732958 45790938.964486524 77977147.26431236 54762155.1238959 29995010.857473344 93634764.53405409 90023182.64375937 97579795.21653381 155060155.94022363 3847379.461861704 47198759.922117226 154679204.30419976 86372101.25026123 100280144.75775903 72029239.15139437 86603413.3843399 80872928.0311646 38184728.23415106 91594138.50106616 140381892.61788166 47236975.4629468 77523507.4192499 66913220.021259 362270191.3423771 53594419.83523129 59969532.49050323 60293884.261335306 65765515.88877006 59345566.902652554 56398357.56228023 119382139.53691573 73095123.97733259 69002194.69895229 88489598.58247928 37875888.8674632 53319868.01603264 53043835.401339404 57251392.360460795 58474693.256515585 13083500.227282437 66751397.482023746 31713619.89726733 41173619.666940525 73862448.07149065 34084285.801823385 35676534.045404926 88068726.12380056 97326410.86424342 70138659.37033834 50323183.20475208 9525320.636679333 40876743.450306684 108807011.09691757 57888064.747661255 23412960.939159736 41424108.385718 142855981.6764411 42407897.367038 65925392.36965132 88430827.86309153 23139542.0523195 45024125.02233525 60888888.67453553 69979091.06106341 74210158.09818192 61523454.509457506 34402818.61475673 53923584.36138823 61928096.956317894 74147591.68664546 159591219.2895104 50367350.186042085 59401120.29711616 69214493.70604764 30600714.351951614 82810762.40635733 29491545.364533283 84019571.54324135 13735709.559698578 227285893.3797473 40697989.218665354 101401012.34155634 59456802.70665384 86186027.54342669 73560265.8151082 54669983.677072965 85299680.74845904 73251349.3094714 83072884.52833797 61818691.55318223 99815710.29093142 83167609.75286065 54332328.71052931 83970111.75302863 47782906.16851431 32413803.341688454 53597912.86921513 38547490.42317133 86020210.5485234 65089160.66631378 71206409.74702878 173180828.40614748 78380797.33920348 57367815.9434015 17138794.950108245 69641971.57554576 71302594.99431592 67086584.30226419 32521320.739437573 78637375.51606338 12702547.34792541 71428785.95895988 23162053.19453872 54973501.16030344 55803584.520997465 114514047.14526041 94852224.07228506 13813887.472512031 49744776.76280988 65831008.42412567 80832193.82605709 63327630.10184598 100127692.07887928 62286572.8785776 65715642.46084922 53524558.33892403 33954335.94414691 140364109.80979297 74801030.15671164 36389992.42823549 76258171.97125117 77868985.5337718 31448240.875864964 13328793.54042924 37023138.013591744 68445855.32832123 86314601.92877251 2074186.725804848 69888633.40570264 77093173.22988811 71247370.48543765 65351954.56832318 79760336.75760491 45894521.9276133 29489111.179188702 76505295.32306924 47098097.37177641 65380668.67647787 61514576.92090608 62093081.77905809 74128228.40718445 37972839.08704975 34872360.84651477 11772429.905520521 45924357.7819254 90989544.700238 65139042.47131619 33305149.53444036 24027473.293934803 66293856.141526066 73600950.97927555 41866624.596752144 75105369.95568623 64120783.068219714 91471660.735811 69954097.86611271 18370911.849587772 20089142.8367671 69681154.24907777 88932441.65371189 11575245.6603813 20546422.43566041 117318915.90964462 78475204.41726981 86933284.13648467 48150578.298520885 68661137.61844276 33961081.83617549 33717788.07196312 95473726.42490663 65390384.77677427 61936384.19275337 38631846.50206295 65897306.76569073 128703244.96061113 37262055.23206118 47971440.44673073 87131795.66296577 58116237.329110965 40505992.25743984 64589244.49532957 69696569.98073313 62521258.83452332 84361043.395676 12712200.01506561 11533631.397325678 87933781.27264497 84429718.60537033 47793950.85647492 73237312.75733256 86474908.90958859 62048152.27635226 67664529.33570756 29751248.027192615 76801901.14369021 76567118.2325463 141088231.79508024 53999053.64164218 66556348.20785736 161833666.84466738 36752994.73169894 34982848.928319626 17716146.682432793 170914077.55393577 75350602.65598701 49958255.38883425 74696251.31762785 49881623.10161964 20040924.156917125 65115632.542144194 23661059.679660708 29288564.94789078 29273549.021467064 28618377.944633942 64251958.367783524 38658703.03475945 59852292.55090657 40543979.493697144 11695226.846597904 85967336.61941102 52847559.20525927 40511612.41443917 60381795.04292866 75871809.85889173 27822794.995202992 51642410.964694776 32542604.210701186 34885384.420515895 68473566.79640111 50215192.49423059 58725948.26872006 51940633.574306205 64020078.73277648 66125950.1005581 49608247.81742093 11332520.529196419 33502039.70542005 133227889.52068715 81549839.34961444 51701136.04148288 57990365.2148016 51805079.41417663 42924713.22231289 76246995.83323526 68723158.60317174 50813268.970833614 65926899.799276605 105798763.74348247 35759187.3452574 68175624.32672365 56304812.749453254 74970109.87050956 41870172.2105663 77782066.07009828 116199148.78399292 23135576.92175492 85509980.8631576 58000518.75548383 82323152.66345403 74985247.84358743 67337512.71542303 45475888.24219201 50346394.85958533 95861760.83438373 85749557.29000683 11995292.57312344 12846936.513530707 70133207.76980023 23694937.403613407 68825602.5881176 65571506.375617705 51284964.6515078 11265092.496769369 42895941.37669305 79486273.64620848 35048539.07321948 72599889.992443 10271715.784794195 52411048.194276236 67841426.82775253 218852022.56340688 60139664.50049275 46973301.87381939 74217128.30666389 86507790.99150336 62248183.63343061 7300438.851587984 24657875.011590492 69155737.64531828 87109961.20429109 94720626.0286 67835428.26876272 30399771.629132185 69333098.59905536 100361390.34922369 130665756.51080763 62123694.94160952 63041717.810792275 47813311.53790922 35927513.4196966 75726857.19645114 28755360.420581363 19807873.101065334 69807742.08453521 57386351.946940094 85592784.71881269 79092216.1648601 80677432.30236106 74857065.98667161 93000087.86024156 37453467.87592968 83009739.96683289 27816202.348274495 68874100.37273209 61948966.04153189 40609468.924708925 7153583.150776253 7149714.669954828 97855854.80965944 47555013.59173858 54994825.923719026 54231725.00063915 96783070.89376514 80729751.0921238 22235958.46546564 34076428.326468155 61650441.99398474 43365034.004629925 49371796.34031959 131858420.69217323 81674277.15132244 18714731.04374359 67204513.8973535 38698595.63744173 60095080.765028924 159898720.23315665 45689016.56080232 117673258.49101442 56308997.35093181 81691816.72337167 100855853.22357571 54097274.75652241 50167279.678421564 77096846.56193808 63800022.34828275 66547419.385196455 49251358.02167173 47854296.09392501 47905248.324261546 72880226.63629569 67852318.47011717 79462458.93559179 85561445.63243267 19851514.06167011 63167184.944219254 39260094.7174519 16262593.507620836 74922058.99975795 39277309.37147307 78182770.0919239 14446060.964705903 93087871.79527906 13351714.942683594 59930721.24927323 38814691.27313593 38635206.39012687 78097966.0405521 88049543.27638501 27846051.378665447 81993019.29472934 59577663.94725706 70869827.52775681 51265342.771562755 7205625.63382032 82816714.28622675 81190995.9088597 74834312.85291912 45396395.807304874 102687625.39767523 98997687.58444768 15482779.446591837 37161611.1289823 65289258.97377712 50728038.04237527 51936746.117757276 76293197.59120895 15162649.743711678 78642828.8428693 80047124.13772433 63089477.752151795 105083172.84063825 65190229.21135972 68525328.53635965 72305187.66583954 30996176.71180364 41762704.23690466 78922660.33653109 37363414.85790395 37114823.429264076 44363380.72989447 63389364.192715704 50865212.37222227 82867318.4248926 49814606.01848901 25564220.584774323 76198168.53948608 52803153.22581637 81615121.2676218 75915495.53130628 79605814.98857921 71917434.22734967 70466101.23834226 44197212.233405955 42225592.0828861 94830038.7194736 44715178.8664948 82772405.96070942 7222177.27315532 40048966.960102305 138686021.8464817 53086632.83803646 95386149.02687839 94011262.62639195 55865607.79928532 60411892.133738026 76316528.44992222 75664770.2608427 37331817.04298565 74981782.79170452 37813089.89750836 81154081.63863589 116762163.38035512 41407523.51054995 7220679.751215006 76136119.48820512 37294961.49957145 1205346.4486731687 38956855.16482293 38204409.37368964 51104317.85128644 87689896.08595003 58940050.62120861 74916126.76341613 83554028.71417467 27630.78081443144 88995611.28882651 112588274.83807573 38972161.38806823 71308909.82012367 16383180.61699715 62281992.27284804 74713276.02790016 70663307.32047276 67545231.13567612 30052694.96340191 86387645.1483082 74689934.77701257 68576569.39653549 48586078.06984119 85433717.26779996 122100100.97571988 48273606.57909082 56949130.35535524 73760425.52612118 75978836.15765613 62829617.36592278 36152963.22695324 37265924.19283739 61052409.832082585 48472635.05456035 9381567.075872004 92583440.9114927 50764900.36367258 9310215.173001934 67532327.35723685 69138771.89774874 22034680.635697585 80659647.61417729 38812501.44440482 48315062.762152575 74488728.82481876 81562064.83761418 124676361.4776021 93485943.26579091 42606207.23475404 65985029.94885686 92755232.01462474 60820631.18845711 3332850.90968242 41787982.87759125 25532050.46768421 68141697.9204057 48339850.021548055 7142701.311949069 42969885.428518906 98602382.88616706 15560148.561925963 17421205.104264054 38020684.97819681 9511136.571096001 190856194.1397328 110006901.30522203 59999463.845741384 26939165.472923037 85861425.05120403 45749297.186373 78868706.14219001 78278601.63292864 27924275.438937757 50380139.47967765 6988180.427297809 67891466.07801841 60158289.20494212 105189395.23343319 39529206.961265646 51879983.665269375 61288055.546867214 84779556.72282879 53772058.28175093 57456979.35849937 54766297.77619703 53278295.792175226 44754646.79747971 63568214.79128976 173797247.22043926 45550174.40027429 69027429.93032303 71668872.9629636 16503581.625809934 72967602.72551242 123329705.62927917 47893180.39120658 46738431.778097115 24326599.115115445 69464255.93996203 72029045.85973763 49655130.579812914 38235231.3559744 61226728.34129258 41633130.63089206 55677497.35823477 63096748.71786768 65828750.42284401 56353999.29091273 40163004.69931806 141496195.3277383 38838011.88803387 89295222.34846093 64879413.94785494 64998058.093352 100946024.38314839 65326856.49426676 15802219.886004647 31827588.174688786 62819407.519247524 63630489.808405764 49447882.90903921 72117784.94820666 64089405.930947185 66290980.985056125 48051200.59055045 58451442.972432174 55673352.812317066 25936300.231866244 49106510.63533784 73345201.12181765 67678677.5890501 65296343.99643263 51600382.51848708 28869876.841260303 65118714.11822708 48681845.16776463 46970810.00444162 148863776.45453846 3333447.741331233 67855969.63917907 55851535.02766324 49474651.40521209 50360821.58048056 63305742.59467653 82340542.78022578 67763285.02228756 75734561.49387196 56385504.72545603 62717313.777210005 50099451.176995665 48274526.7548534 59348969.103052996 74161052.80846795 53737654.27532108 64267008.36204608 54217836.67462109 48836019.05334511 18686121.315219115 64662972.063798904 64119086.71565833 76902936.9940312 63051972.79233091 46655648.88331362 4555465.156569521 80346061.40239002 69162682.71856715 177227727.20218894 36169426.589748375 81122345.16496764 57760781.63314177 25670765.85837414 56195251.03301064 59501023.47291003 162508442.9124444 86027060.73865113 94765373.1760892 25495707.30991046 138131766.05126005 36420418.19836444 16052224.887383755 64039762.98583135 61397353.86498329 58485114.57117945 63178065.82896676 85138932.78453302 69025984.19438304 15731275.660056427 78075214.17518628 45609731.55185254 73060131.33247465 79667708.56872697 15079795.656587789 82309072.28502975 32177489.906662203 56568814.669125445 30152063.08864986 59314090.57965854 124891309.65141204 59635380.3132456 40284488.29752646 53627007.14353895 47873029.09268742 168453720.7101903 66162575.6930347 33608989.50956913 19950033.415212188 76533632.33430912 70100688.07153732 62724585.74688235 51153959.677666195 49289209.034804605 73078189.30535066 85041396.5982716 64992767.92301244 51576580.402709484 75581651.4819967 46807390.5485267 46729578.974534556 66762739.4907378 71399574.1691128 80190396.72623959 76490061.78351341 82447406.13927822 60844989.05110178 9555717.102041785 63182358.66250247 50277965.497184314 53738906.692095675 72290751.44996014 48960924.301046826 73474938.06004378 56850509.107929386 48399836.34045217 51154652.40637612 72707590.21307841 46565915.22586495 70094462.95926501 95002352.78244936 66279022.281582005 48564585.82138866 18506987.63286444 46584865.25782174 76706642.0849118 93337313.75005905 46452670.83909574 67754991.5139691 74375434.39954618 76255833.99935888 46358732.65098487 49584601.94242928 72130696.26796906 48307860.81990217 68624821.36459833 88169177.48172778 67784352.52793668 85179511.95945911 64534723.1438967 33566436.01993749 48690166.573815495 45511481.14024368 65058130.017474696 67029975.77266481 66978440.12873085 73800066.88995852 49395468.91584655 56968054.40521395 48603932.09248695 68316377.38996698 63250233.0299335 60262659.48440471 85313520.90179598 28069762.349724084 72996398.63061875 56861280.82979617 76971662.1936016 68906817.9862384 11528406.034662705 67194434.42611429 63767260.70951415 45030582.78366095 32666852.88320007 67987174.78578977 42928631.57583427 67093670.67772652 69209258.7581266 43714386.710155725 103190375.51251875 24552289.468573045 81309197.35207938 50620516.46976805 96238583.60302329 9564907.44505229 90047766.45115854 77478648.18503536 94724617.07211892 9640589.663137697 63698027.64718742 42571851.35272335 10307756.469735418 136058002.609124 32337571.971793525 50351571.79234985 46245683.000986926 19426188.240669698 99058264.32177742 17481714.933045827 81252475.81152664 19599537.992440943 126768102.8660291 168192186.5042483 49933786.378523424 60102276.57897041 77344477.27164511 36082668.710907966 50909993.181701146 16075548.094733473 46883687.044166625 15809445.871142356 93134321.40931596 85870086.25957747 7949398.69700688 59632301.647164784 73439423.58488129 37884194.366947204 29633879.164253276 80996907.74571113 50440817.436331585 21773793.5207093 61927885.55954849 53734484.93270678 57733198.45000882 82235431.29864503 100595181.9474316 31176619.2189546 5094145.743942224 24750398.418147918 91859221.58814575 66829126.317444935 63857283.72426118 30786266.40443686 57493129.28000567 67253300.2230338 66564057.18490927 67993505.46827571 77248069.33980659 165637062.46467882 9551965.66389409 49106262.48341545 81253738.95345265 27352505.72208303 22971087.46607415 26164913.21467397 78823112.9515955 49641822.27407397 59830364.87766481 54848840.36205167 71544215.30712682 77698373.31858395 38655257.547525615 32263192.56715636 69668588.37334493 72449677.53184538 26415221.261124123 38076390.50442083 94380622.70099407 33537088.0645048 42376918.88254179 58647508.69997271 11896190.294902353 80546897.45475173 88902705.5858177 59745069.77019555 74956474.86377552 58951001.163700394 72114774.31678952 35875025.36530435 69191491.50465924 65760822.7422242 29612420.489683494 41009035.96918103 8842077.72933018 70909928.4309676 62693529.71869996 47056107.07219461 34872029.74110718 79149337.18515958 50082654.674870275 66780001.704547815 70617993.76882508 19963670.92591783 71118295.6916036 72747604.71217906 47339502.65776698 64065028.60868746 72542019.00333256 49693274.93641847 30459410.1424726 72234572.4968412 62168236.004383095 50033410.57114485 32345869.351292644 46952294.98732365 65622842.817958735 83597279.9938034 64680190.763978064 51109208.9914312 11641301.95872675 113941349.48328647 73112401.33357306 115602818.41192767 29312752.371781215 45402888.328099415 56624512.56160835 37191838.52788675 27904847.22249198 83909579.63238567 29440664.778824836 6876716.2278563585 67200083.54758187 127405077.93114923 45230502.86906931 53175669.100155614 25881435.476959877 97875210.64546709 67421450.73115376 51455800.29639784 149507385.85117483 62124244.93096547 96996205.83258064 64628963.01122162 67780087.298593 37029364.877177015 79643045.65220897 53115655.102352805 75486626.61756986 11138300.38987592 77637133.86028542 70018492.71394448 68188366.29408139 82163956.68494894 11629781.515038814 53961765.24755259 85480217.71300666 70505691.18062647 75474570.81324776 50367136.758887485 9585631.418298405 56102422.21836158 68231321.64097065 26716170.077552535 62527580.63582187 64670546.80624064 5399399.512170369 9171265.05026506 51714740.7151665 74908658.54491615 77461995.2900754 65026869.29601378 143151017.20782235 63647077.71990116 56638289.83864955 25340735.716916554 84812688.70956257 87053421.80479753 35577434.06581426 10977781.973127378 10943627.385839766 36791292.67196854 48567574.51828342 53747887.251926444 66178705.23430274 97960107.13572823 66726336.69489196 43372770.43244875 49285912.68055034 9718962.664595108 67882051.31688696 63046013.20935605 75324883.98492986 82052164.7689761 77888273.52615063 12136780.12054647 10000300.582350124 10971299.327132095 74626053.24007103 23821698.284261253 24273243.29323334 19435468.692651413 47014937.027819194 66280870.5970187 64656329.15454473 26472512.40462956 77510019.74128169 13476206.49043148 44310908.30924028 75702115.90699534 40397052.86787169 15230224.236580798 68572977.53734396 87791884.40039676 28331149.516475286 74590644.04928795 150490388.0400293 72147799.58364226 73042296.81718093 35204197.95359971 51314801.035379946 14291246.254189102 21844896.783294268 34480075.86459408 16997463.422421027 63872842.95909933 11897433.361467654 106399103.29696654 34493888.93350548 25157736.92367224 25563618.22368502 59923637.39517128 71626160.40312472 63518509.42703499 84704277.86338438 72314782.29758836 59621843.71616076 57247429.92187725 26217870.233882807 57511441.12272348 29512867.05646266 22207606.410006136 92972199.94578655 25707369.04782841 20253347.39838935 69517485.8312346 17071459.782273006 174852791.33373737 63799628.82931901 13462416.597904993 64786466.069520965 91051957.17844704 159722716.2769911 11486662.571088335 9518872.411373734 63636737.76378245 113500927.9448079 68705038.46340668 67552761.63622624 67384513.54540402 67947072.83898866 69544865.89022624 112851693.56605037 54579907.831050985 65083342.177278765 63785789.13408565 78607162.09702952 47076338.49769944 13106689.709025836 92618858.11895037 61568371.74956934 76915331.67526853 79538822.28838037 64759013.75033679 71751922.30511117 71029905.73305213 55220289.68171005 56303061.049366735 55045188.84739718 55881606.54078151 61189793.11501979 81795988.52792265 64057595.88774936 63646603.96194323 56036630.93837059 36665718.4950631 62177285.79449934 61807810.6509034 49175625.462536566 86761115.23397407 79676951.8028977 71713248.39596678 49964647.955147274 73865907.74039942 72171450.10728446 73350845.92167224 54176399.78772094 88560847.19177571 67120553.18732269 64987914.78179388 189722956.4921816 67327263.73967168 82157337.3903844 76402774.23557056 56118567.9941537 83082555.7884334 23651209.732404444 12959198.346741857 71856666.26266171 62572630.65199787 66764666.47812042 54072959.44623629 65738559.722459815 46377604.723728865 68999145.49738775 49213601.236855626 64817400.16319066 25599306.380359333 99304709.0273029 77268829.59758422 66842104.16988333 77577423.2701961 63891922.35043643 74363996.42486309 73218185.56510274 56398193.19623946 62462637.902222216 19235882.19568273 20393482.44725269 46261908.03348889 74233488.72113955 60638161.80446871 87914494.61453891 79215104.01650894 24608418.496589668 57072087.32844321 18000216.14815693 56808449.732489556 55543589.8036755 157602014.98221633 98744037.44329296 51467366.89645981 72113112.6025938 64887570.66182145 81626009.6221891 106380715.22847182 20595426.506618593 81643668.98055652 73479903.55013816 35520412.80413035 80374263.02505471 298955211.9531162 72619773.55967751 65044405.17867295 20252238.764359944 98612774.13655722 108007045.92607403 78686624.94804546 34214364.51611922 84822093.12961176 20986279.95179559 11197930.10788576 139327694.17859256 43876494.54930838 25372840.717568986 188200381.56882876 59255914.351240516 12343133.481056271 51906274.074253686 60576246.32430503 53801585.68126281 83207344.67636804 11248130.59506764 70846275.54566243 70993106.9196189 5793870.089851338 24192754.146954883 57851767.78605597 115036250.36218208 40986139.484779984 50203940.982876815 68738274.57114536 59229024.53511046 6253694.464636918 50442925.324872375 96480049.24238859 24836440.982754834 50968983.29656852 83036675.50807771 33856213.18511677 66899488.75753355 51190388.06655691 22461871.559576023 69251204.879339 70025498.1461459 36405229.67088688 20077300.995907214 73542652.16185579 65850415.828749575 65820697.9574962 76688980.53126876 66059742.4528331 64806584.65061522 67395106.18110079 6232684.068112764 82453708.72521298 120564534.375617 76854844.27139933 69308229.30938956 116448655.39671871 49412889.77246491 74036356.66766943 73083893.9565659 89939668.19960132 3705428.602655123 66317393.9877198 6009065.333617682 13576149.567418609 45305359.97502089 57343826.86280233 63492088.50795587 95159632.92361534 34051308.503533706 60600311.38325036 69032233.61653829 102931197.1041958 5966845.293670194 69111647.24701813 74489904.86073466 76860513.20383415 30360593.177177604 69130046.08323415 49469859.01578923 52694499.52613836 69823815.55912307 77079155.23008896 105164882.95260277 73664609.26652548 65381138.09616877 71788913.88543655 65225447.666664146 144510356.0910953 71703529.54989505 44541008.84884624 32691447.29251592 45981283.294560954 81668002.50935635 76216250.65214662 35075520.83557266 18912388.62162696 74492137.95322792 158603294.67330262 24962583.839506395 59373110.600742914 21595089.451787192 68173591.1624723 64092149.75723935 72742450.34361134 96132760.343784 68850055.28725247 80363548.465663 73814331.95996612 139747552.14873317 76203188.52985801 38203065.64685878 7014353.87502359 63731521.94944174 69686147.0319752 115375611.29351097 39443027.22390194 52274388.93388314 63200569.16289698 114288090.02757592 74337089.56680419 66044332.16563761 69369694.39378497 70182672.54625809 79899299.25360286 75471182.56227548 61293372.19226134 72325130.26292007 79694752.2421065 87947947.72197461 42837755.991338246 32119783.418743275 53408064.70760709 10998850.828968823 52692826.97446269 56918497.7709674 43531825.385374084 69988646.73688002 46568479.24601974 85590096.02034548 72536043.22895087 37945347.29521072 131183130.31890623 88100394.3483174 40152261.39544819 65689758.5049019 69266389.92829922 57477895.26989579 69030449.00120977 61485975.08865854 49894477.82168634 65060978.54835279 79151088.01061323 61606993.2257291 63247692.60900885 13491240.317853816 59542725.223696284 70963516.59688674 47003392.56706814 61576139.86916006 25378095.628843635 72592994.43179202 33407234.607074667 77282535.23860644 61245946.72463646 87085750.88973953 74270615.32219395 68908987.23106755 73352165.0719155 79020792.72984834 71923661.25965203 41020280.72409777 53201345.95707978 42565455.530303046 25000340.67329188 75015339.76514015 91543001.83254775 39529620.09225122 66874298.80967937 66085621.88852086 68053150.20134112 80886033.51258896 76999014.47959557 67906590.44435118 65746761.54133191 69298799.51163267 74672707.94245988 37052982.45457095 71433780.87128475 76017751.53403954 6436350.271875133 63119945.80034675 46018944.67027313 45195136.28325437 72858916.40763597 19434109.19496071 64779346.031167135 41396780.893548936 37883814.70819534 73509078.33540769 18443287.156134855 65572746.6557203 65495510.45793276 67817534.28545931 62934765.44401466 55737544.90522319 59979094.42565059 71280277.88746242 49651329.50156733 127443248.46202727 70011616.73666272 69987611.9466362 70043245.69373581 52939919.802013114 54716512.14196479 55534433.9884887 72498323.00594176 51429947.458231986 58346734.60373734 45259519.85966917 62159863.48796798 51716247.08966529 22944058.748129547 79179676.910111 77608679.99316227 100375199.58620614 16282121.610004714 49360059.41723159 56724944.81995777 66252334.832896486 45214550.90682902 41105905.40539489 49259905.97730189 83116531.72918497 81277796.79146817 49577952.09892711 59060794.01919756 59238114.029438406 76254584.62172331 115089234.87638432 17346644.401611652 47883127.45923677 36495640.50526972 46020366.062724605 93053536.41429493 44247994.888647184 48202461.3828997 67882860.79793395 45089402.540244974 40282546.565984234 68153263.7902049 68286298.1506467 7879121.765077821 7890734.463087486 65175082.974948525 66904446.47018955 46822397.88102406 51417937.05651132 65777739.027285084 6766726.898982606 61420690.89562994 49711046.992126815 48494771.20438536 7338571.969836811 75975910.99529997 79394289.99496393 71148459.20232025 7473405.275656165 52321690.244473 113350961.70162228 87183989.96041243 66264639.960413314 69552909.79289041 75384976.79158075 76265240.25512211 155523961.28051734 67206965.16184746 63856084.92480802 72879947.36029555 76456455.79978679 40154649.28819557 79221114.51314498 79081068.51911256 63471429.1863354 70469180.27220447 23345806.313553702 13375150.227540743 62473162.90351238 9336032.813135592 72220343.85516305 44760213.388752356 41215029.108550936 72069355.44030972 65851073.11508558 70165371.9541691 74276364.12973008 85618960.41961005 56565003.5782176 48820995.19979772 27114704.899607822 82015740.44953974 46041556.42421374 73772015.08443324 46149907.70672216 68014781.7267014 65868322.50228359 75783765.54738861 74054170.13272467 11319721.540651767 105341152.22413826 70751852.00608334 80856126.3927014 78732791.41887605 73491829.03769803 74850308.30354638 20569413.5136464 126995666.79319602 75352986.81101549 59437563.695928566 55412496.73315615 35700044.40558421 86173284.30465662 51940113.13741948 58354848.34521588 74278268.34402052 63387977.35784403 65776541.10743823 139389527.84481826 63818425.59998382 69738049.75045723 69455660.16956492 5063187.969390229 5072504.544443387 65078632.22574608 72255714.76101083 64997926.791937426 103265889.06802446 62376728.35329431 68970585.71158172 75007409.17737651 76430412.07086019 55519148.555144124 76654595.6483027 96246443.48683302 41085496.47156735 72495474.91474378 64824826.778106295 4798083.378338267 4745413.432342327 74888220.07225046 62459488.81753684 82039082.91369005 78356037.39802891 79113739.30427004 43879686.6024462 66355776.14707067 67957064.43491264 84547498.59359293 64233805.19964451 64971689.31355785 70481548.99387749 116849468.5574485 50113011.64712468 70432250.4344617 54734138.61792747 72891811.20133194 67221576.86560309 65268112.69057477 94417885.8359296 60636910.08830855 72405542.81533842 27638310.100520603 73830490.33450244 70273318.03198446 58155028.259170026 85698710.244497 62156681.428751096 51796786.83962187 76228396.46149763 71456848.18711013 75122547.44751658 68549214.80220814 71185482.23951036 64061716.820731536 79500242.14641309 70377098.35353847 58162936.22685672 84193579.81223585 58150386.26694188 62043594.017451726 78080180.9086982 74283958.13403979 54939862.62901905 24836381.513476525 53580357.08526473 75158191.95974152 96970790.4045249 86052213.93619625 65465699.771928154 68019868.99920493 71993878.89409202 93844774.71375209 75821846.93619515 13695871.95894355 43528085.43512747 83547881.83737643 71505329.07437567 61347709.84502427 33558119.760150015 67790567.78921843 76540805.85667317 77790210.66197336 75663111.32403333 72072525.54292843 72494079.9045325 61758837.39289519 45481235.521275595 74895706.15763383 38089781.79738675 85012686.09068206 71662500.11658233 70484533.63442995 33025998.329677843 81468221.19934227 65811514.51472953 49705136.687245965 37090742.08990224 72421140.78498176 35025319.55126273 76059102.14455532 72758977.48212598 60188449.3483986 72224372.90333933 66160889.45949845 63365462.89420241