# vtk DataFile Version 2.0
Really cool data
ASCII
DATASET POLYDATA
POINTS 2621 float
10.0 25.0 0
9.999999999999998 2.5 0
15.0 2.5 0
15.0 12.5 0
20.0 12.5 0
20.0 2.5 0
25.0 2.5 0
25.0 20.0 0
12.8125 5.0 0
12.5 5.3125 0
12.1875 5.0 0
12.5 4.6875 0
22.8125 5.0 0
22.5 5.3125 0
22.1875 5.0 0
22.5 4.6875 0
12.8125 21.5 0
12.5 21.8125 0
12.1875 21.5 0
12.5 21.1875 0
22.8125 17.5 0
22.5 17.8125 0
22.1875 17.5 0
22.5 17.1875 0
12.5 15.5 0
20.0 15.5 0
20.0 14.5 0
12.5 14.5 0
10.0 24.63709677361402 0
10.0 24.27419354592701 0
10.0 23.91129031775874 0
9.999999999999996 23.54838709246676 0
10.0 23.18548386794702 0
10.0 22.82258064299358 0
10.0 22.45967741670554 0
10.0 22.09677418897655 0
10.0 21.73387095986818 0
10.0 21.37096773248194 0
9.999999999999998 21.00806450811888 0
10.0 20.6451612807928 0
10.0 20.28225805407666 0
9.999999999999998 19.9193548266023 0
10.0 19.5564515987474 0
9.999999999999998 19.19354837138494 0
10.0 18.83064514499617 0
10.0 18.46774191704055 0
10.0 18.10483869087001 0
10.0 17.74193546347678 0
10.0 17.37903223681661 0
10.0 17.01612900940379 0
10.0 16.65322578413419 0
10.0 16.29032255642479 0
9.999999999999998 15.92741932834607 0
9.999999999999998 15.56451610131936 0
10.0 15.20161287375545 0
9.999999999999998 14.83870964642377 0
9.999999999999998 14.47580642010495 0
10.0 14.11290319369939 0
10.0 13.74999996694269 0
9.999999999999998 13.38709674181718 0
9.999999999999998 13.02419351686376 0
9.999999999999998 12.66129029367583 0
9.999999999999998 12.29838706999966 0
9.999999999999998 11.93548384555825 0
10.0 11.57258062117281 0
9.999999999999998 11.20967739572134 0
10.0 10.84677417031325 0
9.999999999999998 10.48387094675739 0
10.0 10.12096772123179 0
9.999999999999998 9.75806449698064 0
10.0 9.395161271231192 0
9.999999999999998 9.032258046482013 0
10.0 8.669354822118947 0
10.0 8.306451597138944 0
9.999999999999998 7.94354837200364 0
9.999999999999998 7.580645146620729 0
9.999999999999998 7.217741922905391 0
9.999999999999996 6.854838700199402 0
9.999999999999998 6.491935475456518 0
9.999999999999998 6.129032249693084 0
9.999999999999998 5.766129024955096 0
9.999999999999998 5.403225801332082 0
9.999999999999996 5.040322577682138 0
9.999999999999998 4.677419353225353 0
9.999999999999996 4.314516127429037 0
9.999999999999996 3.951612901263398 0
10.0 3.588709677867029 0
9.999999999999998 3.225806452333023 0
9.999999999999998 2.862903226670315 0
10.35714285661005 2.5 0
10.71428571213589 2.5 0
11.07142857046827 2.5 0
11.42857142735092 2.5 0
11.7857142850142 2.5 0
12.14285714287573 2.5 0
12.49999999995663 2.5 0
12.85714285391503 2.5 0
13.21428571211111 2.5 0
13.57142856468173 2.5 0
13.92857141917294 2.5 0
14.28571427871344 2.5 0
14.64285713891684 2.5 0
15.0 2.857142857852235 0
15.0 3.21428571521503 0
15.0 3.571428572726516 0
15.0 3.928571430603533 0
15.0 4.285714287978719 0
15.0 4.642857145514987 0
15.0 5.000000002580401 0
15.0 5.357142861368146 0
15.0 5.714285719647869 0
15.0 6.071428578485179 0
15.0 6.428571437049889 0
15.0 6.785714296048281 0
15.0 7.142857154135942 0
15.0 7.500000011102228 0
15.0 7.857142866965729 0
15.0 8.214285723560286 0
15.0 8.571428580253976 0
15.0 8.92857143590683 0
15.0 9.285714290295818 0
15.0 9.642857145775196 0
15.0 10.00000000179977 0
15.0 10.35714285775001 0
15.0 10.71428571439413 0
15.0 11.07142857145955 0
15.0 11.42857142775673 0
15.0 11.78571428532397 0
15.0 12.14285714320719 0
15.3571428591223 12.5 0
15.71428571719138 12.5 0
16.07142857423201 12.5 0
16.42857142974857 12.5 0
16.7857142846084 12.5 0
17.14285714112862 12.5 0
17.49999999772317 12.5 0
17.85714285297952 12.5 0
18.21428571083795 12.5 0
18.57142855939082 12.5 0
18.92857141386655 12.5 0
19.28571427430228 12.5 0
19.64285713574168 12.5 0
20.0 12.14285714165368 0
20.0 11.78571428436058 0
20.0 11.42857142737726 0
20.0 11.07142856955135 0
20.0 10.71428571316279 0
20.0 10.35714285484745 0
20.0 9.999999995955926 0
20.0 9.642857135639455 0
20.0 9.285714276871845 0
20.0 8.928571418674213 0
20.0 8.57142856231663 0
20.0 8.214285703660536 0
20.0 7.857142844508807 0
20.0 7.499999985406642 0
20.0 7.142857130003156 0
20.0 6.785714275659092 0
20.0 6.428571419530735 0
20.0 6.071428563699761 0
20.0 5.714285706611115 0
20.0 5.357142850049079 0
20.0 4.999999993527312 0
20.0 4.642857137101577 0
20.0 4.285714282125578 0
20.0 3.928571425551149 0
20.0 3.571428569906041 0
20.0 3.214285713520577 0
20.0 2.857142857692707 0
20.35714285650163 2.5 0
20.71428571178895 2.5 0
21.07142856795603 2.5 0
21.42857142687388 2.5 0
21.78571428441634 2.5 0
22.14285713997626 2.5 0
22.50000000002168 2.5 0
22.85714285703133 2.5 0
23.21428571221953 2.5 0
23.57142856194335 2.5 0
23.9285714186928 2.5 0
24.28571427764782 2.5 0
24.64285713873408 2.5 0
25.0 2.864583333579086 0
25.0 3.229166667418379 0
25.0 3.593750001170938 0
25.0 3.958333335039145 0
25.0 4.322916669051911 0
25.0 4.6875000031225 0
25.0 5.052083336528115 0
25.0 5.416666669875903 0
25.0 5.781250004033231 0
25.0 6.14583333738102 0
25.0 6.510416671422698 0
25.0 6.875000005290905 0
25.0 7.239583339506053 0
25.0 7.604166674125976 0
25.0 7.968750007979722 0
25.0 8.33333334199249 0
25.0 8.697916675860695 0
25.0 9.062500009671076 0
25.0 9.427083343134518 0
25.0 9.791666678332678 0
25.0 10.15625001249001 0
25.0 10.52083334768817 0
25.0 10.8854166811516 0
25.0 11.25000001496198 0
25.0 11.61458334738459 0
25.0 11.97916667946025 0
25.0 12.34375001292369 0
25.0 12.70833334511499 0
25.0 13.07291667765324 0
25.0 13.43750001088538 0
25.0 13.80208334365493 0
25.0 14.16666667353327 0
25.0 14.53125000442354 0
25.0 14.89583333573303 0
25.0 15.26041666500421 0
25.0 15.62499999488256 0
25.0 15.98958332836045 0
25.0 16.35416666104326 0
25.0 16.71874999219373 0
25.0 17.08333332471754 0
25.0 17.44791665847009 0
25.0 17.81249999193352 0
25.0 18.17708332505002 0
25.0 18.54166665810869 0
25.0 18.9062499938851 0
25.0 19.2708333296615 0
25.0 19.63541666578485 0
24.65909090697006 20.11363636434331 0
24.31818181387862 20.22727272870713 0
23.97727272112545 20.34090909295818 0
23.63636362933978 20.45454545688674 0
23.29545454074166 20.56818181975278 0
22.95454545175678 20.68181818274774 0
22.61363635870555 20.79545454709815 0
22.27272726938004 20.90909091020665 0
21.93181817642107 21.02272727452631 0
21.59090908415283 21.13636363861572 0
21.24999999070893 21.25000000309703 0
20.909090898365 21.36363636721167 0
20.5681818062032 21.4772727312656 0
20.22727271532826 21.59090909489058 0
19.88636362288735 21.70454545903755 0
19.54545453222531 21.81818182259157 0
19.20454544067146 21.93181818644285 0
18.86363634917439 22.0454545502752 0
18.52272726008306 22.15909091330565 0
18.18181816691119 22.27272727769627 0
17.84090907624678 22.38636364125107 0
17.49999998161302 22.500000006129 0
17.15909089129634 22.61363636956789 0
16.81818180107666 22.72727273297446 0
16.47727271035784 22.84090909654739 0
16.13636362113641 22.9545454596212 0
15.79545453028867 23.06818182323711 0
15.4545454400335 23.18181818665549 0
15.11363634812483 23.29545455062506 0
14.77272725866684 23.40909091377772 0
14.43181816866006 23.52272727711332 0
14.09090907805834 23.63636364064723 0
13.74999998745307 23.75000000418231 0
13.40909089754563 23.86363636748479 0
13.06818180839043 23.97727273053652 0
12.72727271853859 24.09090909382047 0
12.38636362812021 24.20454545729326 0
12.04545453791708 24.31818182069431 0
11.70454544876188 24.43181818374604 0
11.36363635991656 24.54545454669448 0
11.02272727049761 24.65909090983413 0
10.68181818161208 24.77272727279597 0
10.34090909059876 24.88636363646708 0
12.7209708686998 5.220970869541787 0
12.27902913024896 5.220970868490556 0
12.2790291313002 4.779029130458213 0
12.72097086975104 4.779029131509444 0
22.72097086840513 5.220970869836465 0
22.27902913044831 5.220970868689902 0
22.27902913159487 4.779029130163535 0
22.72097086955169 4.779029131310098 0
12.72097086902355 21.72097086921805 0
12.27902913070156 21.72097086894315 0
12.27902913097645 21.27902913078195 0
12.72097086929844 21.27902913105685 0
22.7209708691208 17.72097086912079 0
22.27902913087921 17.7209708691208 0
22.2790291308792 17.27902913087921 0
22.72097086912079 17.2790291308792 0
13.0357142863834 15.5 0
13.57142857334916 15.5 0
14.10714285783675 15.5 0
14.64285714470339 15.5 0
15.17857143070267 15.5 0
15.71428571720997 15.5 0
16.25000000702564 15.5 0
16.78571428904744 15.5 0
17.32142857412979 15.5 0
17.8571428511085 15.5 0
18.39285713616606 15.5 0
18.92857142211578 15.5 0
19.46428571101452 15.5 0
20.0 14.99999999601014 0
19.46428571160309 14.5 0
18.92857142040583 14.5 0
18.39285713577575 14.5 0
17.85714284336419 14.5 0
17.32142855637984 14.5 0
16.7857142655791 14.5 0
16.2499999775787 14.5 0
15.71428569556309 14.5 0
15.17857141150299 14.5 0
14.64285712475407 14.5 0
14.10714284117721 14.5 0
13.57142856006613 14.5 0
13.03571428124737 14.5 0
12.5 14.99999999867727 0
20.57585899687696 20.03038685996468 0
22.5567783581192 14.81160051491081 0
23.44565023941834 5.016536331156335 0
23.40922079953497 9.046790267449133 0
12.97531663670318 12.33515430196766 0
13.8438271228747 19.90210698319279 0
11.2024050281192 4.450333467935075 0
23.75386421265016 10.2777876813598 0
12.84557957340481 9.260264452206265 0
20.72548935713821 11.66675209437066 0
23.55297530946308 12.08640144331927 0
23.2973389809312 17.83026861971046 0
15.20064299177235 21.42763869285799 0
19.22758812730291 20.2964007900542 0
14.51086124088117 17.97252380047296 0
21.14050431848039 10.13560904015623 0
23.73542170608578 16.98601004981886 0
23.00120877823225 3.141992411579835 0
11.99878139828794 3.141983961899634 0
21.84590086250845 13.20259307409131 0
19.56035910729081 18.79732846407983 0
22.92908352219388 16.92038625297608 0
21.40652615202035 6.559807691329802 0
23.91591409665157 11.43080366687679 0
20.3167550050269 8.392986416720813 0
23.49924640039292 13.27008425635712 0
15.80164792753689 17.06638633459536 0
12.66900816270895 5.754476315781202 0
21.28676736699386 14.8072285011536 0
14.75529171301906 20.37744913422123 0
15.79596442695103 18.37191216472147 0
24.07321192632542 18.9527612608091 0
13.69206523629159 10.88960540655338 0
20.96502509165737 15.54166517600383 0
11.65966092248 17.15690635616435 0
11.21150606236339 5.546231869634946 0
11.43665242816516 12.82811943296888 0
11.64363243535641 6.574530449054146 0
22.33956376799469 18.51720611119619 0
11.57137533582761 9.090808611404777 0
11.83149984351278 5.752706844276704 0
14.19124731554655 4.382331414268203 0
11.868390236668 22.95659793076041 0
24.01942873485882 12.38293604953866 0
22.43056741135941 13.55820707360681 0
16.83810136975454 19.15735092863381 0
21.10767142815381 16.91280500011769 0
24.27440876920666 4.980691517584409 0
11.79876619950358 4.571156293871682 0
13.64576107427861 3.801270704530106 0
24.00991629014933 3.575418048080902 0
23.03489677737662 7.503543985740778 0
16.32443218488618 21.15181037077635 0
13.98722819419831 9.92188087159391 0
10.81730797100071 9.446702235422489 0
21.80709115243076 3.253990437745306 0
13.34336869305742 19.39493519475068 0
19.25103289785833 16.47224824846084 0
12.39494015213643 6.137543376351605 0
13.66083953593937 6.952154437872685 0
14.68087635288309 19.24064636813048 0
11.55495220355492 19.0760922779196 0
15.14618926389043 16.35765057732759 0
10.97599545373814 17.82953008680287 0
14.46557591929077 3.778004795969291 0
11.20204704291705 10.21614924703212 0
10.80142600277942 7.136068582009774 0
13.23921567448498 7.273953541124826 0
11.40688846572767 11.38081343408535 0
21.8520307402105 6.564336170670704 0
23.46468277933947 15.93474539537165 0
22.50218544064608 7.815038703383091 0
23.48906273217114 18.5760655793543 0
11.62591430891381 5.242775232650736 0
24.14712468730453 6.289827903501569 0
14.67795511147309 21.47594147550159 0
21.60255090930599 17.87644406453434 0
23.48088444673852 16.49514553891133 0
14.1137336153886 8.484103552025795 0
10.99040340759587 3.575381199708772 0
21.35423892618915 3.801270704530547 0
12.06740711649242 12.16592517726116 0
12.40433954720919 6.972007010696538 0
17.16941237181129 17.88418578189692 0
11.24442526834772 22.02007608183199 0
16.25791106239084 22.28658716411619 0
23.81595059540932 18.02216868107158 0
21.6006935578495 9.083589797919249 0
19.33767055584305 21.05346818903921 0
14.77249100326536 22.41479023720847 0
21.41848400367792 11.24999999846432 0
21.88208830280981 15.89888048050038 0
15.4298269712912 21.0010894058966 0
13.8298320310458 22.43083112458649 0
14.21119850522505 3.322441121426925 0
14.46465825544264 19.8771901719132 0
24.44809405487917 8.995689715119605 0
13.05657034075877 17.3186217509476 0
19.82142856787083 13.5 0
10.60287793190959 14.05124747608501 0
21.71912650122052 10.53181972913373 0
13.91879612220354 13.18957824572639 0
24.21392029775037 7.106578867145597 0
14.2675199713534 7.164635306577679 0
20.86774629163057 8.497281712630965 0
18.8634167642291 21.47661397627727 0
22.00553207863701 10.06748935058674 0
16.93067070969872 20.81064559973987 0
12.94684955938698 16.81328275759547 0
13.23737403434045 13.70504523602516 0
11.33007171353079 6.060978168627245 0
23.94177691272825 2.982224249400794 0
22.83912080375826 12.27354544628563 0
23.42413183983481 11.57917451550949 0
24.40201531511596 10.32071405940184 0
10.84415034853582 22.78771357084292 0
11.841333031025 19.90983726942359 0
12.97913632679462 20.34326258294174 0
12.49092943024139 10.33931275802275 0
21.14379722973222 5.574842435731969 0
24.37371804252187 16.87592474222031 0
11.94478626852564 19.14845907804672 0
21.16962899728663 13.56301478736018 0
11.17439127721704 20.9649561805195 0
10.32619817406141 4.134598467192986 0
13.71426894181371 7.649594698477078 0
23.35624464913816 6.574596750520248 0
11.01571646933099 23.60062051696802 0
12.53201500845184 18.6491935310183 0
22.19813610792667 12.48864236162997 0
22.84786236637935 18.39536589517942 0
13.85618207253739 5.574715161453435 0
11.29236937265647 18.82403972422291 0
12.49285859128163 8.811669749668507 0
23.7887100740088 5.546317099058507 0
13.14731141055117 4.352688590808318 0
22.28212277658892 9.552482624528528 0
24.5581375110754 4.62934181420051 0
19.90068163700711 20.67402306488416 0
13.95640939221848 11.99337064229395 0
12.88366395054911 22.78012518912131 0
15.64033495549973 22.05375796135971 0
13.63539093094395 4.706681380492281 0
21.75303950835778 19.33511974184384 0
18.47191951203809 19.69256076731809 0
22.82485707987888 19.42419660655309 0
11.55449037803641 5.016458205646273 0
13.4352468856155 9.0819206408112 0
11.81641588793381 10.69321428604398 0
24.44836614706043 3.070380445574012 0
13.22659134907252 3.916956151903717 0
22.4757870607431 14.43787333257894 0
23.15380582339803 19.07842688600595 0
20.8100225383436 9.388905172152894 0
14.69522943641766 12.69412804020446 0
20.81538603443027 19.10437865322414 0
15.89285714571177 13.5000000019311 0
17.02208545153932 13.5883793562974 0
16.97024409830112 16.62226927127038 0
23.05156793401179 6.186320216608109 0
13.0029557060772 5.492224718051735 0
10.93691240615685 12.16771993986519 0
10.75610378351291 10.88910849710931 0
12.10670805087531 12.79123080345419 0
17.55978571985129 17.15875687907347 0
22.01615875011478 18.08975456302436 0
10.94713025882337 15.19118053753672 0
16.75245670967428 21.96201298021256 0
10.84496883486218 8.554368679673013 0
22.49880706163576 8.808575278009041 0
21.28578570596228 7.650442174525766 0
22.50245517704734 10.31780306689977 0
13.16317254416657 18.13074088591836 0
16.01463520593572 16.72744138267253 0
12.49851392873265 7.814351604016815 0
15.63839357585622 19.6711781730093 0
13.14775172364422 6.563811000485906 0
17.68319065720609 20.20047272378119 0
21.48837553642143 20.20607981435975 0
12.39261126376407 16.52013493164286 0
24.15382172570657 9.500320093624001 0
22.60480371231973 6.137421296350199 0
22.19712405296766 3.871051949187797 0
20.92157311399403 18.153805823398 0
12.10436238249684 20.58914300530751 0
23.82996855221462 14.7992035266996 0
13.3434488218045 5.255495054805162 0
12.134458146822 22.37824357601784 0
20.9440419970133 15.92988754736373 0
13.74265452448913 20.98527564319762 0
23.79805817457277 4.450082989850036 0
13.66859446213949 18.77238071084603 0
20.2338433807241 19.79505697215862 0
12.61406927086171 11.34187491274322 0
13.25567317733634 11.60712701741941 0
10.6108933113781 10.30718310724913 0
11.72095999172239 23.6832330173469 0
21.75737003429584 18.771916452751 0
11.21051280645551 16.03496337115052 0
13.19705447983872 9.875666759981545 0
18.69220024875286 13.58837935758354 0
23.10745227117982 12.41218326725183 0
14.23406223043232 16.77447703490771 0
21.26863590196839 6.062388257688114 0
15.04658277670096 21.90908043441165 0
22.11076461562415 16.50985625588816 0
23.75596068838693 7.767264587050217 0
14.25441050557617 9.209587616429872 0
10.84762405273296 17.01619546922713 0
11.24353537262121 7.768301115809731 0
22.76154479632541 5.631424997349169 0
22.40148235577641 11.38224065770734 0
14.28049819763763 4.999595947242779 0
21.84887048379569 5.823786743905846 0
21.12022884792459 12.32575308308167 0
22.52686720257279 5.560041635420503 0
19.32081155796369 13.81959236364305 0
24.27797598692474 17.48034927815809 0
24.26348527304316 13.08494686718375 0
11.75664957073067 16.49326966669823 0
17.71639074413925 16.32998062966922 0
24.52167531009334 3.66397193230139 0
24.11245602678731 15.4209360574517 0
16.37445115825914 17.73380052227079 0
20.24430526378084 18.60785385441298 0
11.7811447878403 7.28865188519126 0
24.1294343448943 8.545050913474938 0
18.33537562965482 16.96092841776852 0
19.88016477144182 17.25975545466196 0
10.87082092919755 13.5360879300134 0
13.56174855318302 10.30624951825379 0
23.09248920345027 3.660251004240417 0
17.44164963496835 13.89008620859283 0
13.79800874584667 11.41881955923528 0
12.80287594821166 3.871051950470036 0
22.64520773120586 3.771022657219599 0
13.5319462177031 20.46158661549557 0
24.11668019558498 13.91354518976947 0
12.53297389703032 23.45638834236241 0
22.12430690563311 6.917159572050523 0
24.49720802274256 17.90883286075871 0
20.25237134422717 3.11614489887969 0
12.63024522508464 22.30411581182666 0
12.99297236352073 10.8775578018594 0
13.15122488650048 5.823467444902162 0
12.38895956654396 20.14386151680635 0
21.36460907092534 4.706681379363901 0
24.42188300112863 18.41061571861405 0
24.21963676359204 16.33099575823721 0
20.93379753735512 6.415275424895825 0
11.90750924339523 3.660251405329619 0
22.95054902945136 16.50007677342108 0
14.35070117891804 11.29934306731122 0
17.46745245327354 21.3582396653573 0
21.66436143982025 17.1551006808224 0
14.06619779999695 6.415184281336515 0
13.03428301606937 7.788401700123142 0
13.73129249002928 6.062307463654177 0
12.18938087258336 9.570002492762757 0
21.25580607146375 9.463348128193594 0
10.47229918026488 8.211657938149074 0
21.74012298471634 14.08838004620677 0
16.63805248319004 20.18053910278997 0
24.29062045680192 4.138475000244637 0
13.09370863780837 22.1958837513527 0
19.10384474728385 19.34789456559807 0
13.50374689707421 21.7122528095106 0
11.28334530137613 14.24422361365645 0
22.63269696219707 15.7033954010745 0
12.66616021184109 19.4691662687925 0
10.70874557033062 4.137843262954766 0
20.25757991470561 16.61047901846448 0
11.5791602655557 7.603371149473586 0
16.02885054294473 15.90026504100956 0
18.13733306105582 18.87502078262879 0
10.66934089657184 24.14904657267439 0
20.20044414194836 17.61704061735379 0
14.84009078208631 13.50175567379171 0
18.74938829610478 18.00555635090851 0
12.46346141594381 13.35611289581789 0
22.08046136895811 18.53482746019466 0
14.16444402281586 21.84318174608915 0
21.97319165984095 5.133426825437014 0
23.21610514593663 14.09749419348299 0
11.3829191351753 19.98933966663961 0
23.21874410161965 7.288116801174152 0
21.99718420010263 5.492458728578719 0
21.92339146715368 6.323992875273959 0
24.67961813303323 14.35784210770802 0
11.50698278099084 3.159187679420801 0
22.08664864660791 20.33826819040098 0
13.96666363193954 23.22000597116344 0
11.96990563385328 17.66887617813491 0
10.5868245663172 23.21350103192378 0
10.85334187605639 6.289989667808781 0
21.39378208289195 18.71151870636657 0
20.73275650868146 7.165071331934116 0
11.6382128142242 13.59471707947457 0
19.54129819093969 20.65444378697132 0
11.38146000332994 19.43710819275271 0
13.55339637743194 23.14583442316679 0
22.55547391811835 19.81814671465057 0
11.27377197137821 20.2580777619598 0
14.39656329525654 7.886297708932305 0
11.82305784673517 18.63184860877042 0
10.37906571813566 22.89488213722725 0
17.32816626701589 21.95598855583863 0
22.51323526261265 3.210632591278112 0
15.03514095240676 18.45076653532787 0
21.98167433825408 12.76086473882307 0
11.65933581735512 11.62858309246451 0
21.33878648660513 6.951728954380172 0
11.45521998190556 11.97256888712612 0
22.97864629039998 20.32578896069965 0
23.67824260906974 8.291287956108038 0
11.30667199882255 24.0119669978162 0
10.91008615390063 20.05494833783671 0
14.11731475849881 20.47102914896289 0
14.29388290064725 22.32042977622115 0
10.4443502669745 5.331607170759111 0
18.44775455668381 21.01637828370805 0
11.6484808371631 22.46360288077238 0
13.34484994176053 16.35466138152983 0
24.28142288873735 19.58567963188947 0
16.24794223322549 19.70066371597134 0
13.74581219890799 5.117871148445156 0
10.51895406928138 9.005799430894273 0
10.61118805795546 5.777367917732393 0
21.60919875170162 9.680614368531806 0
13.60038106351766 12.54809184044449 0
21.22982024615066 17.45527047896438 0
23.21784162005741 15.3051826063491 0
17.89316063679507 20.85306908725568 0
14.39542442934014 5.915780804542752 0
21.45585929128927 16.43948399342191 0
24.56396259038935 6.147782294962987 0
10.57344638026083 14.6898561665572 0
21.65670551361699 5.255831770566013 0
17.88283261615297 13.34754481112354 0
22.84901019465123 6.574155406506939 0
11.51398359275833 20.43575431585007 0
21.36436671642107 15.48463660713323 0
22.89747472187199 17.10146666054104 0
22.59574062996303 6.972467226873943 0
12.64878142006138 8.286632480324457 0
11.70382473269516 21.17021340605108 0
13.04847858041095 12.97926383200311 0
14.31217422243737 22.90509044701142 0
23.75479142196435 19.59313069305399 0
23.30240472496011 16.7848481356389 0
23.16849258722885 5.752966907853077 0
10.6337852481326 18.41683547737484 0
11.72224267255889 21.76508321377209 0
17.52884249015245 19.37675440313532 0
22.42060721070806 3.52242332369593 0
21.01419798630877 20.65800580002183 0
11.61873381321142 5.752035306140681 0
12.41073458540033 5.842021589037452 0
12.60091354042187 2.81735519899427 0
20.66926195088789 12.90036912951735 0
10.92674668082942 4.60850878048129 0
17.28269021038436 13.02203855497644 0
14.34488066675408 10.59737845377767 0
10.98075394721314 23.93233304974099 0
10.73363205377629 12.82036187587995 0
22.04030395485217 16.97265346561888 0
18.83860384659891 16.80743219334852 0
23.49299925427333 3.159179681797016 0
13.70374962319837 17.08460445155051 0
20.58973243860255 17.43017146945257 0
21.18658012562956 19.63403265843477 0
11.38605603502998 3.897178004830931 0
11.13870312390391 5.104768307224093 0
24.12203429621611 11.03432091962508 0
11.07410760970555 22.8798611058233 0
10.62613011034458 5.500863840899226 0
11.88338849354612 18.024284903724 0
20.60090562616264 7.830949492740539 0
22.03619083634866 18.97761312463552 0
18.32783123153169 20.35667725313576 0
10.6587914912094 20.60457883007047 0
15.10864534167675 22.28443149472098 0
20.45427394606166 13.61962361136511 0
20.58610306765258 9.934494607918586 0
21.01646179537394 11.22194271903732 0
10.42095794255751 21.76673461656424 0
15.24951979053295 17.732104702993 0
13.191782929205 8.274063452133635 0
22.95313621327757 11.3579020584798 0
21.29693133461394 19.17429182309208 0
14.29575381048589 12.56789164366913 0
21.80897514137632 8.274687724052441 0
11.81479960384601 20.97315254465157 0
20.89003152710333 18.63417280454826 0
13.19290884724348 3.25399043811408 0
22.13553521855744 6.184974138289492 0
20.52106381270635 20.95146630076694 0
21.96984709698098 17.28040347743808 0
12.48676464047051 3.210632319369989 0
20.80875268526476 4.382331413050615 0
20.71950180755385 4.999595944699365 0
21.27800479607164 3.034424081728149 0
20.45773887659093 14.78546796058939 0
16.13244277484399 16.3287042880813 0
21.85981559433712 11.90286842395351 0
23.65213016380162 6.986569867544149 0
16.82981561340859 21.34764457034607 0
22.45072764940198 19.13083661642724 0
14.63879383423005 16.25321830325423 0
23.37421554995061 5.24288692305994 0
17.05278677190834 20.37148716552557 0
23.16971873196973 17.52201367880946 0
12.89323400973638 3.465349537919983 0
11.28425743870569 21.49139327024291 0
20.45281548092915 2.952815480610112 0
22.13082806945337 2.926609961019746 0
22.82921338088412 12.95560917897618 0
10.49115827767469 19.76503144083975 0
22.86958030925915 9.261943466254024 0
21.07117988681109 4.640453291327824 0
18.77091339848533 20.27435044626033 0
21.52440396298167 13.81016163781384 0
13.79066274498242 6.344420685291208 0
24.49907518821995 13.55557547914372 0
12.51398444673577 9.365965877434132 0
20.78880149474966 3.322441121417986 0
19.30750977786432 13.1174271310838 0
14.54718451943519 2.952815481430318 0
12.69504939785001 7.368909320918638 0
15.30470075341016 19.12972975480655 0
20.53442408227014 3.778004796233616 0
24.10302085433506 19.87740362083803 0
11.03627806307503 20.48170559740617 0
10.43949613009918 23.6958435476693 0
11.32382309072627 18.2552784782454 0
11.87038155916204 8.298724744339735 0
22.82639548529623 4.190396190719948 0
12.28497133255013 4.491223148424443 0
12.35479235492683 3.771023755150751 0
12.63248721086089 4.256765258129418 0
12.17361432994722 4.190404753467949 0
22.46833100966964 16.20088182461991 0
11.29419258696658 10.73161085710002 0
23.12233301634203 8.29659673190238 0
13.28752950162002 20.25237351373469 0
24.54162739043386 19.09716602338386 0
14.29226480844925 20.99573603547681 0
24.47557135343573 15.04707601633898 0
12.5948781683488 18.04029985776459 0
20.60462596051881 5.915798939836721 0
19.72543097752362 19.57115409880333 0
22.53918333194196 16.74637755807059 0
16.59379674649087 18.464976850902 0
16.45144088254715 13.12429434978326 0
21.76062299106544 7.274401924392363 0
10.47931385676652 18.90840848529859 0
10.49139734102897 21.07795078239299 0
22.75106883155693 7.417431096840943 0
22.3129298478568 10.82971790869014 0
18.41916817833627 13.03664624275589 0
11.86970353410869 6.984685089782632 0
10.32182571053236 20.78917230657475 0
10.72625022997727 4.980738535990347 0
20.35285434402563 17.98866044547343 0
23.1121866115636 9.798265993624177 0
14.31684805051043 18.6628708040402 0
11.67257818036273 20.79640337870107 0
23.19484743736878 14.63770255240386 0
23.14446773969057 10.80780007338906 0
23.63136361938095 19.14622455450749 0
14.50429567200052 5.420475146373562 0
12.02232113052517 11.54699615645151 0
23.23905161704819 4.162720108794796 0
23.15971765753183 5.326112031149211 0
14.01747277217799 19.29671931203487 0
10.71360981472836 21.52030160525879 0
13.03573364046173 10.31540686480884 0
19.80255685884752 16.13091054154344 0
12.50205810070696 23.83308496587189 0
24.38914951476697 5.777395882622534 0
23.02131387104373 10.28932394023228 0
21.85268859098293 4.35268858955032 0
10.55179635530784 3.070285025130407 0
16.06270560506138 19.07672394182737 0
12.23847516247763 5.631376807097185 0
12.26726392346745 8.155536607599462 0
20.8058635658529 10.83552267026296 0
22.70046140480082 11.22478808434712 0
21.64568912473445 12.58347604338381 0
12.45460171906491 19.04796510734594 0
11.28934006900242 9.377083517670727 0
24.61773247608104 7.092516227411247 0
10.43922555403081 20.22645922569231 0
14.82548850048868 20.93267111486407 0
22.99690779902003 16.00974788978474 0
12.83514673168001 20.9236670702653 0
23.32440027600092 18.20011862730997 0
11.50280721982707 8.613441379683305 0
10.50406883713226 18.04580684353695 0
12.64971698401799 9.838181039423063 0
10.74462838409815 19.3290992552667 0
14.68753236262501 17.2723965751864 0
11.05854257011292 2.982003070040379 0
13.70007400923414 19.55528894808462 0
11.8756441605184 4.881491272723578 0
12.32611136686739 17.45801854721237 0
11.05853088029528 9.016090789847325 0
18.56092302810313 21.70271527683673 0
12.60857474196751 20.71368430260832 0
18.32017670063122 13.89343365893288 0
22.62102960125277 20.29663508812815 0
11.30543334029824 12.34350778585085 0
22.33104159877657 5.754378467084043 0
11.22942266684502 13.81791316429527 0
23.41011878309044 11.06611646791293 0
14.50290676066112 6.712880170878838 0
12.70944379642055 17.47610295741229 0
24.34783015746982 11.74554518163772 0
13.152630971476 20.91539746576487 0
10.91854302512114 8.080028353250496 0
11.58480196773869 8.025239282164618 0
23.2774069074867 17.23278280898332 0
14.0266541257691 14.11315886432385 0
13.84556206828197 20.27626135466178 0
13.06563961875276 18.83449443128768 0
11.76099943544275 4.16276669562579 0
22.88988942619121 19.75774292148103 0
20.76197976228346 12.01088618391771 0
23.71109821604258 16.1661162228048 0
12.05411731637093 22.01183884091381 0
13.53005437689231 22.11579285694532 0
15.33260258887477 20.46199536448046 0
22.2623469723183 13.04785948691862 0
12.057041284378 23.34161970538465 0
15.91658569440699 20.29797283166345 0
23.20127644616925 4.571164399590567 0
17.94816143637824 18.09226612385826 0
11.74822604799873 2.881323428972 0
22.10676599159008 3.465349536199173 0
18.29227483760144 13.4282846813149 0
24.69219055191706 14.01543207267582 0
20.2895657137986 16.10657331111101 0
24.60295315102485 17.21630735671386 0
22.73232151090982 8.156072377562822 0
16.86073147696559 12.96249038891501 0
13.32885076431877 11.12829223598659 0
23.05625419674834 13.54404576222278 0
23.93461831948865 9.006247960457848 0
13.47783626355736 8.614680264591474 0
20.06928398104138 13.89007484765989 0
10.43506667115472 11.14212270242429 0
11.604007972187 5.5299214533725 0
12.3445752307851 10.84520957432066 0
13.25144810874475 6.93298507581501 0
23.93522219409566 18.50218057784219 0
21.97883499816923 17.77767421348534 0
20.55765041810214 12.30765255097557 0
22.09669589718136 15.27420869626248 0
24.5387388744474 10.78594534243426 0
22.13804890190362 19.35580248965362 0
10.58978557623548 22.09750604250114 0
14.56915333538275 10.15100084887609 0
13.51331033192601 9.933208810784516 0
23.16112698161967 15.6998458062652 0
23.61429609820502 3.897340903886511 0
17.99129254172429 19.8143855555346 0
10.56882841858407 15.36711732914154 0
24.52409784568309 7.492513864484557 0
12.94354416518134 16.03158273630665 0
11.00831020442467 19.62037233224503 0
13.3905675060632 3.575987704505261 0
10.87550750999796 18.99162480010446 0
23.67018844203592 6.061022789605628 0
22.59341959739569 11.97995732873702 0
17.84989578286478 18.53759486206423 0
23.67657772780995 10.80426685695537 0
23.16109814304637 19.90247433242576 0
12.77457698656811 10.36929320459193 0
19.82635176544026 21.19983407412324 0
15.89285714571177 12.98405612345444 0
12.54443919058644 11.93038900443327 0
15.11080859232559 12.84444966975677 0
18.07596587576845 21.5686824808887 0
15.01163867968528 19.40868578508158 0
14.26065385061879 13.81191527312676 0
14.01136600541719 21.11299064124908 0
23.44067488290988 3.568950936675668 0
13.87021632238791 16.21733368408172 0
12.86917198008382 2.926609920623938 0
18.31212864360738 17.51501145114576 0
11.67976146378394 15.46179348992044 0
20.10254500866848 13.03425548724195 0
10.46521039655537 13.67902063585758 0
12.97628002657537 4.741267253466105 0
11.08929496319652 11.67040725550558 0
19.20619535400418 18.11184077095597 0
13.99875381061675 9.53047238871174 0
23.69297038178801 17.57794053920944 0
11.84033488817104 5.325969350609209 0
11.95626838129758 10.14182074376987 0
15.36546386315391 22.56528982412266 0
11.58737789431452 9.634425086507841 0
24.52658294919106 9.801697918034298 0
17.75728253180709 21.88101217886855 0
21.83557597470425 20.60574216016459 0
10.57356360915699 7.670416016467066 0
20.87526497369644 7.550864797673658 0
24.58274023639547 16.49968708742592 0
11.93239612780303 5.941203213137182 0
19.23573587033541 16.95572377268029 0
23.99871112635434 17.24343879995073 0
14.60145675996418 3.36599639733139 0
24.38255318153936 7.95685069060411 0
20.46948014167525 11.20337451571832 0
20.64019452306455 6.462377169775322 0
22.79316541678183 10.54224273573976 0
22.45422877768455 18.24012846613662 0
12.37862974517859 22.82261922498874 0
12.28814957923422 2.876388853920868 0
11.32869265437794 23.04874528149138 0
24.61456499147666 15.45142042188684 0
13.83965549326239 22.75949698236968 0
13.22730343266254 4.832192351860662 0
13.47654656655368 20.79122052883384 0
17.40264765679505 18.63995171341062 0
13.06935954494363 20.0740431960185 0
22.9966316972954 17.31891546980405 0
20.48558363160471 15.70220082859675 0
10.26385511980367 11.44806722125116 0
10.83364146876982 6.754827660013431 0
13.88375480598624 18.25207402076819 0
13.76267070512109 17.70220888655651 0
10.36739775265062 19.42348039788262 0
14.71282587198771 7.992513107046644 0
10.30783512758623 17.19797800937894 0
23.86166977377777 5.104641437329921 0
19.57779822579399 19.98710257262526 0
18.12720075914557 15.96815517866923 0
11.87683362768125 7.76804111879177 0
24.74468026602462 18.44008824305654 0
10.56795057143598 11.544100484172 0
18.97726233718863 16.04432797377714 0
10.33796482726639 24.00668954213774 0
23.8850790330785 7.371406876478143 0
20.79360612048225 14.16822835305722 0
13.37067337046116 2.878297729031275 0
21.60602633959828 7.9369124730468 0
14.65536360716008 4.112120502087541 0
24.10956117522932 14.72347218875447 0
14.15874032031391 20.0833830076735 0
10.63075769238236 15.76214874159131 0
13.09542937756444 21.75197548307032 0
24.33137452901851 18.9572608105177 0
14.64435012070951 11.61539584502366 0
24.54067351323668 8.359706748225355 0
13.24298584261872 21.33924118356376 0
24.33486035583349 14.50221294320871 0
17.95044091212725 22.14677733111822 0
13.07140905669542 23.40238408694236 0
11.32581202731011 14.86269376467292 0
23.32450541441073 20.25907030559468 0
23.1234834966734 7.76879382808707 0
21.053752447413 20.0480171095347 0
10.49145410664402 8.604937541635998 0
14.15497141268986 10.21987804313135 0
13.92308164947626 21.4028311809631 0
21.33167034699897 20.66077474248763 0
11.26710873044632 3.392787774817802 0
15.65492022858195 19.27704320550333 0
19.76477760329546 18.0687987801321 0
10.22865229096355 19.71825587404138 0
16.40853307740784 22.00695231903583 0
10.62237675190885 16.41839237107386 0
12.95600180952821 6.697133586142447 0
23.68771933348395 15.76058489657578 0
17.03515430038678 18.33000460370243 0
11.83082451591245 21.47791998714801 0
22.36751279040681 4.256765257743608 0
11.69886893417176 18.31539057173683 0
22.12219999911679 4.476838257319094 0
11.55593834291748 21.5771517744718 0
14.49080051013079 21.76739463824997 0
19.42920088081492 15.92495077918768 0
13.72199520388239 3.034424080455547 0
21.6293266278644 2.878297729351203 0
21.27286833585357 2.747305361643164 0
10.48065967469057 7.290139528242736 0
11.86124345831092 20.40432662466046 0
21.23623018510235 14.05051718560126 0
14.09373627591488 3.904778123790361 0
12.13244889791622 18.85680926651507 0
20.3446363936419 4.112120500885691 0
10.4492593389429 13.14352121797875 0
17.63085457964838 17.68162272441499 0
10.97247519204469 9.944502179449856 0
18.81936091201274 18.69168732734907 0
24.66618657055869 8.745525170251153 0
17.98006384517337 12.97713982583745 0
21.77265407490636 4.832423649749398 0
10.32132663717227 12.79085810261459 0
22.18254875358877 12.11425535387194 0
12.56239630379993 12.96095267009355 0
15.77526386883657 21.40501382348926 0
12.83734732946317 19.89938915995284 0
12.8644944172583 6.18520702539344 0
10.51117912892107 12.49142190307899 0
12.04076666174555 20.963809425971 0
23.55638991370192 12.70588354339738 0
14.00619752927008 4.990916422489253 0
11.34875258737758 6.986443334161933 0
15.81239793699469 22.57502581435937 0
21.98566401402098 19.79916574430548 0
18.51164225688965 19.22043753411374 0
10.43587964993443 6.147592720414708 0
20.18581208491237 19.1447814833201 0
13.96315781869441 12.38197857733876 0
19.03693859814521 17.32974350036082 0
11.57210271978025 23.33722641930405 0
21.65813389726751 16.71698431228073 0
13.32445384692135 19.93110842643644 0
11.17928254835451 4.797752073612322 0
18.89859107270605 20.75119808761333 0
18.35996198547859 21.38891163228816 0
20.71111706958784 15.21173613352166 0
23.39890144339423 8.0006242950436 0
22.18000541459973 14.27634742992901 0
21.4575911487037 7.301601666609728 0
11.80349405663737 14.74878065065139 0
23.38218262200832 14.35186086946872 0
12.15074922609516 6.574011233611878 0
10.48405849287251 6.704422471152865 0
24.51396049393482 6.706670719907759 0
22.36118452971346 6.575098444469845 0
14.22635025073142 8.862946805250182 0
20.86659306588398 17.76542159061054 0
22.51981898895265 18.65757992824996 0
19.87563025349232 18.48210919258735 0
12.24798369076476 9.131821964923766 0
15.21239120388313 17.01339483923338 0
20.70385319827835 8.211609296208916 0
15.37606007398583 18.17269054583319 0
23.00697603164991 17.77088848366402 0
16.72971492330438 19.6332051745948 0
20.00075565558306 20.13860456737045 0
24.64002684963592 17.62859305989637 0
22.68442599069006 12.59287612420727 0
21.66281087168603 18.32658468344416 0
11.690505477249 3.894354787977438 0
10.83594171123677 5.367173022972896 0
23.49566861113524 19.73358684680953 0
12.10535087042591 15.96416310821936 0
12.15792048836791 5.942667330556877 0
10.42106627144159 10.71110215502072 0
11.2188645264891 15.59269973132202 0
11.15240341506412 8.661958750697885 0
17.70552777971035 21.53773437094302 0
21.27119904729678 11.78884918465124 0
13.33357610037236 10.72491681741283 0
13.41233631669673 22.57287530115363 0
15.06313831972925 19.77511584729704 0
11.38420999306805 2.863244958242832 0
14.64883178710169 5.149489729671531 0
20.5508965430276 8.918023923666208 0
11.05918127835553 11.23424265247222 0
15.31850873833711 22.00915713248294 0
18.51508042132399 16.6152493090304 0
22.96035782151202 18.03294520868551 0
24.50116704879857 9.443935386728539 0
20.2258400505914 17.2347180960031 0
24.63791747114537 18.74036884949188 0
20.96842419886388 6.903346653793253 0
21.25437008425312 5.117979331521503 0
17.03860768299814 22.20812792655467 0
12.1453308490733 10.49188106514166 0
11.38654595022055 20.7240230464904 0
23.61237316568796 9.582351329941035 0
12.63864038184651 6.575021707258752 0
13.51426770662131 17.3765931605846 0
10.27678134205117 20.49695998582025 0
11.94800855494705 6.186240370370886 0
21.0841157827619 4.338470643831134 0
15.15552961395917 18.79773914804344 0
15.38224689240011 13.13004630986451 0
22.62518698833017 9.470488005070175 0
23.39612413313571 5.530112952324666 0
13.91588421830575 4.338470647345813 0
12.89758137680304 4.178094769916628 0
23.73288553786752 3.392778826345378 0
21.07560259750477 8.958972562474855 0
10.81787659171314 2.821292830739828 0
21.90689788465095 14.68817774288602 0
18.53534387029848 16.24258974899245 0
14.4523744080379 20.31221919337303 0
10.67406205991648 3.41268427412973 0
18.34684734363695 12.73903449149991 0
17.74117401639037 19.04163369426734 0
12.29781048935432 9.895919450530783 0
12.50292497580322 18.32666780920877 0
17.16839066125107 19.86268831863542 0
11.94046307614528 11.1048067181128 0
10.54886363260492 17.44624128992445 0
13.90571422551059 8.87005074757695 0
14.65306683333617 10.86613380320409 0
12.90425459412266 17.80439579325197 0
11.17288508052693 16.71124468926356 0
21.77340865168452 3.916956150837176 0
21.0599619645685 16.28901783483155 0
14.4842957978719 9.722593510449471 0
10.7945180055778 20.31828023464741 0
10.32810720257359 10.38366338268008 0
13.45206927596348 23.48153137105373 0
20.41289516438186 6.2841589578716 0
10.89423615218617 12.4782627902948 0
13.59720189204191 4.242112844149801 0
21.40280172928262 4.242121436955475 0
21.56239083386079 10.17860177128911 0
12.74195132085927 7.947913087370097 0
10.21268520732613 5.185895662721405 0
11.32326289299031 8.291348583157252 0
23.95741462193159 6.970224297178996 0
13.13301550177574 22.66789054844361 0
15.82271671827297 17.84938033501405 0
14.5559482144671 8.27074752994871 0
12.43626842045842 7.250635511545743 0
19.26659896917477 21.4864264137092 0
24.07383952257105 4.608353151956458 0
14.17110041963336 5.680584817155687 0
22.17874449431421 18.28718426955597 0
15.11157837877082 20.19364117264927 0
18.94573035901887 19.85273357267572 0
23.82107672908114 4.797614021620824 0
10.48256908505606 9.417196846502383 0
14.49169221853722 11.96428571426559 0
20.61815945702722 18.39266287635727 0
21.92169452428512 18.31233440821727 0
20.24562271564383 21.19878195196816 0
10.49132225249501 3.690909949575729 0
11.37537550483762 21.19597991847275 0
18.03657701095148 17.71316658930014 0
17.50094064389424 18.18996019870464 0
13.60915093557215 9.560829737511407 0
20.90626372465297 3.904778124762543 0
11.07104934088376 17.33861632395535 0
20.49570425259964 5.420427080444023 0
11.69855564721876 24.05375744126606 0
22.84167302468691 5.942784721080502 0
22.25756681210606 7.949244432286343 0
22.34507925577086 8.291474199752045 0
13.00176453061768 8.751784099674923 0
13.7724280692905 23.42088537835275 0
12.33539781589932 20.64341887808768 0
11.57470286678405 22.77668947951421 0
21.96617337408038 7.78902634044836 0
12.00806529695273 24.00747196721969 0
13.69376942021598 8.183856514916743 0
15.56776832272436 20.08145325676756 0
22.97722730252152 11.90410505710243 0
21.30825069138548 8.207721615318174 0
24.5343421349239 12.11525549810742 0
21.76541442979403 8.536039868227293 0
20.49725917098985 6.713367637002643 0
13.39455711835251 7.934511832156106 0
14.58250281795759 7.070529644114281 0
20.90715951226188 17.20806521058976 0
16.64695341535666 22.26852465004592 0
12.39262877076147 22.10551935953565 0
24.1593206185279 7.639024961017138 0
12.59343220341968 20.9639553700295 0
24.62101715411164 4.959742786750937 0
24.49462939393435 15.88302537036459 0
12.29071625567596 23.16732114297877 0
14.0598183840244 10.83704937940533 0
13.11122724217352 23.00511360956199 0
22.01228378316095 8.77006613038876 0
22.71503884724027 4.491219760931766 0
21.26015816770581 10.6423965674018 0
22.7912986005593 19.1148137217342 0
23.99125440316168 8.062020943409651 0
21.21909332198324 10.95771428921776 0
14.65300344930494 12.29162772121368 0
22.29321025306644 11.75505854018849 0
21.7893037201333 17.53807103900374 0
13.96834918842192 7.948520768795678 0
14.60058656041214 9.197872696415375 0
14.17814621718192 5.350275638615603 0
23.0160457696637 4.384144126861637 0
12.05585398764692 15.17578217493493 0
22.10760217404389 20.68038975328706 0
14.80428766421818 22.88913787103478 0
12.01805817422558 5.762484390756911 0
24.47899168249854 12.61565228794082 0
23.78698552679558 11.09940724850198 0
23.87517688445304 6.290793904281348 0
24.65881473338741 4.150679871880263 0
22.44775978783114 15.44909622019263 0
21.83418518497581 10.27019649707995 0
11.36335765916026 5.256806744652383 0
21.19327319130372 18.445110136893 0
12.793918477949 23.68954654996821 0
11.76081767529067 19.51564881807573 0
21.90461984418749 11.15173333155822 0
21.61496125604393 4.584242880940927 0
19.6241167862499 21.48598676689522 0
22.5893267392437 14.15599799018019 0
17.54527249339337 19.7874349586958 0
22.0939751209862 16.21616436167544 0
23.27460940156354 19.53623490270464 0
23.85340913042327 13.13610140049952 0
14.87215700370715 15.88942383989756 0
11.98865232943127 8.782549259929297 0
16.23483186891335 21.7511413767239 0
24.27862634473284 17.1670733755992 0
10.90543822751381 5.14566189895967 0
11.9071705338465 20.72557302475684 0
24.69778906308776 5.563370515421561 0
11.99389412376964 21.22615546891784 0
21.59189550602943 19.02065314179739 0
18.19629636024982 21.93428698848491 0
21.9705067420057 4.95620587918833 0
12.65716577659738 20.04849241187942 0
12.87553899099808 6.916379284489808 0
14.49588806463678 8.775020323313242 0
22.38716640602732 20.54912670618514 0
11.38905762138594 23.56569085715482 0
20.38385926570194 11.96934254373152 0
13.82976147023533 3.443460773569107 0
18.86537847701189 12.98610685844768 0
10.75577662554208 24.45563896732243 0
14.77233420748352 20.03987208007128 0
20.29536850724714 9.80493541560295 0
22.1366445757681 10.4320389842659 0
23.16484828839451 13.20471570852943 0
12.39613493168608 6.702929664572467 0
21.12038240609773 18.89582186950173 0
24.67237685561465 14.71354167007821 0
12.39534578491777 11.60917636425614 0
23.99367159077898 17.52485911264005 0
13.65346186523158 13.9371603325569 0
23.18814089898527 3.391242328503979 0
12.1824247799243 19.57821131158662 0
23.87305184060433 3.815838977033273 0
12.2125082427486 23.78365250468664 0
20.12006921792542 18.24660709525126 0
24.73018023364882 5.883126406884266 0
17.13987818958704 19.46109026116321 0
16.40127545429308 20.64759200582144 0
14.61220555996108 21.97290209238837 0
22.97901301012789 14.89326118719548 0
10.93307537333089 23.12813677096539 0
20.55399264025965 19.53074789284784 0
22.27964139083062 18.82920142194709 0
13.59325439699909 6.559756251907714 0
12.21999659158558 14.01271916311423 0
13.12897871038548 4.589140663202174 0
12.81388581945816 13.99793347252791 0
11.69467897146646 12.49369170633216 0
12.24921364019689 7.416573739509383 0
21.34601036566652 16.03033983871648 0
21.14833315523534 12.85486548132517 0
21.93013184606044 9.739501449748817 0
22.90120681238054 5.374964818015977 0
21.93523320450313 19.5456175618187 0
20.29790352984006 9.45891459859764 0
23.0048601375535 8.792351485085726 0
10.93028362892687 7.74868319575814 0
22.041059999573 8.425422780067912 0
11.47140835572507 17.69119174585749 0
20.66344424036875 21.19487821349259 0
14.72385097778394 13.09705889942513 0
22.57198188653329 9.779857777497064 0
22.24490664383754 20.00203219611144 0
10.36616733768889 7.925559134115749 0
12.06049650481087 4.625191425838609 0
16.61710578045654 16.02076975924435 0
20.54546415875912 10.33680640516446 0
16.42857142937082 13.87244898555864 0
23.229953888027 4.367847673872784 0
21.65911525767807 10.94205405800213 0
10.2741867035464 22.27164411792705 0
21.81745792127499 16.46788379964005 0
13.26058497785258 10.14578603389621 0
18.75169086521105 14.0596511401029 0
23.48254294339359 8.669906305760268 0
23.47942869764595 17.40470850784374 0
10.44305838579563 4.628164364346705 0
10.96356657124547 15.81371916086115 0
12.50452522994741 16.19015054792519 0
14.16840009552605 17.38317339672967 0
21.33999836541514 17.13709367904516 0
10.48541961858714 9.805255877301482 0
23.61444962770264 13.7518799520537 0
12.87779152673465 4.476838872599854 0
20.85583487492073 16.52028335284637 0
23.62516710695903 15.45824436224919 0
23.9274246033649 4.098766418820371 0
11.15267761526533 22.41894572749977 0
17.80427560704484 21.23592781261713 0
22.72132417481734 11.59823434769293 0
15.19880540958195 20.79818688637133 0
12.92568587646133 21.64825389347245 0
23.61833087330474 17.82180741338378 0
20.37601968039784 10.89195941921108 0
10.22501726489163 17.9660838160002 0
14.91481567178216 14.00464128201611 0
11.17422909930231 6.631688580401004 0
23.07192240022212 19.32988481716509 0
16.83693637753745 21.07443860800807 0
14.55548247912306 4.644860262180437 0
23.41921153732654 7.604089667580419 0
20.44452173844093 4.64485523782545 0
10.37503534552427 16.09955689162653 0
12.91519402877023 22.4484903355599 0
23.82630938210577 6.631317230404425 0
18.13780957945722 19.33260757846878 0
16.89986159044772 17.31550396242156 0
10.29415987421001 6.435070958446798 0
17.85714285031339 14.06498105623528 0
10.29353223214245 15.70168397561437 0
23.948562077441 15.90078611844433 0
15.16894139981644 22.93580372843441 0
23.74631733372685 18.80274382115461 0
22.21659001429124 19.13183750207132 0
22.74964008556091 15.18292514919509 0
10.26248094703632 9.650208332392626 0
22.60465516163728 18.44849001942116 0
15.44066495330619 13.99609957853912 0
13.41222504692578 5.981363395243579 0
11.58102698563328 10.98979428705274 0
15.91370764115493 20.89062009062914 0
23.88388149798376 17.75802218128452 0
19.69543495277981 20.32919448647438 0
22.92189869052961 18.82628082196941 0
14.98998591794355 22.62525342181378 0
10.36638896229931 14.32244742579543 0
16.27083598656004 20.04816164575339 0
11.11694396626284 7.371593363688359 0
22.02366420476494 4.741324791283397 0
11.44035015148823 21.78722826504183 0
14.0083343622015 11.17789063922612 0
21.55883362945162 5.657625678807353 0
13.57696686712274 5.34679889929376 0
13.44122620445263 5.657326812321478 0
12.47314596739697 5.560047005039575 0
13.72472244753731 9.194595729199907 0
23.45246155967143 17.64435984081564 0
13.33694587117089 18.50774813231726 0
10.31147801095042 3.408510320664241 0
22.51156731709663 20.08513361193597 0
12.97132215183043 19.29083110873584 0
24.76635618092288 15.07812500036864 0
10.73736320290446 11.2358181456727 0
12.93249028463744 21.82408619811331 0
22.30516904646167 7.369492176444592 0
14.55446699646712 22.24424019918606 0
13.35719496816703 22.90501045244715 0
13.92885236380355 4.64043229136553 0
11.87040794535729 10.41181770930098 0
12.95318323393734 11.2692185139651 0
14.04223954038556 20.81520781498994 0
19.68454685802947 14.09814204566228 0
11.58602392038854 8.363827751211543 0
24.56967638458443 5.312619032526685 0
16.81920111622852 16.32650988727143 0
17.42678170383184 20.53182471379356 0
21.66423912047763 4.164239119032264 0
20.85202217322801 12.56466789764506 0
13.74704012526239 8.514867234398183 0
11.76785855454234 14.26211434292472 0
21.57911730107175 13.48437249281709 0
24.13803932693358 3.870138963525762 0
10.97985702646772 5.945509124690671 0
11.68958702948682 16.09222722751228 0
21.20925310374707 6.344424035006401 0
16.10115417774464 21.44892589154884 0
24.06425476475058 3.241742302962368 0
20.45251649316123 20.39663438631463 0
15.90074812591154 22.28076659141278 0
11.502499186036 14.53253851550128 0
13.68970333876344 5.817574933420467 0
14.39665662290429 19.48329687160822 0
11.96551449355365 7.503309690031688 0
21.03170015335711 11.54582335926501 0
13.19311204132709 9.338095362139395 0
23.17500199172413 12.77712261913239 0
16.49580692596803 18.89917560862386 0
24.02054060746114 5.945239699588234 0
20.90366804239309 10.45131795922398 0
13.64153241421794 19.11515990042378 0
24.07322311898714 5.615363282051032 0
10.28390241321318 19.96416293981542 0
14.38669079329208 8.541988095275313 0
14.70030953053032 8.55554064763999 0
12.27509515005529 17.10749553983237 0
11.88531212430704 22.37531297283229 0
21.95739924493769 13.64755060776907 0
10.8920495309651 21.86255843452407 0
13.27454378766709 6.194225893644083 0
14.24017044561796 23.29696716398156 0
20.72228975568909 4.704608636071023 0
15.57723395491617 12.8442385930238 0
21.7253976148249 6.19459511449231 0
21.11426822428633 16.62155121291872 0
21.47560620493491 8.576912998666304 0
24.49108523211093 11.34803621953478 0
18.16402278903688 16.47177665302709 0
21.73744669899063 5.477280734249902 0
17.21275002506852 17.46170638501898 0
13.40758065156974 11.99188150553718 0
24.32596344680359 3.412522551433645 0
10.94686282639621 22.17153773816563 0
10.82196630636443 11.83497431975468 0
13.61536347439056 21.30785029066657 0
12.5985684334086 22.03576401981823 0
10.45174194699166 22.53395143834964 0
23.36486219994479 19.24513819965821 0
21.197516256493 20.39023996686578 0
21.17023852922118 3.443460774438228 0
10.80693771124769 22.48435948480674 0
24.06167132264959 9.97065213391777 0
13.03810867455342 3.686070519465169 0
23.70722308073082 14.29525803113501 0
15.13752297654679 21.10866227102044 0
13.53949162820099 13.41258945708368 0
20.91192485994287 19.43161976908794 0
24.66965513316821 10.03898706559774 0
11.29425754911293 17.06204487556904 0
11.12514775738284 6.290982277051313 0
22.6626618381382 18.06371914788555 0
21.63577942095223 19.70961885790076 0
22.81139707248788 7.752826527535565 0
10.29880710350749 7.611595540742524 0
24.08899488563166 4.342085679739752 0
15.97906228300479 14.00369069484571 0
12.89573036100287 5.92090158551477 0
14.58739263072734 6.283877460016901 0
10.79329862631648 19.814492700702 0
11.5594088047495 3.568859215472115 0
23.54040890442636 7.31511943378702 0
11.07306119374241 4.098715823386372 0
16.38210502587279 19.32860722056273 0
21.36686078670628 16.79736655094327 0
20.79570368025256 6.66455362730465 0
21.77643132227232 15.52221595102171 0
13.49133175121354 5.004184223574703 0
23.52349931974382 17.18345366061424 0
13.05347883941631 21.53142700195246 0
11.73075770857637 22.20548555582024 0
23.89289566074595 9.36927001624586 0
23.10733102326277 14.32682106213761 0
10.22105007040708 11.75403223336555 0
12.85149501129308 18.17405508849517 0
12.09074017549896 20.19649213946384 0
11.26281803383756 22.7453970913126 0
24.30260601000198 18.71485007774176 0
23.87487447370214 16.54938298104034 0
23.51069461483966 9.96403906202881 0
12.38306849703446 20.89576744459127 0
10.28689545815286 13.98312373967602 0
23.49440688083255 14.04061750986715 0
22.69407356654438 10.879257066736 0
10.28423322690058 2.788419603257577 0
14.11562187110713 22.58898872229065 0
11.33783777531883 8.93130530081154 0
23.12439636790273 4.881528298287564 0
12.11568811157381 22.88628189412513 0
14.23359811667187 18.27592223447698 0
11.61587196909443 20.12634164270766 0
20.51063330740625 7.442840853136589 0
23.23644963376079 3.144744999593998 0
12.5793925171293 3.522423128035816 0
15.65290002643818 18.83353488128549 0
10.74174836076395 9.70078471342107 0
23.24429422354014 9.416882047887219 0
14.49268440305903 7.447193184975867 0
21.00616189023248 8.290531018483966 0
17.59222652800521 15.90135548132327 0
10.44188131237471 16.81361966324721 0
22.60607554163455 6.430523703944666 0
10.27194179987199 5.888800760647951 0
12.09880106693822 5.374882695955332 0
21.76594273053693 5.071256315372732 0
23.55450208065487 16.76558113239662 0
20.81869918749244 13.80205432548954 0
16.28464225422476 13.50797194154153 0
23.13053553099938 6.985000110832751 0
10.9272196479531 5.615155586618615 0
16.34652744115229 16.96563324891713 0
14.8093143694258 17.66744683253386 0
13.9992623572643 5.906729424455235 0
21.00068326297097 5.906759979443457 0
12.84259530754958 22.03209750826054 0
23.55096446852584 20.04436095820846 0
23.66990017315755 13.47136395550064 0
21.90358945263693 6.055515953966214 0
14.45165547057201 17.63762506418017 0
14.29393362755352 15.92355575937025 0
21.46296805435395 19.43752176230293 0
13.06913656533595 21.96522226222777 0
21.26329483010879 18.13139805622359 0
19.9375990886459 12.77472198941778 0
12.93634632703018 20.66676272357187 0
22.50926399330229 16.98881517173924 0
12.65655749058783 22.8949138068736 0
20.47885046791187 16.97230465540443 0
23.62837117002766 6.40417570317698 0
23.9624475299715 13.63420898020399 0
23.63809749411511 15.07362033190897 0
10.85515126445139 11.50390857151543 0
14.20968891426659 6.170953719554757 0
10.36405194389629 21.41405996156659 0
24.1643706356278 5.369191546870493 0
18.62901927731455 20.6478944739611 0
12.1828176103415 22.15879332866437 0
16.53775848210599 21.7678607476778 0
10.53451047565708 19.1618832075579 0
23.95389375291362 19.35532311803259 0
11.7220070950773 11.33019873763338 0
23.46454745457112 18.02533376432611 0
22.3990872338711 2.817355819602229 0
17.15643683526594 16.11492338750481 0
11.54261861824062 16.76155747236311 0
12.00648014369445 5.105390387442882 0
21.46753471567015 12.17480719587561 0
19.34300464078567 19.67299292993314 0
13.64044899749647 11.1980011612393 0
22.76107480239507 3.223877500519445 0
22.5859310096006 4.292954882619775 0
11.03626158615408 6.971624034129059 0
10.80125491692773 16.08087335883748 0
14.74032333309201 4.438881084872135 0
12.40329627105326 19.38861481613948 0
24.18238362908033 2.821386392995549 0
21.74831957314568 6.933534743010863 0
10.74681306640208 8.296617923063023 0
14.53654972676816 22.84378901128154 0
20.95701026050191 2.823804997136468 0
10.66616896771853 15.01302805685588 0
14.04298973487147 2.823804996738738 0
20.06805311132767 16.89606914811514 0
14.74762865621421 3.116144899287719 0
17.94772765331554 17.31335043078447 0
11.29731151992824 9.805462474592119 0
24.7081299765873 6.43916559892696 0
20.39854324046643 3.365996396214214 0
21.54654014475497 11.86621460843407 0
23.20764474336758 10.0784203178093 0
23.14790685035588 18.59130988901127 0
18.95588363433884 21.74919303642667 0
19.17918328535142 20.73008151304066 0
15.98237883527493 19.49224924877786 0
21.66385732045686 16.16233099813866 0
22.93952566048262 4.625191047926461 0
21.60943249305047 3.575987704036549 0
23.06731605013049 5.941341249728861 0
13.46665294239776 3.964518256497382 0
15.64733243683383 20.69043011597112 0
12.68271822647223 20.27769663842172 0
24.73925799691474 9.684139029729298 0
10.3917113186505 24.45398089224183 0
20.99387267283918 4.990952530216176 0
12.14406976249129 18.38510868284981 0
24.65853824768514 19.76122495740732 0
21.91383361040163 9.115074869662642 0
24.08150117066369 16.90507178096539 0
24.38288530395684 14.14359349275407 0
19.65327011076825 16.81701946955624 0
13.51594396900694 12.9945975673577 0
20.29481483181089 10.5198047630936 0
22.29115197699696 18.0079246397799 0
12.96076942242269 8.421258940645728 0
22.71185187713407 2.876389574827294 0
13.92792650532963 12.78897172972841 0
23.20708876687935 13.83378698607186 0
21.01936190523552 7.945002172065363 0
24.24736242298897 12.12329775410331 0
12.5120313363322 19.76404618847976 0
21.86503681361644 5.302049741032105 0
12.40711590218064 12.39452608440273 0
14.02795055706458 22.15545248784939 0
20.8104284295503 9.087081136392193 0
11.62342928749631 6.280601203776291 0
14.62874740051175 20.6463160340029 0
20.50780852968553 19.20347414402556 0
14.12248485858036 19.68027160345448 0
14.36015400513351 21.49909380678252 0
11.5527390737277 4.387967133028411 0
13.26237291206874 14.128027808222 0
19.19504558665 18.53679514591325 0
16.8685160879137 22.46295066874457 0
21.99547876548366 11.48450692034023 0
10.48403061062838 11.88945146375363 0
24.72996694504336 8.122034309193385 0
24.16779068495851 18.51554879471462 0
13.33351433416125 6.434138742945974 0
20.31351517157345 8.03571427408467 0
10.9444740442317 10.52725095799997 0
21.60822196621575 17.38508148362189 0
13.54202900993105 7.301411247274354 0
16.33038486251499 20.38946719509939 0
16.54343264002119 17.33823115267295 0
24.76052148088509 3.081477788651126 0
17.15203050750788 17.04554605592711 0
20.23759087160705 5.471803538638643 0
11.70755771357709 4.761602350989053 0
22.32381208151756 15.86118656218289 0
22.82253252666389 6.27421789701243 0
13.65554818933455 11.7568827471751 0
12.98638831109261 7.47065991104774 0
15.61599357731611 20.37572989384886 0
11.90132659988141 22.62945917244265 0
14.47512026063392 22.59594899772062 0
19.36536751205186 17.72045145217533 0
12.82905618924205 23.1132360632404 0
20.24018699174068 6.854402713980703 0
18.40144858486929 18.42122564171433 0
21.27803354088005 20.94410454667613 0
24.05522467876417 10.66987931428589 0
15.65966589026557 16.08978650518682 0
24.65914342212068 3.358992405339388 0
10.78707638814951 9.168579795612732 0
23.7798976983425 9.853641750620834 0
22.46586662257736 9.207274495002629 0
13.37809379969302 16.94663044443619 0
13.3517196626001 22.26092358308053 0
21.80341723980784 16.96962546878228 0
12.18888121122095 7.75203282386295 0
10.26079976885459 8.886722506960043 0
11.37522965635165 15.2436110658719 0
12.17700549033637 22.63423710808631 0
13.45897833881502 8.334288535876341 0
20.25967688888704 4.43887878830475 0
24.71132381737211 9.165323603437256 0
12.47517592555801 20.43828653622919 0
22.6997435106752 3.495988119488722 0
10.65134865404183 20.04063663803606 0
12.30025381957141 3.495985368228148 0
18.84845684420896 19.09675660439682 0
12.28448020603747 17.95493642060575 0
13.5675694672384 20.10299838801873 0
14.75346756944167 9.821428573787486 0
23.6127327409413 5.775165810779095 0
13.2939590732286 19.08647992524731 0
13.58952137196052 22.35225366063503 0
20.82186492309377 5.350275946560345 0
10.91133760546846 4.341904864667975 0
24.24287964359949 19.20613083355838 0
13.91201168617933 10.52459406994063 0
10.2553809318385 14.65671147050414 0
11.26029794332486 13.29691249074647 0
14.40294296848044 5.229959115475868 0
12.66410691295053 7.081186361930657 0
24.64880172841832 19.37717305158769 0
23.87657556047791 15.3264508130574 0
23.84214289871287 18.28814639223689 0
22.1943526188716 17.10857202603069 0
17.3095162205687 12.70626016574502 0
10.9882512779116 21.26259169140614 0
13.9056095901905 21.88019098459989 0
24.71260721033667 16.11661015701029 0
24.15646092005869 17.83597538090392 0
16.51875407308055 19.8847401271866 0
11.83986517699781 8.573141129279033 0
13.02688686990199 5.133194498672324 0
18.14358486931601 13.19740389025794 0
14.46592991379006 4.397685843797086 0
24.77497603661195 15.80729166162156 0
11.82812494412968 9.405093414683925 0
14.77099997411476 4.820961845242375 0
13.89015057955485 7.255243929282511 0
14.12484575805385 7.560413393550126 0
12.85317604665924 13.42639445265901 0
14.03140026023771 6.903254491943149 0
20.58046345103381 8.631456808453805 0
16.49955293025393 21.46267323514742 0
20.56532677340662 9.262952464458031 0
20.96452573334803 9.77870027970585 0
23.39377145362782 10.47910248606662 0
12.90437772413723 5.29049936201042 0
21.64661401720512 15.10236475743803 0
15.90820634305176 19.89927923579313 0
10.30822372570999 6.983086324262886 0
19.67618584558173 12.92096501879851 0
24.7402308833659 12.73941727183143 0
22.15217557589654 17.87237640727405 0
11.79106740854703 13.14771396061361 0
12.21042230602261 3.965624611612158 0
13.81106231655465 20.63735218266328 0
14.68128685552235 11.21925967998334 0
13.08877660791171 9.041631926398734 0
12.17708396183504 6.274061730771928 0
22.9333672027763 14.09032286655474 0
19.83812083241337 19.18763531045111 0
13.52343636841046 3.296205790847784 0
10.20207314482326 22.62488198932154 0
11.59539260493298 10.34372264055762 0
24.08478888188657 15.05662620901453 0
23.94340026393103 12.01202343550795 0
22.71983800036929 10.1352385543719 0
22.73622257560941 8.527961853805484 0
13.32118822978542 15.84689899926522 0
11.07121750729988 24.28346622805621 0
22.81778867978279 16.24757797799366 0
11.50184569713545 4.713944666739159 0
14.65891944529359 5.717753733730429 0
23.49824564862921 4.713939064482632 0
16.13357929795135 18.64847237319313 0
11.11845163547162 19.94135942966818 0
19.93888543289361 19.81955043218569 0
22.98780164099958 2.768772475289983 0
23.25177275474847 2.881331368049934 0
17.14545468608402 21.1391970039804 0
11.34121563220781 10.45723794999065 0
12.9709190588486 21.14692888747369 0
22.46633594933026 19.47797597488517 0
20.49086240849059 13.95968781601514 0
22.3274158648168 16.95042273645548 0
19.27353033822536 19.95230746632208 0
22.10241862459182 4.178094769693984 0
12.95395522031783 21.36504151146697 0
24.6606259743188 13.31093022750344 0
11.24267360122811 17.93748363879376 0
13.38502376687402 4.584154037956901 0
21.30983764084077 12.56552873400071 0
10.91559699522373 14.79546263073183 0
15.48936706268005 21.30377257992529 0
23.96071254229599 12.79602873876273 0
18.55627932776704 20.03846958899105 0
24.68702578970896 10.44879130051919 0
12.88892493261562 18.48429646044975 0
11.67572808341003 15.10399618514358 0
10.8113151320968 20.94153899700098 0
21.10976817041881 7.253842596486116 0
14.84026151469578 22.11915089445916 0
20.53785626999677 17.75364669809719 0
12.01056679107877 21.71102389573225 0
22.04426334961853 6.697459352032059 0
24.73881661230544 11.8559530441092 0
12.24634287259463 11.94064083294534 0
24.16793222314699 6.751050842355031 0
14.35660415890941 22.05036447163743 0
11.8460770750359 21.9766186592957 0
22.79504312618285 16.72296352626238 0
22.20945388041509 11.12315928267445 0
10.80689256457065 13.18669121010138 0
12.41607423500674 22.51433936430342 0
21.69425312073341 11.31147767642252 0
12.73690991929458 5.474247661861837 0
10.21755564115117 6.692377962998954 0
22.2631673761515 5.474324210135354 0
11.46032796392562 7.315183831412767 0
23.18425111796931 18.02372249508018 0
14.27772977975582 4.704601538556052 0
14.06771608628825 4.152879627384842 0
21.58053316052051 20.80415934933531 0
12.2064687795513 20.3910432861601 0
20.35117370318946 5.149470775377869 0
18.74999998662868 12.70836442437949 0
19.54946757086265 21.23877360003588 0
15.54106582969621 17.40303891040932 0
13.21150760310102 12.63921399058051 0
12.32606904582163 5.414779354661532 0
21.62610407920098 9.339039761713009 0
23.7174272026391 3.646484113389625 0
13.33576088111061 4.164239120205263 0
23.39415195810547 18.8926721243142 0
22.7895809809715 3.965620504679868 0
21.73450033669675 18.09167898737724 0
19.15742325535041 18.93634001090759 0
16.70783667399192 18.03301294829543 0
14.20164053153097 11.62630405779286 0
12.47730402886153 16.85519614049972 0
10.33316581145182 10.01281624175807 0
22.99354166867828 5.105453487600467 0
16.00501693851131 21.14606157666949 0
24.39558107272465 19.91253130950036 0
12.64850183171935 11.01773589684535 0
20.60913938795173 18.81624492767315 0
12.25358347002604 21.93368497611477 0
14.35874920178203 13.42264783482711 0
11.64039279590137 23.06722410019059 0
20.82466994911145 8.780853703809775 0
11.18871890062563 23.3413414977031 0
12.09155667971436 14.47591415246784 0
19.95046395165121 15.82513649707716 0
11.90680503174093 6.443451126562667 0
10.25913476396319 8.374651251209418 0
23.87977530317355 19.11227132159906 0
14.75995861575265 6.854285445354453 0
21.82896586416037 20.05030072013821 0
23.32164531685246 14.93776360593672 0
21.04786061825239 9.206645986887844 0
11.51641458144049 15.77570824518929 0
21.50878486966374 5.004458836122354 0
21.55514534281969 8.327450896125672 0
11.87529809264153 11.89031672573974 0
20.57376158861945 2.764051431087728 0
12.26726648868653 23.53451170671 0
12.63371852841233 17.16009556447558 0
10.57563239904263 20.8520613891412 0
12.12312844188416 7.17953059184288 0
10.32584278570068 15.02152362031209 0
14.92905762692004 18.05852275562319 0
15.40311901874819 18.52532865504229 0
10.40639056233002 4.968427101112288 0
20.41798949016367 7.070301760198558 0
19.40628748783755 12.76284363728453 0
23.45337803614033 4.110895806422415 0
21.25857681533635 17.79682692226357 0
12.79668785625289 11.62901755508867 0
11.98216156703364 3.966399792286165 0
21.71268652448034 8.83430989900149 0
20.14314861252766 19.47079842215854 0
23.56320611566551 18.28898518568433 0
20.84772366372032 12.27314068784754 0
23.01785205295475 3.966389684043908 0
13.66281379226359 4.478083987709427 0
20.82890030334453 5.680601881565818 0
13.94981568678902 8.267598559520158 0
15.49990284888849 21.67460719045889 0
10.7859613449431 17.29294013827456 0
20.67965735952334 17.96693936759561 0
22.09573681234869 5.290720532561572 0
24.62217342885337 12.97796196580871 0
11.54689777784291 4.110673614320006 0
13.97883838794912 3.170453665462573 0
19.43892584552084 13.5012027136691 0
16.96627131093164 14.04672706222914 0
14.22409557172427 16.37061415807296 0
22.86285461540434 15.50674032972885 0
23.06209738022784 16.7336453692112 0
17.26677536735701 19.06373273581288 0
19.11917040569772 12.77582603654033 0
22.87704855632533 7.179846946628372 0
17.15210287681323 21.56005965723216 0
21.42312834893866 5.347010025153744 0
20.79595746325161 19.74308193816596 0
13.09645220386541 19.65647832812757 0
23.65638677056003 8.92415626790715 0
21.66635489925679 6.43434273399594 0
23.98959347371584 18.72744319558339 0
14.50272448096939 23.1599932359907 0
22.16538223622399 9.258408518776 0
13.39877626724176 21.07845415027726 0
23.18055367907985 16.31031220668613 0
12.64869027010826 19.23212032204118 0
14.67131210293434 16.74005279408311 0
21.14242209813991 15.16720076497935 0
21.58761122171583 11.59833362925591 0
12.65830721058775 6.826596702470033 0
24.65328724720757 18.19775253518072 0
12.18823075245536 13.15319314085217 0
23.44732492586201 4.387951341088575 0
20.89575579663481 21.00685394642209 0
11.77292610719219 12.80762865812287 0
21.34444566704711 10.37749347731249 0
21.57633004987999 7.115316822098281 0
12.24218950213097 8.900700085595295 0
10.86069595145669 3.870543214394949 0
12.51468887049574 8.070577432346557 0
20.92794645121027 13.15635066223543 0
10.90327704735058 18.1354445263395 0
24.79171931149369 7.421875006816157 0
11.66744088080744 5.982380379513664 0
14.04148713370678 22.9678015131245 0
15.61645815048521 16.60614562222249 0
14.71653786189827 18.79517521604011 0
10.86142431354155 13.84516039755933 0
13.23164626399042 20.58355265994933 0
20.34211640561102 12.70175997736269 0
23.4311247584521 15.66187492483473 0
14.62638831377397 18.36443870913536 0
23.33256681967563 5.982636468971679 0
22.37989208781849 6.299689486922841 0
19.98756942329223 20.96067297977862 0
10.35550559897825 17.73232605351526 0
22.69285751614971 16.99814902907284 0
11.03180412341521 8.321403989922326 0
11.86152627344834 13.86726080902711 0
12.08485304083501 13.53038637331767 0
13.87199735434169 3.728220529479529 0
24.77475752219881 6.715910339405083 0
14.31875408597329 9.503910260924426 0
13.98257545648312 18.92447081262333 0
22.0810730172858 5.682679761396392 0
20.11844826591661 13.3865259560255 0
24.1065600249122 18.24495412225322 0
24.19406252379792 8.848752378838379 0
11.20957523030011 19.13515240911193 0
14.72318028476253 5.96205021301973 0
23.80947385087567 8.665080147976102 0
22.35775342460477 16.46753627837543 0
13.3252664770767 17.73910616489815 0
12.12076834861779 15.6047049442002 0
17.52612273927713 20.94334517721423 0
21.54163424619414 17.6344424424845 0
14.35182785280953 19.06719656407953 0
13.0108370766269 3.963746689315859 0
10.28130989975517 19.0306740523008 0
12.24589355848914 8.534245521784834 0
12.95195789935349 7.174012249221112 0
13.75849536971479 9.782921362866142 0
14.32588869699365 4.120196930238492 0
20.23696465306145 7.348683113344954 0
20.35238047385418 11.52226155755526 0
23.36890591667363 10.74306345636019 0
21.99340686072064 17.57138430464965 0
19.63097216459656 13.77114839641325 0
16.23746557704347 18.18454760356778 0
13.23419921195232 5.070972926699531 0
20.22170760016868 11.23648933490223 0
11.49038702064453 23.81006541247577 0
14.6996132296206 10.53646635215795 0
12.11474631313771 19.91859680009114 0
17.37528445751814 20.15078157608631 0
23.43715171771467 13.00518766285511 0
11.02630072844079 18.56339046618225 0
12.77042454226791 8.961561570335274 0
20.37023484111773 14.29904054092772 0
23.61597150494304 2.86330533615224 0
10.25420907352735 23.13087496577382 0
23.63691446775122 5.256880722493946 0
21.53538679817256 14.46475209672368 0
21.34943859972025 19.91374608335441 0
24.34754236009892 5.211239288215712 0
12.67072266973776 10.65905009268536 0
24.0995567992995 14.26627875494056 0
22.23646770625746 8.963249645160179 0
21.5073774901078 10.69546013571519 0
14.97218891218658 21.59098629183156 0
18.95040690554242 21.10464445498441 0
11.0644340065823 12.97412648070432 0
14.08216928440204 17.89258471597797 0
11.38751189466788 5.774999454053364 0
23.30962364845141 3.894424740677286 0
21.96189132625087 3.686070516830597 0
24.27800127395124 7.369072737106344 0
14.14731434075986 3.61567886373612 0
14.97541899854117 20.56837661776488 0
20.85268565934375 3.61567886409868 0
14.36396698894994 3.520231536758632 0
17.21636332216001 20.75929993205072 0
23.95687556383163 8.35022987401712 0
21.09617305052266 14.46199816912646 0
11.59066562858934 18.79826878477472 0
13.15376398104085 3.487558294526681 0
22.11971089888814 6.451763710332592 0
13.73326089538143 21.61445302127408 0
12.88019473665972 6.451884846690397 0
19.78868645159158 17.65526775913335 0
23.6152975842731 9.24629048538553 0
10.27295638338075 18.27563462627693 0
11.91877228330025 9.778614572742812 0
21.09552209174807 12.04343665447496 0
16.93871372779204 18.75919874018093 0
24.0269780170849 11.67056506851735 0
16.01296677917248 22.00943353333356 0
24.71413990406356 11.07788617559278 0
24.22505405143166 16.61670811187587 0
20.79026479616616 6.170961998081654 0
23.69995733504357 11.72241242741942 0
18.86733149938686 18.35198163579383 0
21.87663030021564 12.33018068449611 0
22.57499828299277 4.042996204108953 0
14.3849374573929 17.06299027095886 0
12.41407209516368 4.292956876561274 0
18.6053548368806 15.84726856848591 0
12.64406109805687 4.03072304429152 0
12.42500337741764 4.042998037827014 0
21.47331628976143 6.267890707251675 0
13.07684332015825 6.324407227635793 0
13.13509245240409 5.301761304973594 0
12.1733467501682 14.80730556004099 0
20.82214447685858 20.36717340151622 0
22.58916137701243 5.841778097855545 0
16.20383097827453 12.83426084464109 0
11.00025655830116 21.55236012545332 0
17.86392107992403 16.81311126764719 0
21.58777021083684 5.98162994672368 0
21.96386602898724 10.83075056360904 0
24.7159612696968 2.788750835914997 0
10.85445776852217 14.36518994423293 0
16.16048048456276 22.61602003701276 0
17.97288517866617 20.49441410449484 0
13.55654200983781 19.83478442106468 0
15.70032427274944 13.76562302642576 0
21.98524066674221 8.070744435053236 0
13.94248052442468 18.58099917527319 0
23.1148943604826 11.60427263953582 0
21.85960908078139 17.93696538485275 0
24.71210203849747 7.782773650518158 0
13.72713165861394 2.747305361245112 0
20.34107640224616 5.717691280711136 0
22.64105750064742 16.47219735601937 0
24.25710917516508 9.754207971428475 0
24.36707984320993 18.11962612354212 0
20.00466693680641 18.84047429525475 0
24.33451998936015 10.63368365252807 0
21.47656363091475 3.296205791199617 0
22.09785566921517 15.59771203063845 0
23.41657359289345 16.19647064539157 0
12.76551446471764 23.3834057821068 0
11.02600737660989 20.72838357892212 0
24.69935172433589 16.88603384942837 0
23.37771075100858 13.53700530498943 0
22.8333252428086 14.48439269437729 0
21.49394063471498 18.09206469986466 0
11.98399088003224 4.384157899175523 0
13.29726055226343 10.43522377115834 0
13.71040418225267 15.8482508784896 0
17.40313483083159 16.6807645818487 0
21.38277069237617 13.19748808571265 0
21.56722862172208 4.789546584973211 0
17.46521947136638 13.42129834321541 0
21.94154751174169 16.73568446815916 0
16.59287358477052 20.90112437669944 0
21.31018007138594 5.817869190731562 0
10.66461983222617 7.991949282328915 0
17.05874442239196 13.26169686509717 0
22.1043854788842 5.92076799148907 0
10.79523361033223 7.444321859155849 0
18.23740991734558 20.75038292359804 0
12.06349109643849 16.34231354661316 0
12.9190596819131 5.682568224578006 0
12.74807099675162 18.96402430919215 0
21.70847770682753 7.580931819772255 0
13.29099669352697 7.58042063208672 0
13.82153557126136 16.68508326151366 0
15.32461972680924 15.85534418740956 0
12.64244294847847 6.023414183130562 0
21.8710155118332 4.589181337285883 0
21.23985540351957 4.899711032179138 0
21.75095157237197 20.331126923721 0
20.63702242265403 9.636647847673059 0
24.36528571488029 12.3794689304698 0
24.25365935567824 8.254089734349336 0
10.31264129147005 5.623881890444478 0
14.42623840834811 2.764051431201351 0
22.35746991222814 6.023168246331864 0
13.28657353963153 21.61662050240389 0
11.45829475984491 22.27194620389906 0
19.19341025301501 14.18242578802912 0
21.76989374279663 17.74651008385806 0
10.62207935774129 6.426258196174153 0
11.57369127264201 22.00440632994348 0
13.52655452126471 6.2677088039349 0
14.5428414682868 21.18981726940419 0
11.81183414727271 3.391237665505175 0
22.78050009773526 13.80281117893176 0
15.61272473092163 22.345960606802 0
12.0121904404923 2.768774528142841 0
17.44432567813093 21.64983783967459 0
17.0248364143516 21.86346174203915 0
15.69043933195026 13.24202806269278 0
16.67139205914167 20.54083573672398 0
11.60373588500407 19.76925846518679 0
22.25613044113477 7.656984663231999 0
22.31611376438069 8.594384070869637 0
11.58668043835798 2.686142096803708 0
20.27391869359717 10.16120278313116 0
12.64299894704506 22.62870554744896 0
15.58364532377105 22.85916035135291 0
20.28896702935207 8.755101539682977 0
20.28568717702411 9.088142108266197 0
11.71217218880842 12.17787985229419 0
14.40357386615267 5.635806205370693 0
20.63447311948896 16.26254766425968 0
11.12697618953814 3.815771635220681 0
22.56394469199314 7.251108571970285 0
23.66651135307829 4.987283007098386 0
16.84431104018906 19.95034425137185 0
10.57991119528925 6.958418759987541 0
13.29296183766079 8.829072069569937 0
23.75389240492356 3.13587042985099 0
24.18077956952394 9.202645967157423 0
23.37665172917072 6.280666019087491 0
13.31449803793617 21.95189274150076 0
23.98095504966453 19.65065765187718 0
22.82896590182424 18.19279326452383 0
11.28275455529876 3.646293956802151 0
11.11984239266372 12.68327758785735 0
22.34634065665911 10.04771675764578 0
10.65375445078918 5.211171320570912 0
18.26500213776123 20.01602590556532 0
20.49329729602923 4.863891933290475 0
23.20844780403081 16.56007219024084 0
13.58265474874646 18.09205495572972 0
15.34054083049931 19.51820378756527 0
24.38123550820048 4.429197559857556 0
11.85807550189661 23.21686138988291 0
18.51001452467488 18.85120744839544 0
12.82284741798844 16.44907495963054 0
14.6942608743753 9.514149956402568 0
14.30156599129505 6.891145818528917 0
13.9605336133848 6.155524961040264 0
20.69827121740204 6.891810896711429 0
22.77597049478164 18.63586664660561 0
22.20723811123336 14.91596338697146 0
22.24007065441591 13.91072800836175 0
22.36818679113358 20.26868521503209 0
23.65016504080458 7.514470141223949 0
12.89142506207506 9.622625941800957 0
11.97225666357562 22.1843821555907 0
24.33762335674723 4.738662032887701 0
10.68230144442137 23.52603344263635 0
11.61618238463821 6.857400573259342 0
22.01375073854122 7.471276022283441 0
18.0480403493779 20.17639510850234 0
23.38420434881246 6.85780756279595 0
17.65774804073878 12.80089785230248 0
11.02325093120433 9.593627426612896 0
10.28785868196157 16.45502345330132 0
10.66946736669075 9.997423715237325 0
16.09816338688188 17.38711889797349 0
22.76823963114091 20.04016884575758 0
23.91691773649189 15.59734706809284 0
24.73646761660502 11.51970921187323 0
20.97728103899911 11.8062025109094 0
22.80947895253067 13.36725807134761 0
20.11122386820614 20.42908554099083 0
23.03073677337843 19.56501449538136 0
13.81182392468042 4.018621021281343 0
21.18817659278073 4.018622248409744 0
13.49219929575297 9.324586711046845 0
17.61390009129074 22.19616148102802 0
16.96428571286855 12.70836442144615 0
21.13159736463248 8.591040296196418 0
13.69273616720103 7.929120953586403 0
13.1619333842665 23.69034564290613 0
11.06569046160059 10.88106224041359 0
10.85864022652736 16.66192276216719 0
17.64072423634522 13.13902318219911 0
11.34428059051385 4.197273177285235 0
10.72015157149249 6.03866528502537 0
23.65622818240765 4.197344579672823 0
14.26372131306863 12.18570310611635 0
14.22618608465621 8.206644727464386 0
13.64368780343877 3.579826611847621 0
13.07733038942265 3.004012662398396 0
18.69053815998561 17.61015346103439 0
12.3436803876575 22.31399974139872 0
12.83897172702253 19.65226503669873 0
10.3066373134568 18.66607870668462 0
11.17030166714692 21.73801253103546 0
14.73155040635468 19.63746785401696 0
12.98712136682713 12.00463669224636 0
13.26269130301676 5.476940774286716 0
11.17377087181424 17.63964855575906 0
10.28965075658623 23.41376932143618 0
10.62973435625162 12.14852074137873 0
14.78814255495695 21.76678521918685 0
14.32446067001377 12.95379244491919 0
18.87178189290203 16.42578882398861 0
24.28176748970018 6.034338466803304 0
12.61975001236396 6.30033520670491 0
22.7594211080897 8.96244140263512 0
21.35062146984442 9.865781861063388 0
23.08541459470216 18.2686829859102 0
14.57778122393795 13.77228920461457 0
10.23690589189905 3.08579585643762 0
24.75810442391721 17.94495235456387 0
20.30150352634637 18.90347579994031 0
23.832460685687 13.98363140299498 0
11.47502756671828 18.55188585585265 0
13.42338308227504 7.115126075521719 0
12.39365725728634 6.430541883304547 0
12.80352938555086 3.180130076322665 0
13.8223476961579 10.14202267824809 0
12.60449711059737 4.49190234298346 0
22.39550296432824 4.491902168787832 0
11.5928616211151 9.98669912753373 0
11.52125254152985 20.97078807914773 0
10.9358896311034 3.241684855866872 0
23.68899151587 12.39882233244314 0
11.76840359881853 5.055614466676954 0
23.09295071406506 6.443517985764874 0
24.33525439803985 10.04824249419756 0
11.37195741187843 6.404510479408641 0
24.39248386139028 8.600406495257527 0
15.47838418080322 13.49907834380892 0
14.34717565466068 10.99036454590586 0
18.34401274180784 17.96358221629724 0
11.60973263863429 19.32198847662931 0
10.23561204660632 21.98942174011178 0
17.92057795891661 13.71082779404279 0
22.04802950500842 7.174606065277801 0
18.79176494528672 19.53066149353354 0
12.9197160854133 10.04143061529603 0
14.2045328482497 6.664073481954652 0
18.13920268202515 21.12062514335241 0
12.49751383993864 9.650332139753171 0
23.99196075268349 16.17766670235787 0
24.09684851042023 10.33378215455758 0
22.20465899214307 13.34378707420442 0
20.90575932235707 18.40643791029913 0
21.33111197915083 9.152481275350425 0
11.34999189209134 7.514612365096111 0
11.23143670833343 23.77829662845679 0
23.09799429243282 9.055434799091756 0
21.89336861567492 14.9528393065028 0
24.21515878570742 11.36307989580926 0
13.02942351326784 4.955954907540598 0
12.00830115157935 23.62500357897563 0
20.82806459609952 10.13219353196534 0
12.56228354582964 23.13486483823689 0
16.59732058466815 12.78227243978777 0
18.65927433908322 17.19993612969283 0
22.60376518729213 6.703200668683962 0
22.21947996437607 16.73270250289047 0
21.10761229963603 6.639249139787156 0
22.47742638824076 12.34559509364863 0
13.89231049265082 6.639184654044326 0
22.21902063119153 19.66182336396744 0
12.74440521374438 7.656342044810672 0
11.29407121279949 19.72446356424226 0
23.60085486310312 11.37794702626279 0
24.35248153108062 15.30649193152762 0
13.65724290167092 22.59832608046818 0
11.94004188695342 19.68751837715796 0
10.8886307877583 10.20536941318617 0
11.42773881708278 6.687470640112209 0
22.79723883190121 17.91027969390533 0
15.23262341241486 21.70295740612003 0
20.27692535382042 5.962120701174147 0
15.83996039147714 21.73750093396045 0
20.46699746223903 13.17784692137808 0
21.55334730263714 15.80023727006505 0
22.35593898981236 4.030722947800077 0
14.35982551821179 6.461881902998416 0
14.75735633520421 3.750318706912481 0
20.24264366602002 3.750318703483892 0
19.00124373289042 17.74475203337508 0
21.30485616054539 7.935019608739025 0
11.95857013949322 9.064766474661402 0
11.68957233263564 17.49564462307793 0
12.75467221899981 20.49909742860513 0
20.67411130322956 4.12019693014217 0
11.40486200236298 16.39171797025185 0
16.53301775089047 16.54807713106618 0
20.29570867745628 20.17668209913787 0
13.08633694116554 2.762207192696573 0
21.91366305810252 2.762207192018681 0
10.65410071612161 21.81177517471206 0
13.28331801606995 12.30789285461868 0
12.61355063457596 10.10372722033735 0
23.15154862998914 18.84025014582111 0
20.53407294040856 4.397685816969377 0
15.90506877233912 22.82884273130844 0
24.22055253993931 16.00600950674067 0
10.66715676499315 4.743220287654633 0
22.92235037035873 9.564567505203406 0
22.47835259942569 18.00478698648293 0
12.22931974235242 21.06894597105449 0
13.91967236590134 11.67420306664655 0
20.22899947527278 4.820929072478666 0
22.68151819767633 15.97948849598258 0
14.88718662580127 21.26351452291127 0
10.86945403032358 15.5474746001431 0
21.02116161188974 3.170453666198935 0
14.9738566523672 19.07439525442043 0
10.80824496693819 8.847090790946982 0
19.69259977760525 20.9681525564125 0
20.2754029218573 7.662928997263402 0
21.61746713156991 6.695433844957194 0
13.38213825523414 6.694923280067453 0
22.19261061022297 9.821321073569823 0
20.89368356613957 14.84552281002599 0
11.71524247679026 17.80229165424696 0
24.37547132943722 13.76653769705017 0
10.6625265475606 22.95863811055346 0
13.92427110563669 13.62834834644291 0
14.51362340132816 20.89068073842759 0
19.44997785962715 19.27025767708068 0
20.23873315507912 12.32142857082682 0
20.28568629754987 6.559772767040065 0
14.71438350014455 6.559445961594916 0
22.63371905708055 19.30152390275475 0
23.94246992308999 9.656520836132753 0
11.9818970559115 17.28349426725293 0
24.70676997145232 12.43312530125986 0
20.66751429174303 20.68666199739251 0
11.55976741699332 13.95534773682369 0
22.61368091083507 18.89617332580245 0
13.31086292323776 23.19394394258795 0
15.09996471123262 17.41767637207119 0
12.08192435840217 4.840215605183243 0
22.91808148895652 4.840220199266795 0
13.18119482953024 22.42921270391808 0
21.09925826839476 17.98398581334273 0
11.4382030906146 24.26679638840468 0
22.19647066169608 3.18013019066714 0
11.98530591725642 12.46730065006963 0
14.73825431707144 7.689099115812125 0
12.29118249007918 11.1535432026583 0
10.67416987833728 17.76160404643294 0
14.04006794129061 17.04939308430429 0
10.69807039954154 21.25083398036677 0
22.34171053128154 6.826963837919732 0
14.7721617921461 11.9631638971949 0
11.92999924896654 5.544467758716608 0
23.06995542023743 5.544670056969407 0
22.48541492076977 8.071651747414629 0
11.54926005482025 21.35316116117893 0
19.44668163287896 17.32539306357447 0
13.22974002391672 8.53836930986484 0
22.48785371679969 10.60021195246631 0
13.09663519329298 6.055156045368508 0
23.86190028619316 20.0826888425957 0
21.10555458667492 5.302334503243063 0
13.89448970971961 5.302337742498564 0
23.70259079640304 18.48328558791708 0
22.33600777520343 7.081771953485022 0
12.16891256813158 20.78773558228317 0
11.40643594717238 17.38762862102103 0
20.7003836504631 11.36440569907126 0
11.80792115328188 18.90747745710803 0
19.74417388523713 13.24339605113648 0
21.38060495063359 8.863291414914 0
20.69868227952605 3.066593848777574 0
19.03738420394432 13.42312461806909 0
14.07857495514052 21.59842797606386 0
12.14728880549502 6.849038972272668 0
21.3371923154654 4.478106680074356 0
19.98447289105204 21.4306914427967 0
22.67393238555634 5.414784163684136 0
22.85268223890633 6.849275711861178 0
21.12800270718318 3.728220675887293 0
20.63603301123197 3.520231536691284 0
11.02990816367684 19.33700367134661 0
11.27450061493621 11.02309823738642 0
10.22432810941768 21.1777600540332 0
23.3654684847364 11.84512949367855 0
22.20084760843481 14.57948174005363 0
13.68288608249355 18.44105139898688 0
14.26738878082467 9.895193950458548 0
11.55822989348619 9.362072244018151 0
12.01866596331027 16.81504599013334 0
11.00053989270751 16.37441960870826 0
10.29334598081076 12.14150776201383 0
16.74085233805344 16.97254347037921 0
21.6054057656097 18.54579884767536 0
16.73158273287408 13.77789910870209 0
16.67196806831305 13.42979870806988 0
24.70611238906866 13.6820731910114 0
21.98916292440642 3.963746688444171 0
15.1015574204107 13.26543561867419 0
24.73486818501299 3.849993762305423 0
14.76547235193375 7.352905144605029 0
10.95958444927259 4.915051328720383 0
10.24570647909882 3.779321726206014 0
22.5315232497485 7.543250477607742 0
12.49888577723647 13.69473035065831 0
12.46884830865384 7.542583859817488 0
23.23928461373764 12.14473836329316 0
22.67967480913272 18.26809935862932 0
12.84594518895453 22.24362807331021 0
11.97831040602414 8.03211962733423 0
16.60737483510751 21.18473511664132 0
24.04093629906714 4.914757516688014 0
24.3794540081637 6.425474202730501 0
13.75594294285726 22.13477301757608 0
10.68159992513342 23.83263321358023 0
16.52835913172226 22.53926942501961 0
23.58191850613311 19.41030849417745 0
23.01982098603844 8.02994174969312 0
20.30582129117599 15.24631231059198 0
16.21341040731056 20.86996987321199 0
21.53334705843827 3.964518255762872 0
24.20481934255923 12.60654669186873 0
11.15616168603666 11.95958513697177 0
12.81123059798403 12.58745371248544 0
10.25224802881845 9.152860379653722 0
20.27259122076471 20.76257325150501 0
22.43235727400185 12.76057518659086 0
19.91261335254707 16.48213819460063 0
24.41227659684163 11.04054629351252 0
21.99021607316936 18.75206924232263 0
12.23892065932013 3.223872372853143 0
12.233386673599 10.21367293421873 0
14.43190362000903 14.11993868319403 0
11.71772960953916 8.843624151611131 0
16.11155137297659 13.22896290400479 0
21.73513919331502 9.941851117657285 0
21.58828424853316 12.89162521871343 0
23.12057485797482 17.01493766481832 0
20.26805737032278 2.768057370587705 0
14.73194262922263 2.768057370054565 0
15.35176089700657 19.84779030809658 0
12.68436887287868 8.598139469385366 0
16.08416749749811 20.62170184784413 0
10.26629161403836 4.432038061303376 0
23.73728380373281 17.32006844501284 0
24.26890814734158 13.42133547379271 0
24.4395373334792 16.16687736375295 0
23.47417624789982 10.20976098375573 0
13.62308836093222 10.58462216171639 0
23.38823086395051 12.46639004748852 0
11.54855646248536 18.03080924162744 0
11.19936816814251 8.0426335922173 0
23.2316722621059 5.055690965698078 0
12.72148011681405 12.24048322675224 0
23.23197062485312 8.828496016142536 0
16.79341782428055 21.65652382726927 0
13.43263798759504 4.789181994116758 0
11.33363712703202 4.987222090019946 0
10.21700355154332 12.47983868183772 0
24.39956152011104 6.931050205233904 0
23.3813702153029 5.752323341623476 0
16.81117997097998 17.63957781626942 0
21.35631220239173 3.579826627102444 0
20.69689780872643 11.09729879127348 0
18.63487658312622 21.29965677450473 0
13.60397863668176 8.853368986863234 0
21.82245839922931 19.08600220921618 0
23.79975906559876 10.55343735587893 0
23.02344570409901 11.11242415297405 0
15.71008581988465 21.07283126543015 0
24.73398883577651 4.437236189778393 0
22.86702091118349 15.77984358456717 0
11.7635368645394 3.144739024259722 0
12.13206883597377 3.733573580286794 0
22.86793113741924 3.733572955188689 0
12.58557909219328 17.75253906641641 0
22.54301894250879 13.15280212295702 0
12.51917870332579 9.07914754260397 0
10.52413256055388 3.926028849619975 0
19.52040158094655 18.3993744707337 0
14.87896866876689 23.15963332831466 0
21.84623601809269 3.487558293725267 0
23.56874286271751 14.65369018472672 0
22.98179637572182 5.762637586596203 0
12.05929564381107 10.84287824965496 0
22.40578583032256 3.814742095009044 0
12.59421443055881 3.814742567613056 0
13.82311641344329 21.20223693901909 0
13.01541927918111 8.070196413053006 0
13.68264681748258 12.16740887918141 0
13.76025610377165 4.899640604203545 0
23.57268026460549 6.687395573971383 0
23.37465934694483 9.718986837191677 0
20.76750920885801 13.46377806156567 0
22.42246120921967 15.12670136691149 0
20.05374255066465 17.92238701016413 0
20.59706117160918 5.229942436770401 0
10.69491184431031 18.73742976259605 0
14.76240938087916 5.471829438158307 0
23.39855971544106 8.364829940561435 0
10.66017704023842 10.57075716849261 0
21.92862046529459 9.453960959526025 0
11.24617152705947 3.135883936592244 0
11.37858950877919 11.6646555415938 0
22.72120861971112 20.54998950836277 0
24.23794497904297 15.65592807301119 0
17.321852638869 22.29822409786336 0
10.23764068728544 15.37129078002857 0
23.4133646334636 2.686159176050543 0
21.60939716810379 14.78348194895599 0
10.26029499806354 10.93337709977183 0
14.21342987147388 21.27848041607729 0
23.70608978600314 8.030299445402877 0
24.37979315925478 17.71407799065675 0
23.2925120891536 4.761628722934957 0
23.88811625903692 10.83226233904945 0
13.34678560292048 19.68241935959082 0
24.43281222796143 3.886555688782436 0
11.06559116383527 5.33945537238819 0
20.83542137455765 16.81906686474681 0
21.9226696237524 3.004012684263864 0
21.54630953818447 16.95692640837447 0
23.93488530231087 5.339730321340032 0
24.09524129527956 5.145595881986229 0
12.01896745646657 21.42685586083084 0
10.19136708391996 23.72602707953506 0
23.80122309139137 19.8359111819623 0
11.82237645875099 15.77971940300832 0
10.55184136876648 2.696313791696177 0
10.94367256465291 6.501068367320975 0
10.57276838593929 13.39343120749209 0
17.82886953293751 19.47115011974331 0
22.98136961513247 17.57116321829344 0
24.44836940034548 2.69616443613789 0
12.0648946839702 3.441150725683752 0
12.64258557531045 15.82023211768814 0
22.93509805519288 3.441154053253515 0
21.52314012293483 20.47791895086164 0
22.23500681298854 3.655882092618806 0
12.76499318797168 3.655882108707245 0
14.01120082845037 9.134679543948067 0
22.89139339187706 9.910667331305241 0
11.68052412586129 20.58367365340266 0
24.72892172930674 3.616677025279285 0
13.61704329270944 22.84302282584567 0
11.61407733442673 7.095255056204687 0
14.20781618060165 11.90822056956684 0
12.71331223046517 21.09685246446292 0
12.80009378081466 18.72190887859784 0
22.46985435410832 11.08460636457506 0
20.72228729097063 14.51205156674535 0
13.53301089831717 11.4281063712722 0
13.62385212338865 21.90155923856778 0
18.95653320924627 20.51626482081232 0
10.24787741555709 4.718109392148183 0
14.4289588945914 9.01683581762981 0
15.15510260167772 13.65340209936601 0
20.61243195031696 16.63693631114435 0
11.02608606111012 20.22913254766919 0
20.4936357093876 19.78368733912584 0
24.80120689262136 12.1500238897492 0
11.16643774657887 5.781618941664654 0
22.95390980466527 12.61330356002751 0
23.386500749519 7.095468103440828 0
20.95199381544264 17.49054595376825 0
18.72195754498927 20.9383283038995 0
11.39991490306492 22.5353594626045 0
13.01747371882069 10.56357475875278 0
11.88906023623907 6.713852907423888 0
12.86477242417531 20.15746855573644 0
20.58182902791946 10.62146771757793 0
24.05663451101273 6.500527676573869 0
23.83441467617413 5.776709307893428 0
19.60106298846251 16.37352341105947 0
10.61819061727905 22.73354796198288 0
10.88132735080522 23.36192665203933 0
12.21431625928724 19.21288319023936 0
23.11093794609544 6.714058921380323 0
21.18888422146519 19.38205504841996 0
20.85873483889576 18.86265456373682 0
13.15543155639203 5.62650559482802 0
21.84468160592527 5.626766329387642 0
11.88265670417593 20.12465534382085 0
11.00307292860464 14.09341852506651 0
21.5743766024505 4.364279741310668 0
13.42562234856826 4.364255716165942 0
11.03371888154414 22.66120954587098 0
12.09044455019179 9.331506847249457 0
24.7518884586564 4.719556579308215 0
15.38634383218596 22.27844011744235 0
22.67015419463232 19.60748792672197 0
10.58643309404839 17.15339491401046 0
10.60652660578228 4.431711435868062 0
11.15203947314151 14.56032321034293 0
20.59644046079141 5.635754003994869 0
21.26509124428432 11.48098977813476 0
24.79286630111443 10.72386458332664 0
21.88442613698274 14.38405432740091 0
13.31604202441533 9.609168887210775 0
21.05764558328856 19.20716634934865 0
23.91977802915027 14.50214136097269 0
24.78614658399263 8.487158231411765 0
10.68095864903292 19.59049522538722 0
24.80551709451726 5.234375003202012 0
14.30131771929885 3.066593848931883 0
23.24564884326683 16.07603386318392 0
12.40952262322559 10.58008135735988 0
18.66092301058749 13.26720206567727 0
23.31381727832398 18.4076103581928 0
21.83632643966735 18.54058851576751 0
13.19132803504627 21.1200054217699 0
21.57563985531357 19.96993636893828 0
21.35074783240826 18.95057138518944 0
13.47638612981929 21.51808356148378 0
15.89261509249265 12.71518669687922 0
11.54955063703333 10.63415912029993 0
24.79622696299766 19.08589083603112 0
13.79227277193103 23.05303007840222 0
23.16523495135073 8.577997223325804 0
12.03798227803848 23.11373641262637 0
21.03937980953969 6.155520753395871 0
24.37464687452306 5.491365030056484 0
14.50670844354659 4.863901864578635 0
11.96607326680565 4.17241396361572 0
18.99316962205773 13.80260572579375 0
23.03394927787549 4.172369828689743 0
21.02262781960476 10.70152968214577 0
13.3897048806289 18.80789216461685 0
14.71894105618745 22.66511728489142 0
21.43541789605253 18.37541252174456 0
10.2466204724277 17.48815724111523 0
20.93228401773798 4.152879872039242 0
10.27165870042999 13.42183504350936 0
24.35551294529172 14.79749247954257 0
10.99510124793045 9.320416753033234 0
10.71924751915691 3.681241337725748 0
17.70815631785454 20.62598650910669 0
14.74011770000878 8.919945195374263 0
10.87684485595167 17.56665269305277 0
23.13709879692555 10.54331888764455 0
23.24985492918383 11.34650853112207 0
11.77011389502088 4.367864898241323 0
11.2473173908084 20.52558886012572 0
16.51785712157891 14.23703750502154 0
13.83783121435148 17.31919459594511 0
11.14057562591643 2.743022379998572 0
24.27630247328857 3.671536626999775 0
23.85982369733632 2.743175563363888 0
13.21804941950197 13.31191534889389 0
11.98061329833196 19.40848100602697 0
11.83504454002319 23.4442873363897 0
24.30603645385006 12.81622731031295 0
14.32328856030735 20.68862627825823 0
21.2000308659585 15.74197236269604 0
18.03571428190872 12.69818993561667 0
10.21952025638339 8.152373658523365 0
13.12405329399231 4.122838815048197 0
21.87594670725231 4.122838814141988 0
23.41896826615101 16.99460224204504 0
POLYGONS 4934 19736
3 122 123 877
3 1145 329 736
3 1347 468 1192
3 1672 439 1153
3 1213 611 1249
3 1140 421 1945
3 1144 847 1953
3 854 371 2305
3 710 728 2181
3 152 153 340
3 729 1672 1153
3 723 1266 2297
3 1028 460 1329
3 671 982 1631
3 1173 1418 2141
3 27 1268 1270
3 1371 357 1767
3 715 735 1414
3 246 247 823
3 142 143 1240
3 811 824 1516
3 985 911 1627
3 1024 1200 2324
3 1659 1575 2323
3 280 1506 1428
3 309 310 1341
3 404 1140 1945
3 460 881 1329
3 1023 1223 1930
3 1172 889 1313
3 701 36 1525
3 801 660 1914
3 1021 680 1015
3 781 1881 1911
3 1193 522 1182
3 1180 483 1088
3 1285 452 1099
3 1199 2107 1897
3 2091 967 2054
3 1418 1173 1809
3 729 996 1353
3 158 159 1127
3 582 2091 2054
3 1023 1741 1223
3 111 112 1450
3 545 1664 829
3 306 548 1332
3 825 304 1332
3 1290 699 2218
3 1667 639 1661
3 554 1214 794
3 1222 892 2135
3 1659 716 1575
3 528 1200 1024
3 1444 1027 1804
3 1012 199 1647
3 295 296 1535
3 212 213 856
3 524 1120 1441
3 454 614 1346
3 329 1145 1732
3 246 823 1563
3 903 638 2024
3 554 794 1812
3 142 1240 2288
3 1483 612 922
3 419 1489 1685
3 2061 1600 2473
3 811 834 1728
3 391 1600 2061
3 1257 265 1169
3 1338 317 1263
3 309 1341 1448
3 743 927 2566
3 1559 730 2333
3 889 1172 428
3 1581 544 2318
3 761 1667 1661
3 273 1495 1537
3 1521 2407 2283
3 553 1521 2283
3 1641 801 2371
3 1038 898 2204
3 911 985 2441
3 1276 276 1788
3 638 1715 2024
3 1311 400 2055
3 927 410 2566
3 741 1559 2333
3 1120 524 2145
3 76 1002 1446
3 747 230 2322
3 2128 1137 1774
3 710 961 1708
3 1000 371 2013
3 66 67 1068
3 898 1312 2204
3 1371 458 1831
3 562 735 2337
3 219 220 923
3 916 1026 2076
3 693 1483 922
3 1489 619 1685
3 1664 352 1700
3 883 928 1182
3 859 1445 2379
3 474 1535 2025
3 647 1309 1885
3 867 914 2314
3 527 1605 1758
3 375 1687 1684
3 709 1213 1249
3 452 1285 2280
3 516 825 855
3 548 473 2028
3 1868 712 2295
3 1628 456 1188
3 271 28 1574
3 1086 627 1747
3 789 1100 2315
3 1489 419 1178
3 612 1483 1820
3 2063 1219 2113
3 735 562 2046
3 458 1371 2452
3 1712 359 2188
3 198 199 1012
3 212 856 2358
3 11 753 2183
3 1190 15 2184
3 714 674 2181
3 295 1535 1289
3 1534 623 2305
3 1068 478 866
3 699 1290 2074
3 1562 388 1780
3 326 1712 2188
3 825 516 1297
3 473 548 1842
3 1613 441 2041
3 1061 732 2388
3 799 1455 1565
3 523 1199 1897
3 490 801 1641
3 278 14 1352
3 486 1042 2040
3 8 275 909
3 696 748 2017
3 694 875 2428
3 394 1117 1382
3 75 76 1446
3 1320 1025 1543
3 1702 505 939
3 1127 159 2238
3 446 1562 2111
3 865 414 1900
3 575 644 2171
3 1731 681 2223
3 698 865 1900
3 317 2020 1263
3 2166 706 470
3 360 2063 2113
3 699 1691 2218
3 1535 536 2025
3 1137 346 1056
3 833 1419 2131
3 111 1450 1904
3 1625 358 1167
3 1787 69 1339
3 1687 419 1684
3 892 1222 1065
3 1251 787 2308
3 469 575 1691
3 1 89 1476
3 1284 593 1794
3 649 1450 1524
3 502 1459 1356
3 1127 765 1974
3 859 387 1445
3 1808 653 1850
3 1408 2351 1786
3 982 671 1431
3 1114 1260 1220
3 612 1086 1747
3 998 300 1799
3 181 6 1995
3 974 1628 1188
3 859 759 1714
3 1521 553 2177
3 667 814 1876
3 875 694 1337
3 49 50 1492
3 700 802 1194
3 1274 675 1381
3 381 1557 2185
3 1914 660 2403
3 933 1760 2075
3 17 280 1428
3 300 25 1799
3 1126 616 1165
3 877 123 1927
3 2223 681 2029
3 539 1137 2128
3 1266 723 1337
3 610 1386 1442
3 1538 720 1977
3 727 327 1057
3 723 875 1337
3 925 1581 2318
3 1389 1226 2239
3 637 1625 1167
3 88 1 1476
3 961 999 1708
3 717 1000 2013
3 834 811 1516
3 444 805 1006
3 721 1328 1135
3 1131 416 1870
3 1260 669 1220
3 1163 859 1714
3 1138 117 1407
3 428 1172 2368
3 779 1149 1258
3 907 1884 2240
3 441 1177 2041
3 265 1257 794
3 1042 486 1747
3 2351 495 1786
3 1165 616 2579
3 1306 1521 2177
3 1470 393 844
3 1743 874 2012
3 962 486 2040
3 751 801 1914
3 6 182 1995
3 2390 689 2012
3 1265 1827 1598
3 1448 472 1499
3 927 743 1555
3 730 1559 557
3 1804 1027 1286
3 1664 613 829
3 124 125 1118
3 441 1613 1684
3 875 723 1729
3 686 978 1851
3 595 1017 1686
3 1173 2141 1490
3 1338 647 1844
3 935 1033 1797
3 702 1137 1056
3 740 2116 2205
3 529 1355 2543
3 1357 560 2542
3 729 1353 2158
3 2305 371 2482
3 710 2181 2153
3 882 966 1333
3 965 411 1108
3 1785 549 1354
3 1267 375 2279
3 552 1702 939
3 814 667 1966
3 992 661 1231
3 1884 675 2240
3 1232 459 1512
3 1284 2166 470
3 1025 1320 2235
3 907 1900 2331
3 627 338 2278
3 1386 426 1442
3 928 1193 1182
3 1017 662 1686
3 820 364 1288
3 1767 357 1680
3 715 1414 2261
3 1620 757 1221
3 2388 732 2438
3 676 322 1036
3 534 1735 2407
3 1026 916 2064
3 851 1479 1567
3 784 1475 931
3 506 1141 1146
3 928 883 2005
3 1664 545 1759
3 1401 390 1208
3 979 484 2275
3 806 917 1557
3 345 1144 1953
3 821 1408 1813
3 424 413 1813
3 613 1664 1700
3 355 806 1478
3 230 231 2322
3 423 726 1956
3 748 696 1124
3 798 1105 2187
3 356 867 2314
3 304 825 1297
3 548 306 1842
3 357 1371 1101
3 735 715 1096
3 2404 850 1614
3 448 887 1931
3 1429 876 1433
3 1100 666 2315
3 861 510 1373
3 126 127 969
3 1710 381 2185
3 509 1824 1251
3 321 819 1599
3 1547 465 1390
3 888 1401 1208
3 1309 647 1522
3 221 222 858
3 1240 325 843
3 1883 433 760
3 1105 818 2187
3 1477 409 1594
3 1149 540 1258
3 400 1311 1425
3 872 1240 843
3 375 1267 2226
3 348 861 1073
3 1750 281 1793
3 844 386 990
3 1691 699 2048
3 1391 316 1988
3 486 922 1747
3 638 903 2042
3 1455 640 1565
3 1454 322 1660
3 874 2390 2012
3 923 220 2018
3 1117 394 1049
3 338 627 2224
3 1224 724 1511
3 454 1346 2134
3 427 1547 1390
3 620 1576 1006
3 384 910 1079
3 875 459 2428
3 568 1785 1354
3 1328 721 2453
3 714 934 674
3 1586 623 1534
3 506 1310 1447
3 60 1008 2594
3 36 37 1525
3 978 316 1851
3 1562 1347 2111
3 1685 441 1684
3 534 1838 1735
3 1004 577 1937
3 858 222 1060
3 505 1427 1858
3 848 335 625
3 978 686 1938
3 1355 1421 2543
3 726 1379 1956
3 241 1151 1283
3 1307 275 2183
3 278 995 2184
3 1562 1780 2260
3 279 15 1190
3 11 274 753
3 806 822 1478
3 2037 495 2351
3 933 2075 1518
3 2161 1357 2542
3 705 1232 1512
3 1694 657 1862
3 484 979 1549
3 1633 719 1880
3 606 1804 1286
3 524 1492 2145
3 1492 988 2145
3 494 978 1938
3 954 836 588
3 861 559 1073
3 1268 27 1798
3 1691 575 2171
3 1576 444 1006
3 291 1224 1511
3 647 1338 1263
3 322 676 1660
3 740 324 2116
3 978 494 1431
3 145 1317 1925
3 1221 1295 1566
3 646 1179 1304
3 346 1137 1923
3 1870 416 1943
3 847 1314 1953
3 1141 506 1447
3 96 904 674
3 731 174 1534
3 1444 1804 2573
3 286 22 713
3 541 1815 1396
3 650 1273 1566
3 1068 67 1125
3 1576 1653 1113
3 689 1632 2012
3 359 1741 2188
3 352 827 1271
3 1018 1389 2239
3 517 428 2368
3 790 1403 1898
3 1752 833 2131
3 882 1333 2469
3 678 1662 980
3 822 806 2596
3 992 668 996
3 380 1005 1952
3 1157 746 1954
3 1266 1051 2297
3 787 1115 2308
3 23 286 1670
3 874 1743 2558
3 522 959 1182
3 268 1716 2304
3 947 1303 1947
3 850 1350 1614
3 696 808 1124
3 845 1750 1793
3 1352 14 1234
3 8 909 2216
3 340 153 1610
3 530 1538 1738
3 995 278 1352
3 275 1307 909
3 1848 601 367
3 680 1021 1128
3 1741 1023 2188
3 1630 590 890
3 161 1771 1618
3 1077 109 2460
3 922 486 1589
3 693 922 1589
3 285 21 1584
3 1291 1448 1499
3 441 1685 1198
3 1040 977 1324
3 1108 411 1244
3 493 1379 1929
3 1685 619 1198
3 1196 527 1313
3 1066 1908 2497
3 1662 678 1187
3 634 1477 1594
3 1334 844 990
3 1114 726 2085
3 1452 566 1063
3 875 2227 1277
3 499 1514 1213
3 611 513 1232
3 727 837 1299
3 547 902 1949
3 479 1593 1017
3 1946 1664 1759
3 712 1868 1283
3 2349 912 1897
3 2183 753 1980
3 1190 2184 1542
3 527 1196 1605
3 117 1138 949
3 59 60 2594
3 1019 1852 941
3 910 384 2465
3 466 886 1570
3 1568 1121 2382
3 965 321 1599
3 541 776 1815
3 678 877 1927
3 425 1270 1686
3 270 271 1574
3 1459 641 1356
3 644 575 1777
3 1273 650 1122
3 1364 372 1852
3 1087 1808 1850
3 713 1197 1612
3 689 339 1207
3 958 749 2376
3 627 1042 1747
3 886 466 1435
3 1121 1568 1950
3 161 162 1771
3 1341 310 1319
3 108 109 1077
3 510 1423 2160
3 404 614 2276
3 316 1391 2254
3 1021 1015 2420
3 1613 375 1684
3 1506 280 1367
3 590 1028 1329
3 668 992 1750
3 577 1410 2113
3 897 129 1415
3 348 1662 1187
3 335 848 2208
3 969 127 2313
3 79 1029 1331
3 1423 510 1622
3 1783 336 2287
3 1827 1030 1598
3 1714 759 2580
3 805 444 2039
3 305 306 1332
3 304 305 1332
3 820 1288 2300
3 1467 561 1770
3 336 1707 2287
3 1307 755 1102
3 993 995 1733
3 1535 474 1378
3 1824 896 1251
3 1567 1479 2301
3 1777 575 2210
3 1697 907 2331
3 1516 433 1883
3 560 1357 1342
3 436 923 2018
3 1355 529 1993
3 1931 887 2459
3 1033 1239 1797
3 575 469 1806
3 1075 899 2102
3 1519 685 1084
3 808 696 1094
3 1191 1402 1870
3 1852 1035 941
3 94 95 934
3 175 176 1586
3 1240 143 1919
3 1576 692 1653
3 1500 601 1848
3 342 1054 1880
3 1174 833 1752
3 369 912 2349
3 68 69 1787
3 1054 817 1861
3 149 150 1278
3 316 978 1988
3 670 854 2305
3 728 1485 2181
3 889 1196 1313
3 720 1016 1977
3 939 505 1858
3 244 245 1140
3 1395 376 2159
3 426 1386 2523
3 1472 19 2267
3 1475 784 2430
3 1137 539 1923
3 1386 610 2148
3 403 1777 2210
3 145 146 1317
3 633 839 965
3 1861 518 1843
3 1850 653 1421
3 1408 821 2293
3 908 545 1882
3 726 1114 1929
3 552 839 1702
3 1240 872 2288
3 1444 459 1277
3 502 1356 2161
3 1373 510 1824
3 268 269 1716
3 703 1177 1645
3 700 406 2557
3 28 29 1574
3 724 378 1861
3 1075 2102 2402
3 646 1304 1612
3 896 1824 2160
3 407 1221 1566
3 833 1174 1590
3 1427 981 1962
3 1400 768 1969
3 857 587 2389
3 241 242 1151
3 1401 888 2534
3 750 1876 1736
3 962 707 1809
3 1163 1714 2072
3 1504 447 1142
3 435 1505 1832
3 564 1470 2206
3 1452 605 2062
3 757 1620 2270
3 926 1579 1227
3 886 365 1570
3 396 1568 2382
3 10 273 1537
3 683 902 1254
3 276 12 1788
3 1110 1013 2616
3 1305 1787 1339
3 1427 1962 2575
3 1538 530 1968
3 1192 468 1321
3 216 217 936
3 675 1274 1875
3 614 329 1346
3 837 727 942
3 22 285 1921
3 1884 872 1381
3 1083 496 2089
3 824 1648 2250
3 412 1083 2089
3 1158 524 1441
3 946 2101 1947
3 2078 151 2077
3 598 14 1837
3 879 647 1885
3 623 670 2305
3 1485 714 2181
3 415 908 1882
3 327 727 1360
3 407 1620 1221
3 1910 646 1612
3 8 1678 1693
3 339 689 2215
3 919 622 2066
3 464 1115 1343
3 97 98 961
3 172 173 1000
3 1042 627 1871
3 591 958 2376
3 1881 376 1911
3 105 106 963
3 164 165 1007
3 468 1347 2260
3 852 1630 890
3 1008 60 1015
3 1562 446 2172
3 819 790 1599
3 1605 1216 1758
3 827 628 2079
3 823 421 1563
3 1041 577 2113
3 839 321 965
3 674 904 2181
3 731 1534 2305
3 1900 414 2331
3 1054 342 1774
3 99 100 1553
3 170 171 1551
3 17 1181 1793
3 1138 619 949
3 103 104 927
3 166 167 1559
3 1443 21 2236
3 587 2081 2519
3 1868 671 1631
3 1815 1272 1396
3 285 871 1921
3 376 899 2159
3 1728 834 2572
3 937 409 1477
3 1355 435 1850
3 447 1357 1356
3 642 979 2275
3 14 277 1837
3 1171 847 1144
3 44 2157 1913
3 222 223 1060
3 409 937 2232
3 587 857 2081
3 375 1613 2179
3 390 1401 2168
3 728 710 1960
3 371 854 2443
3 272 8 1693
3 81 635 2051
3 512 1033 2612
3 1403 507 1898
3 1090 2017 2604
3 687 1452 1063
3 802 700 2425
3 724 1861 1843
3 402 1828 1533
3 904 96 2255
3 174 731 2256
3 152 340 2077
3 678 1118 2195
3 619 1138 2151
3 1707 1030 1827
3 419 1685 1684
3 430 1743 2012
3 607 260 1165
3 902 880 1949
3 969 1148 1785
3 810 879 2567
3 301 26 718
3 922 612 1747
3 344 1694 1862
3 54 1816 2469
3 756 753 2022
3 1190 752 1201
3 773 1848 367
3 1194 802 2588
3 1027 1444 1277
3 1470 844 2206
3 661 992 2317
3 979 576 1549
3 1054 378 1880
3 260 607 1413
3 535 1387 2037
3 445 625 1977
3 867 356 672
3 1361 488 2101
3 509 1251 2308
3 1381 530 1738
3 643 1029 1494
3 1397 700 2557
3 954 1641 2371
3 1419 833 2215
3 1402 331 1870
3 2028 654 2199
3 590 1329 1111
3 879 386 2567
3 666 1100 2422
3 1019 1591 2156
3 584 1620 1210
3 685 1519 1179
3 619 1489 2307
3 1033 512 1239
3 808 40 1405
3 1673 1962 2335
3 919 898 1233
3 1538 804 1738
3 999 1241 1708
3 1432 717 2013
3 785 1531 2378
3 1072 1538 1968
3 504 1273 1122
3 1134 813 1070
3 1653 764 1113
3 791 701 1525
3 3 129 897
3 905 543 2221
3 1316 402 1533
3 1179 362 1304
3 966 882 2272
3 1364 1852 2156
3 956 1606 1465
3 232 1507 2322
3 432 1482 2070
3 1434 323 1636
3 172 1000 1001
3 961 98 2006
3 1241 410 1952
3 741 1432 1954
3 896 2160 2415
3 1242 742 2334
3 105 963 2244
3 1007 165 2245
3 460 1028 2201
3 1379 493 2598
3 561 1648 1770
3 1735 211 2358
3 325 1240 1919
3 2227 1027 1277
3 411 965 1599
3 914 867 389
3 2157 771 1913
3 793 998 1799
3 1731 23 1670
3 1177 703 2450
3 1412 1342 2060
3 193 194 807
3 876 1429 1294
3 439 1672 1746
3 651 191 1558
3 765 1127 2238
3 881 493 1220
3 1578 403 1826
3 1189 1578 1826
3 1100 789 725
3 712 1151 2387
3 1450 649 1904
3 1993 1416 1984
3 1482 656 618
3 393 1470 1497
3 1470 332 1497
3 1445 977 2379
3 1492 524 2553
3 2101 947 1947
3 1548 555 2200
3 707 962 2001
3 671 1868 2295
3 942 658 2399
3 475 2090 2190
3 1716 631 2304
3 1317 929 1925
3 625 804 1977
3 1908 24 2497
3 1236 869 1915
3 1596 1095 1800
3 1181 17 1428
3 1427 971 1858
3 635 81 1133
3 1834 457 1080
3 521 2223 2029
3 360 2208 2438
3 459 1444 1512
3 926 332 1579
3 1145 581 1539
3 452 1637 1099
3 1347 2297 2111
3 867 351 1212
3 1898 781 1911
3 447 1504 1394
3 1454 687 2147
3 1060 223 2175
3 806 1557 2125
3 1505 435 2031
3 687 1454 2082
3 559 861 1373
3 1686 1270 2366
3 587 1519 1554
3 1519 1084 1554
3 1246 422 2096
3 570 713 1612
3 487 1246 2096
3 1149 709 1792
3 880 1310 2149
3 548 2028 2199
3 460 1145 1742
3 545 908 2492
3 1355 1850 1421
3 378 1054 1861
3 128 3 1195
3 1356 1357 2161
3 1482 600 2070
3 639 747 2092
3 447 1200 1142
3 1659 435 1832
3 1876 814 2309
3 450 1100 1936
3 1310 880 1256
3 877 678 980
3 892 629 2129
3 21 284 2236
3 1274 1738 2398
3 1169 512 2217
3 501 1711 1522
3 1274 1381 1738
3 945 1320 1543
3 1548 385 1751
3 2020 783 1263
3 451 1307 1102
3 995 797 1733
3 322 1454 2147
3 839 633 1702
3 492 869 989
3 824 811 1183
3 751 1914 1677
3 266 267 1160
3 753 274 1288
3 279 1190 1567
3 124 1118 1927
3 566 1452 2062
3 1310 506 2149
3 911 594 2246
3 902 547 1254
3 597 1673 2335
3 2387 1151 1889
3 493 881 2122
3 850 1171 1695
3 49 1492 950
3 651 795 1259
3 329 614 1564
3 747 639 1790
3 1682 574 1967
3 1145 736 1742
3 317 1338 2456
3 1538 1072 1560
3 568 969 1785
3 585 1364 2156
3 1694 873 1458
3 1349 415 1996
3 122 877 1655
3 496 1083 2009
3 694 513 2391
3 1196 889 1016
3 263 264 1214
3 1083 918 2009
3 680 1008 1015
3 1591 1019 1235
3 1823 392 2021
3 769 860 2357
3 1271 827 2079
3 923 436 1973
3 1834 1080 2237
3 1242 775 1772
3 593 1284 2360
3 701 791 2257
3 1504 573 1394
3 1242 2334 2569
3 388 1336 1780
3 1972 205 2131
3 519 1505 2031
3 1029 643 2148
3 877 1123 1655
3 505 1702 1374
3 533 858 1060
3 775 1110 1772
3 766 1707 1827
3 1432 741 2273
3 410 1241 1840
3 1118 678 1927
3 1111 1329 2493
3 435 1355 2031
3 770 1548 2200
3 561 1467 1928
3 1357 447 1394
3 440 586 2554
3 1454 586 1873
3 1671 677 2140
3 793 857 2389
3 869 383 1915
3 917 1682 1967
3 1160 512 1169
3 1342 573 2060
3 1531 664 2378
3 117 118 1407
3 614 454 2276
3 1328 1754 1135
3 1177 1170 1645
3 1151 712 1283
3 677 860 2140
3 1576 620 994
3 377 615 1903
3 1750 845 1756
3 605 1452 983
3 261 262 1126
3 652 1349 1996
3 934 334 2065
3 1079 478 2144
3 333 1586 1724
3 519 1993 1984
3 1521 1306 1508
3 19 1472 1183
3 863 1965 1853
3 1002 382 2035
3 801 490 1874
3 1298 630 1905
3 775 1013 1110
3 816 887 2343
3 902 683 1103
3 954 588 1396
3 1173 962 1809
3 579 1310 1385
3 1025 1351 1543
3 718 1039 2380
3 2405 440 2554
3 549 1785 2268
3 564 923 1973
3 1293 406 1194
3 882 482 2272
3 1241 999 1840
3 717 1432 2273
3 499 1213 2209
3 600 1482 618
3 980 1662 2182
3 1140 245 1563
3 544 1581 1554
3 1293 1194 1943
3 1691 331 2218
3 443 679 2376
3 1947 1303 1510
3 387 859 2316
3 1997 1026 1392
3 418 807 1951
3 225 226 1085
3 1000 717 1001
3 999 961 2006
3 439 1090 2186
3 2357 860 2033
3 1142 1200 2080
3 1859 567 1717
3 2297 1051 2111
3 1878 1948 672
3 1878 426 1948
3 1659 1832 2556
3 1593 397 1753
3 963 380 2244
3 746 1007 2245
3 1123 877 2349
3 884 638 2106
3 335 1410 1384
3 753 1288 2022
3 675 1884 1381
3 1567 1190 1201
3 1419 1972 2131
3 1656 1887 2422
3 2119 443 2376
3 1531 785 1802
3 543 905 1556
3 329 952 1346
3 364 1718 1601
3 1188 456 1136
3 863 1463 1965
3 795 651 2168
3 555 1548 1751
3 1090 439 2017
3 869 1236 989
3 888 1887 1656
3 1147 642 1635
3 807 883 1951
3 1483 693 2277
3 1475 774 2320
3 2231 936 2467
3 1720 851 1867
3 1114 1058 1260
3 401 1997 1392
3 597 1600 997
3 806 355 2350
3 500 1003 1770
3 1448 1291 2605
3 370 1147 1635
3 66 1068 2472
3 1386 643 1501
3 856 213 604
3 646 1823 2526
3 1901 870 1669
3 1058 640 1455
3 2444 1436 2562
3 193 807 1896
3 1492 50 2126
3 1004 438 737
3 1627 911 2246
3 836 525 588
3 823 247 1233
3 1065 1222 2378
3 294 1289 589
3 1200 786 2080
3 1548 770 1871
3 1878 1095 1596
3 1131 331 2171
3 475 1887 2090
3 1159 1659 2556
3 1171 1144 2402
3 1444 686 1512
3 1153 439 2186
3 382 1002 2086
3 1187 678 2195
3 1571 850 2404
3 1361 2101 2348
3 383 869 2179
3 2344 1079 2144
3 1402 1290 2218
3 1519 587 2519
3 1880 719 489
3 881 460 2098
3 468 1780 1430
3 1223 534 2407
3 219 923 1674
3 1599 790 1395
3 1057 327 1766
3 1336 785 1780
3 275 11 2183
3 15 278 2184
3 921 1002 2035
3 959 721 1135
3 1633 378 2043
3 853 605 1076
3 683 1725 1934
3 827 477 2384
3 795 1401 1404
3 1387 1066 2037
3 402 1675 1901
3 784 830 2430
3 1071 919 2066
3 638 884 1715
3 2293 350 2351
3 1379 726 1929
3 936 1185 2467
3 944 956 1465
3 970 928 1607
3 1620 584 2270
3 1350 850 1695
3 314 27 1270
3 770 1042 1871
3 1349 57 1473
3 1028 590 2105
3 509 1373 1824
3 1002 76 1696
3 615 377 2197
3 400 1353 2059
3 513 694 2428
3 896 1593 1753
3 1630 594 1976
3 1324 977 367
3 774 1475 2511
3 1382 1117 2427
3 294 295 1289
3 579 1209 2103
3 591 1574 958
3 1613 383 2179
3 1246 774 1994
3 957 299 998
3 1209 2432 2103
3 1486 745 1097
3 7 229 1577
3 1351 382 1543
3 361 1400 1969
3 560 1342 2321
3 1993 529 1509
3 1088 483 2067
3 158 1127 2289
3 663 1413 1879
3 1450 112 2290
3 1149 779 1836
3 657 1694 1458
3 414 865 1922
3 351 867 1948
3 2017 748 2604
3 701 876 2198
3 1003 500 1229
3 1253 425 1438
3 471 1439 1598
3 1383 1268 1798
3 228 7 1577
3 692 1576 994
3 332 1470 1579
3 631 1716 679
3 1692 796 1561
3 840 1744 1361
3 120 1199 2599
3 1172 1313 2003
3 1265 508 1827
3 1649 551 670
3 754 1651 1485
3 1521 1223 2407
3 1100 450 1656
3 1223 341 1930
3 606 920 2047
3 931 487 1713
3 1009 852 1155
3 1928 1467 2544
3 1584 932 1143
3 522 1040 1324
3 628 827 2384
3 1303 947 2606
3 401 1180 2377
3 1082 1057 1766
3 378 1633 1880
3 1326 966 1544
3 572 1177 2450
3 609 2119 2163
3 328 1437 1740
3 1115 464 2446
3 1823 1050 2526
3 692 608 1653
3 898 919 1071
3 1005 380 1917
3 746 1157 2251
3 1054 1774 2299
3 301 718 2380
3 421 823 2426
3 1507 232 976
3 2157 667 2459
3 1439 1265 1598
3 633 1108 2614
3 962 1168 2001
3 638 2042 1638
3 552 1883 760
3 637 1462 1409
3 1118 125 1703
3 796 931 1713
3 119 120 2599
3 1078 2078 2077
3 401 1971 987
3 1342 1412 2321
3 1180 401 987
3 1416 1993 1509
3 1553 999 2006
3 717 1551 1001
3 364 820 1619
3 380 927 2244
3 1559 746 2245
3 54 55 1816
3 643 1386 2148
3 1507 892 1065
3 870 1901 1608
3 675 1875 2240
3 786 1077 2460
3 1531 639 2092
3 1771 1159 1618
3 1056 624 1817
3 1479 851 2476
3 726 578 2085
3 720 1196 1016
3 768 991 1969
3 179 180 1547
3 1489 1178 2362
3 799 1486 1721
3 90 91 1105
3 56 57 1349
3 920 606 1203
3 404 2276 1773
3 1058 361 1260
3 745 1486 984
3 448 377 1903
3 1084 685 592
3 2055 400 2059
3 608 692 2282
3 597 997 1755
3 361 1058 1455
3 2116 815 2205
3 663 1856 1413
3 1820 1483 1918
3 1351 525 1280
3 1971 1226 987
3 399 1009 1155
3 663 1477 1626
3 750 1931 1876
3 1231 661 708
3 639 1531 1661
3 1004 1937 1958
3 686 1444 1938
3 1923 768 1721
3 2119 749 2163
3 892 842 2135
3 342 1502 2128
3 887 1903 2343
3 375 869 2279
3 1452 687 2094
3 817 1054 2299
3 839 552 1654
3 1344 1571 2404
3 1305 1147 1487
3 482 975 1643
3 504 1122 2081
3 86 1362 2364
3 1548 627 2278
3 1574 29 958
3 418 959 1135
3 1780 785 1430
3 40 808 1094
3 1891 767 1757
3 379 1876 2309
3 608 821 1653
3 1217 2337 2546
3 880 902 1778
3 481 1584 1143
3 1831 1737 2547
3 807 1047 1896
3 809 1597 1953
3 1514 1823 2021
3 299 300 998
3 483 1180 987
3 438 1384 737
3 923 564 2408
3 892 1507 976
3 1108 1597 2614
3 2133 360 2438
3 372 1364 1657
3 1219 1041 2113
3 1148 969 2313
3 1744 444 1113
3 408 1314 1571
3 1401 795 2168
3 65 866 944
3 499 1149 1836
3 1122 1308 2081
3 342 2128 1774
3 424 638 1638
3 594 911 1976
3 934 95 674
3 175 1586 1534
3 128 1195 2313
3 884 288 1715
3 416 1131 1211
3 1440 430 2191
3 614 404 1564
3 323 1471 1636
3 660 801 1874
3 2120 353 2530
3 1591 1255 1546
3 42 43 948
3 834 939 1858
3 1008 680 1759
3 442 2123 2539
3 406 700 1194
3 577 1004 737
3 345 1597 1108
3 1585 660 2450
3 2148 610 2058
3 713 22 1921
3 230 747 1790
3 334 853 2065
3 1744 488 1361
3 580 2091 1639
3 623 1649 670
3 1651 714 1485
3 1725 333 1724
3 179 1547 2609
3 1101 1371 1831
3 988 1492 2126
3 735 1096 2337
3 477 827 1128
3 1105 91 2607
3 732 1061 2524
3 763 1711 2595
3 1163 1281 2001
3 438 1004 1498
3 1044 1436 2444
3 558 1181 1428
3 875 1729 2227
3 859 1163 2316
3 1058 1114 2085
3 1351 1025 1765
3 1084 544 1554
3 1816 882 2469
3 412 1012 1647
3 448 1931 2178
3 308 1448 2605
3 1022 1231 708
3 1625 503 1644
3 1876 379 1736
3 1707 336 2011
3 340 1610 1055
3 432 1928 2544
3 1214 974 2143
3 2430 830 2602
3 256 257 1335
3 1648 1572 2250
3 233 234 629
3 1145 460 2201
3 804 1538 1977
3 416 1246 1994
3 525 1351 2211
3 929 1317 2425
3 615 1215 2070
3 1472 824 1183
3 790 819 1403
3 974 1126 2143
3 1597 809 2286
3 928 970 2050
3 927 380 1955
3 746 1559 2342
3 538 2231 2467
3 1217 562 2337
3 819 372 1403
3 9 272 1762
3 1317 802 2425
3 277 13 1764
3 837 942 2399
3 1147 370 1487
3 458 1737 1831
3 417 1794 2285
3 390 2168 2374
3 1119 413 1907
3 641 1024 2324
3 842 892 2129
3 1477 634 1626
3 74 75 1446
3 485 1714 2170
3 836 954 2371
3 1575 1087 2323
3 638 424 2106
3 143 144 1919
3 1335 1204 1348
3 1003 1467 1770
3 479 1017 1866
3 1625 637 1409
3 18 281 1750
3 1034 650 1295
3 266 1160 1169
3 2116 1398 2560
3 761 1085 2578
3 1714 1279 2170
3 586 1454 1660
3 1085 226 2578
3 2182 878 1916
3 1746 696 2017
3 1637 452 1857
3 1437 408 1740
3 755 1307 2183
3 995 993 2184
3 1495 914 1537
3 99 1553 2006
3 1551 171 1001
3 1395 790 1911
3 927 104 2244
3 166 1559 2245
3 2123 1500 2539
3 776 2120 2530
3 2091 846 1639
3 1864 1092 989
3 1504 649 1524
3 1029 2148 2058
3 765 1505 1974
3 20 287 942
3 503 1625 1409
3 789 1276 1788
3 1562 2172 2570
3 858 436 2018
3 1310 579 1447
3 1055 420 1688
3 1738 804 2398
3 461 1192 1321
3 412 1902 2193
3 1600 597 2335
3 499 1050 2303
3 971 1427 2575
3 901 505 1374
3 348 1187 1354
3 1486 346 1721
3 863 1905 1902
3 1111 940 890
3 1287 74 1446
3 1012 412 2193
3 975 482 1739
3 78 79 1331
3 1905 542 1902
3 374 1067 673
3 721 959 1453
3 1068 866 2472
3 1849 722 1726
3 1161 497 1989
3 1502 342 489
3 813 1134 1376
3 378 724 1224
3 1011 1630 1976
3 1069 482 1643
3 323 1434 2207
3 1551 717 2273
3 999 1553 1840
3 1402 1191 2588
3 28 271 0
3 332 1460 2620
3 934 714 2392
3 2091 582 2514
3 623 1586 1541
3 1270 425 1602
3 1314 847 1571
3 649 1504 1142
3 581 1145 2201
3 1505 765 1832
3 540 1149 1792
3 1410 577 737
3 1048 2312 1751
3 1221 521 1295
3 1561 796 2503
3 945 2058 2491
3 615 885 2343
3 2168 651 2374
3 1884 907 1515
3 647 879 1844
3 51 52 1326
3 1033 935 1795
3 1931 750 2178
3 1181 558 2155
3 858 533 1227
3 282 1231 2267
3 1362 1152 2364
3 959 522 2115
3 449 1914 2403
3 1610 693 1055
3 1675 556 2010
3 1813 413 832
3 2154 594 2196
3 1009 480 1556
3 303 304 1297
3 306 307 1842
3 1673 597 1594
3 668 1750 1756
3 569 1849 1726
3 1470 564 1973
3 584 1210 1844
3 977 1040 2379
3 410 927 1955
3 1559 741 2342
3 352 1664 1946
3 1743 430 1440
3 1410 335 2208
3 2240 1875 2455
3 488 1119 1907
3 1623 744 1915
3 1085 761 968
3 237 920 1203
3 2124 136 2616
3 536 1535 1491
3 1039 718 2281
3 978 1431 1988
3 751 836 2371
3 640 1058 1676
3 216 936 1365
3 1536 1120 2252
3 1448 1341 2000
3 284 20 2494
3 720 1538 1560
3 573 1504 2109
3 1593 896 2415
3 836 1134 2413
3 484 1070 2275
3 1505 519 2582
3 594 1630 2196
3 891 1692 2429
3 524 1158 1835
3 1029 79 1494
3 622 919 2139
3 378 1224 2043
3 1574 591 1243
3 1042 770 2040
3 702 1056 1817
3 1364 840 1657
3 334 934 2392
3 908 58 2594
3 556 1060 2175
3 413 424 1638
3 1586 333 1541
3 1168 962 2040
3 820 2189 1619
3 664 1065 2378
3 1368 2121 2200
3 383 1613 2041
3 1070 822 2275
3 1057 284 2494
3 515 2116 2560
3 221 858 2018
3 377 437 2197
3 1177 572 2041
3 1728 283 2509
3 630 1298 2461
3 879 810 2433
3 2414 1479 2476
3 1966 667 2157
3 2277 155 1918
3 1128 1021 2164
3 1407 118 2599
3 1718 322 1601
3 1126 262 2143
3 231 232 2322
3 2026 438 1875
3 2008 767 1906
3 739 1735 2358
3 876 701 2257
3 633 965 1108
3 905 2154 2196
3 459 875 1277
3 969 568 1703
3 885 615 2229
3 1215 2197 2611
3 183 184 1634
3 86 87 1362
3 126 969 1703
3 1906 767 2223
3 796 1713 2503
3 563 1085 1469
3 506 1720 1867
3 1692 1561 2409
3 945 1046 2058
3 1017 595 1866
3 331 1131 1870
3 1784 768 1923
3 149 1278 1245
3 340 1055 1688
3 1687 375 2226
3 898 823 1233
3 1410 360 2113
3 282 18 2486
3 871 285 1699
3 19 282 2267
3 362 1179 2481
3 988 1326 1544
3 1034 1295 2029
3 456 1628 1518
3 381 1010 1557
3 1231 282 2486
3 1620 407 2014
3 358 1625 1480
3 627 1086 2224
3 810 1859 1717
3 1524 1450 2243
3 2393 1112 2259
3 421 1140 1563
3 1794 900 2285
3 521 1221 1906
3 1127 1974 930
3 1431 671 1988
3 2374 1754 2533
3 270 1574 1243
3 265 266 1169
3 1164 1932 2403
3 469 1691 2048
3 1575 735 2046
3 38 777 2345
3 525 836 2413
3 887 448 1903
3 286 713 1670
3 727 1299 1360
3 1692 891 1920
3 1210 1620 2014
3 873 1694 2214
3 1744 1113 1466
3 1371 1024 2452
3 801 751 2371
3 940 991 1155
3 21 1443 2266
3 574 1682 2549
3 1901 1675 2010
3 191 651 1259
3 514 1069 1807
3 1735 739 2407
3 1716 591 679
3 263 1214 2143
3 869 492 2279
3 1185 936 1681
3 1307 451 1269
3 797 995 2045
3 1483 2277 1918
3 385 1548 2278
3 1040 759 2379
3 887 816 1530
3 343 673 1358
3 1792 471 1598
3 1200 447 2324
3 435 1659 2323
3 936 217 1681
3 1004 960 1498
3 823 898 1038
3 886 710 1708
3 371 1568 2013
3 1285 2096 2280
3 869 375 2179
3 627 1548 1871
3 917 806 2350
3 1712 833 1590
3 1989 828 531
3 784 931 2601
3 1226 1971 2239
3 1497 332 2620
3 1017 1593 2385
3 762 2061 2473
3 1788 12 2301
3 10 1537 2300
3 1818 1486 1097
3 1098 2194 2360
3 403 1578 1777
3 1675 402 1345
3 436 858 1227
3 1637 485 2170
3 1274 2026 1875
3 1137 702 1774
3 834 1516 1883
3 482 882 1552
3 1702 633 1374
3 635 1819 2097
3 1578 1189 1942
3 865 26 1375
3 1948 426 2523
3 1648 561 1572
3 975 1043 1745
3 365 886 2152
3 1568 396 2424
3 1053 2248 1872
3 1634 184 2505
3 2355 611 2591
3 734 1637 2170
3 936 763 1365
3 2335 981 2473
3 766 952 1539
3 569 1726 1909
3 434 2393 2259
3 1278 150 2078
3 1383 583 2296
3 118 119 2599
3 1092 1963 989
3 992 996 2317
3 1289 719 589
3 200 1083 1647
3 694 1266 1337
3 776 541 2507
3 888 1656 2534
3 360 1410 2208
3 759 859 2379
3 2248 1225 1872
3 865 698 1730
3 1825 841 1063
3 2197 437 2611
3 939 834 1883
3 1462 637 2055
3 1047 1754 2374
3 771 887 1530
3 764 1119 1466
3 788 1830 1949
3 210 1838 1698
3 824 1472 1166
3 404 1945 1564
3 588 541 1396
3 681 713 1640
3 736 329 2515
3 513 611 2355
3 590 1630 2105
3 876 1411 1425
3 478 1068 2462
3 1214 554 2016
3 2189 462 1619
3 1651 754 2435
3 1584 21 2266
3 551 1649 2436
3 476 1762 1693
3 2081 1308 2519
3 2136 1129 1570
3 1130 2137 2382
3 1846 940 1111
3 1347 1192 2297
3 1131 2171 2397
3 1411 791 1991
3 585 1591 1546
3 1184 1377 1939
3 2042 684 1638
3 1632 689 2477
3 318 2414 2476
3 1764 602 1837
3 1961 1048 1751
3 959 418 1951
3 1762 476 2038
3 1302 1066 2497
3 637 1167 2528
3 812 1828 2570
3 1049 523 2502
3 1264 935 1797
3 1522 1711 1668
3 652 1996 1739
3 601 1500 2525
3 1824 510 2160
3 1411 400 1425
3 322 1718 1036
3 602 1764 1899
3 308 309 1448
3 1535 296 1491
3 628 626 1810
3 920 1769 2499
3 1697 141 1515
3 336 1052 2011
3 369 2182 1916
3 1215 615 2197
3 1312 569 1909
3 1630 1011 2105
3 1741 534 1223
3 590 1111 890
3 1711 964 2595
3 1720 506 1146
3 2385 1593 2415
3 1648 824 1166
3 710 886 1960
3 1568 371 2443
3 382 1351 2035
3 160 2007 2238
3 482 1069 2272
3 1597 345 1953
3 1069 514 1301
3 1942 1189 2072
3 357 1917 1680
3 2251 715 2261
3 324 1398 2116
3 1719 110 1904
3 209 210 1698
3 1002 921 1446
3 374 673 2044
3 25 943 1799
3 974 1188 2298
3 170 1551 1811
3 1553 100 2052
3 103 927 1555
3 1559 167 557
3 1067 800 673
3 1298 319 2416
3 1146 1141 2373
3 346 1923 1721
3 676 1036 2363
3 1692 323 2429
3 1134 836 1376
3 539 1784 1923
3 1989 497 2053
3 866 65 2472
3 552 760 1654
3 949 619 2307
3 319 1298 1853
3 386 879 1885
3 526 1161 1989
3 1119 488 1466
3 1210 1338 1844
3 876 1294 2198
3 159 160 2238
3 1516 824 2250
3 1769 982 2499
3 943 25 2380
3 1478 813 2395
3 2107 1123 1897
3 110 111 1904
3 400 1411 2158
3 4 1884 1515
3 2451 645 2258
3 611 1213 2591
3 920 237 1769
3 601 1324 367
3 523 1049 2517
3 1707 766 2287
3 1945 1037 1564
3 535 1536 2252
3 373 957 998
3 67 68 1125
3 1411 876 2257
3 985 1627 1964
3 315 24 1202
3 830 891 1207
3 1486 799 984
3 1359 463 2427
3 147 2074 1583
3 777 772 2345
3 1506 580 2370
3 1637 734 1099
3 735 1575 1414
3 256 1335 2076
3 399 991 1784
3 2096 1285 1713
3 1819 778 2097
3 1024 1371 1767
3 1273 504 2615
3 1477 663 1879
3 885 816 2343
3 2079 628 1810
3 487 2096 1713
3 848 625 2388
3 1009 1556 1154
3 321 839 1654
3 1335 916 2076
3 1030 1707 2011
3 821 608 2293
3 191 192 1558
3 991 399 1155
3 444 1576 1113
3 713 570 1640
3 816 885 2564
3 794 1257 1812
3 726 423 2069
3 135 136 2124
3 1279 1714 2580
3 1408 2293 2351
3 1364 585 1860
3 1085 563 955
3 45 46 1966
3 974 1214 2016
3 1067 374 1705
3 1846 669 1260
3 2225 1061 2388
3 546 878 2182
3 1697 742 1821
3 890 940 1155
3 937 1477 1879
3 2141 420 1490
3 38 39 777
3 508 316 2254
3 1941 972 2562
3 497 1161 1621
3 961 710 2153
3 371 1000 2482
3 906 1069 1643
3 397 1593 2306
3 363 1184 1939
3 1716 269 1243
3 314 1270 1602
3 415 1349 1473
3 669 1846 1111
3 972 964 2562
3 648 1312 1909
3 33 621 1935
3 2106 424 1786
3 836 751 1376
3 2407 739 2283
3 1427 505 2449
3 2133 732 1247
3 1808 562 2027
3 552 939 1883
3 1978 2242 2447
3 1982 1983 2448
3 866 956 944
3 533 1675 1252
3 616 1126 2298
3 991 768 1784
3 40 41 1405
3 1579 436 1227
3 285 1584 1699
3 749 958 2487
3 664 1531 2092
3 437 1006 2538
3 1429 1433 2536
3 607 1165 2579
3 1040 630 2461
3 952 1059 1346
3 1197 713 1921
3 695 736 1527
3 862 2133 1247
3 1003 1229 2504
3 288 884 2497
3 979 72 1801
3 1188 1136 1370
3 313 1253 838
3 1232 513 2428
3 348 1354 1540
3 1253 1438 2285
3 693 1589 1055
3 1270 1268 2366
3 458 1459 2418
3 1285 1099 2265
3 912 1156 1359
3 2062 605 2434
3 1006 805 2538
3 1050 499 1836
3 763 936 2231
3 574 1112 1967
3 696 777 1094
3 1423 2451 2258
3 683 1254 1484
3 392 1823 1910
3 252 2377 1604
3 1384 1410 737
3 355 1478 2395
3 1712 326 1975
3 886 1435 1960
3 1950 1568 2443
3 14 598 1234
3 373 998 2535
3 580 1506 1513
3 1005 2136 1895
3 2137 1157 2341
3 1678 8 2216
3 1575 716 1414
3 373 1581 925
3 372 819 2478
3 528 1024 1767
3 1762 343 1358
3 768 1400 1721
3 625 445 2388
3 2026 1274 2398
3 828 1764 531
3 361 1455 1400
3 544 1084 592
3 1195 1148 2313
3 139 1847 1772
3 1428 1506 2370
3 2076 1026 2262
3 1231 1022 2267
3 966 1326 1333
3 1611 381 1727
3 445 2225 2388
3 1455 799 1400
3 630 1040 2474
3 1591 585 2156
3 1792 1598 2176
3 1221 757 1906
3 1917 963 1680
3 1007 2251 2261
3 1112 915 1967
3 495 2106 1786
3 1083 200 1573
3 34 1294 1709
3 1336 388 2325
3 827 352 2095
3 2136 365 1895
3 396 2137 2341
3 1167 935 1468
3 758 1611 1727
3 1323 1545 1683
3 1545 107 1683
3 823 1038 2426
3 1646 1325 2269
3 163 1646 2269
3 732 1399 1247
3 1088 622 2468
3 485 1637 1942
3 849 1186 1812
3 667 1931 2459
3 759 1040 2461
3 840 1364 2039
3 1179 1519 2481
3 578 726 2069
3 501 1522 2444
3 1304 1456 2483
3 1147 1305 1339
3 1537 820 2300
3 407 1458 2014
3 767 1891 1517
3 68 1787 1125
3 58 908 1473
3 1126 974 2298
3 811 1728 2509
3 1479 1788 2301
3 244 1140 1218
3 1600 2335 2473
3 310 311 1319
3 1495 800 2314
3 1714 485 2072
3 1828 388 2570
3 95 96 674
3 174 175 1534
3 718 26 1933
3 380 963 1917
3 1007 746 2251
3 583 1383 1393
3 1312 898 1071
3 1171 491 1695
3 1391 1988 2295
3 526 1276 2315
3 1059 952 1723
3 860 769 2220
3 233 629 976
3 114 1178 1803
3 1285 2265 2503
3 742 1242 1847
3 943 504 2081
3 1718 462 2419
3 258 259 1856
3 1294 1429 1709
3 558 1428 2370
3 1053 740 2549
3 1820 156 1629
3 551 1978 2447
3 1983 754 2448
3 909 1307 1269
3 995 1352 2045
3 1095 1067 1705
3 740 574 2549
3 1785 1148 2508
3 731 2305 2482
3 2181 904 2153
3 1384 438 2026
3 1577 639 1667
3 852 890 1155
3 211 212 2358
3 1469 1085 968
3 956 866 1366
3 462 1718 1619
3 1606 956 1426
3 318 1720 2084
3 228 1577 1667
3 1571 1344 2431
3 1161 475 1621
3 774 1246 2320
3 1117 1359 2427
3 669 1111 2493
3 830 784 1920
3 918 1083 1573
3 891 830 1920
3 1488 734 2213
3 1115 787 1532
3 384 1079 2344
3 583 829 2296
3 1167 1468 2528
3 1804 606 2047
3 239 240 1868
3 1720 318 2476
3 719 1633 589
3 287 23 1891
3 319 1488 2213
3 550 1102 1982
3 1733 498 2242
3 1443 932 2266
3 1323 1767 1680
3 1414 1325 2261
3 1633 293 589
3 1098 897 1415
3 1002 1696 2086
3 1214 264 794
3 866 478 1366
3 247 248 1233
3 1186 554 1812
3 316 508 2521
3 771 2157 2459
3 141 1697 1821
3 1522 1805 2444
3 1016 445 1977
3 1284 1794 2166
3 861 348 1540
3 736 695 1742
3 297 298 953
3 702 1817 1503
3 1194 1191 1943
3 1722 618 2520
3 1739 1996 2555
3 337 1891 1757
3 501 2444 2562
3 1010 381 2234
3 629 892 976
3 1946 680 2095
3 437 377 2330
3 611 1232 2574
3 1600 391 997
3 613 1700 1894
3 665 393 1497
3 208 209 2294
3 562 1808 2046
3 680 1128 2095
3 23 1731 1517
3 1557 917 2185
3 2360 2194 2518
3 1718 364 1619
3 188 1184 2550
3 932 1584 2266
3 2232 1074 1658
3 508 1265 2521
3 486 962 2247
3 791 1525 2311
3 1177 441 2142
3 960 1004 1958
3 1909 1726 1956
3 477 1128 2164
3 393 665 2100
3 962 1173 2247
3 1170 1177 2142
3 330 1817 1886
3 1230 1377 2565
3 1459 458 2452
3 1143 932 354
3 851 1720 2476
3 2051 643 1494
3 935 1264 690
3 1711 763 2231
3 2377 1180 1604
3 997 1262 1755
3 32 33 1935
3 1662 546 2182
3 1313 704 2003
3 1851 1265 1439
3 538 1711 2231
3 1083 412 1647
3 1037 1527 2515
3 1762 272 1693
3 1593 479 2306
3 629 826 2129
3 650 1456 1417
3 1050 685 2526
3 189 1230 2565
3 238 1631 1769
3 2400 169 1811
3 101 2401 2052
3 2401 102 1555
3 168 2400 557
3 1873 2440 2597
3 984 799 1565
3 206 207 1752
3 277 1764 1837
3 1122 650 1417
3 1216 1994 1758
3 660 1132 2450
3 284 1057 2236
3 1794 593 2173
3 591 1716 1243
3 545 829 1882
3 1881 781 1886
3 1032 1627 2246
3 386 844 2015
3 116 117 949
3 566 1825 1063
3 569 1312 1071
3 1162 1163 2001
3 1830 547 1949
3 354 932 1340
3 1059 508 2254
3 1003 656 1482
3 346 1486 1818
3 622 1088 2067
3 883 807 1877
3 329 1564 2515
3 1514 499 2303
3 1527 736 2515
3 70 1147 1339
3 706 1195 470
3 2208 848 2438
3 1846 361 1969
3 58 59 2594
3 558 1327 2075
3 648 1998 2036
3 1928 1255 1591
3 700 1397 2329
3 1643 975 1745
3 991 940 1969
3 1102 755 1982
3 993 1733 2242
3 981 1427 2449
3 2252 1120 2352
3 791 1411 2257
3 847 1171 1624
3 1041 1219 467
3 1204 1335 2442
3 383 1623 1915
3 408 1571 2431
3 916 1335 1348
3 345 1108 1244
3 227 228 1667
3 76 77 1696
3 1628 974 2016
3 463 1398 1704
3 214 215 1250
3 673 343 2044
3 60 61 1015
3 1627 2318 1964
3 2237 520 1944
3 908 415 1473
3 1216 1293 1994
3 1047 807 2421
3 835 1280 2413
3 1398 324 1704
3 1119 764 2437
3 1304 570 1612
3 720 1863 1605
3 645 1582 1775
3 785 1336 1802
3 864 1382 2427
3 520 2165 1944
3 481 1143 1150
3 807 418 2421
3 147 148 2074
3 2035 1351 1280
3 18 1750 2486
3 2121 770 2200
3 1703 568 2195
3 828 1989 2053
3 1311 2055 2528
3 113 114 1803
3 2154 905 2221
3 1525 772 2311
3 546 1662 2410
3 1630 852 2196
3 1134 1070 1892
3 1006 437 2330
3 444 1744 2510
3 1040 522 2474
3 870 1336 2325
3 291 292 1224
3 156 157 1629
3 1074 1639 1658
3 2074 1290 1583
3 1819 82 2516
3 1387 514 1807
3 325 1919 2329
3 782 1090 2504
3 1257 1169 2217
3 36 701 2198
3 1682 917 2350
3 51 1326 2126
3 2171 644 2397
3 1264 431 690
3 139 140 1847
3 952 766 1723
3 281 17 1793
3 235 236 1238
3 1343 1115 1532
3 1434 2292 2009
3 331 1691 2171
3 919 1233 973
3 558 1760 2155
3 1144 1075 2402
3 323 1692 2409
3 1304 362 1456
3 716 1659 2458
3 1200 528 1665
3 1013 2124 2616
3 431 1264 2284
3 1415 895 2068
3 1581 373 2535
3 996 668 1353
3 1582 645 1587
3 932 1443 2369
3 1507 1065 2488
3 64 65 944
3 745 984 2102
3 1031 455 2150
3 9 1762 1358
3 1764 13 531
3 432 2070 2233
3 1031 706 1587
3 1336 347 1802
3 1065 664 2488
3 775 1242 2569
3 1611 478 2462
3 639 1577 1790
3 123 124 1927
3 2353 63 1465
3 913 1316 1360
3 1335 257 2442
3 153 154 1610
3 796 1692 2601
3 1032 682 925
3 1627 1032 2318
3 3 897 470
3 693 1610 2277
3 20 942 2494
3 361 1846 1260
3 380 1952 1955
3 1954 746 2342
3 94 934 2065
3 755 2183 1980
3 2184 993 1542
3 1586 176 1724
3 642 1147 2386
3 1910 1197 2057
3 1817 624 1886
3 1584 481 1699
3 1326 52 1333
3 686 1851 1439
3 1728 971 1734
3 1998 695 2036
3 523 912 2502
3 795 1230 1259
3 1262 2165 1748
3 1147 70 2386
3 413 1119 832
3 1045 1800 1705
3 1056 346 1818
3 353 1596 1800
3 1672 729 1991
3 860 677 2033
3 2090 442 2190
3 1914 1225 1677
3 766 1539 2287
3 1383 1043 1393
3 983 395 2187
3 1397 325 2329
3 2190 655 1621
3 1182 959 1951
3 807 194 1877
3 1016 889 2225
3 673 800 1358
3 940 1846 1969
3 857 943 2081
3 644 1777 2463
3 1171 850 1624
3 2093 1443 2236
3 624 1881 1886
3 1186 933 2219
3 350 1536 2351
3 1275 644 2463
3 1426 910 2384
3 1268 1894 2366
3 526 1989 531
3 826 629 2466
3 72 979 1642
3 261 1126 1165
3 187 188 2550
3 1112 815 2259
3 377 448 1959
3 541 588 1765
3 1123 2349 1897
3 80 81 2051
3 366 1103 1390
3 503 1760 1644
3 606 1238 1203
3 729 1153 2317
3 953 298 1981
3 151 152 2077
3 559 1373 1791
3 251 1088 2468
3 778 1819 2264
3 312 313 838
3 1280 525 2413
3 195 196 2005
3 293 1633 2043
3 48 49 950
3 1050 1823 2303
3 1184 363 2118
3 1682 355 2248
3 1043 975 1393
3 1662 348 2410
3 713 681 1670
3 347 1661 1802
3 405 697 1348
3 1303 817 1510
3 636 2036 1527
3 510 861 2513
3 752 1190 1542
3 753 756 1980
3 1080 457 2551
3 34 35 1294
3 543 1992 1420
3 1997 401 2377
3 1932 449 2403
3 658 337 2399
3 1343 384 2344
3 2440 1152 2597
3 84 85 440
3 1774 702 2299
3 1838 210 1735
3 596 1143 354
3 2318 544 1964
3 141 4 1515
3 1143 596 1150
3 1109 798 2187
3 931 1475 2320
3 1268 1383 1893
3 1399 732 2524
3 125 126 1703
3 327 1316 1533
3 1180 1088 1604
3 1199 120 2107
3 609 1264 2537
3 2314 800 1205
3 1373 509 1791
3 1261 2404 1614
3 232 233 976
3 2058 610 2491
3 1069 906 1807
3 742 1847 1821
3 1471 323 2409
3 1088 251 1604
3 1082 2093 2236
3 640 1350 1695
3 915 1710 2185
3 1551 2273 2333
3 1840 1553 2566
3 1580 553 2283
3 355 1682 2350
3 526 2315 2445
3 800 1067 1205
3 1834 328 1740
3 218 219 1674
3 1009 399 1422
3 283 1728 1734
3 1661 1531 1802
3 719 1289 2253
3 696 1746 1814
3 697 916 1348
3 465 1424 1390
3 1299 837 1460
3 1659 1159 2458
3 620 1006 2330
3 1324 601 1453
3 786 1200 1665
3 269 270 1243
3 850 1571 1624
3 1246 487 2320
3 1264 609 2284
3 1651 2435 2496
3 1091 1488 1965
3 831 1178 2108
3 2436 1649 2498
3 290 1511 2024
3 115 2307 2362
3 862 2063 2133
3 1161 526 2445
3 1820 1176 2110
3 288 289 1715
3 457 2064 2551
3 425 1253 1602
3 1266 596 354
3 185 186 1209
3 392 1910 2057
3 1400 799 1721
3 478 1611 2144
3 899 376 2274
3 1118 1703 2195
3 1828 812 1533
3 1594 597 1755
3 1152 1362 1109
3 1202 24 1908
3 335 1384 2026
3 390 2374 2533
3 2479 1385 2608
3 1760 558 2075
3 1043 1383 1798
3 1320 945 2491
3 249 2139 973
3 214 1250 604
3 1471 1091 1636
3 2165 520 1748
3 833 1712 1970
3 26 865 1933
3 97 961 2255
3 1000 173 2256
3 507 1403 2589
3 1675 533 2475
3 1700 352 1869
3 1754 1328 2533
3 478 1079 1366
3 853 93 2065
3 131 132 1990
3 1784 539 2423
3 177 1725 1724
3 963 106 1545
3 164 1007 1646
3 2294 209 1698
3 1299 913 1360
3 844 393 2015
3 1178 419 2108
3 1819 635 1133
3 1107 953 1981
3 1348 1204 2590
3 1295 521 2029
3 857 793 1799
3 26 302 1375
3 952 329 1732
3 402 1316 1345
3 576 979 1801
3 1051 354 1340
3 1014 1217 2045
3 935 1167 1795
3 1051 1266 354
3 612 1820 2110
3 336 1603 2441
3 1737 938 1269
3 225 1085 955
3 1362 798 1109
3 1290 1402 2532
3 150 151 2078
3 830 2230 2602
3 413 1638 1093
3 996 729 2317
3 1454 1873 2082
3 1488 319 1965
3 82 83 2516
3 1433 431 2536
3 1966 46 1318
3 359 1712 1590
3 1625 1644 1480
3 457 1971 1392
3 843 325 2132
3 1101 1129 2136
3 1130 1096 2137
3 195 2005 1877
3 2298 1188 1370
3 1634 537 1424
3 2063 1588 1706
3 189 190 1230
3 1402 802 2532
3 43 44 1913
3 1934 1725 2470
3 2070 1215 2233
3 1327 558 2370
3 629 234 2466
3 979 642 1642
3 1346 1059 2134
3 1819 1300 2264
3 853 1076 2073
3 577 1041 2559
3 1319 593 2518
3 645 1031 1587
3 1403 1657 2589
3 1605 1863 1761
3 347 1336 1855
3 324 740 2439
3 1385 1310 1256
3 453 1184 2118
3 1052 540 2011
3 872 843 1829
3 767 2008 1757
3 661 1153 2186
3 567 1859 2100
3 1140 404 1773
3 1326 988 2126
3 1611 511 2234
3 2063 360 2133
3 1057 1082 2236
3 1992 480 2025
3 682 373 925
3 465 1634 1424
3 343 1449 2044
3 2230 429 2602
3 1606 2353 1465
3 1245 1278 2048
3 913 1299 2406
3 1582 662 1775
3 928 2005 1607
3 1124 808 1650
3 1632 2207 2012
3 472 1448 2000
3 1089 868 2446
3 887 771 2459
3 384 1343 1532
3 1699 481 2004
3 395 983 2094
3 1070 813 1478
3 1377 1184 2565
3 734 1488 2265
3 1794 417 2166
3 556 1675 2475
3 1626 634 1369
3 417 1582 1587
3 72 73 1801
3 853 334 2434
3 1729 723 2291
3 933 1518 2219
3 1903 615 2343
3 2151 1138 1406
3 381 1611 2234
3 1091 1471 2454
3 333 1725 1484
3 220 221 2018
3 1481 781 2002
3 1488 780 2265
3 948 43 1913
3 2034 828 2053
3 264 265 794
3 406 1293 1761
3 1631 982 1769
3 1611 758 2144
3 1988 671 2295
3 1103 366 1778
3 213 214 604
3 2075 456 1518
3 650 1034 1456
3 2435 566 2496
3 1293 1216 1761
3 480 1009 1422
3 253 254 1997
3 547 2436 2498
3 481 1150 1782
3 1090 656 2504
3 676 2363 2264
3 871 1699 2004
3 1212 351 2480
3 365 2136 1570
3 2137 396 2382
3 1746 1672 2311
3 616 2298 1370
3 819 321 1999
3 2207 430 2012
3 2307 1489 2362
3 2160 320 2415
3 605 853 2434
3 1653 821 2437
3 624 1056 1818
3 1336 870 1855
3 343 1762 2038
3 2116 515 2202
3 1316 327 1360
3 685 1050 1749
3 815 2116 2202
3 1725 683 1484
3 345 1244 1144
3 817 1303 1979
3 580 1327 2370
3 1250 972 604
3 199 200 1647
3 169 170 1811
3 100 101 2052
3 102 103 1555
3 167 168 557
3 1313 527 803
3 1764 828 1899
3 450 1936 2484
3 2373 1141 2118
3 1036 1718 2419
3 533 926 1227
3 1711 538 1668
3 1063 841 1839
3 2030 1261 2069
3 1894 595 2366
3 704 1313 803
3 1311 1433 1425
3 485 1942 2072
3 29 30 958
3 788 1949 1822
3 1451 885 1722
3 1196 720 1605
3 2273 741 2333
3 410 1840 2566
3 829 583 2545
3 798 1476 2490
3 2064 457 1392
3 534 1741 2613
3 745 899 2274
3 423 2030 2069
3 1710 915 1372
3 1856 1204 2442
3 760 1035 1654
3 1720 1146 2084
3 1148 1195 2150
3 1090 782 2186
3 2259 2202 893
3 514 2252 2352
3 1347 1562 2260
3 1850 435 2323
3 1013 775 1679
3 447 1356 2324
3 397 2306 2079
3 1711 501 964
3 791 1672 1991
3 332 926 2406
3 703 1585 2450
3 249 250 2139
3 1511 903 2024
3 907 1697 1515
3 1995 465 2495
3 865 1375 1922
3 685 1179 2526
3 1281 707 2001
3 2306 1271 2079
3 2215 833 1970
3 1433 876 1425
3 2005 883 1877
3 516 855 2569
3 561 1928 1591
3 419 1687 2108
3 511 1611 2462
3 402 1901 1669
3 1086 612 2110
3 1149 499 2209
3 1823 646 1910
3 2028 473 2033
3 1962 582 2575
3 2368 326 2411
3 1046 945 2086
3 1252 913 2406
3 1488 1091 2454
3 581 1783 2287
3 945 382 2086
3 1102 550 1912
3 498 1733 2359
3 881 1220 2493
3 899 1075 2159
3 1760 503 2155
3 1105 798 2490
3 1297 2586 2056
3 709 1149 2209
3 943 857 1799
3 210 211 1735
3 1116 950 2553
3 381 1710 1727
3 369 980 2182
3 1932 324 2439
3 1098 1415 2068
3 868 1089 2568
3 981 901 2473
3 1352 1014 2045
3 1079 910 1523
3 465 1547 2495
3 1153 661 2317
3 479 1700 1869
3 31 32 2163
3 236 237 1203
3 631 679 2212
3 1750 992 2486
3 983 2187 2464
3 938 909 1269
3 2334 516 2569
3 1780 468 2260
3 352 1271 1869
3 477 1426 2384
3 1577 229 1790
3 2423 539 1615
3 1413 607 1879
3 1062 1150 2571
3 1247 1399 1930
3 2356 1842 2605
3 2202 792 893
3 1390 1103 2088
3 537 2479 2608
3 1055 1589 1490
3 600 618 1722
3 733 948 2564
3 1868 240 1283
3 2586 532 2056
3 1156 912 1916
3 260 261 1165
3 1689 722 2417
3 424 1813 1786
3 1327 456 2075
3 258 1856 2442
3 1905 630 1957
3 1341 1319 2518
3 1689 2417 1529
3 1752 207 2522
3 912 369 1916
3 632 1451 1722
3 1907 413 1093
3 528 1077 1665
3 1771 716 2458
3 331 1402 2218
3 1744 840 2510
3 948 816 2564
3 2063 862 1588
3 504 943 349
3 493 1998 2598
3 819 1999 2478
3 917 1967 2185
3 1967 915 2185
3 1907 947 2101
3 473 2357 2033
3 536 1992 2025
3 1070 484 1892
3 512 1160 1926
3 971 1461 1734
3 1847 1242 1772
3 855 775 2569
3 2139 919 973
3 1919 929 2329
3 780 1488 2454
3 129 130 1415
3 411 1599 1395
3 388 1562 2570
3 560 1449 2038
3 764 1653 2437
3 953 536 1491
3 405 1626 1369
3 677 2028 2033
3 394 2151 1406
3 259 260 1413
3 1441 1120 1536
3 1940 559 1791
3 1018 1834 1740
3 1220 493 1929
3 942 727 2494
3 1928 432 2233
3 912 1359 2502
3 2034 529 1899
3 1502 489 2253
3 779 592 1749
3 2082 395 2094
3 662 1017 2385
3 829 613 2296
3 2008 567 1757
3 515 878 1296
3 433 1516 2250
3 718 1933 2512
3 1309 1522 1668
3 1291 2356 2605
3 469 2048 1690
3 1638 684 1093
3 714 1651 2392
3 632 1722 2520
3 1649 623 1541
3 1300 2405 2554
3 895 1990 2396
3 1817 330 1503
3 592 685 1749
3 2048 1278 1690
3 1129 1831 2547
3 2337 1130 2546
3 697 520 1080
3 2432 453 2103
3 1881 624 1097
3 366 1256 1778
3 699 1245 2048
3 1023 1399 2411
3 1810 787 1753
3 2285 900 838
3 563 1865 955
3 1355 1993 2031
3 1174 1752 2522
3 2150 455 2508
3 1994 774 1758
3 1342 1357 1394
3 559 1940 2529
3 1306 1474 1588
3 1013 654 2146
3 320 2385 2415
3 1399 517 2411
3 1077 528 2584
3 716 1771 2099
3 1288 364 2022
3 933 1186 1480
3 1873 395 2082
3 1020 1963 2169
3 2355 1062 2571
3 1299 1460 2406
3 851 1567 1201
3 878 546 1296
3 1312 648 2204
3 900 1794 2173
3 702 1503 2299
3 1672 791 2311
3 1114 1220 1929
3 634 1594 1755
3 1940 893 2529
3 1317 146 1583
3 1958 344 2281
3 1398 463 2138
3 1244 1075 1144
3 2042 903 1843
3 1253 313 1602
3 120 121 2107
3 1316 913 1345
3 464 1343 2577
3 1129 1101 1831
3 1096 1130 2337
3 326 2188 2411
3 366 1385 1256
3 1343 758 2577
3 238 239 1631
3 697 405 1748
3 112 113 2290
3 488 1907 2101
3 157 158 2289
3 948 733 986
3 1220 669 2493
3 148 149 1245
3 224 225 955
3 1760 933 1644
3 1741 359 2383
3 1901 563 1608
3 649 1719 1904
3 440 85 2364
3 2007 765 2238
3 520 697 1748
3 631 1160 2304
3 1700 479 1866
3 787 1251 1753
3 809 1314 1437
3 1601 322 2147
3 411 1395 2159
3 229 230 1790
3 1112 574 2205
3 1250 215 1365
3 815 1112 2205
3 471 1249 2561
3 1179 646 2526
3 1835 1116 2553
3 1596 353 2192
3 1077 786 1665
3 1159 1771 2458
3 353 2235 2192
3 910 1426 1523
3 1026 1997 2262
3 243 244 1218
3 992 1231 2486
3 1353 400 2158
3 506 1867 2149
3 994 750 2412
3 938 1459 1924
3 1449 1020 2044
3 1160 631 1926
3 154 155 2277
3 1039 943 2380
3 442 2090 1520
3 426 1878 1596
3 877 980 2349
3 464 1089 2446
3 772 1746 2311
3 802 1317 2532
3 1298 1905 1853
3 704 2430 2602
3 946 1481 2002
3 1808 1014 1496
3 1573 201 1440
3 926 533 1252
3 1297 516 2586
3 535 2037 2351
3 83 84 2405
3 1195 706 2150
3 2243 1450 2290
3 184 185 2361
3 255 256 2076
3 1127 930 2289
3 536 953 1420
3 2453 442 1520
3 1195 3 470
3 1800 1095 1705
3 984 491 2102
3 186 187 2432
3 1792 709 2541
3 763 1250 1365
3 802 1402 2588
3 473 1842 2356
3 1961 711 1888
3 1887 888 2090
3 1729 617 2227
3 1253 2285 838
3 617 842 2129
3 1459 502 1924
3 475 2190 1621
3 953 1107 1420
3 653 1808 1496
3 1198 619 2151
3 1791 509 2308
3 636 1527 2527
3 1975 326 2346
3 1934 178 2609
3 595 1686 2366
3 1293 416 1994
3 727 1057 2494
3 92 1076 2607
3 1808 1087 2046
3 489 719 2253
3 641 1459 2452
3 2178 750 994
3 1434 1636 2292
3 2158 1411 1991
3 730 2400 1811
3 2401 743 2052
3 743 2401 1555
3 2400 730 557
3 1145 1539 1732
3 1193 928 2050
3 1015 61 2420
3 1314 408 1437
3 1708 1241 2152
3 1432 2013 2424
3 1884 4 2288
3 178 179 2609
3 1865 224 955
3 1607 197 2563
3 856 1580 2283
3 1192 723 2297
3 831 2243 2290
3 91 92 2607
3 930 1176 2289
3 711 2034 2053
3 2202 515 1296
3 1873 586 2440
3 680 1946 1759
3 439 1746 2017
3 852 1009 1154
3 42 948 986
3 1754 1047 2421
3 762 901 1374
3 1329 881 2493
3 844 1334 2206
3 1921 871 2057
3 2016 554 2219
3 1731 767 1517
3 622 2139 2468
3 897 1284 470
3 418 1754 2421
3 1628 2016 2219
3 1150 1062 1782
3 446 1340 2369
3 926 1252 2406
3 132 133 2220
3 1238 826 2466
3 1496 598 1592
3 1678 1924 1986
3 1403 372 1657
3 382 945 1543
3 1845 567 2100
3 297 953 1491
3 1014 1352 1234
3 330 1886 1481
3 491 1171 2402
3 909 938 2216
3 457 1834 2239
3 471 1792 2541
3 1931 667 1876
3 912 523 1897
3 252 253 2377
3 93 94 2065
3 176 177 1724
3 2105 1011 1652
3 1974 565 930
3 1249 471 2541
3 1160 267 2304
3 1087 1850 2323
3 1239 443 1797
3 1861 817 1979
3 1356 641 2324
3 571 1524 2243
3 348 1073 2410
3 1166 500 1770
3 1429 621 1709
3 609 621 2284
3 2008 757 1717
3 65 66 2472
3 1472 2267 2327
3 868 1940 1791
3 201 202 1440
3 872 1884 2288
3 543 1420 1081
3 2292 496 2009
3 1689 1226 1389
3 792 2202 1296
3 1280 835 2032
3 321 1654 1999
3 918 1440 2191
3 1963 1092 2169
3 440 2364 2440
3 1151 242 2338
3 1694 344 2471
3 205 206 2131
3 2267 1022 2327
3 1167 358 1795
3 50 51 2126
3 1965 319 1853
3 573 1342 1394
3 1405 733 1650
3 561 1591 1235
3 47 48 2592
3 816 948 1530
3 1993 519 2031
3 1754 418 1135
3 1561 780 2454
3 546 2410 2023
3 96 97 2255
3 173 174 2256
3 681 1731 1670
3 168 5 2400
3 5 169 2400
3 101 2 2401
3 2 102 2401
3 350 1441 1536
3 106 107 1545
3 163 164 1646
3 2220 133 2140
3 1471 1561 2454
3 654 1013 1679
3 2248 1053 2549
3 943 1039 349
3 2286 762 2614
3 1279 2213 2170
3 514 1387 2252
3 818 1105 2607
3 742 1697 2331
3 2213 734 2170
3 311 312 2394
3 293 294 589
3 420 2141 1796
3 1825 756 2585
3 752 1830 2587
3 1048 1961 1888
3 1834 1018 2239
3 1547 427 2609
3 2141 1104 1796
3 1255 2611 2538
3 1458 407 2241
3 1546 1255 2538
3 462 1212 2419
3 1933 960 2512
3 456 1327 1136
3 1217 1014 2027
3 2226 571 2203
3 938 1737 2418
3 1603 911 2441
3 1199 523 2517
3 1164 1704 1932
3 368 1789 2381
3 1374 633 2614
3 617 1729 2552
3 688 1212 2480
3 1936 318 2084
3 1129 1779 1570
3 1380 1130 2382
3 565 2224 1457
3 445 1016 2225
3 1675 1345 1252
3 821 1813 832
3 1996 415 2545
3 1704 324 1932
3 931 796 2601
3 578 1350 1676
3 368 1689 1389
3 1113 764 1466
3 1247 341 2019
3 790 1898 1911
3 202 203 1743
3 958 30 2487
3 1937 344 1958
3 296 297 1491
3 1936 951 2484
3 2410 1073 2023
3 553 1941 2177
3 204 205 1972
3 522 1193 2474
3 2093 446 2369
3 422 1246 1211
3 1674 923 2408
3 682 1032 2221
3 1193 630 2474
3 621 609 1935
3 798 1362 2174
3 756 1825 1701
3 621 1429 2536
3 1830 752 1781
3 2074 148 1245
3 615 2070 2229
3 200 201 1573
3 1271 2306 1869
3 593 1319 2173
3 542 1905 1957
3 1579 1470 1973
3 1997 254 2262
3 1246 416 1211
3 2030 368 2381
3 894 1151 2338
3 24 288 2497
3 196 197 1607
3 1886 781 1481
3 689 1207 2477
3 1687 2226 2203
3 1648 1166 1770
3 235 1238 2466
3 868 1791 2308
3 1941 553 1580
3 840 1361 2589
3 342 1880 489
3 290 291 1511
3 1990 769 2396
3 518 1861 1979
3 899 745 2102
3 2363 778 2264
3 2224 1086 1457
3 356 1878 672
3 1634 465 1616
3 2020 1219 1706
3 1067 1095 924
3 1862 1039 2281
3 52 53 1333
3 44 45 2157
3 1598 1030 2176
3 2274 1881 1097
3 1556 905 1154
3 1073 559 2529
3 621 33 1709
3 695 1998 2122
3 2120 776 2507
3 1887 666 2422
3 592 779 2457
3 475 1161 1569
3 1585 1164 2403
3 69 70 1339
3 579 1385 2479
3 1189 1281 2072
3 1387 535 2252
3 1622 455 2451
3 1197 1921 2057
3 1467 1003 2544
3 695 2098 1742
3 636 1038 2204
3 942 287 658
3 1416 603 1854
3 2172 812 2570
3 1500 2123 2525
3 1841 532 2334
3 971 1728 2572
3 1958 2281 2512
3 363 2373 2118
3 1435 728 1960
3 854 1950 2443
3 1856 663 1550
3 508 1059 1723
3 1080 520 2237
3 1849 622 2067
3 1985 1412 1609
3 1191 1870 1943
3 93 853 2073
3 657 1458 2241
3 1117 1049 2502
3 1725 177 2470
3 2207 1632 2429
3 814 1966 1318
3 1284 897 2360
3 480 1992 1556
3 846 2091 2514
3 1941 1436 2177
3 1156 878 2560
3 596 1266 2391
3 723 1192 2291
3 1222 1430 2378
3 760 433 941
3 878 515 2560
3 45 1966 2157
3 862 1247 2019
3 1674 1185 1681
3 653 1496 1592
3 1851 316 2521
3 1924 502 1986
3 970 1607 2563
3 886 1708 2152
3 2013 1568 2424
3 1350 640 1676
3 218 1674 1681
3 1992 543 1556
3 62 63 2353
3 684 2042 2310
3 567 2008 1717
3 1582 417 1438
3 1437 328 2271
3 27 315 1987
3 543 682 2221
3 657 349 1862
3 1354 1187 2195
3 540 1052 1258
3 463 1359 2138
3 108 1077 1683
3 1771 162 2269
3 2332 1418 1826
3 568 1354 2195
3 407 1566 2241
3 518 2042 1843
3 1469 347 1855
3 1136 1074 1370
3 416 1293 1943
3 330 1947 1510
3 71 72 1642
3 1459 938 2418
3 767 1731 2223
3 1236 1864 989
3 1014 1808 2027
3 434 1089 2393
3 1327 580 2302
3 1230 795 2583
3 843 1968 1829
3 1361 507 2589
3 1074 2232 2506
3 1261 2030 2381
3 1654 1035 1999
3 916 697 2551
3 1815 398 1139
3 1458 873 2014
3 2201 1028 1652
3 1370 1074 2506
3 656 1003 2504
3 808 1405 1650
3 2312 555 1751
3 1426 956 1523
3 1433 1311 2548
3 468 1430 1321
3 328 1834 2237
3 2039 444 2510
3 2112 317 2456
3 1239 512 1926
3 643 2051 691
3 659 1848 2083
3 1464 2020 1706
3 1076 605 2464
3 1089 915 2393
3 781 1898 2002
3 2228 744 1623
3 494 1804 2047
3 1288 274 2300
3 683 1934 2088
3 1695 491 1565
3 279 1567 2301
3 706 1031 2150
3 2383 359 2049
3 1968 530 1829
3 1856 259 1413
3 532 1375 2056
3 1158 1441 2328
3 1350 578 1614
3 1265 1851 2521
3 1217 797 2045
3 1184 188 2565
3 339 2215 1970
3 451 1737 1269
3 289 290 2024
3 351 1501 2480
3 1423 1622 2451
3 762 1374 2614
3 190 191 1259
3 16 283 1734
3 39 40 1094
3 1332 548 2199
3 1368 2071 2121
3 1089 434 2568
3 131 1990 2576
3 1858 971 2572
3 1204 1856 1550
3 376 1881 2274
3 376 1395 1911
3 1587 706 2166
3 687 1063 1839
3 679 443 2212
3 428 1061 2225
3 1291 1499 2357
3 417 1587 2166
3 2042 518 2310
3 1622 510 2513
3 2098 695 2122
3 758 1343 2344
3 1949 880 1822
3 550 1435 1912
3 1950 498 2359
3 255 2076 2262
3 323 2207 2429
3 488 1744 1466
3 1945 421 2426
3 906 1202 1908
3 243 1218 2338
3 630 1193 1957
3 1849 569 2066
3 915 1089 1372
3 1589 486 2247
3 441 1198 2142
3 57 58 1473
3 848 2388 2438
3 1192 461 2291
3 1468 935 690
3 1173 1589 2247
3 1404 450 2484
3 1176 1820 1629
3 1501 643 691
3 1198 1170 2142
3 873 1210 2014
3 1178 831 1803
3 2306 479 1869
3 915 1112 2393
3 1615 1502 2354
3 395 1109 2187
3 982 1431 2499
3 443 1239 2212
3 1377 1230 2583
3 1028 2105 1652
3 1052 985 1258
3 867 1212 389
3 1572 433 2250
3 1894 1268 1893
3 1151 894 1889
3 1035 760 941
3 2432 187 2550
3 83 2405 2516
3 239 1868 1631
3 1936 1100 725
3 699 2074 1245
3 795 1404 2583
3 1223 1521 1508
3 1354 549 1540
3 1206 1838 2613
3 1827 508 1723
3 2276 894 1773
3 1244 411 2159
3 337 1845 2399
3 2051 635 691
3 1184 453 2550
3 1789 1344 2381
3 1462 2055 2059
3 1424 366 1390
3 507 1361 2348
3 115 116 2307
3 1300 1819 2516
3 841 1601 1839
3 1710 1372 2577
3 357 1101 1768
3 1096 715 2593
3 895 1415 2576
3 359 1590 2049
3 1218 894 2338
3 841 1825 2585
3 1249 705 2561
3 1419 2215 2390
3 1089 464 1372
3 1830 788 2587
3 313 314 1602
3 415 1882 2545
3 2180 1045 1705
3 1212 688 2419
3 572 1132 2228
3 1170 1382 1645
3 327 1533 1766
3 588 525 2211
3 1867 788 1822
3 1229 782 2504
3 1435 466 1912
3 1121 1950 2359
3 1125 511 2462
3 1382 864 1645
3 398 1815 2336
3 341 1223 1508
3 1463 863 2089
3 1162 1168 2071
3 1068 1125 2462
3 1813 1408 1786
3 1168 2040 2121
3 2467 1334 2130
3 883 1182 1951
3 1566 1273 2241
3 1212 462 389
3 648 2036 2204
3 655 1493 1621
3 921 1280 2032
3 374 2169 2180
3 156 1820 1918
3 1213 1514 2591
3 496 1463 2089
3 533 1060 2475
3 1852 1019 2156
3 951 1936 2084
3 79 80 1494
3 1848 659 2340
3 1178 114 2362
3 722 1849 2417
3 1838 534 2613
3 1804 494 2573
3 1539 952 1732
3 303 1297 2056
3 318 1936 725
3 1524 571 2109
3 777 39 1094
3 780 1561 2503
3 565 1974 2582
3 70 71 2386
3 1990 895 2576
3 2215 689 2390
3 1449 343 2038
3 1289 1535 1378
3 2041 572 1623
3 581 2201 1652
3 1863 720 1560
3 87 88 2174
3 1878 356 924
3 374 2044 2169
3 431 1433 2548
3 1842 307 2605
3 1522 647 1805
3 1272 1815 1139
3 1216 1605 1761
3 1476 798 2174
3 364 1601 2603
3 1191 1194 2588
3 35 36 2198
3 349 1039 1862
3 237 238 1769
3 495 1302 2106
3 666 1887 1569
3 2102 491 2402
3 461 842 2552
3 772 1525 2345
3 393 1859 2015
3 1372 464 2577
3 1867 851 1292
3 1170 1198 1833
3 1888 497 1493
3 1399 1023 1930
3 454 2387 1889
3 640 1695 1565
3 617 1286 2227
3 1286 1027 2227
3 2044 1020 2169
3 828 2034 1899
3 818 1076 2464
3 1890 47 2592
3 1349 652 1663
3 1816 652 1552
3 1838 1206 1698
3 1848 773 2083
3 465 1995 1616
3 1031 645 2451
3 1132 490 2228
3 1264 1797 2537
3 2107 121 1655
3 1934 427 2088
3 182 183 1616
3 1899 529 2543
3 797 1217 2546
3 560 2038 2542
3 582 1962 2514
3 1737 451 2547
3 387 1162 2071
3 56 1349 1663
3 622 1849 2066
3 1990 132 2220
3 491 984 1565
3 1898 507 2002
3 1123 2107 1655
3 562 1217 2027
3 250 251 2468
3 1266 694 2391
3 292 293 2043
3 1737 458 2418
3 682 543 1081
3 769 1990 2220
3 1743 203 2558
3 2036 636 2204
3 334 2392 2496
3 2053 497 1888
3 1541 333 2498
3 957 373 2167
3 1441 350 2328
3 878 1156 1916
3 842 461 2135
3 2025 480 1617
3 337 1757 1845
3 399 1784 2423
3 1060 556 2475
3 698 2240 2455
3 1914 449 1872
3 459 1232 2428
3 2089 863 1902
3 881 2098 2122
3 1919 144 1925
3 1225 1914 1872
3 1589 1173 1490
3 947 1907 1093
3 262 263 2143
3 522 1324 2115
3 2019 1306 1588
3 412 2089 1902
3 1255 1928 2233
3 451 1102 2618
3 1733 797 2619
3 1501 1064 2480
3 810 1717 2270
3 2172 1082 1766
3 967 1461 2054
3 1415 130 2576
3 1075 1244 2159
3 670 551 2447
3 754 1485 2448
3 698 1498 1730
3 1202 906 1745
3 929 1919 1925
3 810 2270 2433
3 1241 1952 1895
3 1954 1432 2341
3 2055 637 2528
3 661 2186 708
3 121 122 1655
3 834 1858 2572
3 1825 566 2435
3 184 2361 2505
3 2334 532 2586
3 368 1389 1789
3 547 1830 2436
3 632 1124 1650
3 711 2053 1888
3 1533 812 1766
3 55 56 1663
3 1601 841 2603
3 1526 1404 2484
3 1469 1855 1608
3 1945 2426 2527
3 1525 37 2345
3 1588 599 1706
3 788 1867 1292
3 804 625 2398
3 1018 1740 2431
3 1610 154 2277
3 171 172 1001
3 98 99 2006
3 104 105 2244
3 165 166 2245
3 1978 752 1542
3 756 1983 1980
3 1388 338 2224
3 517 1399 2524
3 1267 738 2226
3 687 2082 2094
3 160 161 1618
3 1317 1583 2532
3 109 110 2460
3 283 19 2509
3 570 1304 2483
3 573 738 2060
3 738 573 2109
3 2394 312 838
3 1218 1140 1773
3 519 1388 2582
3 1107 957 2167
3 1430 1222 1321
3 2036 695 1527
3 1388 519 1984
3 1238 236 1203
3 1197 1910 1612
3 1667 761 2578
3 2290 113 1803
3 1095 1878 924
3 1256 880 1778
3 157 2289 1629
3 1120 2145 2352
3 2120 1025 2235
3 1887 475 1569
3 1431 494 2499
3 2119 609 2537
3 2128 1502 1615
3 1971 457 2239
3 665 1497 2620
3 1717 757 2270
3 2253 1289 1378
3 1816 55 1663
3 1035 1852 2478
3 373 682 2167
3 540 1792 2176
3 88 1476 2174
3 1992 536 1420
3 2169 1092 2180
3 428 517 2524
3 1746 772 1814
3 403 2332 1826
3 388 1828 2325
3 82 1819 1133
3 1971 401 1392
3 1291 2357 2356
3 1528 503 2117
3 983 1452 2094
3 1863 406 1761
3 2101 946 2348
3 1308 1122 1417
3 654 855 2199
3 721 2123 2453
3 1461 971 2054
3 406 1863 2557
3 902 1103 1778
3 842 617 2552
3 1863 1072 2557
3 957 1107 1981
3 1048 1888 1493
3 800 1495 1776
3 1495 273 1776
3 921 1287 1446
3 81 82 1133
3 1435 550 2501
3 498 1950 2500
3 276 1276 2339
3 1276 526 2339
3 1333 53 2469
3 766 1827 1723
3 2180 1092 1248
3 487 931 2320
3 107 108 1683
3 162 163 2269
3 662 1582 2610
3 1072 1863 1560
3 429 1975 2346
3 688 1036 2419
3 603 385 1854
3 436 1579 1973
3 885 1451 2564
3 2054 971 2575
3 2187 818 2464
3 1782 392 2004
3 1050 1836 1749
3 1046 1696 1763
3 1995 182 1616
3 4 142 2288
3 1061 428 2524
3 2271 328 1944
3 571 738 2109
3 1442 426 2192
3 652 1816 1663
3 1388 565 2582
3 1859 393 2100
3 1020 1449 2321
3 1048 1493 2222
3 1828 402 1669
3 918 1573 1440
3 427 1390 2088
3 2136 1005 1768
3 1157 2137 2593
3 1962 1673 2514
3 1146 951 2084
3 1052 336 2441
3 492 1985 1609
3 1823 1514 2303
3 299 957 1981
3 240 241 1283
3 204 1972 2558
3 1043 1202 1745
3 1729 2291 2552
3 503 1409 2117
3 1972 874 2558
3 586 440 2440
3 1003 1482 2544
3 245 246 1563
3 830 1207 2230
3 1962 981 2335
3 1209 579 2479
3 860 2220 2140
3 1544 966 1301
3 1036 688 2363
3 287 1891 658
3 2028 677 2146
3 2291 461 2552
3 2392 1651 2496
3 1106 1937 2559
3 1649 1541 2498
3 921 2035 1280
3 988 1544 2352
3 1537 914 2189
3 41 42 986
3 1295 650 1566
3 298 299 1981
3 1045 2180 1248
3 422 1211 2397
3 267 268 2304
3 789 1788 2414
3 868 2308 2446
3 679 591 2376
3 822 1070 1478
3 738 1267 2060
3 1233 248 973
3 338 1388 1984
3 426 1596 2192
3 951 1146 2373
3 1493 655 2222
3 2005 196 1607
3 565 1388 2224
3 738 571 2226
3 1845 665 2399
3 2034 711 1509
3 914 389 2189
3 889 428 2225
3 537 1634 2505
3 1229 1022 708
3 2061 809 2271
3 251 252 1604
3 542 2050 2193
3 2124 1013 2146
3 725 789 2414
3 1985 1020 2321
3 613 1894 1893
3 1393 975 2555
3 1978 993 2242
3 755 1983 1982
3 1302 884 2106
3 888 1208 1520
3 2050 970 2193
3 2308 1115 2446
3 2347 1106 2559
3 1673 1594 2375
3 1789 1018 2431
3 1689 368 2372
3 1232 705 2574
3 1952 410 1955
3 741 1954 2342
3 37 38 2345
3 2186 782 708
3 227 1667 2578
3 114 115 2362
3 155 156 1918
3 1375 302 2056
3 856 604 1580
3 474 2025 1617
3 569 1071 2066
3 2263 1334 2467
3 652 1739 1552
3 1594 409 2375
3 352 1946 2095
3 274 10 2300
3 12 279 2301
3 993 1978 1542
3 1983 755 1980
3 2090 888 1520
3 1583 1290 2532
3 583 1393 2555
3 1064 1501 691
3 1381 872 1829
3 280 16 1315
3 2078 1078 1690
3 137 138 1110
3 895 2396 2068
3 648 1909 2598
3 2163 32 1935
3 2165 1262 997
3 657 2241 2615
3 757 2008 1906
3 1757 567 1845
3 1287 921 2032
3 1852 372 2478
3 215 216 1365
3 223 224 2175
3 1248 398 2336
3 1404 1526 2583
3 1011 1783 1652
3 134 135 1671
3 2154 1032 2246
3 1696 77 1763
3 1952 1005 1895
3 1157 1954 2341
3 1219 2020 467
3 1362 87 2174
3 576 1287 2032
3 1905 863 1853
3 1262 1748 1369
3 146 147 1583
3 1319 311 2394
3 659 2222 2340
3 722 1689 2372
3 110 1719 2460
3 2007 160 1618
3 1909 1379 2598
3 206 1752 2131
3 1314 809 1953
3 1041 2347 2559
3 711 603 1509
3 812 2172 1766
3 625 335 2398
3 1557 1010 2125
3 1539 581 2287
3 544 592 1964
3 391 2165 997
3 1211 1131 2397
3 242 243 2338
3 1032 925 2318
3 647 1263 1805
3 530 1381 1829
3 809 1437 2271
3 626 384 1532
3 46 47 1318
3 2070 600 2229
3 2134 1391 2387
3 85 86 2364
3 1238 606 2114
3 2040 770 2121
3 1948 867 672
3 25 301 2380
3 336 1783 1603
3 826 1238 2114
3 814 1890 2309
3 1331 1029 2058
3 2069 1261 1614
3 2160 1423 2258
3 77 78 1763
3 1937 577 2559
3 383 2041 1623
3 1249 611 2574
3 198 1012 2563
3 183 1634 1616
3 1422 399 2423
3 217 218 1681
3 1100 1656 2422
3 1389 1018 1789
3 1396 1272 1641
3 777 696 1814
3 391 2061 2271
3 604 972 1580
3 901 981 2449
3 1460 332 2406
3 2003 429 2346
3 480 1422 1617
3 861 1540 2513
3 1890 1116 2309
3 1066 1387 2489
3 728 1435 2501
3 1950 854 2500
3 1237 1407 2599
3 19 1183 2509
3 1787 1305 2127
3 395 1873 2597
3 2047 920 2499
3 854 670 2500
3 1485 728 2501
3 773 367 1445
3 809 2061 2286
3 1207 891 2477
3 505 901 2449
3 185 1209 2361
3 511 1787 2127
3 2125 370 2596
3 1302 495 2037
3 140 141 1821
3 2020 317 467
3 1385 366 2608
3 1940 434 893
3 882 1816 1552
3 1263 783 1805
3 1937 1106 2471
3 645 1775 2258
3 1891 23 1517
3 1202 1043 1987
3 1172 2003 2346
3 605 983 2464
3 980 369 2349
3 1474 599 1588
3 1226 1689 1529
3 127 128 2313
3 434 1940 2568
3 420 1055 1490
3 273 9 1776
3 1503 817 2299
3 13 276 2339
3 1099 734 2265
3 1748 405 1369
3 454 2134 2387
3 1103 683 2088
3 84 440 2405
3 1012 970 2563
3 302 303 2056
3 772 777 1814
3 1082 2172 2093
3 392 2057 2004
3 1359 1156 2138
3 63 64 1465
3 1185 1674 2408
3 177 178 2470
3 92 93 2073
3 729 2158 1991
3 1678 2216 1924
3 970 1012 2193
3 307 308 2605
3 1765 1025 2507
3 1234 598 1496
3 950 1492 2553
3 504 349 2615
3 521 1906 2223
3 787 626 1532
3 1250 763 2595
3 998 793 2535
3 2417 483 1529
3 1051 1340 2111
3 197 198 2563
3 1983 756 1701
3 752 1978 1781
3 192 193 1896
3 946 1947 1481
3 2554 676 2264
3 405 1348 2590
3 1894 1700 1866
3 1062 2355 2591
3 1066 1302 2037
3 1330 1422 2423
3 651 1558 2374
3 1798 27 1987
3 116 949 2307
3 654 2028 2146
3 455 1031 2451
3 2328 1282 2162
3 775 855 1679
3 2145 988 2352
3 449 2439 1872
3 1815 776 2336
3 2268 1785 2508
3 61 62 2420
3 578 2069 1614
3 954 1396 1641
3 194 195 1877
3 234 235 2466
3 855 825 2199
3 1210 873 2456
3 257 258 2442
3 686 1439 2540
3 721 1453 2525
3 1026 2064 1392
3 554 1186 2219
3 906 1643 1745
3 1891 337 658
3 188 189 2565
3 628 2384 2465
3 2011 540 2176
3 806 2125 2596
3 1865 563 2010
3 1787 511 1125
3 1186 849 2581
3 1500 1848 2340
3 2125 1010 1487
3 341 1247 1930
3 656 1090 2604
3 783 2020 1464
3 805 2039 1860
3 1449 560 2321
3 226 227 2578
3 1209 186 2432
3 1582 1438 2610
3 1859 810 2567
3 1141 2103 2118
3 705 1249 2574
3 370 2125 1487
3 2039 1364 1860
3 144 145 1925
3 1480 1186 2581
3 1571 847 1624
3 33 34 1709
3 367 977 1445
3 529 2034 1509
3 1241 1895 2152
3 2341 1432 2424
3 1597 2286 2614
3 1578 1942 1857
3 89 90 2490
3 1468 1311 2528
3 2087 864 2427
3 2172 446 2093
3 1741 2383 2613
3 1775 662 2385
3 180 181 2495
3 253 1997 2377
3 339 1975 2230
3 420 1796 1688
3 1639 1074 2302
3 203 204 2558
3 873 2112 2456
3 1422 1330 1617
3 1512 686 2540
3 2426 636 2527
3 1502 2253 2354
3 606 1286 2114
3 905 2196 1154
3 1975 429 2230
3 409 2232 1658
3 1213 709 2209
3 972 1250 2595
3 1940 868 2568
3 782 1229 708
3 254 255 2262
3 30 31 2487
3 1442 1320 2491
3 1564 1037 2515
3 48 950 2592
3 663 1626 1550
3 563 1901 2010
3 967 2091 1513
3 53 54 2469
3 1158 2328 2162
3 2396 472 2068
3 595 1894 1866
3 353 1800 2530
3 1286 617 1363
3 320 2160 2258
3 585 1546 1860
3 950 1116 2592
3 73 74 2617
3 1963 1020 1985
3 1358 800 1776
3 1351 1765 2211
3 1504 1524 2109
3 740 1053 2439
3 556 1865 2010
3 526 531 2339
3 1974 1505 2582
3 80 2051 1494
3 2190 442 2539
3 2384 910 2465
3 1076 818 2607
3 1461 967 1315
3 914 1495 2314
3 427 1934 2609
3 248 249 973
3 1601 2147 1839
3 455 2268 2508
3 610 1442 2491
3 1276 789 2315
3 207 208 2522
3 1696 1046 2086
3 315 1202 1987
3 1719 649 2080
3 765 2007 2556
3 2207 1434 2191
3 817 1503 1510
3 2196 852 1154
3 2149 1867 1822
3 430 2207 2191
3 335 2026 2398
3 2216 938 1924
3 1359 1117 2502
3 1572 561 1235
3 1030 2011 2176
3 1014 1234 1496
3 1391 2295 2387
3 2163 749 2487
3 2295 712 2387
3 840 2039 2510
3 433 1572 2531
3 135 2124 1671
3 1340 446 2111
3 2253 474 2354
3 897 1098 2360
3 1025 2120 2507
3 1642 642 2386
3 1049 394 1406
3 1087 1575 2046
3 1330 1615 2354
3 1626 405 2590
3 1237 1049 1406
3 1024 641 2452
3 1438 417 2285
3 2364 1152 2440
3 2241 1273 2615
3 1110 138 1772
3 711 1961 603
3 754 1983 1701
3 1978 551 1781
3 1461 16 1734
3 138 139 1772
3 1436 1044 1474
3 514 1544 1301
3 130 131 2576
3 224 1865 2175
3 549 1622 2513
3 1311 1468 2548
3 1078 1595 1690
3 133 134 2140
3 9 1358 1776
3 134 1671 2140
3 531 13 2339
3 2265 780 2503
3 563 1469 1608
3 1439 471 2561
3 16 1461 1315
3 2439 1053 1872
3 1947 330 1481
3 137 1110 2616
3 574 740 2205
3 598 1837 1592
3 1693 1678 1986
3 368 2030 2372
3 1453 959 2115
3 1230 190 1259
3 344 1937 2471
3 2560 1398 2138
3 786 1719 2080
3 2007 1159 2556
3 855 654 1679
3 1328 1208 2533
3 749 2119 2376
3 1156 2560 2138
3 903 1511 1843
3 2123 721 2525
3 2471 1106 2214
3 1511 724 1843
3 2062 334 2496
3 333 1254 2498
3 1719 786 2460
3 1159 2007 1618
3 347 1469 968
3 1865 556 2175
3 344 1862 2281
3 2141 1418 2332
3 845 1793 1528
3 966 2272 1301
3 2585 2022 2603
3 985 1052 2441
3 1644 933 1480
3 1998 648 2598
3 1044 599 1474
3 1201 2587 1292
3 1074 1136 2302
3 31 2163 2487
3 2030 423 1322
3 1704 1164 2087
3 463 1704 2087
3 136 137 2616
3 1037 1945 2527
3 1022 1229 2327
3 1287 576 2617
3 1275 422 2397
3 1793 1181 1528
3 1345 913 1252
3 1726 423 1956
3 178 1934 2470
3 1076 92 2073
3 328 2237 1944
3 1682 2248 2549
3 1208 390 2533
3 609 2163 1935
3 1109 395 2597
3 1726 722 1322
3 2275 822 1635
3 1847 140 1821
3 1895 365 2152
3 396 2341 2424
3 1736 1282 2412
3 642 2275 1635
3 1544 514 2352
3 1379 1909 1956
3 1546 805 1860
3 351 1948 2523
3 1128 827 2095
3 517 2368 2411
3 1837 602 1592
3 476 1693 1986
3 1248 1092 1864
3 492 1963 1985
3 366 1424 2608
3 2375 846 2514
3 1961 385 603
3 742 1841 2334
3 374 2180 1705
3 1412 1985 2321
3 1656 450 2534
3 1841 742 2331
3 64 944 1465
3 744 2228 2367
3 350 2293 2249
3 1078 1796 1595
3 1493 497 1621
3 2021 1062 2591
3 1942 1637 1857
3 1797 443 2537
3 1506 1367 1513
3 1476 89 2490
3 1048 2222 2312
3 1463 1091 1965
3 1796 1104 1595
3 1116 1835 2600
3 2309 1116 2600
3 1482 432 2544
3 422 1275 2280
3 901 762 2473
3 1498 698 2455
3 1353 668 2059
3 1782 1062 2021
3 1998 493 2122
3 2293 608 2249
3 744 1666 1915
3 2096 422 2280
3 181 1995 2495
3 1091 1463 2292
3 449 1932 2439
3 2071 1368 2365
3 603 1416 1509
3 1344 1789 2431
3 423 1726 1322
3 1049 1237 2517
3 2326 1368 2200
3 1152 1109 2597
3 1585 703 2319
3 1278 2078 1690
3 1783 581 1652
3 438 1498 2455
3 2353 1606 2164
3 1164 1585 2319
3 1148 2150 2508
3 1673 2375 2514
3 1104 2141 2332
3 707 1281 1175
3 758 2344 2144
3 709 1249 2541
3 1166 1472 2327
3 1198 2151 1833
3 2319 703 1645
3 1281 1189 1175
3 1902 542 2193
3 644 1275 2397
3 864 2319 1645
3 1424 537 2608
3 1101 2136 1768
3 2137 1096 2593
3 1340 932 2369
3 2429 1632 2477
3 893 792 2529
3 1021 2353 2164
3 2091 580 1513
3 707 1175 1809
3 1150 596 2571
3 1375 532 1922
3 891 2429 2477
3 733 1451 1650
3 1193 2050 1957
3 2254 1391 2134
3 1783 1011 1603
3 1175 1418 1809
3 692 994 2412
3 885 2229 1722
3 2050 542 1957
3 1330 2423 1615
3 1038 636 2426
3 1005 1917 1768
3 2251 1157 2593
3 2098 460 1742
3 841 2585 2603
3 665 1845 2100
3 1844 879 2433
3 1229 500 2327
3 2587 788 1292
3 756 2022 2585
3 397 2079 1810
3 1201 752 2587
3 618 656 2604
3 2112 1106 2347
3 452 1275 2463
3 1134 1892 2413
3 463 2087 2427
3 2270 584 2433
3 2228 490 2367
3 1758 774 2511
3 1892 835 2413
3 649 1142 2080
3 2077 340 1688
3 1832 765 2556
3 1456 1034 2483
3 1078 2077 1688
3 1917 357 1768
3 715 2251 2593
3 1499 769 2357
3 202 1743 1440
3 1300 2554 2264
3 1739 482 1552
3 593 2360 2518
3 1463 496 2292
3 1207 339 2230
3 578 1676 2085
3 566 2062 2496
3 1254 547 2498
3 398 1248 1864
3 320 1775 2385
3 2061 762 2286
3 1044 783 1464
3 1258 985 2457
3 1138 1407 1406
3 1338 1210 2456
3 1407 1237 1406
3 2222 659 2312
3 677 2124 2146
3 626 628 2465
3 538 2467 2130
3 387 2071 2365
3 1367 280 1315
3 1498 960 1730
3 1622 549 2268
3 2235 1320 2192
3 584 1844 2433
3 634 1755 1369
3 1032 2154 2221
3 2217 849 1812
3 2103 453 2118
3 448 2178 1959
3 1046 1331 2058
3 1765 588 2211
3 47 1890 1318
3 541 1765 2507
3 1938 1444 2573
3 1694 2471 2214
3 1460 837 2620
3 1106 2112 2214
3 907 2240 1900
3 1380 797 2546
3 451 1779 2547
3 1975 339 1970
3 1996 583 2555
3 820 1537 2189
3 1308 1417 2481
3 325 1397 2132
3 349 657 2615
3 783 1044 2444
3 2358 856 2283
3 1972 1419 2390
3 1788 1479 2414
3 624 1818 1097
3 1777 1578 2463
3 1328 2453 1520
3 739 2358 2283
3 2194 1098 2068
3 1412 2060 1609
3 494 1938 2573
3 1755 1262 1369
3 1984 1416 1854
3 803 1475 2430
3 353 2120 2235
3 705 1512 2540
3 1237 2599 2517
3 1712 1975 1970
3 1501 351 2523
3 620 2178 994
3 1324 1453 2115
3 2599 1199 2517
3 748 618 2604
3 748 1124 2520
3 972 1941 1580
3 317 2112 2347
3 1536 535 2351
3 1715 289 2024
3 1453 601 2525
3 500 1166 2327
3 1692 1920 2601
3 455 1622 2268
3 1224 292 2043
3 2124 677 1671
3 1558 1047 2374
3 334 2062 2434
3 704 803 2430
3 2123 442 2453
3 1320 1442 2192
3 874 1972 2390
3 2064 916 2551
3 1254 333 1484
3 2389 587 1554
3 450 1404 2534
3 1676 1058 2085
3 1920 784 2601
3 894 1218 1773
3 1059 2254 2134
3 2319 864 2087
3 1430 785 2378
3 1855 870 1608
3 769 1499 2396
3 78 1331 1763
3 1294 35 2198
3 1617 1330 2354
3 1503 330 1510
3 425 1686 2610
3 1309 1668 2130
3 1779 466 1570
3 1121 1380 2382
3 1045 1248 2336
3 481 1782 2004
3 398 1864 1666
3 1456 362 1417
3 1606 1426 2164
3 2222 655 2340
3 1864 1236 1666
3 1740 408 2431
3 1527 1037 2527
3 1418 1175 1826
3 1124 632 2520
3 384 626 2465
3 2312 659 2326
3 2240 698 1900
3 2029 681 1640
3 555 2312 2326
3 513 2355 2571
3 1376 751 1677
3 1219 2063 1706
3 617 2129 1363
3 967 1367 1315
3 583 1996 2545
3 1561 1471 2409
3 539 2128 1615
3 2139 250 2468
3 813 1376 1677
3 599 1044 1464
3 2242 498 2447
3 550 1982 2448
3 398 1666 1139
3 2002 507 2348
3 1660 676 2554
3 580 1639 2302
3 1397 1072 2132
3 1686 662 2610
3 2326 659 2083
3 2151 394 1833
3 1383 2296 1893
3 466 1779 2618
3 1380 1121 2619
3 1275 452 2280
3 1208 1328 1520
3 1436 1941 2562
3 2412 1282 2282
3 2022 364 2603
3 2038 476 2542
3 1367 967 1513
3 1257 2217 1812
3 851 1201 1292
3 1008 1759 2492
3 2165 391 1944
3 1499 472 2396
3 602 1899 2543
3 1657 840 2589
3 2112 873 2214
3 1141 1447 2103
3 389 462 2189
3 319 2213 2416
3 1426 477 2164
3 964 501 2562
3 318 725 2414
3 414 1841 2331
3 1963 492 989
3 1405 41 986
3 987 1226 1529
3 1047 1558 1896
3 2188 1023 2411
3 1849 2067 2417
3 524 1835 2553
3 74 1287 2617
3 1805 783 2444
3 2178 620 1959
3 594 2154 2246
3 1331 1046 1763
3 385 1961 1751
3 773 2365 2083
3 900 2394 838
3 1072 1397 2557
3 1176 930 1457
3 474 1617 2354
3 626 787 1810
3 582 2054 2575
3 2367 1272 1139
3 2243 831 2203
3 1132 572 2450
3 2365 1368 2083
3 391 2271 1944
3 483 987 1529
3 392 1782 2021
3 1168 1162 2001
3 660 1585 2403
3 744 2367 1139
3 2263 1185 2408
3 1775 320 2258
3 443 2119 2537
3 1581 2389 1554
3 1206 2294 1698
3 1296 546 2023
3 1386 1501 2523
3 618 748 2520
3 1382 1170 1833
3 1281 1163 2072
3 394 1382 1833
3 1010 2127 1487
3 964 972 2595
3 1366 1079 1523
3 2269 1325 2099
3 1323 1683 2584
3 1132 660 1874
3 2019 341 1508
3 759 2461 2580
3 472 2194 2068
3 1875 438 2455
3 2129 826 1363
3 2032 835 1549
3 1882 829 2545
3 2461 1298 2580
3 1163 1162 2316
3 1404 1401 2534
3 1636 1091 2292
3 2127 1305 1487
3 1595 469 1690
3 1474 1306 2177
3 2405 1300 2516
3 1661 347 968
3 2389 1581 2535
3 1666 744 1139
3 576 2032 1549
3 1174 2294 2049
3 90 1105 2490
3 1306 2019 1508
3 2255 961 2153
3 1000 2256 2482
3 1796 1078 1688
3 1558 192 1896
3 62 2353 2420
3 1547 180 2495
3 1368 2326 2083
3 1436 1474 2177
3 963 1545 1680
3 1646 1007 2261
3 2294 1206 2049
3 1438 425 2610
3 732 2133 2438
3 1011 1976 1603
3 602 1421 1592
3 2161 476 1986
3 1183 811 2509
3 1595 1104 1806
3 1239 1926 2212
3 469 1595 1806
3 452 2463 1857
3 2346 326 2368
3 1172 2346 2368
3 599 1464 1706
3 1639 846 1658
3 960 1958 2512
3 71 1642 2386
3 1641 1272 2367
3 985 1964 2457
3 1759 545 2492
3 1206 2383 2049
3 773 1445 2365
3 1976 911 1603
3 596 2391 2571
3 2322 1507 2488
3 1841 414 1922
3 434 2259 893
3 1116 1890 2592
3 946 2002 2348
3 1421 653 1592
3 1683 1077 2584
3 1771 2269 2099
3 761 1661 968
3 502 2161 1986
3 2289 1176 1629
3 490 1132 1874
3 570 2483 1640
3 1136 1327 2302
3 831 2290 1803
3 2147 687 1839
3 356 2314 1205
3 1421 602 2543
3 476 2161 2542
3 1779 451 2618
3 797 1380 2619
3 880 2149 1822
3 2315 666 2445
3 1162 387 2316
3 1451 632 1650
3 1420 1107 1081
3 1010 2234 2127
3 845 1528 2117
3 1518 1628 2219
3 815 2202 2259
3 2353 1021 2420
3 2067 483 2417
3 1514 2021 2591
3 453 2432 2550
3 1964 592 2457
3 429 2003 2602
3 1933 865 1730
3 358 2104 1795
3 1417 362 2481
3 1926 631 2212
3 2463 1578 1857
3 960 1933 1730
3 825 1332 2199
3 1668 538 2130
3 750 1736 2412
3 2234 511 2127
3 779 1258 2457
3 682 1081 2167
3 1701 1825 2435
3 572 2228 1623
3 1830 1781 2436
3 2336 776 2530
3 2071 1168 2121
3 576 1801 2617
3 792 1296 2023
3 2229 600 1722
3 461 1321 2135
3 490 1641 2367
3 2425 700 2329
3 1590 1174 2049
3 1067 924 1205
3 1045 2336 2530
3 532 1841 1922
3 1064 691 2097
3 1500 2340 2539
3 975 1739 2555
3 2284 621 2536
3 1569 1161 2445
3 2263 564 2206
3 1445 387 2365
3 2340 655 2539
3 1999 1035 2478
3 2381 1344 2404
3 2110 1176 1457
3 831 2108 2203
3 2583 1526 1939
3 924 356 1205
3 849 2217 2612
3 835 1892 1549
3 990 1309 2130
3 894 2276 1889
3 1409 1462 2117
3 1043 1798 1987
3 1892 484 1549
3 666 1569 2445
3 684 2310 2606
3 745 2274 1097
3 1334 2263 2206
3 2248 355 2395
3 1081 1107 2167
3 664 2092 2488
3 2194 472 2000
3 397 1810 1753
3 2276 454 1889
3 1034 2029 1640
3 956 1366 1523
3 1286 1363 2114
3 1713 1285 2503
3 1130 1380 2546
3 2310 1303 2606
3 1779 1129 2547
3 904 2255 2153
3 2256 731 2482
3 1164 2319 2087
3 2213 1279 2416
3 2483 1034 1640
3 1545 1323 1680
3 1325 1646 2261
3 1175 1189 1826
3 1890 814 1318
3 2272 1069 1301
3 2104 849 2612
3 1800 1045 2530
3 2594 1008 2492
3 2391 513 2571
3 1255 2233 2611
3 990 386 1885
3 564 2263 2408
3 1185 2263 2467
3 1261 2381 2404
3 655 2190 2539
3 2104 1033 1795
3 1019 941 2531
3 908 2594 2492
3 697 1080 2551
3 1912 466 2618
3 1121 2359 2619
3 2191 1434 2009
3 754 1701 2435
3 1781 551 2436
3 918 2191 2009
3 1104 2332 2210
3 2233 1215 2611
3 948 1913 1530
3 1309 990 1885
3 370 1635 2596
3 941 433 2531
3 2015 1859 2567
3 474 2253 1378
3 1181 2155 1528
3 846 2375 1658
3 930 565 1457
3 1443 2093 2369
3 947 1093 2606
3 571 2243 2203
3 2296 613 1893
3 2332 403 2210
3 691 635 2097
3 1251 896 1753
3 2361 1209 2479
3 1072 1968 2132
3 906 1908 2489
3 2375 409 1658
3 2092 747 2488
3 1321 1222 2135
3 2330 377 1959
3 620 2330 1959
3 1811 1551 2333
3 1553 2052 2566
3 386 2015 2567
3 937 1879 2579
3 1439 2561 2540
3 1377 2583 1939
3 385 2278 1854
3 2003 704 2602
3 2279 492 1609
3 730 1811 2333
3 2052 743 2566
3 1282 1736 2162
3 733 1405 986
3 2372 2030 1322
3 2282 1282 2249
3 2155 503 1528
3 1102 1912 2618
3 2359 1733 2619
3 1225 2248 2395
3 821 832 2437
3 862 2019 1588
3 586 1660 2554
3 2023 1073 2529
3 832 1119 2437
3 1908 1066 2489
3 2394 900 2173
3 1267 2279 1609
3 2278 338 1854
3 1093 684 2606
3 837 2399 2620
3 2325 1828 1669
3 1447 579 2103
3 1451 733 2564
3 2347 1041 467
3 608 2282 2249
3 358 1480 2581
3 1806 1104 2210
3 1635 822 2596
3 527 1758 2511
3 2232 937 2506
3 1334 990 2130
3 208 2294 2522
3 616 1370 2506
3 2194 1341 2518
3 1341 2194 2000
3 1319 2394 2173
3 537 2361 2479
3 528 1767 2584
3 1414 716 2099
3 2294 1174 2522
3 688 2480 1228
3 1736 379 2162
3 884 1302 2497
3 1727 1710 2577
3 1879 607 2579
3 2484 951 2485
3 1767 1323 2584
3 1325 1414 2099
3 1677 1225 2395
3 813 1677 2395
3 431 2284 2536
3 1666 1236 1915
3 2057 871 2004
3 849 2104 2581
3 555 2326 2200
3 668 1756 2059
3 2281 718 2512
3 1968 843 2132
3 1836 779 1749
3 2611 437 2538
3 379 2309 2600
3 2361 537 2505
3 805 1546 2538
3 1835 1158 2600
3 2363 688 1228
3 1282 2328 2249
3 870 2325 1669
3 2399 665 2620
3 2060 1267 1609
3 494 2047 2499
3 951 2373 2485
3 575 1806 2210
3 338 1984 1854
3 2480 1064 1228
3 747 2322 2488
3 516 2334 2586
3 778 1228 2097
3 1526 2484 2485
3 2328 350 2249
3 2104 358 2581
3 2108 1687 2203
3 2485 363 1939
3 1756 1462 2059
3 1086 2110 1457
3 1756 845 2117
3 1913 771 1530
3 1228 1064 2097
3 2357 473 2356
3 1550 1626 2590
3 317 2347 467
3 1526 2485 1939
3 778 2363 1228
3 1979 1303 2310
3 2383 1206 2613
3 1540 549 2513
3 2373 363 2485
3 1468 690 2548
3 518 1979 2310
3 692 2412 2282
3 758 1727 2577
3 379 2600 2162
3 803 527 2511
3 670 2447 2500
3 2448 1485 2501
3 722 2372 1322
3 1387 1807 2489
3 1279 2580 2416
3 929 2425 2329
3 1204 1550 2590
3 2580 1298 2416
3 2217 512 2612
3 2600 1158 2162
3 1475 803 2511
3 1801 73 2617
3 2447 498 2500
3 550 2448 2501
3 1235 1019 2531
3 690 431 2548
3 937 2579 2506
3 1033 2104 2612
3 793 2389 2535
3 2579 616 2506
3 2561 705 2540
3 1462 1756 2117
3 1363 826 2114
3 2481 1519 2519
3 1807 906 2489
3 1308 2481 2519
3 1572 1235 2531
3 792 2023 2529
CELL_DATA 4934
SCALARS Von_Mises float 1
LOOKUP_TABLE default
32802680.034461863 31486709.37258687 24508057.28383392 17193728.85073398 14202195.428176662 40141473.696892336 25416267.122401107 13210541.92323049 13218385.282096516 30764299.390093677 14138512.916354876 21778809.973159906 27079179.364248034 28054272.55724302 32446534.807791527 76994213.51961634 12654747.036403853 12651294.5844136 43558126.92418825 49812111.32844848 62497863.1496455 42126985.11087202 16114236.072382793 16112750.543896222 50084235.01836134 2690723.923758856 35572575.74910805 29647143.300359864 30354318.266342245 30257730.44996124 12914893.183558948 35249223.29344197 29715929.82286771 28601037.382623017 31785186.012459554 30219166.014165163 31095182.98206016 31793738.772787083 17988573.19047835 32972870.586504444 12559475.351354333 18396016.762029562 17342269.81773821 30367363.3193972 18443841.334663942 26625870.87627071 9948865.116984637 8798983.839559196 33328879.400421206 3124914.6028674347 14972396.088147143 8680696.325614803 16756587.848057933 16760687.412316069 11783486.174894081 31970040.276035365 21339093.304205906 40740030.83206065 6408725.522669071 33036390.37043931 27488854.74962185 40111638.09389283 24981935.956617218 11493664.733982602 32440564.062173065 29127980.4634109 29133473.161653493 21721805.518925566 53831317.997723125 23634127.36469652 11760746.439929716 5913861.498630682 3945968.127814775 2343394.972542682 2341390.8465633322 29745442.29322302 60468797.46758828 2255683.4469085573 57291746.36858444 32964422.16884553 29313956.406545874 36547602.83375886 36197524.93343081 34013853.27783217 57308044.07943785 25844185.245077334 11632255.245323673 1967012.8344461888 1966050.4132802952 1647868.5404505776 27683246.16042857 1902614.3907358358 20858074.44536782 7156817.783497017 7150606.201675305 32568360.191773914 31208458.433594406 13510843.941399194 13516511.223419288 32370692.85123207 19504342.00380985 29642132.838818315 29671866.15856062 31184350.55505177 29898363.40651764 36215961.81135257 22925035.431949638 5863770.881967422 35666981.7271034 29842176.13224511 31593758.615698274 14735847.114951322 30964571.11175024 22796735.477003224 14923715.908119999 35728702.56004699 10332818.077096308 83655.28264305356 31584455.53237097 35677895.44937893 27713961.241337225 27760913.00173676 21193977.75312634 17083243.70197397 17078444.72175856 32658429.791146655 31975408.91657759 36449327.13148702 83936485.664001 83932175.21804868 13771138.050233915 20098882.585016705 13763540.044835592 32074149.522093136 33461937.029095277 16974317.217869278 31315554.19131296 13858367.32283456 10010818.918118915 34685248.69227847 30914411.70380685 25026016.73007303 31865049.13643579 36683285.966929905 5793250.304687079 34570207.24206377 5808522.591022197 18528925.303355146 14230232.410132278 32161100.09672434 26364662.302375007 31532017.461139612 26298817.974456616 18845359.913884874 38870796.61248668 85126353.48883636 31298586.084997177 32829610.329862755 75736267.97270843 13737030.537260775 35481402.18452602 25175049.637049798 32173393.89629278 22717109.847069524 23000130.58466162 34818982.75393013 18868923.72204109 8729002.723560706 32146551.21944767 30111933.96384387 9826129.107130291 33917647.3926121 31980173.75673358 239802.22903861073 23918395.358195093 20274701.53742355 17893625.037613157 20259770.78897972 36327154.69619687 17906651.327813514 24400954.71053127 28192033.622870095 26757859.98158434 30098275.486376744 76544499.85488266 239476.4919222191 6623125.993247874 34630574.44679458 28759651.813833635 12836966.290165722 13787802.071099928 6878530.475767464 30700386.744216513 59674752.42293917 32222676.543380417 34924415.379939094 24682104.7591158 51728196.01947632 125181263.06006342 5307851.262640661 32357101.909847025 25398944.098930873 22576568.187896304 20199369.7739683 25024361.432538517 34765145.83520173 14246548.282742938 16205741.80733443 51813923.439759195 25082815.1474483 2801660.697214996 235388.03733366175 6868308.6826491915 6862472.3203385165 52571151.33925288 33780806.202073395 31517476.552138783 30067844.531704165 25339091.3739891 34701469.81251619 30719889.268791106 30227681.051738467 32239322.961379286 80065566.32461621 34836436.94886499 13051350.487083333 33316065.970550068 27669156.072586734 3827433.708036498 27414245.754497368 11248993.148109276 34561440.68205546 34679069.07751195 35100001.38210465 248532.88493413705 33741337.70299503 23511454.10652679 10159633.797691228 2671537.2342006005 2669468.532687869 12863237.084192732 27188960.063835166 33211445.460021928 33359315.153389968 16565880.773297612 18469894.088873018 42618856.32360462 32227422.747596636 1216636.0922818629 3690226.682165789 22825395.76676069 32841118.99840263 40556285.64266256 40540409.60105136 15571152.991699846 11213797.975146778 11220994.691290932 15000672.772712553 26086308.200384595 31877970.233591884 34241288.57231255 33512244.19792529 10587955.279204706 20630994.965633765 67490145.31310493 10300228.418681448 29061828.318467762 33511322.603287306 73032653.905707 34213268.20000269 27042090.29520345 30757159.636073135 45040392.44827091 12331719.072605558 13321174.514882606 13316013.478291312 15246181.18358071 28409573.46703325 14318739.534880605 33150035.546826452 20678335.63931082 12350979.57186736 30015603.336008344 14340532.58131893 28935215.0641794 26967355.148625262 25000440.662827644 31589383.13799963 32263566.938822538 23228379.63561378 26134866.711930785 30440223.92432957 30917534.7270366 32432997.29304487 1321582.3982079246 28388989.60782521 17620625.789984006 1358211.4397767659 39575856.86634996 8078794.668144959 9995717.809169712 13349028.582356112 13350468.288333848 23958156.081750285 18501222.35508095 10779214.059349256 39582775.69904177 33389274.215184927 33556268.77137676 32258061.530100945 34366324.82233153 32327667.735447682 1346037.4011185332 27025698.651068594 13403908.911842488 21893968.238928996 35742413.36534275 41771653.60092843 4000166.8162496462 18292438.447299507 27520386.518219244 9340605.653832614 37749126.80017158 33556265.60146006 32361592.14087844 46396693.96099142 10543202.741879007 32675788.477534488 27173866.132381544 31941452.939679854 24936316.5966898 22872961.237700596 10399681.662762843 33953364.071164794 23597876.66812035 31613199.42099637 33542254.58723726 20177515.667235263 29165778.0074963 3993313.846362784 29889825.337764926 32131090.09024029 10590870.790461957 30911739.491660297 33489131.882063165 17287021.077762436 17277659.80448569 10448839.47960747 27536137.6389737 12995759.247581488 22785229.200434856 27421829.168238476 31965256.61728473 36898054.17782776 26010317.907916006 15642630.653244957 22945977.950651437 34196270.93052177 18127086.073146634 32807597.512091696 27354919.34764085 40055965.05945102 55671889.70005052 55659336.326456174 24036365.66858854 49006743.21266134 49018408.26067357 32320693.65737465 19787672.10800738 19729942.777638264 32788723.49806287 11565282.357788587 11610392.284289913 31092448.584745776 18968987.86469261 13084038.406605616 2031451.745435093 4551055.1540756235 19697157.243509248 34839882.02343667 32511620.516996812 48733088.95676845 31347072.640175924 30653947.969251856 19545269.572625723 9545063.470187055 13601979.527143376 32926883.40612561 19680045.35739505 37891502.013366744 17984180.088464025 18852019.653463233 23392591.60575777 29846800.45555843 22423327.227236915 13598317.493557846 16336967.45039342 16327716.730135184 15329377.861655384 38036532.46779046 38460659.19163949 17990593.40657232 32206092.946432352 28581871.64967692 33142874.045338906 32205266.276003562 32168153.67799337 24139588.809119686 30114775.139061898 31161698.09937183 36763350.67206554 17920372.54325091 31982744.71954469 32034805.3172062 9969912.753323615 6134117.536498096 6133085.167746174 30294132.507266805 33377595.03766566 51518523.609462924 34464483.571093775 31903746.5400847 4036061.782219928 27762746.47561825 24285886.382171717 16125129.814335153 9993488.834007133 1376313.3814602257 1345662.049365481 30314775.244667284 40963423.23245253 24676195.904285815 24690373.187398285 38318490.553807825 29360490.233312134 31547720.888227366 27300142.844162736 15034031.606140025 15059636.157112736 31847069.619108923 30780433.007200982 54044570.25274756 6733854.538150668 31911982.62215506 34714524.39003358 27061116.270337224 27345206.491639417 30747204.795458276 29870939.947603602 20396336.155988216 31665387.69278129 19281443.547100987 9708790.363176035 24283047.044811018 5159922.88834865 13323959.741399514 14732239.273780266 8844372.760824628 4310473.96203524 5154637.554124553 38536105.634796984 29199951.45178518 35397034.17052002 31951703.94148554 44538112.64422271 44529588.58893485 29410754.98854475 29515811.104895853 28092262.412455183 42216954.31203408 32438811.724299245 847039.8607421889 840523.6532385031 29185986.457366917 39357378.91770169 32219405.263675675 50298544.36900972 168754.56523561105 20326894.93542563 31274845.44693536 18313735.156878375 38806933.26662046 20339993.0459972 11143366.600863062 32572140.542788908 1663807.967711885 33682691.37744382 6764571.454436544 6756437.945881599 12810907.535984198 7927856.026825097 12843422.634795085 35188920.45936233 36491644.25131255 25397843.533736125 29316430.74124443 33729891.6153415 29770845.087723352 29492428.553274978 19752036.62515917 27503612.07508508 17171718.721856907 31898498.78736111 32480159.586157367 30990998.581086103 21003373.881938472 34515628.44522953 28525133.56581712 24765313.62453549 33852441.506094836 33928512.61124659 10134535.096322384 10134535.096322384 6617259.406254341 52427419.37913288 30885639.832856327 23801460.716213718 23790610.150787808 21304294.53375044 35168619.26391697 6599776.789120927 31712017.058059994 68500312.91681273 48351540.66158158 33181523.455879007 24776287.72138 33187536.279117025 18431837.710000847 4021886.267242202 31731971.063059077 25531896.104116295 41813947.60006165 15695928.988793995 30397248.688891668 41551300.78914221 21655067.540652603 21643594.83900267 36001886.57320412 27414147.04460687 39244367.34605471 20777204.840827685 35674808.3904092 31894112.012420487 32550998.025067367 22780772.381776568 33583546.55554454 21862069.67491108 12937351.822462842 12944231.02206907 29834252.76568653 32723645.45053353 31572607.65910638 46402768.73561733 26865384.31598585 25615624.41457815 80907161.5990415 29942893.420812786 21568648.97102658 24548043.656231705 31809248.204398606 39341597.02919539 27328595.040113147 23825709.94035455 25640827.339976385 25321059.518934853 25454941.77844808 27907067.71332397 29385641.404019184 50021963.84024293 10837578.687551653 25617410.623352185 34261136.66413764 2594493.2456374867 34159084.436898746 29783898.89760293 340825.70890561596 21130243.338597007 24575784.90403444 21061091.617682908 35368877.66858345 12089406.358871331 34651945.33178685 21310460.609122284 25100409.007451314 66493847.642123885 45977740.18743757 25585207.383161943 16677733.349179218 33831591.64670045 34287187.0952038 23284160.35931353 23287293.156820454 14782543.64943771 6275745.11563589 20540261.164309822 16254456.512183959 1040533.1592926253 1037908.0012452522 76548501.24540941 6271610.272205756 76572719.32015221 52172259.46100042 32244998.211269155 23255741.172304597 38583242.26151383 17142585.268646136 37712901.379701056 57260384.60918803 29274461.029298745 21646164.403469544 17968458.26354949 61837426.96459339 32174438.578047663 65190097.13372214 32306738.42452055 8780340.739130069 29487542.75328095 31993381.371229995 62811221.818998545 4679608.385132491 17232937.726197537 17241335.63429334 24579775.09079704 12478082.789982744 17274361.696838643 12167519.584088117 62765423.092056856 33122282.66020124 34048018.3122242 32710537.750599496 13495859.46354538 13487182.931111295 34532447.59367653 596487.7091186752 27140279.751846544 9117518.482340414 9105545.88532715 20900076.56937436 30674537.847032037 28891757.257938392 30305131.187021594 31006145.799754974 28990713.33630044 32703342.417799417 39912393.19497913 23599184.835710857 31431977.69154254 16118924.344633099 16109779.284916328 71330729.5633487 20550092.392540004 3765381.3102253433 3762237.806036282 56777559.73468316 30385727.674292784 3181547.578499534 3178383.4444981935 64879503.06657584 47046470.12117898 34282178.72804814 39782030.247365214 33367956.874041166 26917565.823539592 38757946.64078547 15734433.194013156 23046512.641832348 23035032.32642997 31335873.475218214 75830509.0639814 23073147.648265578 13632819.719562715 14607633.094732847 14107640.931234673 65863926.4518039 34587556.12180389 24518171.647300217 10221224.499233669 10213889.521355197 75815788.76842949 16180240.474678183 7995031.762516244 32561750.09854765 21743616.434231553 181748.50309035197 32105010.00750235 21387301.684540123 12129816.32927017 14904470.217209876 14895563.563396119 31243776.851793017 31814470.044795595 30233947.913228083 24615623.733209692 30391339.21879444 33463701.95032171 5179630.7503077965 179940.409658847 30088699.856260236 2023106.2602681366 36371533.93659253 30396469.53849668 11007243.772247551 20076370.209922303 27052446.331800446 27040826.136847448 39610995.3446288 30961172.16554003 13077542.870248185 13246887.067655645 24508947.046027757 30919783.34875858 20336906.144019254 3563303.55174279 10764245.456726493 32958571.885983795 31791586.055254463 31764918.10958518 34035893.13248339 48822939.23453204 20509859.14374288 31426106.051073324 36156198.284301214 34698203.18455565 31283136.874943696 21444982.70735809 27389788.821702074 3311122.1641730345 31789446.746141285 43075349.32886274 5970382.072351794 35527107.86409292 28882515.14915051 7011878.028029477 15045651.443046626 20789406.43686241 36219835.28126759 41048564.18425476 4072794.8813142395 4068213.987740605 9918396.570816126 36255103.14938264 24475220.399764463 32705302.752445962 29925374.26541364 12705845.274006503 32393075.444500886 35455109.384311445 8862424.216231119 26495664.273163486 14464551.401438152 39292956.01042461 31209085.915159028 1792022.2731950476 33433812.775042694 31904756.464687053 7843521.047402302 7849266.272851259 3639394.6967694373 3638340.2979663163 36851523.85002436 57125514.90670286 7094086.720177203 7087192.006750941 30009315.881279293 27917478.831547886 52830312.44153064 37282960.65414697 36414097.11805187 9982350.265712148 29385280.606379896 24762895.59649211 13671057.709528117 91200678.58904019 60628325.9104537 34763252.666343234 35673465.25044767 24363646.646794338 9572475.573330466 14159107.970525578 21027795.965814482 20842010.809371643 26614785.302246977 32247531.5785577 32445768.917377107 24776529.950579427 36419985.03177336 20858196.83989331 35667683.35729491 30925572.52685313 7444102.012849291 16057273.462663116 35888308.903139114 1013779.1904552813 29741191.58797208 40498900.820774324 34416148.14611863 29879022.99115041 17143244.798665028 43349467.30634406 4524876.152759509 36027423.2714279 36814873.10620446 60036508.72283258 40600315.42396428 43363367.25779134 79291055.12404312 28020626.05702104 13590940.740634646 22759549.882595163 25445588.98204923 27960307.999672417 11849757.285742158 17818507.609734476 30609025.291996643 31701357.092905205 34168225.24911094 20569904.52855268 29048456.672218844 21878306.383189656 6925711.529857195 10359304.891445631 32157254.26376068 21880573.527398217 6892903.213533203 33089428.401869103 53351387.38493178 57737162.810936 47319724.535950124 29707905.633254614 20491584.76563534 30094434.215530876 23768002.16937534 6939214.353601598 14840789.381990256 29139907.54713612 26787069.658410214 27718498.903959963 20925023.32569556 33618416.20772885 27705405.873192973 31734175.467137337 2125678.9802540354 18468081.557876438 18462760.12717136 10041798.88313227 20571008.287232023 6882939.045323471 32009348.121022865 7064407.139224925 100005621.96539436 46446445.82433898 9627608.910200948 20423367.21676915 48124138.591570295 30579369.097036682 40712771.152804054 11558887.53121454 19066237.428757302 19056722.72779399 12260485.221957 30042074.6815886 40772946.17283052 72411117.49473037 34309150.262071684 9593722.546112781 52040147.63337428 52025611.7481972 32394715.37578403 6254530.278869812 12285228.132931182 39837517.35590915 6252015.82814738 23085507.58655931 35491296.37197865 29210871.16216417 23461922.400051955 656799.8486425396 20421807.330230866 33644972.457125574 2079093.5672493887 32654107.790801045 27267644.66699122 7697007.893102539 32745934.303832687 31432367.764482506 40269707.44753997 6575372.621686604 24179912.247481726 32271787.180801366 32597515.94464732 15405233.290281115 30939075.80321914 18934744.93722178 32709135.507014707 28254641.91577543 47162390.3297538 7523406.195259486 19729551.49836571 33316937.417429235 21358682.084933944 21982779.02221113 51576685.50752546 24306922.746117875 12471734.13153532 28033192.35468666 39432779.13650717 16523344.780597711 36155906.065844536 28038369.448122308 19619670.953246456 32166959.674461816 28072819.99367921 16683682.101653798 61433373.25059609 28108846.678088013 1828321.0122308019 1829406.5131948343 32389410.028049212 27976496.67801263 25872187.70031002 38358205.05854456 45134021.74216768 25865586.53128234 11200589.253458727 8166719.45709207 32112586.79513242 88278882.28683385 38468414.192183554 32595519.638852306 10178445.74118158 33614771.52082791 5883456.299897608 30482815.36017155 32043211.92055639 30690433.857605632 33893344.75471557 40517650.3049534 26501871.062937614 26696892.20869196 26074082.647739552 7286044.599136899 3550171.530500766 13327460.639609743 21595932.662326988 15233395.56239751 31989785.35602007 15224576.26546006 33614954.71396398 27077791.512061816 93098527.07054338 32131403.348920383 29437231.80381649 36761165.94500335 32553386.590210494 43175725.49209692 18876618.760179743 3548836.456604402 36476176.08791201 33619876.13603262 8329213.640124981 31844217.11015797 4208490.7588536665 9919657.45618823 31760080.38280415 19337994.637082044 29207550.247596942 12594270.474877954 2956920.5984367146 2954064.3831069916 20886601.851201665 27855814.236923166 31844623.523934923 41444530.35388359 54738747.79503296 29967009.296153784 31804608.219206627 1841050.740261044 27466396.27102172 36375735.34883574 23067120.700727347 28973690.59582999 1094265.3899020164 9052473.349792669 9059024.515952805 22417578.164465994 20481727.32097678 18577515.374132365 22786137.188685652 29140855.536252763 33643919.83552128 30087511.45364906 18573072.31724896 35768563.792549275 8138521.680604471 8130845.641225658 32174885.83321281 32783763.136183016 35351403.42980776 11347239.778492747 68620639.96490243 11327639.402000595 36205019.28072585 33636892.56193202 1929905.8677806787 7725196.942045884 34420194.41017433 30680953.2327764 13606341.546156952 5326668.065901609 32141942.711636335 19600912.36013196 42614937.913010634 18036894.410493553 42702719.9902108 30069727.790877298 31754402.098015424 27698294.43396405 28830605.012125492 29793140.144965284 24838813.561227538 13623236.109572345 25128749.561955217 23315275.42973631 23309005.10625226 32532101.88859733 52157939.90717345 5850877.888466069 31783299.48378859 32139100.5591281 21291788.97568107 35815154.34172383 18115730.735718437 8631308.631633151 25717777.10839318 21941308.744575027 23755051.469078563 7598677.915766474 37290170.369900666 36435206.92501897 34481112.57744789 37909390.886344455 7853054.2678662725 18789866.423992958 18176846.087059457 38144493.24197398 38546358.256579734 30887807.41508213 38539980.7118053 18166240.524084907 25535667.249260426 14329363.080225376 16871821.8308893 27219230.046624247 31937642.9444199 25352291.471719377 31609176.9375628 38240440.89279588 32110044.783326574 32157948.94938064 43827283.20864715 19292354.116662122 26652178.47018676 14838478.546169613 33543039.021818917 28679125.00948323 30431792.103281755 21280072.72240712 11317308.682099834 48375076.671330675 48366234.16000699 28795352.663153186 31814147.773995604 18949673.816033226 9272515.320409143 9263385.92308091 31841133.66517961 21306871.561816912 17083344.987617195 8657753.01171232 30501433.470479023 31649830.444520965 26533729.392215163 20621744.825385083 26310233.76266424 28084481.286540706 31691161.659139816 30641170.26919481 10543374.21724813 24863998.155187637 45768138.397315264 36235282.09003207 24927167.944549963 28782793.26807665 34193731.45562834 25522318.099875543 27372399.914012734 14731752.742353812 9206489.898473512 36330676.638052136 36385280.76147776 36309276.29372246 29154022.678001013 32355045.807515953 19344847.21873358 11089168.532801768 1034205.8809845442 36335202.01453574 29660707.50527674 50065264.02271013 9911785.819016442 24388316.323886435 523308.77070943476 31124882.006263565 23382792.946856532 43475448.59123072 43475472.17059175 27974544.398504537 22447958.27758556 9065052.022821601 22465635.301550567 25491466.23933378 6349853.368837779 73495675.91507486 26380647.841538265 18998524.789440468 12354067.293514526 43991501.559645146 36361246.15201965 20029254.70163598 32734627.494769864 1130308.3826369564 24911399.629180133 14819419.76162081 4266774.808180955 31016955.077442463 33638652.32670124 31607379.901828907 29688491.41217017 23114669.210090015 19865734.11396705 19873503.244580574 29563838.469941072 26396425.895673826 27890862.899175797 17020167.47065487 30200033.625138555 28669622.192477938 43612167.94444556 38927307.26746115 34410749.48428871 32053576.996330533 28033917.95702142 25661871.531743363 27683305.506847624 19062597.61078494 11647695.834697127 35769174.76059198 3405573.4979635403 23963420.38240848 32865367.78437126 25033729.635864697 24586175.235082693 33818205.54952177 8933344.954752902 8929423.680630136 22667692.86742219 22965275.74543954 39368126.27086224 5163317.778906067 14019877.309924383 20525958.03014613 24462186.996220477 35470562.144773 28414938.52670979 39909238.60895739 2178360.415295862 32196864.447700214 30064938.122820575 31921562.34173927 32008188.61117169 24100563.475815132 39190962.81554167 27143712.18972356 39183367.30359556 5030978.326389629 5026747.857223293 7575366.582594994 4663800.600843182 4660383.012660441 25184865.185376517 21386420.686352894 6268868.9397949865 8150328.485226036 65094068.99151475 14338029.25151548 4954773.779309483 14316012.377169516 24636746.70034985 7594897.336553847 25830239.849010408 30846601.430337824 23343034.238642458 3508398.664795929 26755724.423892863 23047165.778941862 3516459.5910974205 26289228.548475884 22579021.530161936 34941798.12411129 26391200.040641304 24152503.954044238 23052784.49986886 42382379.812212564 9827308.121088997 23706044.959486842 21069516.19054304 23301784.08180738 32649724.929934356 9350625.472750453 26759999.1197959 32021289.473713443 25587559.367937125 25277271.859312918 15724873.154854557 17142533.01327392 33288555.91956141 3675351.37582824 31771606.480994917 14003780.55906336 24114559.724951204 2104274.0975817065 10827381.623526929 20031130.48604842 21017769.617908303 37117352.8204921 2493949.1801876067 22450451.378748626 34712742.762586445 22989658.021246776 31951708.46856933 15083889.579948494 26387854.954263847 5447261.365568177 37064933.85818705 532550.5101449811 31153707.669250704 15148292.748482572 14409372.455667423 62935030.09475262 13091799.123107031 26572548.267644424 9810127.93715396 2496131.9611791032 30616220.219990674 9800479.477602914 25385335.791777637 22739930.522147406 14067299.248355715 69868754.91726272 26057675.223740794 38313375.59932873 25538157.582277574 3883068.2577049113 25713659.942557704 27179831.55464873 35952278.843194604 21506699.17179402 31356918.203738067 32003691.298851673 22566829.354239162 21368716.060909677 31803163.27379233 26060011.090886336 31867090.543963253 21848898.11252119 29607999.087151825 34155633.47482906 16010347.710649626 16001346.75082396 30466125.020731095 28676920.00073658 29626768.615599286 33395402.86148748 31880626.276755743 31948910.146714833 36206343.597219504 38392644.36268354 39850360.015471905 14746218.238536559 31039030.27517814 28602629.677196253 38349678.939379975 30743725.194864 33268955.811896883 24520666.389539354 35117294.50227937 22850771.05727638 12298477.593308283 428233.96191815136 12658037.043233233 32381042.862984948 14085459.967694728 15157164.27256352 15164039.13788435 12649690.17708755 4990068.802369494 13839216.343933692 3675948.5220537847 13841430.737728428 31159405.637321535 4996579.119727719 28599793.53553149 28125323.789301667 34616609.847070925 43906888.72661536 19948448.90817469 48838273.665240474 11629135.79630979 35767899.521501325 26006617.27609469 33664658.92510584 56358883.84592394 20800888.37491727 31892870.462748062 21923374.463854313 5648337.944768557 44571703.69430314 21789921.84262591 13149715.718584998 27288653.19609295 30437035.94959023 40091324.4709544 13348412.073548306 30403455.718707062 15057825.196898475 53992340.426923014 7197773.4520485755 29662167.7608892 35731116.96414183 29092349.104859166 32961620.03539073 35460527.3254437 31107255.36099414 74904609.29565749 33431226.95538323 7979281.655764406 24301646.434766386 30465342.761872727 5500525.59389391 5497024.228021847 23610538.68607838 15429770.622784225 33705703.03305679 87964536.38136093 32725356.92396441 87965704.48008305 13134777.534203213 31960252.92614082 15423765.428641817 34988252.85675626 22824863.94585368 30585257.024139795 18201115.214704543 10231126.962813552 17536632.07513072 28130986.360904988 33323291.01307171 35720136.666574605 18203082.700220305 29281203.31512311 45868748.407546856 15162143.232879018 45220178.3220839 38807647.9747169 9142181.081353867 9315007.695695996 17766586.85185945 9175468.932337603 32607788.69000676 2748332.2016378962 33270899.172182363 11372284.32476181 1006781.0601150445 32051876.37912454 15185665.641952164 31523860.150165886 22757697.701901883 46746172.62459739 46738128.50168123 44501750.98580454 6377987.9539328525 6373099.2832893655 28871017.699357077 5797655.440439968 5792206.467392906 40242406.883645825 40308853.34151778 14333656.309644267 45867031.87503309 23342475.043494746 23157978.6785689 23339244.869530514 45598407.2543793 9573057.612568073 44517438.35660916 26441994.3024658 20248361.29446081 11390566.54726253 31087454.78516388 39207956.03291484 18189076.507134236 31679678.698631734 21413266.132758755 22094738.41008141 19411296.314955324 23439573.80419538 31664269.74562677 24479840.540017903 32131748.10516184 25779589.81628436 28690004.911870807 31719647.961396556 17395349.822672248 18421048.777436476 31821151.055306412 60534735.03072359 33616093.61744393 31996227.13437125 27423572.297737654 60532727.92622357 20536878.52203967 33350353.739527978 20006222.698423397 31539851.188938312 10106333.297064139 32459940.49706578 4819009.439636265 4823359.6199363265 31312864.581468478 42966.48996510948 14012213.315670399 13420594.350942599 21406508.62611117 13413202.716997907 40268304.3875786 25046944.89853894 20154448.428930808 27112560.780760333 20148417.6901804 24266450.473287094 27725561.831148088 45795520.39034713 21032887.38263092 30567146.802364286 27260347.21251953 22357687.22812878 23171983.015955146 81895011.77522469 2819718.6333665615 16603765.041781826 4382600.418983505 19510145.047081664 46074233.66842361 15774496.521685325 76350771.50568579 4638428.983791239 32884853.124725033 34293685.75871936 30177505.184571255 8446056.312373908 28759938.475457802 36748952.04619571 26418082.33417834 513720.94662024506 8516506.88358825 20994778.38011658 7905350.173995562 30708572.97471993 20918521.629826177 7201545.227560955 35500112.56473042 4210094.628837552 4207660.319470775 29471044.506265856 34066810.98590433 30087806.1643213 64104850.80454868 30770528.10294115 39304227.26069222 2576278.9409580026 22008258.794914182 46805910.97348762 25644564.75905331 26837415.457057532 24562955.134878412 34899610.4609193 23415458.243546035 33609549.81753011 7188352.455814768 3989401.3442617375 68670310.28749883 32977894.387461577 25081554.97532809 36736168.21431939 33230514.42346863 31685935.531048786 25078524.65205067 31234021.03308356 31535244.990883205 5387178.114591425 17950224.20281878 32104399.05630832 18898662.324629657 668843.3213537422 36254598.9786174 24219687.788974315 35982782.48971609 13242647.641303465 26976978.22925696 12384786.263829665 29092319.123065382 13234808.956388788 35311797.02887193 19305432.08282054 9201172.90285405 39133406.97276961 36382808.21020628 32067259.433268365 24695586.9846369 32430945.965672262 22335761.188986845 29259670.115464907 35521801.390764885 85043023.81184484 33110174.42265313 7686177.41795044 19321932.929953627 12143986.413667088 27526183.196041655 30584069.69077374 31185844.710760627 13795365.923773283 12341541.885366458 2539636.466943538 47327560.428995505 44101160.269601375 37393229.45209971 11668162.630473338 28336009.63616185 33788398.90720012 10864867.378615994 31722448.607050367 25811886.83689979 33148952.311140433 3250631.7436923743 3277315.8982952624 31778540.54503773 34609908.10622055 30716943.48835359 5839761.267077782 13819447.1828981 31035081.187801767 24693642.924947817 42143958.24319819 30333171.982497595 22454785.86216777 33410915.035875186 31287935.864398323 30830429.162317354 37611200.16743583 24592299.116679497 79743617.09649177 47168541.70048167 96256228.2065068 28671478.438343283 6412698.951799528 19583215.347135935 11134855.385647817 32105202.1114421 42546799.485985436 7628741.590636482 11464200.419434074 30811350.690477032 10952803.362331897 24436531.44574335 32590720.490880825 39452045.22455907 27031173.169430636 22973380.300281115 24439265.221155968 24211999.854377247 27164709.601521734 735098.9779562656 14043462.23738185 33951094.365762584 31994001.481757004 14208887.185049444 13253706.704110919 33004515.21793354 22326108.781948287 55921267.84123314 8453027.53664139 31092307.645244632 9746180.75811301 9249919.826679077 31813230.14509326 14208101.253703872 35545057.56147743 24763761.604199965 86801169.73883405 32933493.028090335 8632294.074697452 17792992.629312903 7661627.434389375 35238664.40196608 2126155.95938848 12607742.590811312 39178677.222265065 29569605.293959875 4786914.328521311 4797060.761762174 27903907.74445438 39130589.337533906 34604402.83765241 18409436.672706522 75548003.23397082 22272749.68881026 19633804.988318115 19639206.898889728 31533972.218260974 44209811.55544769 36081853.02812522 6906331.356969836 6899623.442111925 30296356.721839383 36243209.398755796 36192975.43118724 32485153.771236595 34596027.57953449 75544513.83862576 30371706.62630061 23859307.00381219 11663265.770426674 40114104.40094182 24258117.444701325 9690539.191147195 9668406.682310816 25261057.90589104 12115830.905937854 31855666.73357451 8994005.696347008 19169563.162768144 32600746.95777767 52577753.22635043 23061668.837664012 43290192.044586554 18911054.51304841 25332420.4719978 14640398.607193517 32606245.984205123 141910012.68592334 28889181.355825003 55808181.191048525 13409781.187291892 2867409.7003375576 2865174.26642555 33494732.17266448 4965721.258108919 9476158.076090004 32328640.74510453 31137575.080790065 21095160.372888077 26612106.93287432 27617027.667646635 32541904.04962256 32702615.31943005 26875980.908693597 31366534.566969145 46635471.3024214 14704674.040664189 18439152.953768034 32397387.947156005 17927912.83613424 38215229.96108928 28845272.31781617 28966922.99075073 35178258.49082804 33518951.3215861 66410061.93498992 3709286.422668771 32442654.200630203 40195893.50788335 5040569.07508392 24601867.185672343 16383588.99690958 30864787.210480765 3699867.906402879 38285513.47109109 72421614.97839497 37082200.78847428 37093348.83707103 22476328.784240924 29546941.1430462 8514391.883016683 32424313.480191324 11916298.201300489 31968914.435905226 11409418.228122886 15349944.335605746 17427744.399990577 82041950.01374911 17421226.12823319 60657414.343237475 45844279.479637526 7202975.478566348 7209768.70484553 27701244.03759482 22757122.318335112 30395221.295785226 12414393.62716378 41951615.67456339 14351617.869533107 27754961.48206199 33068278.6322779 15367426.60476174 60677093.46801805 46574681.039835274 29201412.36447799 56103624.70279502 31284447.264638934 2731763.1088662166 19083445.593646664 31745832.21891291 800883.3377015135 17688628.450410385 20824397.499309145 38123156.85163192 35153008.1369328 12336340.718930893 14343558.222010208 56121139.52349028 2914532.3626955175 22238976.296091963 33293590.063195925 22400873.23993458 75003806.87180254 32173961.085520085 31915598.67303104 28535053.70569943 31924622.522898063 30954224.034559123 31755827.59455096 29486523.999876734 23824179.53592485 14360943.951613482 38079241.859753095 60979165.68373717 7194591.3183611045 7188187.598531399 29724346.723582316 17793738.446458448 14278324.47660635 25488526.422149654 5517718.098045959 33118059.087644044 10421771.695933508 10417148.938091815 32834829.941846255 17822252.78719282 40581976.31303973 27910116.48332504 61650145.95292615 167578755.67378432 5575836.3158188565 2418386.320350042 2420522.380456369 1981325.9832240823 1979698.9060847422 65238286.704002544 32556003.140765585 15033399.69610933 22426086.72877726 15033024.978101006 31852218.301659416 33836773.417925075 23465140.87424936 61637211.45154996 32212629.38556974 35083262.026165865 29139204.276624355 32476577.92965955 4852339.802705693 65221170.21686357 31120400.02695606 3118693.8475458655 11881198.072847016 15270630.149348127 57195235.75355711 27040736.99418587 58367657.50906939 32914693.668290693 32015061.161382094 15320518.739943469 13150017.248811053 66352758.65270327 36432649.52977404 10955290.310150543 29024903.409665566 36970137.68090778 31682069.39417764 26322500.85887498 32714927.261548493 9677955.034178853 59756349.704590715 32652929.010701343 12624603.730553987 40171895.5027145 3598565.0740578608 31766156.775365558 24694817.02521994 32486432.297905494 35046593.609227024 13350697.326830473 20413977.46349253 31644403.47223286 15540902.126758942 15439468.191405004 23238432.79133892 30615612.538976733 15790221.187973987 15540192.30020025 16523764.242943788 12872852.764518019 21663885.197419375 33603593.34105161 29902041.660788562 31426326.65684742 30983779.73539222 31315907.949732967 18715751.659039088 28683339.18231152 22969291.029677883 18446606.945384268 26208696.279492296 30983292.64372839 22757168.822824247 18627860.47344957 13670425.633015115 24742555.524237294 44807643.79583687 33387730.706835452 21018525.226529293 38989368.37743899 3412307.0247826027 9830654.008770648 10148668.205255168 53435965.20789113 27493819.781383373 30281827.137289897 31970902.83023619 63872859.94219103 28033165.719577618 12976764.17810157 31811518.895832885 12410748.982826306 24944008.52293055 27864829.434577 53421770.47860646 12432935.32627215 12424832.183327742 12792373.3285546 35861640.84927537 15720372.011923948 1517631.602155537 43259702.43694499 24317491.52316965 25014746.40566606 25302641.210380603 28719821.474680252 6254348.423447779 31218937.577838305 34018931.87904389 32453491.028041344 25834321.7586035 26916617.4799619 19170671.8362334 33914276.00762231 27431451.535674226 27439222.058891937 31839838.77959552 11429387.646823756 2590572.1331268507 24707414.214180864 13806674.806173693 18366493.56663722 53700497.98629291 1065700.9502392206 5414517.854017683 32819548.613161273 7703953.984213033 4413082.130014887 33651066.54489583 27917566.09300746 14122848.709398901 28821947.915785484 26781630.65966297 40635695.87504507 29124060.69218409 30594263.882553514 3907379.191906146 31910392.46385047 10524039.834582848 32132035.289034072 37302877.339670725 30965461.361155402 50451907.19378203 19161816.383437227 31228766.582299624 32084545.039785217 8477482.690406255 34421502.436609894 24803701.267670874 30217157.06295846 32657589.454055294 14010839.604513966 36173503.264063485 8470521.142404204 9815434.753618073 27219989.075442143 33458377.57521836 32833366.534659803 31700328.884755444 7094690.323485134 7087917.609315831 25717140.969137102 74181070.12290135 7640848.5198356155 6066830.212913423 6069331.585303736 25653402.995565854 14160361.968961254 59387743.45426638 36555945.31020308 14166922.940847645 70813297.58621526 22877194.55648003 33601824.81078023 43585178.71286576 70815391.31001411 25533495.446992222 43144746.34954549 28342552.590645242 70788554.72308573 21978365.881943848 20925730.39253376 48860541.984316245 13551267.001280552 32170101.10913653 31258288.407973982 22994189.821534567 33054600.547955118 41188873.914860174 21858056.905269217 26249946.008579984 10795276.390258433 10787566.256944042 32519410.222971726 27752654.693067003 33221671.38672086 10073535.590612013 11166450.074561693 31713738.026588134 6217572.3588240985 6220589.812341083 757111.3465546682 32115687.766953703 11817360.550759489 11907878.794729328 34593118.53380086 11801005.237443626 11891268.585324906 29117459.082452923 30464438.77872727 32507992.90265844 12405621.539268455 15600325.23658946 33800249.881488815 36460200.584723376 33335231.4541463 26652946.270726394 16563445.074978054 19965006.701997202 31876746.733900346 23197911.00402107 10647469.300587466 56972093.15117046 32206858.276539475 25517264.01236966 7734743.451624359 64190949.36240412 23222988.365234256 41473291.2614654 23909901.58473299 10051245.424692687 60896585.036750905 33514994.54863851 14485883.485587517 21977219.935252298 21965345.132331565 112094540.10272624 7653525.9281826615 7648982.467826409 21323597.990351953 34148313.45318137 25239715.857328463 26569479.511660438 60898015.99239624 27628019.394557808 23538512.88759658 6895335.990742874 24137296.906020842 31039158.48248888 55019377.047206454 43569394.26348943 14887300.581450306 5352826.885065907 10794435.005787298 41456064.34741554 33199728.40121182 24113056.80435067 27492985.51421527 27501599.98813881 6414994.826578721 6396749.128839623 52741234.268323585 32887775.40009781 31450406.12565652 12923524.729087496 12931306.18718908 43006209.25907233 1185661.4335230263 26649894.022570603 41084634.0730743 5141385.387097305 31738526.05179106 17678162.36758616 31522996.72486644 14903016.499771822 230530.24163985357 24821779.181025762 52729696.163665265 29190928.402932465 32361128.571946863 27938186.468922302 30936439.72772093 32779589.453820743 30816370.598554213 32134524.0644299 33234708.112696998 32227989.586913183 23046387.434444092 1612266.428173132 17186916.56126476 40999559.97563353 17693797.760581587 18751359.530657075 76375986.97491829 32092685.424160045 21391472.059210613 21382993.70515362 62897184.685856864 11803089.114054974 11794719.11107495 18190205.861899875 19308625.575310167 27439627.047410794 13076479.23002903 31842112.78613543 42068261.59270844 14275497.152367884 23001197.63404908 14910764.891265979 79285218.86563094 17700759.485703196 33463755.401337083 33103609.859695032 32265441.56805497 31186053.04207836 30525912.627163336 24104845.012044303 30156380.111821085 22987616.548410315 20342669.18573996 44432706.96415623 22340810.45020136 32053051.256224144 7424856.721009567 29796938.701589834 28602604.519738927 11514688.79704793 21818614.883849047 33581853.9690513 8444560.52561232 40187943.12220227 14696434.982956758 30223945.75195646 80069380.88990279 32315549.074609585 15729553.397456488 13509766.193487449 12324424.93012653 60402808.31710504 12044127.578056777 23203282.15511337 33069005.806711324 13397275.991597407 33193818.491456196 37062874.16298705 29882927.71062655 30763697.77071758 4542753.8061981695 33091224.696663816 33207716.088294655 26114072.551381476 15361097.563073395 14689674.323084919 35533762.81487266 13531463.00312351 16816163.31923967 2497753.829851082 26388935.5002514 29167467.765192375 22493074.212648254 7699265.596022835 31992113.99030751 30336346.312045295 19399187.660488583 21816056.116947263 32382026.76942753 30987341.18192018 84838588.0521113 36758827.79710687 10339100.4079732 19192309.89085408 24582381.06491436 14522931.329164332 33394648.345089708 996748.4530299756 997632.0861923742 977442.0111182376 976628.6818614036 6442327.23776257 23190643.281949345 38706518.86676118 84861690.29959708 23662823.178644996 29526272.93408893 36039480.01771754 59266894.80763554 25067879.50229509 2512576.287576242 25544945.311274868 27396200.75954873 43620072.00493146 4039213.971432828 29491399.961069427 7942252.977178344 29897098.177230667 35597499.202325724 7936215.4005350415 45616279.512494646 27333329.875127748 32946302.797331095 22940607.49793352 31495153.570204817 26849097.563355424 30680634.32846696 18438691.881531972 32809402.48417448 32124371.284247328 32997454.048062924 30221435.327092666 26174523.940562513 27196864.833927616 26373242.75267467 31717282.630976494 41483311.82819408 30884154.82211938 14544717.21639555 26046715.741840355 32231960.896256678 32223582.811903115 22627838.509746186 3830231.3370736833 13330253.578950727 25052219.75570117 17681003.49862709 14459616.122125955 38754926.40648599 23942588.881664347 16742028.63644228 24499058.45232537 2230978.5577450753 24186374.915589295 12235750.819463782 32854412.88356706 39682286.810186416 63261627.42970171 29001635.976549458 48452922.65570156 22893667.654413313 25798806.315665256 29073543.57058378 25066448.08680661 31427949.17494965 33016856.68474168 29540268.636926405 14995703.582746075 30126296.104618616 38926788.25487694 11200198.24184495 32766940.2960656 21725518.246369164 16882403.765407242 26831714.890751187 35927241.10189596 31171246.149345286 12620052.087761926 38606215.512358 31570436.099310968 63261692.83920589 5188614.396515269 23668738.078050204 39241873.191331334 13590359.486842029 31900176.818163045 31451383.344510965 32391795.806832682 31538704.364892945 33746483.58745204 33018656.870098885 10807975.687348727 18751803.059428874 23619547.360610947 11934962.102433737 35120325.37938916 12248622.249887694 1655753.9526609133 32442220.79085485 31514418.640920244 12852710.567921592 12330180.498493193 32545258.84201156 9417573.026877249 30819477.305519506 3624710.6752722235 96282254.48163292 29043059.98054909 53365225.532446 19694567.9938453 32813653.86160425 32378968.34374496 31412608.438297324 36259488.51261684 28919378.480620693 24764322.13738897 31193443.163785085 19691790.47708742 15217755.434916623 15224635.461398588 42137055.55051567 4415993.687811666 18463206.579743907 72632826.68345153 17617323.42321707 39153787.92092691 62246717.32611292 4547949.026096654 32180565.00889903 25065733.952423602 33468559.93032979 88289509.51757549 88284183.2908543 36606922.797272086 36412708.50152326 8791168.906019097 5282745.326556507 51615227.6531779 31975612.554829095 580470.5569885593 33122501.84032034 31133260.422802903 9588108.204116438 10396042.83381477 29558514.6360076 30412576.491846073 45804273.94189844 44479858.54645673 23274810.068251383 29314795.448964294 7732216.48116063 24009533.196125444 4893592.31848011 4891344.19779738 14610846.17393952 54863938.100045115 54856122.862887986 14602208.0686866 31726425.96550778 2990777.2224459825 25898121.64709069 26283470.677374654 15057621.443241073 18635163.468719766 47459758.79968618 28726309.36910179 31910876.4468178 16508013.499705091 21149039.50838755 31767991.426697027 29911506.225759182 47494198.26929848 24187435.906851362 38489878.74401363 13973097.959946198 27286884.75377633 38468531.6432328 33995157.88610873 29617516.973237306 24772219.91806589 3238979.047063917 32841630.43475314 47458575.92211014 30626361.891540542 26999821.61533983 30531651.75492382 71080430.29945073 24054083.25171321 51822224.0482839 31348602.502595726 25163494.742631927 68493741.42730795 26392178.00852673 17687528.1924273 15069384.23652389 30966882.87079107 31819381.081876867 45121738.602780804 71085128.04218856 8668721.130563097 31357476.809740547 6664194.367568782 12225418.487132015 32565456.01339855 25783797.77283643 35663962.359662786 31830886.08557849 13817289.697946586 3231862.193793782 21517372.440866802 16688849.08228374 16644999.848820101 34932840.33776814 31810829.109012894 33107659.139263213 32311457.526544485 13772902.033721615 23512563.915943418 32648888.222069908 28519200.39477541 18195327.209741104 2771193.259766676 18320587.6333214 13676016.88069847 32908245.68247004 23229658.918902576 31901404.863488242 30364332.761214286 6820170.129929501 18180787.656805556 25121926.96883685 30229757.118979607 33295418.453964304 45162895.141872935 45175283.34199556 22408825.17400109 12782530.60711923 33964263.189085804 26488144.355406966 34162470.981625594 34308564.4023079 32363317.929594122 7038698.9474444175 9318329.407207118 22112839.436805107 36635455.84301452 26537364.741311044 45801793.479020596 119391375.519112 20679505.412047297 3258932.836346952 29551332.64231349 28970743.088450313 28788807.929269347 33469058.371082056 13239114.131158099 28132578.608400796 31954085.760390576 1878425.7734341442 51308876.69762378 33619827.12989777 25353936.836390566 2535071.3059568387 25541809.390535314 4607597.966193544 78182753.6528306 31479475.718577508 30097642.049793385 60849917.148411825 24041737.546870526 32360678.820569664 2125865.936430813 2128260.9040957815 32886177.524045397 32582716.761957794 51316386.035565995 58622079.50225804 22092155.237780727 36364349.365556344 25194301.526700288 55221337.46582583 6368669.070348506 19412092.725807257 15666442.059967907 19839551.873243902 3198926.8027716815 17202531.32328861 15463153.924444294 28783800.06023065 35585722.74524272 15476242.274179718 645944.837387412 23238474.2059583 29658521.463232934 4683366.866091524 15986779.93058067 31947244.036853097 25629519.356368892 15979523.880145026 20876509.056016807 27590374.0719597 24227759.290075734 58640501.33694068 25633227.490854893 24525332.464546707 20980430.069219597 40583979.51937202 24854040.729186125 9416872.618179832 4376936.000720995 24687981.230370693 32090534.871112853 25831594.50069058 32314525.217881624 12001191.220495036 22338980.017687835 5091202.529679621 4111709.5000103866 37492620.81394288 25503461.37097378 6358869.609074396 29227441.272774596 26949585.265717614 27701118.117638104 35462143.45516153 34582855.285324685 31677991.461839475 22656821.86903009 32831763.10099914 136663131.24853775 12965652.92483803 12957524.91363696 32812121.80936197 12455858.497524176 34008053.42025313 27670153.99264395 31982768.978632893 14692884.478273664 26971036.31614256 22006347.661775652 14684235.620060893 10379180.753650885 10366947.84918752 37914741.24815402 7044039.247322223 2406867.0171116795 27802318.064455364 14397319.398457447 38372748.18914849 16051320.826003324 21105090.71129456 145435856.69639298 57191427.9439612 29410078.962266903 9635541.115969487 30706185.093978386 35808747.43253234 14624968.22554812 4596943.402091451 28566643.36586647 27824485.165682714 32088908.173437577 14608371.31497477 4636850.419284023 2133102.923230335 33627002.69746168 32713771.83679792 31172402.42484729 30017310.831051733 15770633.016769756 7460305.171788333 32067558.034409445 12231878.563294925 7277556.126995064 8600057.078429969 32662850.434159987 14889398.362219732 22135086.319899425 35051074.916269645 9704489.357178982 9707715.356709925 27753927.184798844 2015219.8587209028 4611809.10141249 21091503.34600198 13940132.093244443 31939222.440194584 13903725.961952962 8779001.347439557 32641538.291536245 21092935.49375374 12671109.46318901 31167865.481827583 29623699.80742202 13218898.961511388 8787709.580509957 19286818.51210872 17399015.433467753 35599284.411514334 34181118.78904748 30425910.061164908 7926659.50513739 33191504.36335964 7451088.90348652 13051539.80932906 28462659.140194915 45573537.38276761 38879529.736266665 22278705.777356744 8497687.53489138 39701000.57953479 10783358.68247563 32003386.67928745 25863501.99111013 31772658.365502797 24959554.63861234 56240204.85945854 2077421.5063506383 63157416.57897752 30679890.095556147 30979231.003382716 33377678.895067737 12019418.73689109 40578079.7425557 29450255.71500272 17582169.61475796 32703945.97353249 5070922.821965508 32802356.748760074 15672886.758463355 32708944.20772781 22236391.81149572 2030600.689291635 32659983.542994503 14077988.293975502 31619959.14246028 31379900.952753995 10829300.672811566 18652729.909251984 36624767.11387114 30884965.20058974 9913913.656430911 16574360.619346725 14487853.319724873 23261770.235789154 31026373.97424717 32070829.053713344 31625730.22275116 9906922.326663326 29049976.520546455 29134920.563697994 31430446.663892735 14940255.031085981 63150257.3915391 18165223.353402086 29799835.803420145 29193746.525333222 32131879.70254859 29910770.345704563 2026060.6663881387 40180898.04272436 17379639.26272418 19412524.1489651 12251435.063981947 29580626.12360859 26868085.742613204 25597070.831829783 12246153.650418093 13128142.939789796 27544985.09816244 14233921.755374007 10364589.609749718 22308193.498544715 4824834.063703048 4829602.61973817 14880474.465934584 1214120.4827366613 33493694.89137423 33538551.070335075 27852680.922900498 37348102.9205207 8139482.325902702 27078300.879887242 24501396.251187775 9256222.816209229 72675431.93964556 32486428.093829997 9105839.027333014 33824643.03884446 32563684.008785844 8132232.317049198 25835521.030229956 25402025.40774713 12506686.687902546 34702122.58754701 32905090.168247204 903345.0601776071 904128.377134637 915933.4696152882 914933.0591097373 29742193.408608474 72676401.74503742 22308261.40319755 14226406.438782996 17643030.462065056 16471405.541409995 22524183.997565854 1830256.2520629372 24155930.8687269 43629147.97500059 29404351.12818094 10682612.683996487 33330181.813914567 356346.5843253275 1832684.2718143254 21625297.442915447 30886991.449260946 3495228.9513418167 3497743.1334166215 23821747.64026873 873794.9763904731 23344680.285723906 33873971.940152355 25743110.83782047 27232583.289524734 32409885.8624525 10134177.9225887 38852855.32332999 17657912.112603556 31512516.13929174 23581998.197724834 32481368.650682718 1396254.375072567 24229026.229128525 20438197.356114842 43154310.06938896 20435291.79632254 35158797.90401304 23762276.114154823 14267187.985902758 13003828.930375393 35128438.85179852 37479908.94907563 22839452.23653836 70736987.32395522 889101.9318046055 95406082.7306883 28940803.509376384 34672700.977193765 33875321.040697746 34086131.37715635 9867987.705660429 28384686.655279268 29463701.510404862 46975872.735665955 28277998.547451187 32123657.367184535 9153675.6906885 28299514.165394396 20956014.22712789 15821629.657289 19783468.527616635 20636768.208527006 30491085.238452125 26410443.487637278 10352231.824957242 31578810.306403738 30923258.122237958 28508361.789325647 20296562.335842106 20286990.908474453 28297120.928432226 25447905.215582516 35828716.075000666 3003658.6336502125 16634352.611069122 19114264.51274674 78035914.0768225 40879300.9831707 3521544.4234867482 32246626.66990405 31961239.86697267 33426363.170148958 12008836.305744708 32762263.375911552 24147866.684766274 7185924.661780523 31974557.459340464 2993187.6724337847 15932529.281680018 34448675.98410066 4395080.288440531 27023050.77500635 3850015.597521577 10669146.309133174 2313745.274351552 7169945.581374216 36649432.53509936 20667875.373533327 33723601.33357131 31247392.01723504 292004.5168616124 22669821.20768222 5266050.6230465695 10726272.634638742 28091859.961109485 7401186.141384728 32466091.135371394 2301241.917266149 7128005.096524751 31687716.313866127 26293395.44373172 16717611.423001086 40468208.68465736 36513211.14172047 32062027.054389097 7226738.2903856365 25955223.42309539 28435025.574091204 13980376.08152439 8551474.566651681 32398184.522272132 9798083.995889818 28174008.210184928 37631044.435772225 31985341.600042153 20472947.984917626 29514322.568397198 15984333.72360464 15974142.092837078 31925340.06366097 33374902.25659078 18103415.267716795 25026843.755770933 24080653.14791148 29666388.924877767 35332108.859890416 32434995.325042494 32452916.89348984 29853167.560084645 16248773.877790008 27829569.96103587 31917199.906831514 7346823.106488104 19690405.19492874 73741335.15557876 35131846.447380185 37309661.831384294 35831893.48559604 31532486.198646568 28243547.90113304 27928567.805219673 21232367.263941865 54358783.41409759 29343468.900416363 25310485.042693518 19931464.11336112 20794384.716224644 31132784.77919604 2937314.0879220963 9077339.435565092 32949979.759796415 24206695.676173817 28208531.0117276 3728729.528137656 37376733.966559134 32027003.64120776 54361557.91828041 19639468.217554785 33438605.12768921 4861476.923701064 40909916.02737576 26939901.979474876 39336555.17666818 32213261.374026924 51183997.9510778 59145318.38487847 13352325.129144233 8627954.751777625 32610093.760929823 28462091.594572455 16261203.316383097 21992669.945792213 16253172.532266684 12282869.600157762 18477403.556134842 25579028.063688926 33642474.18846934 32452134.805181086 10879852.114795271 10886103.742522381 22119245.837747898 12255372.61656275 26081096.17839 4840704.169108985 32909404.85343433 30147894.78671525 34223242.45277833 29692369.7062449 6486047.756464279 32293043.112421725 37382692.962357365 31701426.911958456 29023906.57116697 32284512.399942916 32590404.295477487 24298462.82460595 31018425.40869557 38838748.83698308 28929806.606181998 13383491.244425016 13369082.544583619 10040347.701296523 15125356.623245876 5189514.227175956 50168448.20311905 6392716.296034433 10704501.338072745 10030107.562177729 32114590.84057923 33494256.76288804 26573194.816976767 23653364.24886953 13087504.297722878 24944428.892132904 20105673.536124434 32586989.093939174 35693790.91377447 26736160.484650735 32555757.673165932 24468688.714645308 24786077.38582154 31331242.81134703 32351014.423808567 8309149.198188794 32439542.443886664 11798132.84536687 11804162.989210648 31024243.43596692 5136748.894658442 32346493.83330241 37589416.94735804 21523631.300913703 20514308.163449865 31119478.799645305 20454317.887371294 15809977.388080198 26742275.832470536 34570081.218160115 2287635.4845858994 21630004.46646644 32230667.67241728 7647571.199366305 17332716.211898994 7473634.958771782 17307079.85320842 20440327.7572648 7082573.4232229935 37326870.22645908 34600124.42164777 22265952.3528605 10724222.889668824 27917670.16809885 1876916.0499895005 32667558.800599415 34321926.01214365 32754762.655856658 16105476.39534986 25875071.166236337 3374620.762128814 37705701.92381563 16281247.119231787 16264679.770733988 34431309.82201235 31740592.373709485 23009434.963714994 47912382.52100607 38251638.291581005 12495864.569005894 10743108.647655249 21011220.32529097 18352550.19594065 53457334.594629765 6953104.942253343 27935968.175541144 45605949.958625205 37693489.699846 36645544.956086226 31925682.25985975 32670421.163066015 13934177.398280963 33946768.38408573 32455220.317706633 30278404.859647553 29666170.83178298 18362082.88702823 33498297.923758782 12874977.61482632 19964125.44108122 19094581.44752435 11261839.717917478 31909722.293057505 20904973.543855354 6463774.48931344 19149046.1293261 20885574.63710291 31983235.88719909 34414655.488427855 33023136.54533055 45851585.324160226 24004579.90746085 11306465.729560202 19824124.145587016 33984393.172348104 31955096.02457535 10099416.141582146 50138717.27666561 36650526.322244234 13165885.280000024 28959257.226606693 9003783.196757233 22839197.53309071 45833350.81724045 31676510.169047814 22858865.801000085 31158711.326664608 33524060.1444926 34410348.70306311 31201344.287283372 6806119.38571828 44957950.380253516 29596273.769715082 24027677.590937193 6813811.297595513 16727820.327858 19489133.438081477 16722091.385124516 22646386.33543168 32175897.593895197 14392340.519899188 1335348.9798962795 1336458.1204628437 1194396.8543314002 1193276.746144462 28037598.531897623 31196513.648996864 29735379.999370694 24711995.912187494 2511688.0942167533 2508339.1899407445 80052011.63613553 8236400.864536417 4503481.798743419 30523658.397199936 32477789.220451172 25990103.843166847 24855127.150125533 8240652.877674768 24862135.80500505 53448080.67891435 32335769.20973782 9633521.988576937 28282569.679362837 18023987.28911352 28039237.006930493 15316271.158972109 26232095.606909905 25227322.449727602 25497028.214012723 15953178.869847033 15708040.683284068 13654224.141038667 65526221.15640855 34689397.51790198 31584292.288484354 28592122.36222691 10734325.133270964 5246352.133478258 51604702.85692848 14317639.233099056 28697647.149670202 14718449.699711096 30100933.437366374 30072127.059892006 35688493.118022844 28591054.07521432 21144610.878141083 27868256.97280456 14057114.658829082 27386661.248417977 23284763.197625175 14028257.409475053 23135796.99103373 18245422.64425067 14891296.782116443 31805873.741202503 28956479.251005363 19325745.697674192 19315610.67771829 30391010.546176635 24234870.66750895 18390919.777105436 5916065.389325493 17191635.996595975 3582341.9674026975 23300497.426269434 17185065.152642544 24240974.6470645 32133784.792699996 54161303.31510874 7702862.785995101 4642273.091346552 31055541.899034142 32461872.58142905 77335408.34258653 32943973.684104018 34279335.19887359 53787981.630986184 33306595.268400904 32312451.68360442 24921690.070831366 32344603.375598352 31266929.182175606 35055199.00778908 33138895.580097355 49871791.16465117 8682279.265485495 43397216.573756516 16375508.012289468 37790962.12488247 66126904.5802006 5547256.243955327 12635057.268778015 32241905.401360244 28313130.6898811 16684403.712349663 45607275.10673395 2187545.6577844224 16141687.960613085 28313417.218801405 28568225.716402754 31183284.547785055 32081864.708262153 19712978.193961777 19701702.376117893 35556800.07817868 475241.15498662397 403360.7604376834 403692.0151458143 475673.54727912694 12952843.401807614 11132611.249012321 11113670.888009226 28694510.152536537 31353863.065800488 32936480.979207214 33120421.454118464 23320223.75335822 24991061.31836313 32702673.132394377 4299152.671457442 3378151.2590890317 61302522.667877644 32186880.129225545 17196225.220551714 18205654.393944357 31695537.449449316 11403070.793906096 11393161.370049855 49833595.39070229 23072458.583743524 3373714.551629952 31952307.647758953 36652531.985422336 8710669.649703326 37060803.66799464 18683660.147989854 57613384.46875306 12551190.674842013 12067569.917909518 27299591.671374228 12055528.351903437 36539920.20423844 31565841.18248925 33520495.159528837 25598282.27744822 26946372.742923327 11359818.042747214 16823848.045866437 18690890.827111084 5601295.429636432 5608377.110433186 27293801.90847571 31503656.63467685 10179969.188837377 28775158.02610928 21226199.586397745 33266551.565072447 30609881.21201314 24659377.01696851 25906677.37311258 30392015.780759167 26674128.418830592 30797910.592562206 35035049.49102176 1835844.563156976 23046203.287412968 24644603.633141834 16820323.970863793 32186401.694988113 28834119.891864482 36949525.503454804 32807100.717116486 48746931.260494344 29996175.268997096 25927728.279967234 46578927.20383726 32871543.430365816 6505033.2119056145 2999750.505190748 24812469.271468025 8599554.362734182 24803284.08830235 34273460.962433204 26760257.195084978 33464222.73297038 34285296.58945785 15942009.880919052 31904786.23765883 17159823.722158935 21387329.067346998 29913042.741726976 25208137.5618043 39207943.09582985 32515962.021113884 29905055.31578149 28150375.794973027 32241401.72227864 29460284.44842741 61301800.82909723 14689465.96678622 33191049.901292484 28503778.85695549 33409271.176073715 19566018.645487238 20090165.741504908 18302316.462657727 23534894.796434134 24957700.24216592 15027559.956661787 29466541.326240208 35146306.64780002 3058271.581259632 18343172.815456457 46450723.99650039 9355394.026629498 20855285.2209202 12238599.330622673 26061043.129676953 25476394.768872406 30345527.52614372 32528088.022039134 9125884.805088423 30554457.555204272 37225009.46868213 35144673.455074705 39644576.49011698 46453771.121403344 34229131.52179774 32329127.058927543 9497974.235985145 33550292.785755716 9591539.91126534 34033587.198920585 2099460.857540956 41439800.36191755 28510634.08433494 31976581.10860813 33074959.777826466 40018035.507628724 19178332.56211374 37151350.6000667 51500100.46751507 32613070.932575975 31143809.121233426 15035610.541540513 12361462.55241374 12352979.634259261 11362829.284367342 25301025.313080076 21468091.636955895 30196494.555509273 40041806.73259409 30437495.559426427 12448031.120469617 12253970.27303143 31936805.335896447 12440059.564891756 32715657.593357734 9464767.163610654 18573224.635422744 29984311.53214678 18645317.838759825 26026135.279031176 32213713.863017414 19505667.521108974 18413256.49992743 13195909.379275743 44275659.32145554 32341618.372702718 11490396.754015038 26856073.068406425 30877567.155576985 22652599.88347589 21626021.687297214 22627111.337217174 30335252.792268924 2471747.7239533216 2466763.822775515 25094180.574148554 31578557.149356276 29342243.35597875 30951081.382370558 27550441.006628975 21350805.187062856 40098673.67330089 22470213.15271308 8993065.564460658 38987125.65746851 7333810.33554459 31618495.576685585 32309738.390076246 32440497.153776623 13077581.71055364 13058229.191616852 32465051.095669214 31768131.75722691 14571910.646628177 24051765.533494685 6878232.903894625 4395102.069306297 29195629.906412184 26931774.082385127 31422976.511606365 16240048.050371716 44346189.526786655 42579960.58138635 16256654.227520477 32602473.01824984 5226530.326429924 18478071.954720683 39147958.117699236 33345205.78453837 10878778.388237877 26026484.32876711 35340592.34224906 19590114.598836053 42141503.257697955 5330333.394080563 28380971.8100713 5088720.481536574 35540008.27738449 15608321.780258011 42492171.15904709 31487153.80591848 6913753.615008812 18609706.373879697 23635430.99050234 34780905.918806165 7783890.903379547 7528903.93846516 18550973.49773852 42001735.492684275 18474158.56785415 5382675.691150102 32535205.025380056 30259823.82766065 38729088.17821747 17593862.671063684 7514527.276467515 5373884.524605935 23257855.041527722 7497398.259238368 32755971.142363105 33749340.57225943 42477059.48532598 3465584.0000310554 31622881.07024854 11230026.663660599 24996842.03607282 22932479.570457205 5934456.5659463415 13867720.092838768 33144335.07774919 5927129.7028955035 21938672.7450663 18812424.08515514 34351827.89632972 23377942.4420808 16070322.521386752 74619696.03277493 12878788.048915533 11115119.073247343 38508688.67557533 32657242.38295232 22768850.212915983 29283560.952188253 13452103.157616667 27460247.559250206 28733990.54593931 34301755.77547727 2701579.9240210364 3611235.426453495 29819887.39349846 12555043.412418002 37715859.08769593 25156371.873858977 33439098.275760267 28401132.111740485 32356765.82763686 2712766.307054779 13449351.4665804 13441035.510246642 19055048.789124835 31928303.034190647 31872107.280325193 34990760.34674145 4602511.763085976 42598814.12525382 32006612.158174485 29151775.98002376 32492412.555433247 32953775.480746042 33066815.408070806 26947948.66697629 31318005.651266698 18999371.845508665 1376317.5988358723 32969993.891082022 18793208.908255465 26115367.019640014 17989906.741675768 33059908.903993648 4100248.4520619856 26096459.819009576 35472106.0189854 32535193.11374079 20430837.86845289 2557751.082001644 22496824.931461256 3675498.726383865 15281973.993587445 30312917.131888222 33473483.705483455 26026964.833471052 54802709.668708704 39289172.75699388 39961169.18288105 39796046.633991525 11496025.910882037 11449153.231326764 35535645.97848724 26041795.408062726 34145147.88483753 17972976.799538117 30632158.530089933 31851407.148156546 36293178.10272531 26910972.091762256 39671752.231716216 25716178.58229752 15786020.266959175 15057769.540484108 13411389.484654332 23918491.114797205 10444923.363014692 2547865.564697237 31741030.9147496 27916938.620705426 13403060.110960482 6275894.731355431 32394165.261405334 10844126.707748363 10843711.323599951 18591546.88049563 34284708.799536005 43705037.42912755 10369308.796252707 15326146.840513991 34466721.90182923 32554501.349604283 10359542.265679564 34824857.877542146 24752054.448650267 48768051.13346899 17942076.820200525 37280188.51594516 32856508.713184558 12571823.806982923 33798233.78715246 6290703.413106142 33053047.204016805 9978810.454556994 9971171.686367545 32050444.19428338 33194944.513317607 42345134.76132158 28820310.652345955 32049679.223766427 36967561.538039334 32216725.524456836 28588289.142997418 36846523.979084104 16289237.055340668 29390832.45548621 13301826.439811308 18465785.674747672 29644337.482536662 48730349.31534861 30286623.75946036 53673833.40524727 26746733.216013882 14260439.820235047 32274770.779774003 12212456.076083178 42603651.62869519 17953169.396525268 15887712.314488659 42237284.984064735 26719678.206410255 29838505.089930683 34095945.81576828 15056625.985835534 30630839.0637435 8620223.446855012 18478277.753277235 26314860.55163408 14253622.571189646 31154835.78934892 26316807.53573931 32070370.157464974 21940151.794064127 33613759.34771121 56297172.53166617 19666985.957432825 37061012.47420405 30772140.63909736 33007900.465805534 807504.7481105846 43600411.654093385 56053402.47181756 7147743.747878933 8491139.359803079 10737698.521198438 39969302.19850287 29704120.743050206 964390.7269354137 5719511.432622879 29921102.43855153 13681287.835077997 16586180.893656194 31678509.24287263 32364281.8118988 43595955.74217018 25244371.806045458 13397345.305473166 13079010.355866184 2376353.4507822744 32488779.232136194 5735903.509462212 31977911.67017734 53642818.816546835 29476104.92925084 33297973.133899268 25289209.21200655 10259030.015887564 12363637.250125166 56055315.196589746 56299443.94804914 5587651.437758949 3428140.398402299 23940001.724377047 20673955.25027225 36535971.06743594 39800608.560532294 957976.9357317005 36512502.89465478 37401659.28113227 2526720.1551339175 32209581.24924153 5576939.21721677 837859.18209374 42069424.68820515 11174545.649917923 42057346.48378083 19422975.706453465 11162869.222049369 37085009.870748006 23712529.118058708 30339360.23707118 24440202.97509453 25053067.285963006 30793389.207140077 32149302.175901942 14744652.913252532 34879479.56333081 15046143.085034106 18190571.257784627 14728572.721760537 40175851.97658677 23440904.153323468 35113076.821460165 34071196.1340671 13880739.624699952 56040541.17194294 13873203.28257122 52020903.04853154 13381034.734894332 32114201.42801981 12341344.274937643 25657645.768449526 35472568.06131059 24087424.191401936 10310629.705721103 63963373.39673574 34132526.17812029 9840165.96276823 32055473.612484884 28913422.891134698 38782638.98336192 34094005.29960379 31808842.393874977 29985581.21722495 18609796.913249537 33695329.82009549 25594313.044178464 31917748.4574021 41157130.08885901 6318975.115709706 6309017.99435862 19645920.798017178 19782349.158285085 27635298.624022912 14598552.803901317 22028447.80831374 26226631.566478517 20710923.520631902 20718198.486863032 62242194.46199515 9859769.424208317 36271123.87051232 8311517.6141102305 3504937.098368712 3506351.5561808245 5624614.483529359 24398746.59775274 32726143.025264386 36055064.65771904 13366161.473362911 6224478.716135228 28902727.7428206 24455835.11031666 13358087.997224102 18547437.9572834 56033175.924544655 17643765.02988434 26335555.599782303 4568598.060090902 19644251.87595718 7307471.442035181 36494268.09818545 13048106.989845272 22698478.860884976 4579822.011552974 37426444.85156454 23289263.764540784 28953881.511010602 8598226.26258412 8604440.14372369 6188385.571274063 6181139.716211063 36384129.29457248 36393819.09282009 30704611.8136973 30072442.09633196 30721396.316946987 3269567.899869046 13467573.037497407 35797244.38480768 13511710.359710995 87167369.27758443 19651848.196186323 30006617.881701767 29463674.32310479 23395245.57455653 41885096.04201701 29464689.167096846 46761970.68753748 11826419.348039139 32473045.346038576 29998947.36297899 21197049.443411063 13427753.753227696 827527.2235905053 23396667.973775364 45534738.47989176 3252658.8030248666 23379288.14427041 242233.15249039195 34540465.53548393 45539649.98180786 22634884.622536853 2388965.8130815453 21530725.471211765 24477161.611184087 9731183.208976362 16955537.34025402 19485508.87176977 22849270.898202267 38537306.32816822 46353859.22623542 25019850.162955303 1333916.1683288377 27066783.33220347 50756188.65849947 29229970.622226346 14331342.24424823 32177357.53085779 13979793.542616252 13627929.83677433 24547761.112843715 9483869.85269282 21861752.705627054 2857948.1657224474 29518271.419444058 30853072.74629422 25126432.629639808 25322234.8298198 34500869.31958808 23535064.04530749 30868720.08171442 2853244.142157564 12387926.234667463 31295514.860669296 40033072.365457535 50709924.88994219 68459579.74244976 95359971.94800614 29196725.36722625 12806606.557553913 18194443.21856347 18186252.57324819 95359554.67944022 68466092.57693335 18782585.733969066 25213799.140902273 48461556.26709031 29750201.931070592 12041749.526578393 12014371.24906772 42758954.493652046 32769314.066385966 30684701.487241693 15252984.77398603 41983484.251842044 19306854.307840068 19475052.87212689 22035200.27692315 3776310.530985245 4392287.927413816 26285062.667790897 24477819.246731717 1294902.0988559143 55303718.20884562 30458254.71240778 23385454.906495012 26718467.938656226 31472295.949888304 22249257.94691593 26710939.882470343 8813266.715297809 52468323.01806405 48402928.1796303 9511614.395245364 33680478.35627233 3767709.9111198583 9165389.984712316 9165626.897590164 22556284.259545848 15253943.439803755 31672371.116814207 42010707.786239676 14902424.076293048 50651910.22825785 45684181.79087491 35307982.549233265 16626600.8783385 14885190.48583466 12459366.886399034 35460497.06317467 8210888.739568376 40269585.04157045 46842474.56751993 31325616.04512237 23709287.060278513 8313649.352034194 26814887.602199584 7890489.342147608 16340759.779335305 87611016.62197796 29267685.73131113 14698194.899321577 13848539.547300922 20511959.049856704 13842001.694364386 29966481.089443315 6752778.693336931 29629083.805422448 14306451.19143631 16080757.640809229 39377612.51778252 48260603.964130305 30095287.28508448 6001195.8929038355 29648790.685072746 33074164.575117253 2369892.3726292676 32175636.386926886 33880192.30068769 37543105.194092296 33871227.72154551 32180520.789176553 16339702.767169818 48200936.588724226 29499871.658865552 29856560.38595031 29855846.222364414 13430337.218578465 52460679.48104403 23551520.535333924 30648842.205166765 3881492.616681696 41144499.50249834 22910065.080009647 32543726.836032744 31267009.035462994 37205440.03240615 23569154.841841575 46132290.772385165 32388828.14359487 17022402.900868908 35995929.06009638 36004558.22143717 31609390.15855171 31473000.678473655 31355832.61494533 33080641.850878943 15485296.820316842 21434198.46330413 24153937.511456016 25085793.710300058 10947440.09471446 3082978.142852676 3082542.013423662 12423240.366252268 29821471.527888335 131835.6966598054 25657509.345168076 25609190.40560096 46006118.9220657 35956417.76750485 21843684.839522157 32887474.60883536 21669838.83660112 19518538.234890696 19102447.36025775 30458730.281899188 4595967.675435079 4581212.731344434 37478842.12064531 37487619.02245962 32177325.435484275 33660130.451339796 23661521.163311075 18235827.433095913 47462685.04195168 4332371.180330493 32075581.667795647 67383456.7714345 13588484.083296256 31029609.282669626 5035280.974667342 21803535.432336852 10161048.035893349 25511601.489861835 23413651.705321427 29532863.417423815 36997667.830081135 39921135.68047241 7533229.812043339 44861898.51369519 18217369.620874982 31244915.995797835 37448849.997739136 41431691.82881065 23297351.681613777 6575308.476797234 6574605.817053852 18140980.747934785 2335519.043538027 30162134.16187803 32104079.05984899 21913699.75819522 37639946.9471704 14639733.872037267 44768191.31918051 27826949.26237524 15476933.39353609 15448220.36459712 28535615.790168982 36651990.7378041 24908504.6203978 18409183.20325089 46120696.95447958 22478171.414704084 35881035.547209054 32115045.281140104 27090943.68423169 48311901.91580162 23068217.71507789 30224285.192475244 48503219.68751537 53376200.670601375 8434775.750972813 45552244.99345518 23766326.539094537 32889036.583178006 6056313.08725293 28219669.398294125 28578185.838310454 6417849.355237646 15239405.153327351 36780469.85397133 31248352.274771735 188401.60397987932 32954449.651664745 11823069.9611931 9216656.846813185 20856755.278372783 25781333.17846852 36351823.80678889 21046853.825716604 24495276.882162757 36933811.38164588 12086039.668859538 31036845.543916784 2022038.637948188 23880866.89645752 38688767.02429737 31243856.58047699 24416211.053572614 38197912.18805686 15070571.481473014 22716676.481397193 30975141.928757258 21460801.632064816 16182540.509210898 30533030.48336766 23475759.904273536 32505701.171489563 5835125.057958812 7366578.437477792 12877048.158249917 12869925.998807851 31146910.31665689 84695259.23968609 32054697.034377854 6278564.638345453 22294011.017131895 18370810.821538687 18379058.255943023 37978745.6866784 23577629.890400644 31915169.600440033 24950647.57858428 7587813.116296672 32074560.966005854 31997470.83057085 27174820.199476928 108758406.68931659 11670745.734540436 6110027.224896205 32575081.63268563 17347675.382512495 14868159.380745823 15390827.488246635 38842692.690940775 75937665.50686307 14372973.42089451 30444157.42177873 5386265.132763003 31954563.835303817 21868499.00656682 26057437.058353122 34892201.92747655 32678679.09274959 31678580.541670065 85284616.37398891 23807950.454953704 85289916.22041433 31712198.496568818 19338466.96248125 32955775.578997664 5378896.801243677 10438415.954166295 31327603.86918402 15897528.0511586 13670232.51603424 41305345.69495131 3846802.023255928 32259689.064122193 31711665.19555018 25697458.843873803 14655268.488387795 14662239.636734225 12668033.328831254 25267875.94184562 31113142.99637167 7329673.91942976 34689641.2658713 25285917.87365775 2146800.1319016153 22822333.188890595 31833213.36226235 33215797.46076233 29993127.149575774 75653883.31866926 26238074.554278936 40584330.21587358 31128243.11120643 25112601.060228154 25103544.052218754 21164284.303155564 29230778.014632422 13371971.435287885 18354857.2563112 38249654.91815805 8111812.607464324 18288538.114432845 23168735.38883574 20844509.161448386 29535290.914519574 28816490.981755856 24181099.998203784 33708717.44096072 15189319.422766551 36395841.65137287 1111743.4104944647 33722282.252643354 41644125.37917438 31450417.153757017 30056659.23629306 24866085.994414184 37272786.6927491 26304187.86226632 12654898.82100826 16075475.2556251 4516363.317918547 10871696.540659282 16014413.894101165 34627888.68324352 20544482.544970773 12822590.113032354 8075892.184974099 40198071.79086056 12403495.660927014 32475101.787221234 27732224.59690717 32124203.867876027 6896839.470931388 32247464.532724157 12408206.969790127 41540941.76567446 32027927.197060924 29224373.52033507 25345123.87777007 18493098.505238585 36592209.08266237 45040143.92527665 3373633.4866133537 10646605.362193327 40087755.15249672 9750719.456117045 13190873.869587874 11596378.606476698 31961141.485815965 36544263.305869944 44168332.241172165 15129113.804370407 22849763.01052483 10702545.112065837 37052043.66182343 45041332.974720694 3165651.624417635 3165461.946425651 23228845.33559998 32073125.150584668 880838.307706108 5746999.917230264 33001834.646160856 44127399.68311504 33992903.40525549 41683311.189540796 874447.9740562276 24251378.754061684 31648455.54790644 31700413.419624344 9049210.829522075 36078631.66994722 5185277.42296946 24066689.702824716 13693214.229833085 32223947.115622077 20949442.19312912 13787476.722964067 33331120.042409595 31775520.379759453 14926840.079030706 18880993.22442292 29327232.59755841 32786699.29441481 37063389.514956936 23283125.47609093 1721086.2992029947 29658287.281036258 33945663.11773249 2542384.0634447043 14584157.285594134 7401111.515258877 11656281.36682543 23989505.345410258 12791004.424246144 13665938.566136256 39520683.07989735 42038334.415156566 11456152.942592094 37547022.83658506 38805758.57834057 1619366.628719836 29666154.364764307 48720823.809562966 83194431.07382633 33721847.27067581 24408357.453448694 33244736.82819187 9351523.140977042 83190841.77216679 24405454.49995165 17448865.05438028 42004178.88040499 31931564.36722785 7174096.312488139 16773333.24488861 41876028.302077815 7165289.897171076 40500879.026977226 6527070.890017665 32324018.576382004 27045634.272073112 41896521.02974463 39999080.16225254 25088722.366510917 11508968.802187642 19285151.24680544 19273866.18011327 32545875.923710212 25210265.564361855 31866282.113893434 6540923.997093533 33092865.701028936 41373758.14309633 17963574.886461742 31988480.57927493 49628181.32873704 25236547.810921647 17989882.061349303 31898578.44614819 3140712.782243283 31642203.33922244 34698996.6775738 48318237.02252013 35516315.6777057 36492707.98576954 20307000.41800025 20210576.742601737 36632101.32282501 31636613.323077288 31558307.446663234 16494229.056426942 22322488.07106431 16665789.954593005 31162324.568205483 16490177.955206545 34163815.624524735 6682012.45759711 17001131.614455193 61947844.11685582 48693473.214883745 23309845.604866013 23302104.2973534 39824128.86157035 84111120.51609665 22242962.530714978 8354634.257418634 28802730.131325115 8713338.13360935 32847535.589779932 6151804.062661548 32159136.96614017 32508036.272241596 84219811.35867932 32116281.280433606 84217200.93427464 31121462.48938515 5670699.453246661 16626935.885085067 5079848.696745819 33506454.758194357 27729213.13607888 51492014.747240424 32834444.431033667 35187107.65934727 35144809.808023475 25607744.846404206 33672747.55408304 17103827.64829377 19750997.87944557 32480951.883731443 16340268.334112775 16322295.988364741 26092426.96223391 29671704.860318873 1265704.5851518402 32314881.54052388 22080336.668330204 36568668.73547169 14531075.89039264 21938820.70722599 10327332.183265157 10321845.867770912 16847096.178147968 16824262.885874365 5634616.4405374015 7669397.90373118 20099608.119561017 32403439.91118561 32530868.62523892 11753149.318928512 8910550.163118847 36830467.85411895 19053325.926404987 27856038.602518678 21045247.903477315 8901252.924957968 5060170.228910568 2540884.199629208 25161893.17971261 33355262.042151473 33035176.81958477 54662473.79409501 33111813.41056593 52526888.296045706 29525259.197912075 30468762.772439156 47617188.317561336 10277103.279625108 26171556.84263723 10951785.778817764 10960587.976246662 22032414.18578092 33015356.99943098 26999703.273226544 4456555.423374152 4604649.085565258 28366041.469985552 31772857.48833903 75959180.01213492 1957113.4935454393 1960797.5941671699 18238106.42511823 31655546.90767978 2799056.555381341 27882789.158365197 37135309.32585276 22505212.22499084 30766160.331079833 30812838.49773853 48583939.14418948 48553951.86342791 46572089.72284021 44138335.020561524 4709859.965334897 20763730.778869253 44104143.767540395 43586810.43145029 53274464.85673501 45242344.901954 22485530.47619255 62749853.287289 31506818.244258076 39149578.992516145 18197362.696471747 31854442.933885273 53245634.31367961 8393990.689976703 32205118.992894385 1574745.1435538686 12125706.156467702 1392872.4712251583 46492874.21745793 31913692.228929903 31878975.62397543 6381710.692346576 8003859.33278384 37720674.47334725 30353875.415686674 21773888.465240456 57672534.185971476 11063405.62909231 6025637.68760459 27096058.085926976 22378944.351356134 40899067.117586106 30489849.96598438 1384271.9930718895 32073771.716765966 33655575.86331778 38917717.66861349 45232277.34796986 23860791.153396364 28144467.728878226 31607383.023552507 40746735.476087764 4463225.289933578 34233890.48576503 32765905.725310072 28941167.2059374 50985105.06849812 31045185.280580897 34105131.777672954 30598142.79837719 20071757.46434795 31976149.463088907 33758534.78141056 32198639.481829435 19814889.257013116 66898621.94148477 31759101.223702658 34040714.46224026 33459352.68148235 31857770.523934234 30591012.111154195 33379863.619640008 4420339.012515695 10605865.370945955 10608649.458764682 45737502.77544458 32147563.969094533 32414733.67040583 30185997.478513934 9765580.061022636 33619417.400709584 12945572.611598857 72669339.85779876 32038444.294757903 17764161.580622274 31793887.69457304 29379663.524923626 31208275.504377402 33120601.333132222 23522687.986611925 23745663.145992897 31729277.044681843 21663982.520537607 36798445.04010068 8708763.808767227 8708340.48792109 30356897.60538126 1101640.5503923853 8043761.734938341 4436048.005350409 53737428.105505556 1100951.5409641298 10953835.595789941 34237880.431182995 10938585.930031117 24523973.434527434 13616154.47364302 31047431.34489842 32476206.31873359 32821769.35277947 12750527.538764918 38112701.178687595 29591420.663097247 32034833.718530554 19166068.062730536 31173695.076407067 19154417.207816612 17580018.925823085 31713587.844091613 11402447.351933284 11399676.987631926 14042310.687385608 34124212.411547996 12127252.73256055 17186381.634923667 13542467.542971818 32116529.078332294 32275281.9053176 24565651.06287422 11400628.374965467 11394754.646569317 44967873.37576648 39051830.48564406 22468631.005982667 16243803.623632018 35538574.14440545 30381486.089507468 2833272.432195632 31233134.84136511 44874990.1394713 29358988.628408838 32633487.37736045 21530956.61710797 37834268.490703404 7759324.87271797 51354790.52786024 32647186.91208804 33665418.44138922 4073929.976997768 21227357.982826438 39653218.58394932 12699359.599937841 12178165.569187436 23016945.015828114 24297582.94926037 34768469.56350986 7257714.531128137 36405114.35581571 15841959.749773402 9950725.661197277 11295682.57297683 10535790.31899818 68250416.10338084 6828733.075952666 6820118.135992234 32616835.564572547 20160773.909550734 15399756.943194443 32708921.021019474 31790729.353677206 16108687.080393128 19079688.974843685 36587842.5946982 34852035.555259906 15418733.561407715 24629311.375208855 31614216.801277637 33657235.2350185 34468032.549795076 15532875.340291841 38398723.994054 15589451.85846239 20297381.713960886 38387526.20322387 29655914.345378738 37444536.41633171 14049287.999452382 31320495.70882968 32857155.56459605 22896873.820821986 24251772.249325644 34686106.65512326 31811146.30776595 23869852.39642257 20775929.981234577 30710074.368599202 10048708.879159989 14143233.180387277 23430798.932325672 36317520.92455392 61507714.649403006 30941935.72107393 32552180.212340873 18551687.49480393 36373836.47252104 24380426.025883626 10624129.675572095 29953085.46472471 37412541.1603569 30336222.540914994 34643781.702695124 21732585.734064814 10617281.495994106 60795052.95607611 22871965.00492261 26156699.773712177 30367777.82112212 38637726.76187567 26673711.481683344 33402140.091930736 9216442.971169837 8406666.681752704 15415597.362830756 22354263.48097763 11773490.908732288 21442765.448956218 25755364.2347435 44314496.80204153 16695347.675550118 775834.2911027843 769930.4823591597 45078379.74223425 4550074.536154231 43614242.679317914 25944282.688697275 30906670.842010368 45009768.88524939 43359688.319840185 23940262.894265734 32278105.28326079 32838037.188759595 19530552.69325451 32640729.092898253 43498471.5859887 73043766.10284525 24054983.869467296 43251102.54408765 9417497.236369684 34147905.25510644 22552485.34520305 10485748.201294342 7597868.277458091 23653784.52597056 31408611.68750939 20754146.325886734 32516261.1359274 33570179.717915125 20690999.631251153 28433774.705026727 28442039.418221932 41983483.09296702 31663490.32580783 12608132.126787582 9517240.330161015 33286487.258997716 43128815.34422273 41845891.18802371 31648311.557733886 26006094.148189362 2517089.0464765443 2509600.2170626377 30644467.250093155 30348161.284794964 24159504.20260332 19521554.625389352 6243588.592529027 51239735.81431517 8156662.820031268 10860988.705445677 6261466.936566051 27261530.676392965 22972193.056921788 10045935.731910292 51254247.06686675 34592079.82600075 7647333.285719354 12605783.016554108 22207840.47679645 32544821.339188952 31297658.638781667 23505630.9771408 22224077.82998939 59884914.911332555 44393002.80601573 15138838.405039107 25237715.117352188 22369607.780165683 30456675.97220927 27654835.70041409 5500687.134445563 29775376.26542085 13695459.058979554 25349957.302757826 36540431.97939726 22263458.900636654 44351257.76094028 39957152.0796921 23444129.6877931 30906039.254338123 24461930.136382796 22536403.208661903 33710998.03517658 20288253.335505717 40152753.3961961 24467066.374168906 35923082.92207118 39835103.53617657 22585030.672237262 27845910.039730024 6093608.021540976 35593202.85197106 34807850.09014774 40029470.98667875 25229409.580483187 38770370.85769535 1736570.5251060566 72456882.57685554 38079066.71037456 32140962.088187058 21928898.628664017 21116138.58985669 32624405.056628354 34189053.83710924 31931577.546397842 32001416.123579673 29716679.169334203 31789085.280998915 12623363.243703937 12635730.506345714 35787756.14841028 27734964.293437798 33720871.73195259 9893515.776868422 54426496.42836604 9004507.501460265 31065353.31560232 22950623.633418754 33218212.958431173 35326602.69035745 21941963.078380104 31947494.33674367 31972897.79715068 32057545.92099461 25673619.564912543 11433290.036493815 4535511.43224736 73187873.58726855 41229106.09691705 30501727.471865654 36233293.41594863 1565486.389973206 26955191.743728817 10753635.382247217 10746432.348772332 31664010.753569055 22438998.801977325 30110669.857936908 1553848.5042612155 41068940.11844194 24031069.259034682 9729700.961998438 9719949.875556646 35642170.44219686 44276159.09866012 28409065.354121014 34102433.09190352 36197573.09600619 36170321.32661508 81000930.43781309 31864271.594570834 5790136.45807113 32084498.949660137 31547767.56963046 30761938.38777881 30143907.462513667 19291126.383758713 16070509.551139915 44367915.84870472 31593196.52928429 38641928.14461017 40685720.27559763 27517025.99009451 34974496.657351 38409929.04384009 35343913.14363247 15550798.333166953 3732574.898090454 77065644.66503906 32584230.91995531 5961362.760457815 30327156.863632023 30126184.204642046 14242407.783717977 14223530.443424378 4957977.837784498 30102419.667962562 22740041.63651113 36785784.42226743 15860270.85208589 3602465.8167596203 22762763.589085497 6400654.940671544 47329710.060521044 40327216.48342086 40304888.31558434 4762581.007814146 4753488.608574878 6408908.207752994 47328865.87023087 36408368.589046136 19219380.333507873 38809286.819642045 32018302.479174 14617599.097358018 15854675.781970944 32553294.7593614 30396009.20317855 29823902.15867373 9726609.441733666 11480621.330179146 38238959.55788121 30677711.090560324 74207000.65114766 8580486.383313838 26928688.39622076 5640606.487559409 31681819.057867076 65737993.27005925 11555245.87630679 16176315.519980388 18537586.431298383 32108036.78599831 33093606.137765795 45260089.72025526 16890380.729588807 37546166.09525241 16882858.713154692 41230289.40276379 37308696.23994315 30284563.970034905 32254081.434222978 26144847.56829003 13385156.45129804 38150433.289631926 32510002.164609667 34924413.21350971 50383024.034692064 44410504.71212666 51050534.48576234 16318407.666063717 41155826.76520811 20311989.183582537 6278095.632504664 50386359.02477905 20799063.711341865 37861636.28040814 44344584.91251395 37939219.79769391 25517450.495388057 27164562.76415248 27149777.943445954 16319776.970879808 46226813.47531295 10360337.098280042 31408471.85930676 11140276.812982209 35395745.626528256 8464823.248002814 27305844.28191604 31593481.799102552 46235240.01708723 27295271.145180527 25957798.315102577 15390215.985912632 33092544.67014278 39706568.138298914 4144555.698404281 10278714.9679676 34787868.089919984 36116647.56912532 18971156.151231557 31831013.28446019 10037391.85807195 30440405.830332614 7750164.743530752 27232619.086118925 7739862.471883392 13658256.009650411 13650005.031971216 33543764.0946103 32626120.751831524 19726987.429001354 12131702.944773281 12120534.642241854 32894416.36343776 6684205.899965508 10621435.923190918 10521105.554814888 43297804.48875768 27884009.84453311 10381909.53887327 37032970.451919705 3898100.12161493 19949360.399902567 21249516.519239984 24288333.25277357 43256564.76644098 7063910.719094443 46183084.468081914 25927094.953906212 21162045.094803937 7114157.200593786 7104616.107574483 32686722.56138031 21485135.43170133 21476995.140071712 32905130.58739294 31978743.473516 36127718.33267894 15604874.433252791 11891585.04406568 31924246.94374555 47880870.754716985 5836036.6253740145 21231969.411482647 37792431.3113263 17727875.682412352 26923178.388327394 58757811.14072697 28316412.83190435 26912434.228844758 28340519.46169955 31990609.331062637 16962528.193882342 35169515.93740307 8820287.410277447 33491110.307444118 6899688.3036301965 17998408.61154768 4057879.739649767 14062178.03585783 26414223.31715366 27829265.120599423 3059121.522399352 3061658.162371906 2351227.1331436643 9445678.777032185 16363865.309928268 16950310.17413247 38550207.11486491 29964978.338289022 38589096.86839378 775448.395922067 776255.286409757 15696656.590926334 15397958.058332045 27227777.90018105 19618297.79407286 29903626.674451012 11696185.956520103 11687970.19467302 33417141.496081073 28430481.152704537 23703100.342999764 10378309.162275722 32309340.357869055 29651082.04180623 18874177.507681273 22093757.085234236 37564842.087080255 37539802.03610333 28480951.242672503 13393486.808004042 11362054.088950507 10390457.755070005 18233180.72025188 15477719.282814685 20452084.045207232 11362760.19505777 31847607.48972098 31973818.884855732 29141592.58864921 10697984.313309101 16834863.58694431 37871976.70942637 5354355.735954223 8220920.2301862445 8770298.926956255 19603372.42058632 6448156.143535538 14190687.267332168 14184877.490673725 37317345.720585324 18723793.38016639 14158836.277847806 42429591.76010358 32306337.38052846 7120766.808625461 18723475.370752677 13395186.918883072 13382714.9416739 33731380.68022283 33460035.354983747 6157089.891324711 41830741.580815494 12747592.828901121 11549140.101992104 41712794.86663097 14284802.014527729 43075801.52177156 37019787.095774904 32688966.029568166 33947116.76030808 10091678.267203035 6016185.750535383 36897704.9590069 8378759.324632817 15355410.234678641 16554600.922571063 9229523.13679915 11268999.365015699 34984568.356374785 18611891.66475835 15344109.25279982 31738697.401484713 34964742.4136148 16368437.893594678 1667583.0488381651 33396658.75200466 14776881.893057154 16352327.394472208 17284088.181292728 10408780.128376722 27288046.416430417 14682271.943888016 8498931.984970292 27286372.293581408 10744933.148256319 15347680.774739023 17439222.41488944 14691187.919638248 16498202.105006693 14675367.059431458 17448050.747797195 16486042.72201607 25565352.37820473 34160859.39694065 32595231.672929447 16473220.19040024 4989508.268505925 25122684.062894814 21498265.203643158 32258738.773935176 11933254.429002596 29433931.583650596 20515028.063331615 20522742.524266206 25888117.178773876 7377031.12201109 33162469.671458006 32246744.72679546 13824641.356895218 33023410.08094168 11264018.390742438 10923478.932865875 29764050.69279972 30042482.235506788 19272127.496395316 19279769.46619152 46212199.83736993 4763358.66804373 9245947.18187091 8359895.860715253 103011911.39219649 5256788.014269593 14447537.115818035 5135398.174697221 13008293.896023232 42706201.70446931 5940576.16889395 34640793.59643655 50692155.796878986 32365339.25577929