# vtk DataFile Version 2.0
Really cool data
ASCII
DATASET POLYDATA
POINTS 1875 float
10.0 25.0 0
10.5 2.5 0
14.5 2.5 0
15.0 12.5 0
20.0 12.5 0
20.5 2.5 0
24.5 2.5 0
25.0 20.0 0
13.421875 5.0 0
12.5 5.921875 0
11.578125 5.0 0
12.5 4.078125 0
23.421875 5.0 0
22.5 5.921875 0
21.578125 5.0 0
22.5 4.078125 0
13.421875 21.5 0
12.5 22.421875 0
11.578125 21.5 0
12.5 20.578125 0
23.421875 17.5 0
22.5 18.421875 0
21.578125 17.5 0
22.5 16.578125 0
12.5 15.5 0
20.0 15.5 0
20.0 14.5 0
12.5 14.5 0
10.00806451614194 24.63709677361278 0
10.01612903231258 24.27419354593386 0
10.0241935484938 23.91129031777878 0
10.03225806461129 23.54838709249173 0
10.04032258071191 23.18548386796397 0
10.04838709682194 22.82258064301263 0
10.05645161296179 22.45967741671925 0
10.06451612913326 22.09677418900329 0
10.07258064533511 21.73387095991988 0
10.08064516149915 21.37096773253857 0
10.08870967759623 21.0080645081696 0
10.09677419375892 20.64516128084849 0
10.10483870990822 20.28225805413003 0
10.11290322607429 19.91935482665694 0
10.12096774224832 19.55645159882557 0
10.12903225841202 19.193548371459 0
10.13709677455406 18.83064514506724 0
10.14516129073117 18.46774191709723 0
10.15322580686834 18.10483869092457 0
10.16129032303272 17.74193546352748 0
10.1693548391806 17.37903223687297 0
10.17741935534539 17.01612900945749 0
10.18548387146244 16.65322578418995 0
10.19354838763403 16.2903225564684 0
10.20161290381374 15.92741932838155 0
10.20967741997008 15.56451610134622 0
10.21774193613836 15.20161287377394 0
10.22580645230157 14.83870964642906 0
10.23387096844209 14.47580642010597 0
10.24193548458432 14.11290319370539 0
10.25000000073421 13.74999996696068 0
10.25806451684794 13.38709674184244 0
10.26612903295814 13.02419351688371 0
10.27419354902925 12.66129029368375 0
10.28225806511086 12.29838707001138 0
10.29032258120948 11.93548384557348 0
10.29838709730668 11.57258062119947 0
10.30645161342799 11.20967739574034 0
10.31451612954823 10.8467741703298 0
10.32258064562724 10.48387094677422 0
10.33064516174957 10.12096772126913 0
10.33870967784367 9.758064497034947 0
10.34677419397089 9.395161271309828 0
10.35483871007663 9.032258046551387 0
10.36290322617298 8.669354822215917 0
10.37096774228375 8.306451597231394 0
10.37903225839794 7.943548372092563 0
10.38709677451733 7.580645146720181 0
10.39516129059989 7.217741923004883 0
10.40322580666075 6.854838700266257 0
10.41129032276591 6.491935475534158 0
10.41935483889413 6.129032249764203 0
10.42741935499985 5.766129025006942 0
10.43548387108066 5.403225801370201 0
10.44354838716179 5.040322577719254 0
10.45161290326106 4.677419353252181 0
10.45967741938996 4.314516127451607 0
10.46774193552708 3.951612901281566 0
10.47580645160294 3.588709677867938 0
10.4838709677258 3.225806452339046 0
10.49193548385171 2.862903226672901 0
10.86363636397148 2.5 0
11.22727272776948 2.5 0
11.59090908917042 2.5 0
11.95454545068175 2.5 0
12.31818181403819 2.5 0
12.68181817915301 2.5 0
13.04545454194173 2.5 0
13.4090908986116 2.5 0
13.77272726213363 2.499999999999999 0
14.13636363138024 2.5 0
14.51785714288412 2.857142857682448 0
14.53571428574426 3.214285714885328 0
14.55357142862196 3.571428572439232 0
14.57142857151165 3.928571430232919 0
14.58928571437537 4.285714287507488 0
14.60714285724751 4.642857144950152 0
14.62500000009455 5.000000001891001 0
14.642857143032 5.357142860640115 0
14.66071428594258 5.714285718851571 0
14.67857142887942 6.071428577588326 0
14.69642857180077 6.428571436015462 0
14.71428571474886 6.785714294977167 0
14.73214285764917 7.142857152983446 0
14.7500000004943 7.500000009885979 0
14.76785714328319 7.857142865663754 0
14.78571428612831 8.214285722566284 0
14.80357142896074 8.571428579214821 0
14.82142857173971 8.928571434794218 0
14.83928571444931 9.285714288986206 0
14.8571428572153 9.642857144306044 0
14.87500000002409 10.00000000048181 0
14.89285714286733 10.35714285734665 0
14.91071428569972 10.71428571399456 0
14.9285714285493 11.07142857098609 0
14.94642857139116 11.42857142782311 0
14.96428571424643 11.78571428492866 0
14.98214285713977 12.14285714279527 0
15.3571428591223 12.5 0
15.71428571719138 12.5 0
16.07142857423201 12.5 0
16.42857142974857 12.5 0
16.7857142846084 12.5 0
17.14285714112862 12.5 0
17.49999999772317 12.5 0
17.85714285297952 12.5 0
18.21428571083795 12.5 0
18.57142855939082 12.5 0
18.92857141386655 12.5 0
19.28571427430228 12.5 0
19.64285713574168 12.5 0
20.01785714292029 12.14285714159426 0
20.03571428577939 11.78571428441216 0
20.05357142862984 11.4285714274031 0
20.07142857152504 11.07142856949918 0
20.08928571434997 10.71428571300059 0
20.10714285726139 10.35714285477221 0
20.12500000019564 9.999999996087139 0
20.14285714320795 9.642857135840998 0
20.16071428614276 9.285714277144802 0
20.17857142904537 8.928571419092558 0
20.19642857186783 8.571428562643403 0
20.21428571479022 8.214285704195643 0
20.2321428577479 7.857142845042126 0
20.25000000069735 7.499999986052996 0
20.26785714347055 7.142857130588933 0
20.28571428619271 6.785714276145805 0
20.30357142900126 6.428571419974752 0
20.32142857178615 6.071428564277086 0
20.33928571464426 5.71428570711476 0
20.35714285745924 5.357142850815163 0
20.37500000029276 4.999999994144766 0
20.39285714311046 4.642857137790787 0
20.410714285854 4.285714282920003 0
20.428571428706 3.928571425880045 0
20.44642857148773 3.571428570245412 0
20.46428571431238 3.214285713752382 0
20.48214285711565 2.857142857687005 0
20.86363636516213 2.5 0
21.22727272581398 2.5 0
21.59090909243092 2.5 0
21.95454545450997 2.5 0
22.31818181891514 2.5 0
22.68181818017414 2.5 0
23.04545453949341 2.5 0
23.40909089990082 2.5 0
23.77272726283935 2.5 0
24.13636362860863 2.5 0
24.51041666667252 2.864583333538364 0
24.52083333335455 3.229166667409358 0
24.53125000003504 3.593750001226702 0
24.54166666672229 3.958333335280106 0
24.55208333340738 4.3229166692584 0
24.56250000009479 4.687500003317582 0
24.57291666676292 5.052083336702424 0
24.58333333342993 5.416666670047649 0
24.59375000011929 5.781250004175338 0
24.60416666678541 6.145833337489197 0
24.6145833334717 6.510416671509586 0
24.62500000015173 6.875000005310423 0
24.63541666684382 7.239583339533857 0
24.64583333354729 7.604166674155124 0
24.65625000022954 7.968750008033958 0
24.66666666691629 8.33333334207003 0
24.67708333359532 8.697916675836199 0
24.68750000028001 9.062500009800464 0
24.697916666944 9.427083343040039 0
24.70833333365369 9.79166667787921 0
24.71875000035885 10.1562500125599 0
24.72916666707987 10.52083334779526 0
24.73958333375135 10.88541668129731 0
24.75000000042991 11.25000001504697 0
24.7604166670681 11.61458334738357 0
24.77083333369809 11.97916667943294 0
24.78125000036938 12.34375001292839 0
24.79166666700398 12.70833334513953 0
24.80208333364604 13.0729166776115 0
24.81250000030942 13.43750001082962 0
24.822916666971 13.802083343985 0
24.83333333355412 14.16666667439433 0
24.84375000015083 14.53125000527908 0
24.85416666675838 14.8958333365431 0
24.86458333330886 15.2604166658101 0
24.87499999988007 15.62499999580261 0
24.88541666655004 15.98958332925141 0
24.89583333319863 16.35416666195201 0
24.90624999980522 16.7187499931826 0
24.91666666644808 17.08333332568263 0
24.92708333312806 17.44791665948182 0
24.93749999980001 17.81249999300037 0
24.94791666645933 18.17708332607652 0
24.95833333311969 18.54166665918899 0
24.96874999985664 18.9062499949823 0
24.97916666655788 19.27083332952599 0
24.98958333330658 19.63541666573034 0
24.65909090697006 20.11363636434331 0
24.31818181387862 20.22727272870713 0
23.97727272112545 20.34090909295818 0
23.63636362933978 20.45454545688674 0
23.29545454074166 20.56818181975278 0
22.95454545175678 20.68181818274774 0
22.61363635870555 20.79545454709815 0
22.27272726938004 20.90909091020665 0
21.93181817642107 21.02272727452631 0
21.59090908415283 21.13636363861572 0
21.24999999070893 21.25000000309703 0
20.909090898365 21.36363636721167 0
20.5681818062032 21.4772727312656 0
20.22727271532826 21.59090909489058 0
19.88636362288735 21.70454545903755 0
19.54545453222531 21.81818182259157 0
19.20454544067146 21.93181818644285 0
18.86363634917439 22.0454545502752 0
18.52272726008306 22.15909091330565 0
18.18181816691119 22.27272727769627 0
17.84090907624678 22.38636364125107 0
17.49999998161302 22.500000006129 0
17.15909089129634 22.61363636956789 0
16.81818180107666 22.72727273297446 0
16.47727271035784 22.84090909654739 0
16.13636362113641 22.9545454596212 0
15.79545453028867 23.06818182323711 0
15.4545454400335 23.18181818665549 0
15.11363634812483 23.29545455062506 0
14.77272725866684 23.40909091377772 0
14.43181816866006 23.52272727711332 0
14.09090907805834 23.63636364064723 0
13.74999998745307 23.75000000418231 0
13.40909089754563 23.86363636748479 0
13.06818180839043 23.97727273053652 0
12.72727271853859 24.09090909382047 0
12.38636362812021 24.20454545729326 0
12.04545453791708 24.31818182069431 0
11.70454544876188 24.43181818374604 0
11.36363635991656 24.54545454669448 0
11.02272727049761 24.65909090983413 0
10.68181818161208 24.77272727279597 0
10.34090909059876 24.88636363646708 0
13.29836716804519 5.460937501850858 0
12.96093749805554 5.798367170236416 0
12.03906249886036 5.798367168455805 0
11.70163282969542 5.460937497937477 0
11.70163283195481 4.539062498149142 0
12.03906250194446 4.201632829763584 0
12.96093750113964 4.201632831544195 0
13.29836717030458 4.539062502062523 0
23.29836716853658 5.460937500999747 0
22.96093749805866 5.798367170234614 0
22.03906249972091 5.798367168952648 0
21.70163282978201 5.460937498087458 0
21.70163283146342 4.539062499000253 0
22.03906250194134 4.201632829765386 0
22.96093750027909 4.201632831047352 0
23.29836717021799 4.539062501912542 0
13.29836716891448 21.96093750034519 0
12.96093749723044 22.29836717071278 0
12.03906249968323 22.29836716893089 0
11.70163282943968 21.96093749749452 0
11.70163283108552 21.03906249965481 0
12.03906250276956 20.70163282928722 0
12.96093750031677 20.70163283106911 0
13.29836717056032 21.03906250250548 0
23.29836716933758 17.96093749961236 0
22.96093749736115 18.29836717063732 0
22.03906250038764 18.29836716933758 0
21.70163282936268 17.96093749736115 0
21.70163283066242 17.03906250038764 0
22.03906250263885 16.70163282936268 0
22.96093749961236 16.70163283066242 0
23.29836717063732 17.03906250263885 0
13.0357142863834 15.5 0
13.57142857334916 15.5 0
14.10714285783675 15.5 0
14.64285714470339 15.5 0
15.17857143070267 15.5 0
15.71428571720997 15.5 0
16.25000000702564 15.5 0
16.78571428904744 15.5 0
17.32142857412979 15.5 0
17.8571428511085 15.5 0
18.39285713616606 15.5 0
18.92857142211578 15.5 0
19.46428571101452 15.5 0
20.0 14.99999999601014 0
19.46428571160309 14.5 0
18.92857142040583 14.5 0
18.39285713577575 14.5 0
17.85714284336419 14.5 0
17.32142855637984 14.5 0
16.7857142655791 14.5 0
16.2499999775787 14.5 0
15.71428569556309 14.5 0
15.17857141150299 14.5 0
14.64285712475407 14.5 0
14.10714284117721 14.5 0
13.57142856006613 14.5 0
13.03571428124737 14.5 0
12.5 14.99999999867727 0
23.17094982848207 14.01529794763245 0
10.87026047486959 17.12408362690004 0
12.18586445698588 11.82753038495839 0
23.27022233164117 9.335680350960311 0
22.4706860682584 11.53642902720215 0
11.69627380333404 13.18446689324695 0
11.28112127852609 7.915186812952794 0
21.59621240299218 11.98809933557576 0
11.64093383969591 16.84535826517586 0
20.29821155287116 18.45193731689386 0
11.11240316946072 11.93418940894479 0
23.90732857101151 11.52800449787497 0
22.35849684488232 13.33724978937817 0
11.82323623134112 10.82620295333621 0
23.14316539789241 19.05889452616538 0
21.23884948523619 10.5928966633839 0
11.98303126364089 6.502503654819407 0
24.13851294589473 10.96116366918474 0
17.53551765177903 17.66074492679047 0
16.93534553042758 18.48657401407534 0
12.88925044026874 7.752200454747629 0
23.95790716484494 12.46220021146604 0
16.22091509874285 19.30659353580442 0
23.03996114305924 12.6842536860408 0
15.33106794154199 21.16505034123661 0
11.1996588402673 23.37728118292196 0
13.64499581510276 22.86680566945595 0
11.77593706589086 7.18128425982205 0
21.63504760951648 14.58872363886306 0
23.74982683671458 6.372506434321734 0
14.78818239346544 17.61221014935554 0
10.60154186991301 15.39714427705536 0
21.10079816568131 4.114748339850758 0
11.05444576104966 7.027697435757693 0
13.80615945432005 6.152220990030041 0
12.13636363235997 3.204892558648927 0
23.03338407736232 10.12467362211837 0
14.04917696366309 3.722886550382152 0
21.62617868982062 13.84516553004441 0
13.814696366907 11.92490034541565 0
13.67905939144325 7.016493468718103 0
11.13700505541605 9.05290079471047 0
15.87958928834025 13.02774768679079 0
22.3565909054579 15.52737918795258 0
24.10718258805962 16.51779686121999 0
18.69220024875286 13.58837935758354 0
21.42889886340485 3.473730309651737 0
11.44770761582747 9.751071452162627 0
12.09441387045158 10.00663574933039 0
21.25421830432589 19.18971299995519 0
21.60999857186559 12.59372347799901 0
11.59045663598536 19.01522866822147 0
19.11988031607901 21.23770354480194 0
11.96877733879491 12.44184017168414 0
19.8675449196238 19.71394432980479 0
18.54021349814175 16.7836552586227 0
21.79624917856977 19.06044155884288 0
13.42411081523904 10.81751800439851 0
17.75091653346641 20.42313801966715 0
23.76794305767561 19.18773490987657 0
21.24287324211087 8.431912994160653 0
23.1843143074241 12.0000852616805 0
23.52264643394988 3.448914554831077 0
15.92014516090773 19.48246193354625 0
15.64201779288711 20.63192274025805 0
19.19305859026527 19.05644854043653 0
10.85836478326877 12.12792962701509 0
20.87926174419512 19.5696034411492 0
23.86634908517769 7.641328601958328 0
20.73617565385852 17.70079613564086 0
10.78767505058187 20.85018189683703 0
21.3895835165527 20.28280805051011 0
21.16868626644542 15.84811394740438 0
14.63317320739956 13.46638297062145 0
17.28269021038436 13.02203855497645 0
15.13956062571524 16.61731904461752 0
23.90275436557206 14.16266021665046 0
14.88430072385582 21.84750480754284 0
10.9034084886496 18.55131117502105 0
16.04126771277219 21.94556181360532 0
23.66996963126734 12.61657999682036 0
22.36779169282187 7.206357446077634 0
21.31941673401366 7.949839003097816 0
11.45300919790095 3.466721410478251 0
20.84508589846543 11.38705823234615 0
20.74268946297544 13.95286124974121 0
11.83446664206294 18.3853163001452 0
11.58664957401868 14.49629073620251 0
21.33661767510412 12.08807226360243 0
11.11937813331781 12.65779034362035 0
13.20378467592327 6.483802359131601 0
14.12785867266402 7.389184633111448 0
22.50414955622448 19.16094945392093 0
10.89585929129059 9.54190084872804 0
16.18000258162521 17.02646966083721 0
23.90408008895732 9.031366803258466 0
17.88283261615297 13.34754481112354 0
13.59127586428827 20.15492301883737 0
24.34034134518761 17.08783963126538 0
10.87806117566654 6.662982207777532 0
23.29929802927856 7.136332317885555 0
13.216557108246 9.364065410180457 0
22.86363635983382 3.204892554295694 0
10.52463497972895 22.53831735407133 0
19.26284482588009 13.12429435086304 0
13.89056579840645 22.27568599643219 0
22.6487969561235 11.0845376075478 0
19.27174352207084 20.46897891957615 0
13.409938993651 7.9665923926293 0
21.65810158477042 8.38015223309355 0
21.34182113202347 7.099902595510676 0
11.95681955660104 18.78532519807702 0
17.13977189725861 19.08071923045633 0
24.29880296528772 14.53158675618963 0
11.65686643038971 10.30530197994201 0
10.82684653642709 15.75431624053686 0
24.17994773461233 9.492067926648598 0
23.58981028962303 13.25134649855709 0
13.97505377549077 3.044495417585918 0
16.11557297153362 20.42212167943696 0
21.87268125061462 16.004034240495 0
21.7853530317981 7.962858340536743 0
24.15989770460967 10.43121386834954 0
20.07424623916912 15.9866947696825 0
14.23436812170532 5.971593320512398 0
13.59234760830229 16.92520738383219 0
23.18997588053429 14.76094116956595 0
24.04631890458501 19.88959356027672 0
12.26839228404079 19.65619370536331 0
21.75849852624187 11.21649479861013 0
12.49975706457826 11.65813634599365 0
19.74427444401963 21.014508823471 0
21.08506116240781 13.14584027105419 0
11.48223698010569 11.9925039102408 0
22.97750280318473 10.71752083977437 0
19.32300091794838 13.81885916983307 0
20.97166473184694 9.835327010728445 0
13.57110113290806 3.473730318033688 0
13.67972181074709 13.06714823278153 0
23.44314038189499 9.831746114510217 0
23.9757094383109 3.050775432414345 0
22.14531369371268 3.27238440504027 0
18.52300789510665 19.79637104306948 0
14.5471439821359 22.16415926842161 0
20.71811259743859 16.86121282688255 0
22.4383053481783 8.146468827714358 0
14.40829409555944 19.53592334739751 0
12.57171879422424 9.62804567242533 0
12.80867016425855 13.1040127554167 0
12.60128524869779 18.00323122538818 0
19.42590316493617 16.82207417620106 0
11.66076467627783 8.446004629182177 0
16.69328970387328 21.33363241878971 0
15.89285714571177 13.5000000019311 0
20.82476858293267 12.02954707251661 0
14.65335756425755 21.38096246233999 0
18.42426275003635 18.74103074391518 0
21.43663697611366 7.426239690248581 0
10.9772107793372 22.53311126279491 0
19.75673177986657 17.31457345885528 0
21.27588589458855 6.384509407199758 0
13.59154602306965 8.8157172886634 0
12.59335525765054 16.56984003066905 0
22.14907281055795 8.527120160844431 0
17.02208545153932 13.5883793562974 0
14.22715140409027 12.52324977426924 0
22.36359160330463 12.43269381200196 0
23.89460348444483 9.942937379985771 0
22.4705520032042 10.68233162513219 0
12.64066389275207 12.07112899684521 0
14.45338343289167 20.64958988453744 0
11.08366127890029 11.24539039837272 0
20.42330119725824 20.474449084161 0
20.92234399691387 7.800292326743356 0
12.72315199268479 11.31003663425643 0
22.59309490303655 20.16564835833904 0
13.29988226064668 11.15641028609516 0
23.58473695764838 10.77228957743077 0
20.38998448488364 13.08558396616015 0
23.00514829343338 7.836246310818014 0
13.78771539627179 7.95787360434233 0
13.7945568296458 9.837286056398518 0
13.94449461906984 12.78071284382224 0
21.70136115652122 9.352212050398622 0
10.95756077199302 15.02374917983178 0
17.58820052548336 21.53588378940034 0
15.34512465631262 21.75626111924552 0
20.44716846959601 8.406764791435988 0
15.77952660293121 19.79612866656817 0
23.69819103161761 15.82365515354373 0
23.5185118548665 8.319728701872398 0
22.32983734541722 8.976436444888265 0
11.24719082126825 17.96764334506667 0
20.30446326553214 19.1585578980278 0
11.32943345843148 8.681931374492068 0
18.49548740429852 21.19521869937873 0
24.24787309717457 12.96780933746175 0
11.15246961815973 21.98710396022582 0
13.78117470519885 19.25928283670845 0
12.6438302247008 8.650825993629557 0
11.34674410317181 14.32460898117967 0
17.78835946876539 19.0277680789431 0
16.93309364422369 20.59718179147318 0
23.04614574009096 11.34017358942099 0
24.19141633269164 17.71175871141428 0
19.8616884154032 13.53781875725751 0
14.23623671139494 10.48135356467151 0
11.00554513954826 4.871270176470982 0
24.11692440716972 8.625194979775078 0
23.54762730196371 10.27424633597225 0
11.33264083906573 15.77101206324555 0
21.71900010218789 8.79935667905938 0
23.02657834923634 8.78795453594207 0
23.85180861771461 4.10494904315701 0
11.68118124823295 23.79354376690025 0
24.17143988947829 13.56649989779405 0
22.97554026634695 13.36539769253478 0
12.33768487167691 10.93070453758241 0
22.08202549762054 19.71615076370255 0
15.55054701997914 17.48194632488617 0
19.20118702257015 19.76668124456841 0
15.22212637692438 19.01875580410065 0
15.24228425115617 20.37641911027032 0
13.9192403382309 18.48453424276753 0
23.03903179920355 6.235838009702754 0
11.03611513824863 13.6744087808141 0
17.82295449274671 19.74116655211461 0
12.66118889143681 6.86854215513388 0
21.96743461175386 6.56056474912301 0
13.42423646701128 23.3408912593692 0
13.14498904930226 11.74858422806841 0
22.76208530797375 6.60387392743686 0
11.87513717319126 15.66367507072366 0
10.66818801318309 23.01589706052386 0
14.19770460562344 8.516661864356344 0
24.11420334373834 18.39015577407176 0
13.05380281943958 19.30300146239722 0
11.11120856645364 20.09639193709068 0
12.62553352299273 10.43756536229177 0
10.86894852178731 19.35842128802882 0
13.61096803410885 10.29812424378571 0
10.86436770139434 16.39791728661023 0
18.22531669597447 17.502293632614 0
12.8798136772181 19.98525937413284 0
19.8462946106326 20.37033628552593 0
14.85604626469074 13.76418335519747 0
11.19838091993529 19.71800654569885 0
23.48523876320528 15.24490671085163 0
24.19882847249627 12.01205572466696 0
20.50212213908661 16.13366494641857 0
10.9864047003241 8.387104376770168 0
17.40010754068849 20.56350165009787 0
12.88687163600078 17.25404259150204 0
22.20172784000053 18.80904267205588 0
12.91417166190941 10.81751361994727 0
17.40067439163198 20.94427629634663 0
12.05690010715723 11.53056045811562 0
15.30480367424265 22.36432255708526 0
16.73941968050158 17.6575179988947 0
12.19713057237821 23.20671454129958 0
16.88122721610221 20.09423507572956 0
12.90719418190817 23.17086294227508 0
18.72948096523697 17.93046363564187 0
14.04302345989289 5.566152402475588 0
22.99530730513417 19.67130063153138 0
15.95076795869629 21.30030255244571 0
13.53075735981491 17.80291508374003 0
15.8840997704419 18.18366981618392 0
24.33025900021354 8.419550623089027 0
17.13409078576774 19.73646028444008 0
11.33861499173637 6.344437339134855 0
24.3268081907378 16.07556616636942 0
11.62759617536774 22.84976433064075 0
19.82142856787083 12.98405612181365 0
15.16617079337171 13.06611171577711 0
11.59773405821299 11.3045479293715 0
12.3994884030193 18.8482481145978 0
20.79755291504902 12.37083408452932 0
13.43108635161551 12.05650484557191 0
21.47388852057723 19.67711848363492 0
10.74140467297625 24.04999857494634 0
20.15469357618034 13.95643226837398 0
13.07205459186983 7.077291582812456 0
15.52757669683099 21.41363869231522 0
24.29298433656852 9.117534793151252 0
16.79264513439217 22.04675840300608 0
14.01481359267159 21.18379426972974 0
14.75056816240969 19.27511355058672 0
11.77843795455257 13.83377900850609 0
21.4959454648582 13.01410211032185 0
10.72452873127863 9.244021859103986 0
17.65774804073878 12.80089785230248 0
20.1001536254451 17.85341596426198 0
13.81201054867983 7.607442541788805 0
12.27623226387147 7.299663802067851 0
22.42230006930902 9.776132376888064 0
14.68171455399567 18.46927228922775 0
17.03652662624334 17.17618499843236 0
18.41916817833627 13.03664624275589 0
11.75787183448049 15.14329328176473 0
22.91754304295642 2.818377144807906 0
16.55838419000419 18.41677826890362 0
22.06263825808581 9.40051360120905 0
11.88576372841418 3.683548532437808 0
19.37517823882533 17.70931650795699 0
21.00715469382742 10.32582104781858 0
21.10217051746775 11.87322474225505 0
23.97168852856995 6.975210635497686 0
20.87269107077783 9.096282951815484 0
14.13701035433959 9.203366577019809 0
12.56164893509008 12.56356874531279 0
18.17127992282717 20.14287651241161 0
14.31471465038364 17.14043204219634 0
13.1877907978863 8.341312797096665 0
14.34561271765185 22.85433860613167 0
21.17169602042199 18.69415272650297 0
17.11133763790104 18.7422880385791 0
22.17553609559185 7.699386386343772 0
10.7861972377023 13.12437616671566 0
15.18507404123115 12.75033107774204 0
13.1477206677005 23.53536066670268 0
18.57105816420878 20.50427039876475 0
22.10401679983205 11.99398369094272 0
11.94048129185782 16.17525877993595 0
22.42741025026437 14.26366363077356 0
11.46269399451136 16.24041907857996 0
20.64933112714793 10.29084738484111 0
10.58837599471768 22.10465795813058 0
13.16723244917154 22.75767425137677 0
12.21853693023309 17.02900383719246 0
14.15127019384525 6.634847212967818 0
11.63386709120388 23.32864136246767 0
11.09681115288853 5.646403110998683 0
14.37353333957154 11.72664481700648 0
24.00727598914041 15.01091954315038 0
11.47203037522609 6.782534162404998 0
15.26374297837952 13.79704645135543 0
24.36659113695342 18.93217249405632 0
14.46130011115833 10.84556008722842 0
20.95204672505181 7.001230429713111 0
14.63288764151606 12.91220298731423 0
22.44199742039654 11.84831659989036 0
22.00655935104391 20.33439360996093 0
23.60677743982516 19.81969192683451 0
19.03321018811017 17.32899378355205 0
24.33139651129848 19.53386062793974 0
12.49301506308226 2.911622913960454 0
22.15367651687794 10.28902643099608 0
13.89920183433819 4.114748341800253 0
14.1761743405321 11.13203739675405 0
14.14070538613008 13.15709165314017 0
17.18561829134651 16.58869177911016 0
20.73494273498592 8.421462336152906 0
22.39139364184144 6.374327270643136 0
13.46995170647249 7.51666378538194 0
11.1116874027149 10.45358868211552 0
23.15351744945902 16.12240813248433 0
17.32940309899395 22.03121420268425 0
13.88175542992836 10.82406942771023 0
19.63472387157777 21.42658151102797 0
14.93316505440613 22.79492233111536 0
12.49773117722199 23.84213147830472 0
24.10678646234668 8.14073782443937 0
13.70185725698817 9.420739817651327 0
13.75785647059278 12.36880098911127 0
17.44164963496835 13.89008620859283 0
18.68595203767202 17.53389514250043 0
10.495016751641 24.33525653597069 0
16.40333290518563 21.62504799953632 0
14.44321353218165 12.15522825099368 0
24.55428515720429 17.98517946179355 0
17.87545601640494 18.3040087247486 0
16.72545839237736 18.83112300994118 0
21.74834156102996 15.36663080755829 0
11.42207061155098 13.50271231590281 0
13.75962601128306 20.58921172534658 0
20.58933331827383 9.40158041323134 0
11.78573813089913 20.28455078621624 0
12.25942570037255 13.7364340028305 0
13.13400835243775 10.05948409601877 0
20.68689327969918 5.930926075935222 0
10.79609885470483 11.63439838879007 0
13.17797998306983 13.67493482759999 0
18.31824864242022 21.45119843859409 0
10.78346405156705 21.5133933853322 0
19.85695010765332 16.4044156529151 0
12.85468630206021 3.272384403790375 0
13.11955039984631 3.70830045573575 0
21.6109462112884 11.60919590989997 0
24.20775646160494 5.24495696161768 0
22.04358157664565 13.75721845528416 0
11.72149863582503 3.006064287866826 0
22.63461881429442 12.8943575732972 0
21.71665926023961 3.021416002278981 0
13.45169575797346 9.131759336038042 0
13.19772201311937 8.875802568746533 0
12.07642913571079 6.931968286333101 0
21.81101752916178 10.04851911994042 0
20.63949211552705 18.79666786935621 0
16.46267162659749 16.27459194156986 0
11.96586468238666 9.209540684926703 0
14.31595049519569 8.07821825864452 0
10.85520859720483 7.480145325451879 0
13.94017853696729 13.76166000060744 0
12.12525273675646 7.855427001299272 0
19.70455667812607 18.9199782136716 0
17.92660767235383 20.93964780225291 0
11.87917320012559 14.60538179051792 0
13.82732841234956 15.9675960189047 0
20.97656250087122 4.851060262426278 0
22.50698493132849 2.911622912581949 0
22.11598599705749 12.89293219287961 0
20.75387775146053 7.378696562974183 0
17.10077220275747 21.57582004127212 0
15.8777521133598 19.00065389534125 0
22.94659421357992 6.934098649336675 0
12.04648970646792 16.61135549141452 0
14.00744102092019 8.209462943669976 0
10.40514936692112 20.86838920159345 0
18.468352020778 16.01374593628551 0
18.32017670063122 13.89343365893288 0
23.54705695879853 18.60080797803053 0
13.24503909000171 12.45322065651515 0
21.63590268424446 6.830590913958038 0
11.34649204438771 10.84892244353753 0
10.50714470826494 21.19890428232557 0
20.38302963574585 19.90287712447864 0
22.67091951575222 12.0335561769695 0
20.53295045290864 15.59594523381785 0
19.48279950525178 18.2711170982977 0
14.37698464577034 19.04919431317011 0
19.51045473097214 12.8342608436049 0
10.6932234703907 12.53039909179196 0
18.14358486931601 13.19740389025794 0
16.45144088254715 13.12429434978326 0
13.34149428707699 16.21540060860658 0
10.68546842773048 20.11786875579926 0
13.59225508349823 11.36785908127755 0
20.35045190379831 11.63227310873277 0
21.55174295125529 10.86012790227331 0
12.8873438050292 18.89495195844967 0
21.30414186320678 11.57344262380576 0
21.7980845021744 10.65943744042266 0
17.47258030359328 19.38855446500758 0
12.06168369967453 22.78666627588329 0
20.83029885098649 15.10317160049031 0
18.68844274488901 21.48997797652389 0
21.2567891937174 12.74485458884524 0
10.97379767813879 3.723546624774384 0
20.67986495394906 14.60372711407823 0
20.65019619997868 6.635113150388485 0
15.12496699215074 21.44735658125306 0
12.13150896877917 10.49786793899156 0
21.02674640105625 5.611956350599253 0
16.44564601479716 20.73729993417581 0
14.82195319411385 16.08476161359011 0
10.89424607884875 5.979578526315653 0
11.15334231234542 4.092842519286677 0
22.91895116670834 15.03238535902328 0
22.81088101452935 7.275448875367633 0
22.58918158024458 16.07646416275019 0
20.2006043913207 19.57712973977924 0
14.10259626437389 21.73077305423065 0
16.37815975264748 22.35029651623865 0
24.37701631439501 10.69879417418009 0
21.29209547436697 3.792463366347268 0
17.26610661402811 18.08654385641056 0
12.79672317923498 16.010507988343 0
11.53555384162606 19.66206560124968 0
14.26345824049069 16.35304092359884 0
20.6320967619765 5.562350268303503 0
23.97061493653528 12.79477141743549 0
23.08254416809523 15.43089182140993 0
10.57619982356202 16.85669102380314 0
11.94269118401642 17.56921435402884 0
17.00226664789061 16.04497116063308 0
13.28334073857713 3.021416004601773 0
12.58604675026869 23.58712988433554 0
17.98006384517337 12.97713982583745 0
12.69833230537616 7.306912878391287 0
20.65836098757515 10.87461152625925 0
22.68378543005587 9.326773502858337 0
23.53570082406155 7.89242488287631 0
14.07792638767846 17.83466444930215 0
23.4937083554753 7.520450220660445 0
21.75660445690983 13.25164982238319 0
12.10919125875198 12.07260478240917 0
18.6188062022259 18.29011381825919 0
14.42639222348136 13.98131321066721 0
10.56248282919982 11.48078927799948 0
24.12401860241748 6.583481038229582 0
23.91434561755018 5.667375007339928 0
11.20395817199219 21.29089432244695 0
24.39795730850253 9.984868720853493 0
12.09090476745425 14.15984906264855 0
11.78042028429911 12.17739942323989 0
23.63406344484064 12.92516244867399 0
11.16561917763648 19.0523855437246 0
21.46785483348505 13.40728705194012 0
13.41930361522261 4.070774132683224 0
13.69849069824673 8.390409000115572 0
13.18237463990823 18.53157117090348 0
23.32916981299503 8.989297898068855 0
20.97109904048126 20.7624255788748 0
14.0946054748766 10.10611239206115 0
15.65347918531863 21.05187642026625 0
19.6072353868112 19.30627473888925 0
14.02343750028137 4.851060269840065 0
10.78988541178676 3.392015593155334 0
21.23938391913688 4.485917082808133 0
24.38810789300288 19.9113762971368 0
23.94801482365047 10.65957324241686 0
11.33307404721473 8.264295205644045 0
14.21785359643726 4.483488261422514 0
17.02648555203663 20.97489526899251 0
14.37179255842518 23.18642912520117 0
10.99600547126474 9.332048437236988 0
10.54672827881866 18.2711871578527 0
23.95595467887772 18.78316536461175 0
14.53138183673444 10.1669467088471 0
23.59419023257719 6.837628120321133 0
24.27232769984208 15.55649650405412 0
21.09685357213216 13.63350361247586 0
11.34465503110255 11.39790425245683 0
12.8165114032881 9.259548124192102 0
24.52458977723892 13.6723864222568 0
17.938457623812 16.29554728366619 0
21.31656744992229 12.38807605287882 0
15.8412279602155 22.50366035229838 0
23.69529707824822 11.97064969190998 0
16.2019355700786 12.84050249654628 0
12.69367749859669 10.01934377300028 0
23.71314289024779 4.549055026514699 0
20.88224374293517 6.309911370059728 0
16.42857142937082 13.87244898555863 0
23.79515671120957 8.646437901592982 0
15.08693222353746 19.53637128400607 0
23.86799552410378 15.40339317898732 0
11.3757211300891 7.092666924546062 0
20.57562222382076 11.83011431528233 0
20.09322705446811 20.69738076244699 0
20.55326374149137 8.75259233920948 0
14.65048126368494 17.24649538374112 0
11.21441230821798 5.221166070906919 0
23.84936562427478 17.45039728648531 0
18.12377473809206 21.70044138123217 0
24.15086527261981 18.05248604885926 0
12.58274755688979 19.24619584730893 0
16.86073147696559 12.96249038891501 0
15.56666998992154 22.81444915658233 0
20.48305367084978 11.27102768198983 0
21.02494622165577 3.04449541271666 0
23.20200618545585 14.43035530264523 0
14.20194224117683 2.812273768120263 0
23.54049998414904 5.863376518853326 0
22.52983696139296 14.8490313898645 0
10.72926836710547 8.867430152003436 0
19.11113124734896 16.21359998948587 0
13.40200926726152 19.00553487478888 0
22.91942216151629 8.263678221666186 0
12.50129982217697 22.93091417070612 0
22.53373970216818 19.70327783666169 0
13.98792901402691 22.65959730054304 0
10.77330282914691 17.93425928414126 0
13.79436239047122 5.215148794873533 0
23.24650129957978 13.08181688445402 0
10.74093644201918 10.48033723513978 0
10.80516798166719 14.30568260348815 0
12.01720290608666 11.10525751942134 0
13.73559052907218 6.585434328694712 0
20.52011429095693 9.955477475356973 0
23.33062687665607 13.54524722056348 0
12.16735774279238 20.1832104535674 0
11.48681550082849 24.11649131933783 0
11.76408432622731 7.61512035261422 0
24.17841598639464 4.512521424783902 0
14.36204616665731 9.846629835492061 0
13.94537516103613 19.6891635978047 0
13.98229842499341 8.868103448051508 0
12.09226422263299 19.17050398242029 0
14.52720225687072 8.365469287028965 0
24.0037368531339 4.885905140875482 0
22.52398153328588 15.25321706268746 0
11.04443661305652 3.037917162765139 0
11.34859458798214 18.4082829210022 0
12.63254860891547 8.208494976174173 0
13.57293823184199 12.71882149482126 0
12.3344881843805 6.290994429495628 0
23.30946756670586 3.040817329219061 0
11.44315141318862 17.42765055109719 0
16.38947290008311 18.06386562682665 0
16.03238095026155 14.003022605189 0
11.66872776250016 11.63061484821564 0
13.55949394389015 13.95145593156604 0
22.23548804848902 20.06042902664818 0
13.08663978433803 16.79598416289945 0
16.5201520758278 19.96699390460127 0
21.80503946199288 7.531628836502819 0
11.42161327811014 14.77945392554465 0
14.37472901734345 15.89833286884607 0
13.51579106264733 18.2370563869238 0
11.21855407419499 10.06417983802622 0
24.41671893785239 11.44671834412307 0
12.19357057267863 23.84403440359281 0
14.32026911632431 6.978687369341559 0
22.04231765070516 13.45587123088858 0
13.76061608194231 4.485917084965369 0
11.03221694284608 22.96016929447313 0
21.24691168920747 15.38267675579188 0
21.83168927293896 12.25873633231478 0
11.47666353691285 7.694725417377036 0
19.40020430126062 21.14138466002512 0
22.7605037517831 18.8193329255861 0
21.25767109514333 16.48672003465364 0
21.38372976835781 8.702750495491767 0
13.80098912758379 23.42075179483872 0
20.39546999394495 20.94625790189691 0
11.75653660918802 22.49500976725719 0
13.99688826018262 23.07191324992813 0
22.65021576299611 8.958791300026514 0
23.24518848382607 10.98570527963185 0
21.08919211397698 7.427893476151818 0
23.77666804974139 8.089203341426346 0
11.04146636566622 23.74089780662717 0
14.92410045807333 14.11015105922125 0
12.54002106877485 20.01689390688982 0
15.7428944230567 16.22118839654296 0
21.1810507478061 20.55526472838746 0
23.27716268199012 15.80877764248379 0
23.71757774336555 9.504422660569153 0
23.61542149425063 16.46266426159428 0
20.85500806109515 19.17479171399241 0
23.59567500780724 13.88419750751968 0
20.46527074118311 7.340971512753417 0
10.72085020467688 7.062541770620544 0
17.77489102984772 16.98210115299574 0
21.03518040281805 21.05653292121974 0
17.85714285031339 14.06498105623528 0
23.92981470015859 9.329424730367393 0
16.55193682000919 20.35232190974821 0
20.04890944894065 13.21969412592371 0
14.69325608787061 11.95085559425991 0
21.81562915161087 14.2577715649855 0
17.93724453937922 21.37146576103272 0
22.21358230872612 7.975439580951963 0
22.15204337795711 11.03878627099496 0
13.35526440764895 6.047578726441252 0
20.55283411081287 13.68569597911882 0
10.76403827081011 4.059769817828378 0
15.36543611329687 19.86329732506922 0
22.64221157395487 13.7658316554697 0
12.79400195098416 22.7010865160103 0
10.78556468076371 10.85161933898618 0
14.62359464432054 22.60183741431837 0
11.78848926385411 12.792460643615 0
20.78214640371777 4.483488255634825 0
21.68535119169474 6.25465406910004 0
20.28635175184464 13.47733342164107 0
24.55587642545866 15.43853074476707 0
12.80982845300047 23.75935302349478 0
16.27958863407265 18.68362199564283 0
21.96565449257806 11.56461779886199 0
10.86269963689405 18.89733068190931 0
21.66537158162076 18.62380231380482 0
10.54021498791043 23.51789481409706 0
12.93093125751517 2.822904295632292 0
10.6967479471924 6.317320121215333 0
16.12482100156016 15.95086057567173 0
21.29451962979689 14.3400489080307 0
15.56698685961237 19.37838461247701 0
11.15320809963037 24.03148082269384 0
14.80896225677208 13.14458704010311 0
15.20637390344076 22.97473051113732 0
20.43163977137301 10.56252771804796 0
23.40572307607339 8.686539520762746 0
24.14399630807708 19.20517407852242 0
17.32256010770644 20.18381394634049 0
24.09877155042701 6.079099500074819 0
22.05389975150422 14.95412464546659 0
11.01937491062433 13.35866724244238 0
16.33172405543283 21.21698946998797 0
23.42415018462126 12.45905390173338 0
12.36122154470807 9.297745639181011 0
24.52108622853919 15.08232199204757 0
12.25837333418502 8.332817938462652 0
12.48467561755017 3.572176493557386 0
23.94726385310214 17.05561005666744 0
10.90400628106097 10.1249084413796 0
14.49786595017435 9.508022975581794 0
15.0534502001203 18.52276253779093 0
21.07286744437327 12.20424895355008 0
12.11633699121684 15.3436988067787 0
12.44827711359707 17.47693921030253 0
13.48631904973446 10.03909798504942 0
18.89955624358838 20.27892015483477 0
16.13548624489367 17.63404121951342 0
17.57766074240188 16.05456612164525 0
20.99062293795977 20.2257334116265 0
13.60082961725444 10.59613028655867 0
12.46476838633764 8.998474174651275 0
14.63852845117293 11.59487409052869 0
13.62324328889262 11.01157312282454 0
11.08926637100528 15.44735375328141 0
18.03571428190872 12.69818993561667 0
13.40646615413419 9.722814837665062 0
19.39283571939776 18.70002323294735 0
17.56003926943167 18.29770592943314 0
17.33967773025846 18.54514885189906 0
20.79805775520842 2.812273764894681 0
13.76485348655794 7.293638199940766 0
11.29302617118564 4.540403388752286 0
11.48809413909664 4.22978046266603 0
10.60808583884388 14.65495426518756 0
22.65355506252837 10.22870760703709 0
20.20741225683206 17.25828941918548 0
14.00179593759037 7.105054048183177 0
14.64022423877038 9.832563069856237 0
12.09664127693562 13.40018640719051 0
14.93224493395719 20.7494231422999 0
18.9337090181704 20.59117220556729 0
21.24448296894862 11.03919820431608 0
15.52517232885715 12.84958088775027 0
10.48467189139418 17.17450282791315 0
15.36114652082353 18.1767914637744 0
15.79030971298538 21.65650786047444 0
16.78330104770188 21.68095517566379 0
11.5164032444342 12.45103809715296 0
24.26787092922759 13.96421194070214 0
21.57091818464458 10.40983619202561 0
19.98493993961119 16.87784674539948 0
14.09410308423139 9.595251769345095 0
21.27466408935904 10.1034966190082 0
15.20448205064771 17.73980182820094 0
10.47492931658337 20.47391139380781 0
24.37355636650889 8.804232277318153 0
14.60649801757095 10.51305778641765 0
22.58455857318148 14.53004872317831 0
10.59194888250558 11.87108324139498 0
11.71924788950744 17.96341502546409 0
20.47091476914623 9.092948280098732 0
11.37830306404576 20.66133893929517 0
22.73145855764269 8.55889438663807 0
21.53307976813835 14.19567826715572 0
12.11116697196312 13.05184794090327 0
16.73158273287407 13.7778991087021 0
18.32110557342407 19.22753076087921 0
17.68207239557091 20.07392545885871 0
23.57462710006108 11.13839055293933 0
10.81271505462295 8.026658787249305 0
11.22539510866532 11.66526059234886 0
11.65936856946882 8.003854530695724 0
15.09141147589995 17.18895366979238 0
15.63946773517593 22.15019463155639 0
23.86208340283408 3.414432272703735 0
23.67974644563482 14.62070820400048 0
11.44715571875509 12.84574516389908 0
20.66680677078384 3.746766666865147 0
10.80204483730506 23.36259983923023 0
20.95082303474027 3.722886546809192 0
14.37753667304154 17.51567862149936 0
14.23201600466725 3.390068309046993 0
13.70790452507653 3.792463372077681 0
14.58140153269483 20.13662707953188 0
24.29941555434463 16.76482333988683 0
11.50415754905683 3.859356561505742 0
21.46440015108016 18.9214837978785 0
24.09465530220672 15.85671418009724 0
22.71974574080922 8.047922291323474 0
10.86296532240749 21.86837189295233 0
13.30807301091437 3.388538586820095 0
24.03281519038627 3.728628224737657 0
20.92461904257108 15.57626104710624 0
21.78792570092748 19.48733106584637 0
14.53391958272666 9.162857174524772 0
22.98713679094331 10.43123786699928 0
15.48573625013651 13.35815496250913 0
21.12982000079303 18.115493311557 0
12.49549577816931 7.70225471741484 0
10.54297493252247 19.03398174304425 0
20.67112972675577 18.17058305874047 0
11.04904558726932 16.10695047910453 0
19.98259635335466 21.35056781705378 0
20.5603657590541 19.47894022116455 0
10.66320200515196 7.714029265964061 0
11.78906968922309 6.77017711989645 0
11.68833017649633 14.21554041858891 0
18.29227483760144 13.4282846813149 0
10.55286486500465 17.55834695146331 0
20.34675374313459 10.89877624175936 0
13.41510256802827 7.185642205969096 0
17.66198246120499 20.75349954764673 0
18.08319666636748 20.60011655158893 0
12.24371209817318 15.8499668279369 0
14.89521384234709 12.79670235552119 0
22.69873235619998 10.54551466673558 0
18.85355422900524 12.9624903908972 0
21.22011309561475 9.458793697914787 0
10.62882510704578 8.224946449228295 0
13.17135306161488 14.10871572558504 0
23.27412414476454 6.59494753916015 0
13.31165853882247 11.4708345223096 0
14.44403282770444 21.77570647993291 0
20.4716258102707 12.63507902578302 0
21.01320698759632 6.620250169318123 0
11.19246308181534 16.84317775733236 0
16.69624857446638 19.34535377114727 0
24.26227458279719 7.776699228616053 0
23.10953331541202 3.684007628246519 0
14.70655455924009 19.70746010309976 0
23.4864661543561 18.95448290115048 0
11.33677348094171 11.12846971887645 0
24.66342081796805 18.26530138643191 0
21.00438517757611 8.177508250375707 0
14.44440889881886 7.704868839768886 0
23.9392434259379 16.24223857319831 0
24.52997490510262 14.3065906976594 0
21.36347353526036 9.028324083795095 0
16.195333694646 22.61358116357574 0
11.93176796072171 23.55496355311303 0
18.92889437601275 16.99617782376288 0
22.87606638421029 9.752810290958973 0
13.9251692788 13.41099122412709 0
10.83371975735793 21.17079137445712 0
14.04675467613517 20.86301144960768 0
13.23757916879851 12.92422475187612 0
21.20348911841678 17.68806488576855 0
11.51817260685762 9.298326784416123 0
22.90508996425087 12.25415975839788 0
24.55028289339148 14.69813682071779 0
11.40144142546808 10.30304868101275 0
21.62727059162847 20.6772663405956 0
16.28464225422475 13.50797194154154 0
21.13818351006778 14.72182403923254 0
13.66438694431755 5.760681049098645 0
20.55953874797574 7.045745116435372 0
24.60988777459637 16.18821898922873 0
20.02745319692377 20.0216441157555 0
12.37651811069898 9.890869963712596 0
11.23625042875718 13.12967632303975 0
23.25686046657468 20.08469205167305 0
10.33158314176145 22.26870440964192 0
20.40934903033803 9.638727685420665 0
23.24326144492608 8.116546952321901 0
18.74999998662868 12.70836442437949 0
15.72214633662211 20.20720947875895 0
20.17121501450756 20.32263438127335 0
22.06576612988098 9.756476882213382 0
18.75169086521105 14.0596511401029 0
24.37016057324465 12.57457019198468 0
13.824508505319 21.47566993107536 0
14.32698787460811 21.09525057924483 0
21.88044958935786 3.708300455928138 0
16.55063164229264 17.26167027483219 0
13.89571835489546 17.34324865221395 0
13.07948499673599 18.11733437061814 0
11.00209415884963 20.48924079094995 0
22.86670423159215 14.36655285737538 0
21.4114204275861 5.891351418061467 0
12.73121408035792 18.45806779517315 0
18.73570390698309 19.08361853033175 0
17.1900902821452 20.76996375172755 0
24.31254964110374 4.87689908145558 0
23.28032231159356 19.79161402988909 0
24.20092913049422 14.28407285794303 0
22.36785392602084 13.62612789752315 0
13.48433726628936 22.44576832786159 0
24.43880747574344 13.27410200822434 0
21.04530166803705 17.24119065842206 0
17.64072423634522 13.13902318219911 0
18.24536818050396 18.39635477590733 0
21.93443025432409 7.215722687842351 0
13.16589287198246 10.49599358991035 0
21.06610853441009 12.50219709182477 0
22.83198339520559 3.839288772344108 0
10.40474798118558 21.55971123684627 0
21.88231807539064 9.10558244328173 0
13.89930475026878 10.46456509656048 0
13.45687555895681 8.247627194165135 0
12.16226809201601 9.632579833252302 0
20.75581649551853 21.00320282865715 0
12.32004345196229 8.067868563022433 0
23.44857130345725 11.76355318076865 0
11.22662880707369 9.489370246405453 0
20.56886664468009 6.275190116127054 0
22.65519041366007 9.93118412184609 0
21.54318670358664 12.25366903958838 0
24.43349064820369 10.3304529368934 0
11.76369679509754 2.725251493870441 0
12.84895071773168 11.60955320528683 0
22.65742487724907 13.20084073980893 0
20.7679839938335 3.390068304883953 0
17.15551403812611 17.65363112009125 0
24.60428497936108 17.25792720008801 0
14.37400732293034 8.88861059624184 0
24.46717142342131 12.19479453201826 0
23.61636365970063 2.816053292240392 0
13.98002881353999 11.55290993245706 0
10.53181606672773 16.50777078358094 0
17.47488796454039 19.79768707074523 0
23.94855872020066 12.1681757893111 0
17.72531105170089 21.94431497222324 0
20.9886353775303 8.42838447438443 0
11.85466501525061 19.87165992164683 0
11.69734453493254 20.59482023887139 0
13.80732814032157 10.13526118105016 0
16.59715941050183 12.7828031925008 0
11.64135588206624 15.94283136317028 0
12.12992480590204 8.79702255340121 0
10.91198984218577 22.20207523997987 0
10.86293467680506 19.82900273076961 0
21.5554925419608 15.72995803200264 0
23.99846268831686 7.90198401332008 0
18.93188471207922 21.71225612596342 0
12.93855005413091 17.66701207186542 0
13.58446473280986 18.62476592809474 0
18.99915971358234 18.57360993887783 0
12.27634833711587 18.41095419217262 0
20.68974361454764 13.35902430305829 0
23.7902088695341 17.86677974417749 0
14.26384351615905 13.55758432188443 0
21.22675743172542 9.740169832177026 0
14.55231485367443 11.26925925671943 0
12.38074385735514 12.30057186853794 0
15.19715558615105 22.07022454674581 0
22.70417178782647 20.49254829520823 0
22.59263317665008 7.793286435122091 0
14.30071551958452 11.43454842835112 0
21.44826341068709 16.13100989383158 0
22.51532438112624 3.572176494288918 0
11.17738934978027 6.037017157399913 0
17.6553870869473 16.58709422956385 0
22.72048005132564 11.32688444516845 0
14.33319322798121 3.746766670376847 0
22.35216455237239 20.49163290938736 0
22.39204941655348 9.251120312016361 0
11.44151801872584 7.413678382895858 0
19.5564049724325 20.05470105387122 0
24.17433804502524 7.353581860722102 0
20.57733969914354 8.079710104099625 0
22.81483444688829 11.64401962661971 0
22.18387441015637 11.3460191929411 0
12.32636829474565 6.668305517478494 0
10.64761636079524 13.94720864296926 0
18.56588729944377 17.18957321877195 0
18.74563737173835 20.90408978616357 0
14.07826322953207 16.8390998983346 0
13.36239239186957 13.27171622011493 0
18.93692298833662 19.42318094308791 0
24.31769587257829 6.986166102657558 0
11.91132737568286 24.02252824621904 0
12.38135980441237 10.63179543861987 0
20.90051192177862 12.74966384299748 0
10.48463353897266 15.74806998730302 0
13.33891932446529 8.570641296368702 0
20.65539632100315 4.834969201409955 0
10.48798973164701 19.75026181719014 0
20.57038311912458 20.20135464143981 0
14.36757287350672 5.561319418895065 0
22.93705767975966 13.70510187333907 0
12.75509725433609 14.01845162807313 0
19.27014077590469 19.42598801543728 0
10.33594927827742 21.9212648164848 0
21.51142540636983 9.798759400906823 0
10.32399980211786 24.56093844016293 0
11.07243157192577 14.02028715903114 0
22.65999037322878 12.56535643635454 0
22.07608389141228 8.275197915042845 0
13.07737912385499 13.32193684685637 0
15.62802218309689 16.93371604160347 0
23.67380564960135 9.756421164832528 0
15.03282245611992 13.46602308412201 0
12.62920187908451 11.03477178278598 0
22.38829968463686 12.14476980967817 0
23.51022636659041 14.22264383568966 0
24.43399042868895 9.362642464340343 0
12.71967765682053 6.457148925579369 0
12.61833822144871 10.75106069213749 0
20.30387479095208 21.2747861354352 0
21.35168127077385 5.551413543357472 0
13.53283165350162 11.69942028740262 0
11.199920120559 12.25085452632912 0
12.32212830724259 10.2459602518399 0
23.74783202148109 7.254415495414984 0
22.06959717664858 6.177900752781834 0
14.65364137555651 20.99253284311101 0
10.40700981889518 23.85246904686352 0
10.58348896473938 16.09695398919512 0
21.0631114873646 2.733882014648243 0
20.45160494054672 12.2008321359242 0
22.77436413588111 14.02881944452021 0
12.85720620754015 12.7085107858894 0
10.63089347030362 5.971000457929754 0
11.37239431329612 22.3309868749199 0
16.82405006525867 16.44282995944653 0
11.84903460017145 10.55191232141614 0
19.41509426600449 20.85231572392902 0
10.76592107069761 11.23653438902236 0
24.53090176135819 18.54194044394328 0
11.2891730413191 17.15867150292758 0
12.64636785708375 16.96566581426322 0
11.0133945911043 8.73335175855829 0
11.35703085435507 15.18807726842653 0
21.05663794917305 6.025730924371086 0
20.75041555702355 5.197440357053119 0
14.12400317026882 19.28516046926421 0
14.25690135696079 5.197422791995651 0
20.98973476367875 10.83483809972987 0
11.37638463100719 5.506941770534024 0
24.21929822859454 15.24010540966019 0
11.70650668450866 8.87733860569886 0
22.82372118088337 7.590550515731154 0
16.6617230781994 16.81413749648326 0
23.37800456490306 19.44195499394733 0
20.10388852734789 21.05670028806078 0
14.18637325282423 22.07190231551631 0
13.60139714399648 13.51147191222189 0
21.61420374622156 9.123100068834903 0
11.48347048685216 5.863065745530916 0
18.57919483458542 19.4901511124015 0
22.70632289934132 6.192303073770093 0
24.61936890583064 16.55066088666003 0
23.1061747596729 8.47651177235003 0
21.69192698475461 3.388538581383047 0
14.31969659748043 18.65823604523948 0
21.16001713027331 9.20613706487951 0
23.51594728900375 3.886383269441906 0
12.37123596626085 11.98204656167543 0
16.0404894818971 20.89039431354119 0
17.24784501671872 22.31171692864038 0
15.52925413872304 18.56184154019082 0
13.12014474718285 7.436499887527438 0
18.34684734363695 12.73903449149991 0
10.49906056158651 13.20125071672176 0
20.8648730805837 11.10400115727333 0
22.98377000821256 9.14612005499195 0
13.02649764178009 12.10133684645881 0
20.53054078127722 7.657783495619 0
21.19529131342037 14.03656985757254 0
22.35368606504474 12.73286571692054 0
21.50966961315476 18.30156803123238 0
21.58069638642793 4.070774142742563 0
13.37248829643279 20.66348699218499 0
12.74156504980357 13.53782550131843 0
12.88321634575641 10.28529826650578 0
20.98915839582306 8.679023592330424 0
23.20311673575612 18.67540935970485 0
18.24796456535993 17.95000469680339 0
11.09803501947869 9.792869546346342 0
21.49710386777462 15.01289170009095 0
10.68486552946295 9.864194948871194 0
10.80701123293276 5.229940747407209 0
10.83107741370508 4.500899029663734 0
14.31246305439425 19.90376938723089 0
22.9186630914958 13.05608055344914 0
14.09660520627696 20.2856300519583 0
10.56224187923059 10.99336286932653 0
22.63795539297948 8.284238447996623 0
13.23408287551624 2.731843608274763 0
11.01915530483585 11.46446088608416 0
11.09438142224505 17.55665850068817 0
12.97373961294151 9.672975989616052 0
21.72982944515237 20.00381667990203 0
24.30887927921296 3.77468868910763 0
16.96627131093164 14.04672706222914 0
13.42264566201993 19.56962294298548 0
23.24667924647991 15.07508113634994 0
11.4119138795403 21.82160847169506 0
15.88258939573185 12.73371586312623 0
10.6404340416264 13.4844961454308 0
16.96428571286854 12.70836442144616 0
19.55029115058724 20.37852442454853 0
20.11930135177302 12.79773376703829 0
21.81695082159377 12.93230507407471 0
14.06992431665739 12.16748358002055 0
12.15067640516458 14.91847477554773 0
22.35325331413063 9.521646176579184 0
16.10348046901447 21.54888193920995 0
22.86538677463292 14.69533619786156 0
14.30745815052522 18.24498240838634 0
11.9565338205142 10.26870388450844 0
23.45253874451746 12.11674503170501 0
16.99107966446314 21.29648471335245 0
12.36861561827326 11.26466717149657 0
22.3683038866584 6.78377237265679 0
24.66886586264357 18.81669964879634 0
10.75237152072807 22.74965935828531 0
20.72387769310976 4.049507415191778 0
11.79224433707359 9.553211894613407 0
21.3224269045873 16.92194088441919 0
21.19608458842391 19.51136549008599 0
12.13481609195622 17.9855365196544 0
10.52214737383797 15.02323404845554 0
14.95871773911564 22.35858257353883 0
19.26944777122649 21.54600626706807 0
21.28989558901652 20.90339982825807 0
10.36296777951243 22.84906035144177 0
11.58661943841503 18.65989616365973 0
11.78278207088511 19.45616454628511 0
23.97710782753074 13.18897029093733 0
10.9603902250339 24.29064222086557 0
14.46722875777342 7.33512071499962 0
24.59964451565548 19.16630238787495 0
19.0167648569587 16.61256044650281 0
10.58987191322961 21.78747694814408 0
23.76845143704021 13.54297860859398 0
11.03564508166265 14.56355627209005 0
23.69156588779062 12.29165798643767 0
24.60667043078598 13.98454024900128 0
19.36284811343634 17.20635712625023 0
12.06605531098554 2.808079603127984 0
22.06906873869605 2.822904294614299 0
14.60885683179806 12.57569940959397 0
11.84632569183579 11.34458812520115 0
24.60191457239165 17.63964767178616 0
10.43652742259889 19.36130168712162 0
22.02125204092254 15.64392922323785 0
24.68287484714377 19.78012955413229 0
17.30951622056869 12.70626016574502 0
18.81298666118484 21.23453049612224 0
18.5483777355793 21.80821628897759 0
13.14503165419928 20.29786608162768 0
19.02830102902753 13.42159415864784 0
11.68564048911295 16.50023247260843 0
23.30167510221379 10.48672606464368 0
16.89292849273465 22.3772285751397 0
19.18564158329335 14.16429866783841 0
12.40889254096949 14.0912893392339 0
18.05262275055551 21.99674433021627 0
11.37309799763578 23.09288188492722 0
13.87023465977937 18.12083051422398 0
22.67706587161694 13.50292751409606 0
19.57080778114454 15.9886085233175 0
22.87142271062088 19.31556572246392 0
14.28729977047054 22.45025797504344 0
10.69637913300882 3.758839060874146 0
14.61571094730989 16.78362961496804 0
10.97978123654673 18.22537369572762 0
21.40164436898269 2.812640895629874 0
11.26091732128708 3.679144154558016 0
13.59835562657941 2.812640897431706 0
24.40444734250065 8.127814205249686 0
13.26047339550103 23.09988614721055 0
21.40150246866007 3.194959816224695 0
11.6579379989969 6.522024405269395 0
14.47570129179 13.1857517548845 0
14.27612230641995 4.049507419129172 0
13.59849752838539 3.194959820952977 0
23.77199027033831 5.272581870856929 0
23.34511688725375 10.09182790547408 0
22.40285870204929 8.416744394183794 0
23.00741767326106 20.32818747846887 0
23.68373959347156 3.153651507814041 0
10.43748242057426 17.92211350958187 0
22.23237326578234 3.816812680413248 0
11.74246540500157 9.985231346169746 0
10.29125620163293 23.61676143009052 0
23.28174650036642 16.51832711087111 0
22.64154387941836 6.975802658346957 0
13.7400247206143 21.86517023730606 0
12.84143052481794 10.55748630615853 0
21.85170748953277 11.86551584758624 0
15.88308453417993 17.28128358793895 0
11.40672974832016 2.80647728060401 0
23.87112156067788 19.53818105495471 0
21.18871745711566 19.9157523717634 0
15.55424269406768 22.49867090936662 0
21.69763247102749 16.5002354541593 0
24.24399055687134 4.068323655134487 0
11.70694367515804 6.210469750091261 0
23.94385022969619 11.85863894075169 0
17.46521947136638 13.42129834321541 0
13.00411833254264 8.092562223960737 0
23.19027756245529 9.74218773696183 0
19.62822703473196 14.13042615647077 0
24.71653317479244 19.47730851304066 0
22.12712102954832 19.31563695695022 0
22.63607257969148 15.67843793726515 0
14.37726580849871 6.346406251612308 0
18.2001227173987 21.16767993233731 0
14.66962860214321 22.98876373165935 0
23.94604873114588 13.82161023619226 0
12.99372696917074 16.4072043486403 0
11.78347840483306 3.995536643330525 0
22.65138737523305 9.623758779111466 0
10.37322588238868 20.10873096951684 0
21.69074468886665 20.3701788241259 0
24.21919319097447 3.41210046115579 0
21.24215858053585 5.220335419723773 0
11.48149649349791 19.99137055566809 0
10.73305111986727 23.70094429357675 0
10.69984401092522 4.864299201922958 0
21.1449391129229 3.428937695687871 0
19.61655511505761 13.22177486641769 0
14.17459074407303 10.76520732171009 0
10.56286288602882 12.8492463851734 0
24.16212415080704 9.791395390375456 0
18.06035136849266 18.69661589581026 0
22.93743771669601 15.90431393402318 0
20.31127066511127 16.54439862189703 0
20.26147572227499 12.43088201649875 0
11.07765588854845 8.12329077090455 0
13.78762957581048 16.48904077319823 0
19.9482458758133 18.18638861904126 0
10.72312223279023 3.074862840622007 0
13.30357142986627 15.80839850917102 0
24.52751765688189 15.8189796877425 0
13.6597316285999 4.818237730348298 0
15.33368906176115 16.02771547215608 0
23.73839656991143 3.692523455269503 0
21.57481345966244 3.68676137121055 0
10.49248693132477 18.68255661078439 0
24.46226252247168 11.82868675543124 0
14.84317225265101 18.09815075978227 0
12.16531777383213 3.839625221836646 0
20.67270390768017 20.7332581108099 0
17.45508813341555 17.29687074943381 0
24.4384166060965 11.08103892543442 0
23.62986309356385 10.0270234418215 0
22.16234366704192 16.29147700372574 0
20.63047409749232 11.55875539512021 0
16.04596397989856 16.53752147173362 0
10.67002581749934 8.51481821443528 0
17.79460550079339 17.87976232799936 0
13.32594960517576 17.30415829726613 0
23.51970469913829 4.225148622342003 0
20.43459295018218 14.90823787522276 0
23.92909181145889 9.658195264540772 0
14.95171466761603 23.08308784402037 0
23.84238103973896 11.00544500560066 0
17.92451456869494 19.35754880536624 0
10.97128224405499 7.808090702896862 0
21.98902428592469 20.65079359544792 0
23.87292694246038 10.2771957964631 0
14.47885517147233 17.86113727766513 0
16.57325222907086 22.56066583482184 0
23.48458747026551 15.54829839086288 0
24.18852527084156 12.28235928988941 0
13.95387658715 18.87617247321015 0
20.86982919807138 18.47357702451474 0
16.13667287366491 20.03279051664438 0
23.227272719697 2.728202543871078 0
20.83573946532725 16.41040003970725 0
23.84410606045756 16.67356048332753 0
11.18567746739095 7.602056238122274 0
23.40014406818789 20.31406858776078 0
20.92348134284547 11.65397993543401 0
11.35536042577486 19.36133539880913 0
22.15190373567143 14.57360585222 0
23.59690268117076 16.82938162659663 0
14.08564268094943 7.797304115782985 0
17.30814535416499 21.30477675712864 0
23.12665911635756 11.67352300660846 0
20.85025570087832 15.9635638114548 0
24.29696863836753 5.668634430425131 0
21.29446722665962 4.856368997194126 0
21.9164871915066 8.556442114951903 0
24.62712456456344 16.90916548139159 0
19.42964346110953 13.5079719393016 0
10.71669913158297 5.662942367346636 0
18.32302532854169 20.88086896042806 0
23.65395620493966 20.15058344606499 0
18.05750984103702 16.68897813399103 0
24.40569935010694 6.688041509158153 0
10.39103606640959 23.29944063654845 0
22.6891676426835 10.82620666744412 0
23.34981644217214 18.36353020348337 0
21.87525940022194 10.91965186626687 0
16.68143916258201 21.03041318580351 0
22.93082448752014 11.91435916188632 0
22.14610666712021 7.417625028350406 0
17.67854508855631 18.63572088209267 0
15.64034453088858 13.77068856694206 0
11.80158082080437 3.33454598309264 0
23.17260576375512 3.352015388497398 0
18.19251679613636 19.61534663846242 0
12.85997220111076 8.91320508469148 0
13.42264058956865 16.58417386524592 0
20.70348916054633 3.073321573566293 0
12.22105072400922 12.68040789877174 0
16.83975927282948 18.07397419103062 0
11.40343248682272 20.31554854210626 0
19.03885381378277 18.07736264135328 0
18.10590822471434 15.91985874624259 0
24.53414863723754 12.89813147889221 0
11.3691895145031 23.67164250957394 0
11.752517111995 17.22369465387663 0
19.11696512066813 12.78227244108257 0
13.16997851044572 10.90982305074755 0
11.53188199723218 10.61631956210241 0
14.67890530921043 18.82526054467499 0
13.67011603614937 21.04730891678654 0
22.01935275314507 12.56991273610942 0
11.15742546665331 21.63058049722149 0
20.4392290187352 14.23154481788849 0
11.0254684112026 10.99619852827509 0
14.13847943858199 23.36763701754571 0
21.51068152609198 7.703175762163572 0
22.06422763578557 8.825808956160357 0
23.40326641689477 6.240282433803372 0
20.71407213727267 13.01921300396335 0
13.37008237102008 6.783448860654008 0
20.14194937343534 18.81968142402858 0
18.79773861097613 15.85104834164383 0
14.3460670622043 4.834965694019878 0
24.42398859504838 9.653645095875046 0
12.96400807365492 8.551184486271232 0
23.50620139590701 16.15184543799088 0
12.01131819857847 8.211044197963654 0
24.19885563667058 2.81006084294086 0
17.06679689260078 19.41504492874059 0
22.40093806305514 10.40036784277524 0
22.90063783706303 11.04858560415966 0
21.57089393871229 6.546684188687993 0
23.34151616897131 12.76663401517563 0
19.67149701660578 20.66194716642902 0
15.58805059267345 17.89425577662014 0
23.60785001944326 9.23543164395887 0
17.84709891547182 21.67891368374661 0
24.0977924820674 11.28235058939386 0
20.8220565527436 10.5726959726116 0
20.36366678983765 10.20629337692479 0
10.80116272515383 2.807819367154824 0
20.33866156959263 14.58647173941494 0
23.81097241566523 11.28291197046357 0
24.05549277994463 14.57117470161808 0
22.88614784069564 16.30890390774568 0
22.89183802514211 19.98060226752852 0
12.42521539554605 13.29650996233838 0
23.13928649377401 7.502878615007289 0
18.5668352999714 20.13512696912878 0
10.57933968877328 12.21988540009623 0
10.73909578847583 24.48429632105347 0
12.35230408794056 16.23589108743126 0
17.52869364505467 22.23472195018559 0
11.85056986934915 13.53151572553537 0
16.44332804043764 22.02890198121708 0
23.6422065416948 14.97309049400698 0
17.63598677857632 21.15421011973032 0
13.6255166130763 23.16004962416051 0
13.77288156347286 9.087937293484817 0
15.30367920874579 20.84198026993309 0
20.28625009937309 11.91835819718914 0
12.96348587678438 11.10435870439803 0
12.9815726253273 6.755883529301345 0
19.96962009375235 19.28311201607829 0
10.97012089167331 12.39892702800177 0
12.76762672632913 3.816812679558267 0
14.4570887150213 6.619556286909013 0
24.1687576115525 11.67618492124799 0
22.02920016065578 6.918046144031718 0
13.93688850735218 2.733882016627577 0
11.87878731557926 23.11182791922806 0
23.73960384960736 18.28212900943178 0
21.38870153228259 11.82111545776649 0
23.6089211396526 17.2004454210097 0
20.96356996427426 9.488662413846287 0
11.39068825932435 13.92855611067045 0
14.31912685726564 12.86792865528454 0
17.05874442239196 13.26169686509717 0
19.08851304403309 20.89259898910214 0
15.51107451687194 14.12681162897224 0
16.27094493039811 19.66712354145342 0
12.79340114807169 12.35731498888233 0
24.3728676613357 6.331194779354494 0
20.75007271348429 19.88424952290923 0
12.55903981571874 23.29777571674753 0
19.52248327105363 19.64838840294646 0
23.6326334724079 11.47034675403373 0
22.14438309619976 10.66356518958976 0
10.50733532686655 14.29931102509127 0
23.23728166995954 5.947162937589821 0
18.10371874588268 19.0100988569828 0
14.96366452496086 19.98531234511505 0
17.8298944612584 17.39588139231837 0
24.18912778162117 17.35065488310708 0
22.13181324834489 12.27478984863327 0
16.54242974481096 15.85319671851517 0
21.89561596581169 10.4140768745949 0
22.25698098098669 10.01806608819558 0
15.92689959515731 18.56369912509368 0
23.89960225973027 8.366857526962589 0
23.86651883558166 6.677094439307571 0
13.8550608858426 3.428937701244686 0
16.20768901795183 18.38232696653014 0
14.27192237439732 21.42948195735661 0
10.27736623349899 24.13485025148651 0
11.49192419949987 10.08007714043836 0
14.86305421809614 20.38917964264888 0
16.07612564708618 22.28295130573435 0
19.78519047899816 17.80636505686191 0
12.46005552105709 3.246722865210672 0
22.53994447011733 3.246722863961791 0
13.21606876859986 19.92455625018264 0
10.55383306148665 10.7142516489616 0
15.89277329726172 22.79195630607625 0
19.4149224039315 16.41254081707212 0
19.17293336209723 15.82613122068336 0
20.60978513190644 17.27913753858622 0
16.67196806831305 13.42979870806988 0
19.67945068107468 13.79030165824738 0
11.00202979621762 10.72613324561082 0
18.86066626752136 19.81943681683645 0
21.77249816722316 9.642449407707476 0
11.26888719625583 22.71059633742622 0
20.33740224788396 15.24510246610735 0
14.12782914112687 11.89394914378847 0
12.94793284768966 6.141754436277727 0
11.62645929565815 11.02169943786625 0
23.20121086877458 12.30285952791151 0
12.08676316311039 10.7811149167134 0
12.81090627447695 23.46584639873177 0
16.52164798723916 14.20570822952649 0
21.76591711871759 2.731843605302304 0
21.25565426942203 7.66148805168103 0
12.8051607801018 20.31595543874389 0
11.16150687571185 6.743165034804849 0
22.49122135483872 7.498742667831308 0
12.84691488815946 19.65415614177205 0
24.26486383242147 14.84862048385463 0
18.98829596553942 17.70844877273955 0
15.23770111905339 22.65604061964594 0
17.05659488639314 21.86798386924288 0
11.52788407311133 15.51402181692125 0
11.87818578814018 11.88109885183995 0
20.84916005924156 10.09432607035138 0
13.92092722111643 14.13888582856814 0
22.94264836235083 9.478222742095626 0
16.1420930281805 13.20010329531859 0
15.02098114761367 21.07718986526745 0
10.59814748476935 9.5606686850096 0
11.15589441995091 3.405677728288949 0
11.25784413805133 16.5246746174212 0
13.85277219782012 11.19578331812294 0
12.84314840233555 11.86771789097173 0
11.94784792613569 9.794414705841461 0
22.1408131584401 15.34905618538056 0
22.43099406874143 11.21031456914093 0
10.60609485345623 7.403970553104693 0
13.88657326015905 8.600786361422848 0
22.11834457225056 14.10384724577868 0
14.68154507854695 11.00604935006852 0
13.92795265407204 6.829383132825978 0
19.22542079541746 20.13029451999349 0
12.09436295032686 7.549028469367397 0
11.0686476356543 2.730442762104795 0
18.16561880428386 17.09041379821896 0
10.87958243123936 12.85829766206822 0
23.94000392522602 2.73537791351912 0
14.0609308214883 6.338100420763455 0
11.42277945130345 8.97762438982938 0
11.15123050565215 20.91691830394017 0
12.35600168273234 8.602185045338288 0
23.78900822504449 6.044473319578221 0
22.41008354862755 10.9292308709911 0
21.30566237542737 6.77048648922954 0
22.27302033732884 15.87028695923775 0
24.2850016531966 3.073337347491743 0
10.6220350913925 6.677923655082765 0
13.50022593506433 6.344410394098093 0
15.54217167125891 16.51464752175337 0
11.41332029753539 3.13472142400257 0
14.29651083924901 3.073321575411404 0
24.25082596916251 18.65377341896408 0
23.65099622558735 10.49400620338533 0
21.78730744151326 13.54343841810809 0
22.39186251270014 13.93057897480449 0
20.33719545750228 17.61768820925478 0
12.49749306640119 12.90080968143871 0
17.92057795891661 13.71082779404279 0
13.50928581176931 23.59334739150228 0
22.18338956445646 11.71480273790947 0
21.14390668221932 8.93353267607035 0
18.71179852093314 16.31436945672922 0
23.62287338248237 5.570316823668053 0
23.70864733937897 11.71560118617616 0
20.91496298149078 14.31442933109062 0
16.79014005114623 19.71967268224207 0
11.20275976944369 18.70532773085276 0
10.59660681198398 10.21485585868679 0
13.22707644203497 7.732672496847344 0
23.34565410487335 11.39361913597972 0
19.82074650555323 12.71276557751122 0
20.34083109998684 18.02946153762658 0
22.08314995227973 13.17110586447274 0
14.58862826922775 8.04512216638892 0
13.93698449505895 5.862661940529168 0
21.10594288056934 11.33583333971717 0
21.54383130735563 19.27508085257122 0
23.45674865763523 9.57085832709041 0
18.65793623588414 13.26360964753846 0
17.42150223356009 16.92618858190718 0
12.00549212121707 8.545640533220867 0
17.44738667798477 18.94307781172185 0
12.15947746583153 3.521922449234658 0
22.83632617897379 3.521567570390244 0
22.38427621152508 8.708546626866443 0
17.35079501581342 21.72036347751683 0
18.97947980961827 21.44637162620935 0
20.04039304231685 17.55101278484799 0
21.44473660369273 11.26280904133858 0
13.59499389707616 7.765077469289183 0
13.04452895593516 11.39759685255577 0
18.99218479135315 13.80228234676072 0
10.89004589768626 16.71751379211152 0
21.43038280490562 8.210321137594477 0
14.751537341527 12.28201554064441 0
21.63148591732655 7.142974573762968 0
24.39177310327837 5.969461248837283 0
23.60839594173571 8.917814753528383 0
12.06364633461137 6.138834583926426 0
12.30346997347675 23.54839009242811 0
14.55582039616253 8.665066588650536 0
24.11615511145917 8.87323574999276 0
16.36603797352341 19.01648963674173 0
23.20935949873261 3.992806418649342 0
19.82809978414923 18.55818765081339 0
24.13155118486906 10.13837109088286 0
11.02089447735548 6.338073411090315 0
16.62597654635063 22.26683840198261 0
21.412480633771 9.281914105439187 0
11.19735549118139 24.32863196388517 0
13.42518653679357 3.686761373070087 0
21.74566079244842 5.938184669173946 0
20.81783281119785 20.47995516045967 0
24.3774170536752 18.31480608901064 0
17.03649586208853 22.14274838384922 0
13.60332373855615 22.13689051548625 0
21.0358503461067 16.78429288881693 0
20.3513716632678 16.92332914334296 0
22.14247414572003 9.135724780364896 0
12.21780287059423 9.07072135806814 0
24.3984808590325 7.529855724216874 0
22.3672270918013 13.03822531279286 0
11.08827112892108 7.300510787159217 0
18.30040236554333 21.99222783952267 0
11.50944641687149 17.7325095124781 0
22.59757822823467 12.28610719868041 0
13.34765620393801 10.26343476566729 0
21.4741059818709 9.545716415757319 0
11.06974885721895 14.29831983885889 0
13.10849169674754 9.108876104769722 0
23.28342108233406 7.773709396336791 0
12.38812439893672 7.014990039443945 0
21.1193499451919 16.18197186222868 0
21.17812447950909 15.05514102390142 0
24.31370824040613 16.36292291133915 0
18.31310212723391 16.35762036408813 0
20.57669053251928 21.21490722433631 0
20.71719856582192 9.735683511489182 0
POLYGONS 3432 13728
3 1069 331 980
3 518 889 1385
3 902 830 1056
3 675 664 1247
3 17 886 770
3 107 108 450
3 1021 584 916
3 418 887 1501
3 889 518 1462
3 1004 881 908
3 911 525 1777
3 660 1080 1650
3 593 1021 916
3 830 507 1056
3 980 379 1604
3 862 547 995
3 259 260 1275
3 1010 911 1777
3 443 822 1424
3 704 614 1660
3 929 259 1275
3 1007 349 1734
3 725 1337 1546
3 802 712 991
3 467 719 1436
3 1023 397 953
3 502 383 1027
3 1052 415 1306
3 1128 1277 1625
3 49 50 799
3 536 441 1028
3 55 56 1038
3 391 731 832
3 504 1128 1625
3 53 54 357
3 733 625 924
3 284 17 770
3 441 536 1106
3 1243 848 973
3 459 1075 918
3 355 1003 816
3 634 702 1065
3 958 402 1299
3 1069 980 1604
3 750 681 1614
3 392 707 336
3 548 390 1666
3 353 620 1769
3 469 403 1418
3 689 507 1030
3 637 552 1600
3 681 1013 927
3 488 655 742
3 707 392 1063
3 1492 294 1414
3 693 606 1657
3 738 665 947
3 43 44 1104
3 329 828 1642
3 1218 1439 1700
3 57 58 1268
3 316 691 963
3 746 314 963
3 458 848 1243
3 1044 548 1666
3 427 689 1030
3 763 502 1027
3 538 1067 1347
3 364 716 1765
3 507 689 1056
3 452 1080 1662
3 689 635 1056
3 767 632 1571
3 1076 477 838
3 914 428 626
3 47 48 1113
3 426 846 1308
3 910 518 1064
3 303 952 1533
3 1387 397 1490
3 1080 660 1662
3 702 634 1681
3 659 695 1731
3 423 701 1367
3 809 592 1179
3 1241 813 1607
3 767 1571 1812
3 1067 885 1347
3 237 238 685
3 643 447 923
3 141 142 876
3 429 653 1234
3 326 958 1299
3 712 713 1672
3 1177 467 1479
3 721 487 720
3 723 1057 1288
3 402 1080 1299
3 882 367 616
3 606 693 1711
3 528 840 1593
3 1004 908 1761
3 1337 420 1546
3 361 717 1435
3 780 528 1593
3 857 473 1386
3 362 1039 1210
3 455 971 1266
3 1013 681 892
3 485 476 1055
3 918 1075 849
3 1244 20 870
3 447 643 970
3 1424 822 797
3 705 857 1386
3 1174 522 797
3 1038 56 1695
3 1233 726 1335
3 606 1425 1657
3 41 42 1281
3 354 968 1573
3 365 690 604
3 553 608 805
3 425 359 960
3 592 809 1455
3 390 445 1353
3 1101 662 1296
3 547 862 613
3 812 379 821
3 53 357 1278
3 541 1053 1506
3 349 1007 1639
3 614 704 820
3 674 363 1471
3 1084 358 1412
3 660 1650 1744
3 763 1222 1305
3 952 303 993
3 220 221 1427
3 39 40 1059
3 690 748 604
3 354 994 1068
3 371 746 1112
3 691 490 1496
3 907 12 858
3 332 1076 838
3 968 364 1765
3 10 533 1036
3 1011 712 1672
3 1128 603 1277
3 390 548 1170
3 467 1254 1479
3 1125 355 846
3 733 924 413
3 746 371 1173
3 490 691 1389
3 731 391 1031
3 525 1025 1777
3 364 848 824
3 293 1102 1151
3 1446 423 1367
3 1159 266 890
3 476 711 1055
3 594 192 1060
3 620 353 722
3 677 801 1022
3 330 1265 667
3 538 828 1360
3 231 232 1156
3 603 1128 1314
3 1164 644 1772
3 147 702 1167
3 828 329 1360
3 57 1268 1695
3 887 544 1501
3 379 812 1248
3 334 655 1611
3 367 1152 1208
3 552 637 1072
3 1125 426 741
3 107 450 1283
3 415 1164 1772
3 383 502 1613
3 606 996 1425
3 1049 593 1355
3 1053 402 1506
3 61 62 758
3 1614 681 1155
3 412 910 1064
3 1044 496 1713
3 525 911 1631
3 349 1153 1734
3 47 1113 1478
3 472 756 613
3 702 147 1065
3 220 1427 1410
3 1265 753 667
3 605 1387 1490
3 1418 403 1249
3 1150 474 1316
3 41 1281 1510
3 616 367 842
3 1233 1335 1817
3 848 411 973
3 405 1078 1050
3 1033 345 792
3 640 944 888
3 452 1662 1391
3 781 401 1461
3 1268 58 1394
3 347 1174 797
3 224 225 453
3 942 498 1540
3 813 588 1607
3 917 479 1157
3 522 1192 1424
3 1059 40 1510
3 484 429 1234
3 496 1088 1713
3 548 1044 1713
3 539 1096 1493
3 34 429 1421
3 677 1022 1256
3 1146 362 1210
3 534 594 1060
3 424 1012 1089
3 462 1057 1750
3 1380 496 1149
3 498 942 866
3 1311 606 1711
3 655 334 742
3 1004 354 1573
3 1052 379 980
3 1078 512 1050
3 509 628 1728
3 240 1445 1238
3 1023 953 1849
3 695 1399 1731
3 795 781 1461
3 1192 541 1424
3 402 1053 1189
3 1261 353 900
3 524 1390 884
3 411 848 1363
3 628 509 1201
3 290 20 1244
3 478 694 1006
3 987 455 1266
3 487 721 1279
3 1080 452 878
3 701 423 1380
3 1390 562 884
3 730 1076 900
3 655 800 1611
3 362 1146 1498
3 664 532 1061
3 1631 911 1497
3 1471 363 1258
3 1084 1412 1082
3 996 606 949
3 1030 705 1386
3 774 783 974
3 22 1193 1414
3 217 218 696
3 33 34 1421
3 202 203 1174
3 1165 669 1586
3 939 1492 1414
3 314 746 1173
3 691 316 1389
3 701 1380 1149
3 1439 530 1700
3 148 149 867
3 822 443 891
3 1013 1375 1373
3 1197 383 1613
3 512 403 777
3 93 94 672
3 170 171 736
3 800 655 1018
3 1080 402 1650
3 800 1018 1416
3 887 418 1458
3 1493 1096 1388
3 352 1191 888
3 545 1077 1294
3 468 637 1600
3 806 876 1114
3 346 911 1103
3 528 780 965
3 427 1030 1386
3 876 806 1359
3 1052 459 821
3 45 46 843
3 51 52 1312
3 331 1164 1081
3 1375 419 1373
3 301 302 781
3 885 505 1168
3 27 733 820
3 341 1057 1054
3 379 1052 821
3 521 772 709
3 199 200 928
3 1057 723 1054
3 418 579 938
3 810 426 1308
3 505 885 1093
3 1088 496 1380
3 445 780 1353
3 772 521 1444
3 1039 362 1100
3 37 38 751
3 516 1000 1347
3 762 563 1181
3 756 472 1330
3 726 1152 1335
3 1133 388 1351
3 544 1387 1098
3 580 1197 1613
3 593 1049 1641
3 1457 25 449
3 1168 516 1347
3 1335 477 1817
3 1343 268 1494
3 828 538 1000
3 1025 1233 1777
3 530 1244 870
3 825 674 932
3 358 1366 835
3 394 1263 1132
3 885 1067 1382
3 632 767 1679
3 754 575 449
3 826 487 1279
3 1018 475 1416
3 476 485 1434
3 944 352 888
3 994 354 1158
3 1306 415 1671
3 409 629 1090
3 401 781 1533
3 644 1164 1005
3 435 447 1292
3 1006 694 1402
3 459 1052 1306
3 503 1073 946
3 774 974 1460
3 560 727 906
3 12 907 1473
3 633 816 1274
3 362 1498 1474
3 506 826 1203
3 780 445 965
3 676 464 508
3 557 1125 741
3 209 210 1009
3 589 1159 890
3 1262 380 1162
3 972 266 1159
3 607 531 983
3 859 486 1129
3 1077 401 1294
3 728 960 1859
3 673 1694 1703
3 532 664 1519
3 1274 816 1588
3 445 390 1170
3 1165 1586 1570
3 1053 541 851
3 477 1076 1633
3 808 394 948
3 1076 730 1633
3 867 149 513
3 1071 482 1185
3 1385 327 1324
3 1046 341 765
3 860 917 1157
3 261 262 899
3 195 196 819
3 370 1089 1568
3 795 1461 1271
3 1021 593 1641
3 947 665 436
3 1387 605 1098
3 329 1642 1814
3 968 354 1068
3 382 989 579
3 383 1197 1024
3 958 326 897
3 110 111 930
3 294 22 1414
3 1694 673 1636
3 673 723 1704
3 290 1244 1678
3 516 861 1000
3 899 996 1610
3 25 754 449
3 1063 64 815
3 494 1694 1636
3 1191 431 888
3 1571 410 1812
3 1301 9 1732
3 655 488 1325
3 454 1228 1423
3 690 365 1399
3 1057 341 631
3 287 703 898
3 486 859 1328
3 850 473 1008
3 1338 590 1458
3 971 455 1592
3 448 790 837
3 563 762 1235
3 905 602 873
3 790 343 837
3 315 316 963
3 314 315 963
3 310 25 1457
3 237 685 1107
3 1067 538 945
3 899 262 1846
3 491 690 1399
3 1089 1012 1568
3 1687 1131 1802
3 948 394 1237
3 641 375 957
3 623 584 1178
3 533 10 869
3 1152 367 1775
3 473 850 1386
3 635 689 1665
3 960 728 1763
3 295 294 1492
3 749 554 1675
3 341 1046 1332
3 367 1208 842
3 1390 1718 1743
3 1733 894 1438
3 1222 365 1305
3 681 750 1726
3 1038 510 1417
3 477 520 838
3 364 824 1790
3 499 738 947
3 547 613 1615
3 510 357 1417
3 1025 525 1601
3 677 623 1337
3 662 1101 1597
3 637 384 1072
3 748 1150 1316
3 58 59 1394
3 71 882 616
3 411 1363 1801
3 1057 462 1246
3 570 1262 1162
3 733 27 1400
3 980 331 1081
3 545 1021 1641
3 1015 547 1615
3 1219 635 904
3 669 1338 1489
3 1307 778 1405
3 989 292 579
3 1299 1080 878
3 1338 385 1489
3 850 427 1386
3 435 1292 1581
3 456 582 1408
3 664 675 1519
3 784 798 908
3 1357 804 1029
3 1316 474 1793
3 1207 855 1406
3 594 534 1706
3 286 818 1776
3 531 607 1725
3 727 560 743
3 634 867 1370
3 867 678 1370
3 453 225 1586
3 415 1052 1081
3 915 1385 1324
3 397 1023 1490
3 658 782 1584
3 568 1548 1699
3 668 1387 920
3 641 1102 1365
3 568 1372 1548
3 914 626 1566
3 562 1390 1743
3 1025 850 1008
3 540 899 1610
3 387 1207 1406
3 1662 573 1391
3 560 1219 904
3 1261 900 936
3 843 46 1478
3 600 1101 1296
3 1584 782 1317
3 1241 482 813
3 519 724 957
3 71 72 882
3 395 1102 1105
3 359 425 1741
3 267 266 972
3 689 427 720
3 853 376 773
3 1312 52 1278
3 286 18 818
3 227 1476 1570
3 374 1307 1405
3 122 123 1247
3 354 1004 1374
3 1073 503 1554
3 407 785 1742
3 867 634 1065
3 724 641 957
3 1000 861 1834
3 802 991 1383
3 1436 719 1738
3 579 21 938
3 455 987 714
3 630 485 1715
3 922 965 1565
3 981 358 835
3 674 839 932
3 665 738 1160
3 792 344 1548
3 156 157 706
3 956 1140 1568
3 496 1044 1310
3 426 1125 846
3 121 664 1061
3 664 121 1766
3 68 1375 1804
3 154 155 776
3 269 268 1343
3 394 808 810
3 1152 726 1413
3 9 267 1732
3 290 1678 1591
3 1141 208 1154
3 512 777 609
3 63 64 1063
3 629 409 1598
3 1498 465 1474
3 434 506 1203
3 1024 1197 1863
3 896 145 1167
3 758 62 1656
3 727 743 1575
3 608 553 1669
3 685 238 1419
3 965 445 1565
3 738 499 1362
3 486 1183 982
3 876 142 1114
3 816 1003 1689
3 425 960 1783
3 455 714 1825
3 1289 29 1711
3 373 1152 1413
3 554 749 1638
3 520 477 1335
3 401 1533 1785
3 660 863 1662
3 1102 293 1365
3 1496 422 1794
3 1150 748 912
3 349 718 1291
3 1461 638 1271
3 500 456 1408
3 1004 699 1374
3 792 1548 1032
3 522 1174 1609
3 1076 332 936
3 1182 326 878
3 873 602 766
3 189 190 1132
3 846 355 1707
3 1117 732 1116
3 724 335 1564
3 902 845 830
3 798 1502 908
3 1435 717 1213
3 410 876 1359
3 900 353 1769
3 688 594 1706
3 1102 641 1564
3 726 1233 1856
3 711 449 1524
3 723 1172 1704
3 636 1316 1793
3 388 1133 1599
3 1121 430 1447
3 1318 484 1234
3 1387 544 920
3 978 892 1726
3 339 894 1733
3 845 532 830
3 331 1069 1043
3 401 1077 1461
3 1445 772 1238
3 499 408 1138
3 504 1243 983
3 536 651 1106
3 684 675 1758
3 848 458 824
3 1318 523 1392
3 1170 548 975
3 495 456 1759
3 449 575 1524
3 1681 634 1350
3 482 1071 1697
3 587 886 977
3 695 491 1399
3 240 241 1445
3 625 733 1400
3 243 1226 1453
3 340 1338 1458
3 799 327 1048
3 22 293 1151
3 1233 1025 1856
3 119 120 845
3 897 443 1430
3 922 1687 1802
3 693 1289 1711
3 555 646 1467
3 781 302 1533
3 388 914 1477
3 1183 486 1328
3 691 1496 1794
3 402 958 1506
3 582 456 328
3 675 684 1519
3 264 1289 1657
3 723 1288 1728
3 892 681 1726
3 19 898 951
3 145 146 1167
3 1337 725 1319
3 951 454 1743
3 1537 201 1220
3 376 853 1211
3 454 873 1743
3 488 742 1658
3 752 1108 1690
3 1292 447 970
3 68 69 1375
3 588 1372 692
3 348 1131 1687
3 1633 730 1206
3 740 547 1355
3 799 50 1223
3 297 1482 1574
3 1039 1704 1210
3 671 453 1489
3 450 108 1503
3 457 685 937
3 712 802 1095
3 719 467 1348
3 49 799 1048
3 654 587 977
3 384 1117 1116
3 1040 485 1055
3 1003 817 1579
3 405 694 1661
3 590 887 1458
3 1172 723 1728
3 760 874 1724
3 396 751 744
3 1121 624 1169
3 685 457 1107
3 1380 423 903
3 1156 232 1420
3 958 897 1430
3 591 1050 609
3 1096 539 1534
3 1121 1447 1815
3 273 825 932
3 1366 278 835
3 1138 408 1830
3 654 283 1191
3 624 1357 1169
3 881 1004 1573
3 386 1138 1830
3 863 573 1662
3 141 876 764
3 1443 400 1395
3 474 1150 1293
3 1265 330 1257
3 1204 726 1008
3 831 591 609
3 779 1183 1328
3 400 874 1395
3 31 32 1589
3 1268 551 1290
3 305 306 801
3 1057 631 1750
3 19 951 1740
3 624 804 1357
3 256 257 646
3 893 1038 1695
3 783 774 1464
3 914 388 1599
3 464 1150 912
3 283 282 1191
3 771 775 1158
3 887 501 920
3 191 192 594
3 1104 565 1440
3 1102 395 1151
3 657 540 1610
3 1285 704 1368
3 566 1024 1863
3 1104 44 1536
3 110 930 1673
3 1704 1039 1636
3 407 1196 1675
3 1675 1196 1832
3 601 1733 1438
3 707 1075 336
3 117 118 1014
3 156 706 1209
3 584 1021 1178
3 863 847 1092
3 1724 874 1684
3 532 845 1061
3 1164 331 700
3 703 287 1229
3 150 151 1264
3 1241 391 1185
3 857 705 1369
3 1372 568 692
3 456 500 1214
3 678 867 513
3 923 483 1832
3 384 637 1117
3 43 1104 1440
3 886 585 770
3 637 647 1117
3 787 752 1162
3 428 914 1599
3 905 454 1423
3 726 1204 1413
3 357 441 1278
3 520 576 838
3 1361 748 1688
3 411 607 973
3 891 443 897
3 1715 485 1824
3 1043 704 1660
3 523 1318 1234
3 917 860 1737
3 893 1268 1290
3 646 587 1467
3 231 1156 1557
3 743 506 1575
3 96 1465 1383
3 1463 168 1738
3 862 995 975
3 32 33 1421
3 249 250 875
3 882 1547 1326
3 1589 32 1421
3 1177 279 1366
3 272 713 825
3 653 429 1166
3 690 491 508
3 1066 286 1776
3 345 1033 642
3 876 410 1545
3 1012 424 1700
3 485 1040 1824
3 260 261 1275
3 1281 762 1510
3 1268 893 1695
3 1140 956 1632
3 776 155 1209
3 717 361 1598
3 603 1314 480
3 1226 683 1822
3 938 340 1458
3 1512 178 1388
3 321 322 814
3 791 1084 1517
3 363 1087 1708
3 519 957 1108
3 695 659 967
3 1125 557 550
3 826 1279 1203
3 1021 420 1178
3 252 253 841
3 482 1241 1185
3 395 1105 1808
3 163 1216 1082
3 1086 101 1258
3 857 564 1307
3 1182 650 1315
3 7 223 1442
3 491 695 1437
3 31 1589 1481
3 1228 794 1423
3 762 1059 1510
3 1152 373 1208
3 368 479 1101
3 950 662 1686
3 567 1106 1757
3 623 677 1816
3 335 1105 1564
3 327 799 1829
3 380 787 1162
3 732 1585 1504
3 732 1117 1585
3 1289 693 1657
3 785 426 1654
3 473 857 1163
3 385 1338 1135
3 222 7 1442
3 1792 395 1808
3 467 1177 1348
3 713 712 1095
3 351 657 1610
3 1113 889 1478
3 749 1675 1832
3 199 928 1542
3 1263 394 1308
3 911 1010 1206
3 418 938 1458
3 1174 203 1609
3 765 455 1825
3 712 672 991
3 1196 923 1832
3 1103 911 1206
3 736 467 1436
3 620 805 1103
3 426 785 741
3 846 633 1308
3 86 834 1460
3 542 891 897
3 173 1221 1566
3 635 1219 1099
3 565 1104 988
3 711 476 1721
3 579 418 1501
3 716 364 1790
3 1337 623 1178
3 93 672 1435
3 364 968 1068
3 227 228 1476
3 297 296 1482
3 736 171 626
3 229 230 1259
3 528 1002 577
3 335 1627 1841
3 259 929 687
3 126 127 1047
3 382 579 1501
3 1067 945 1821
3 285 1318 1392
3 1488 91 1213
3 475 1184 1242
3 848 364 1363
3 785 407 1483
3 363 674 1087
3 358 1084 791
3 1547 576 1326
3 672 94 991
3 170 736 1436
3 396 1181 1776
3 735 981 835
3 839 833 932
3 639 1631 1497
3 341 1332 1645
3 1002 528 586
3 1106 651 1757
3 456 495 1352
3 748 1316 1688
3 1314 865 480
3 1247 664 1766
3 718 349 1379
3 1416 475 1242
3 326 1299 878
3 1014 902 1056
3 515 863 1092
3 261 899 1275
3 564 857 1369
3 217 696 1439
3 708 1285 1368
3 537 1142 940
3 511 1226 1822
3 696 218 1137
3 373 1413 1480
3 539 901 858
3 551 1268 1394
3 889 1113 1385
3 724 519 1627
3 458 1277 773
3 1259 230 1557
3 1142 537 1342
3 1059 762 1181
3 714 767 1825
3 1265 529 1577
3 633 1263 1308
3 673 1704 1636
3 1476 1165 1570
3 635 1014 1056
3 105 106 1331
3 441 357 1028
3 160 161 981
3 103 104 839
3 355 1125 1624
3 503 946 1449
3 348 740 1839
3 352 654 1191
3 855 1207 1800
3 158 159 1329
3 678 1264 1138
3 405 1661 1714
3 1196 407 1595
3 946 460 1449
3 119 845 1042
3 1505 252 841
3 1370 386 940
3 1083 949 1515
3 748 690 912
3 601 918 849
3 544 887 920
3 779 1329 1513
3 1140 370 1568
3 752 1282 1171
3 372 791 1517
3 1087 463 1708
3 1010 1633 1206
3 944 640 841
3 559 933 1083
3 420 1021 1487
3 1251 471 970
3 578 921 1549
3 1219 560 1837
3 70 71 616
3 485 630 1434
3 351 949 1083
3 776 859 1129
3 1377 783 1036
3 843 889 1462
3 631 341 1645
3 593 916 1709
3 830 532 1202
3 584 623 1217
3 1003 1579 1833
3 607 26 1499
3 327 1113 1048
3 705 1197 1369
3 1164 415 1081
3 1083 990 1589
3 420 1294 1546
3 822 891 1639
3 37 751 1200
3 778 1307 1276
3 1264 499 1138
3 573 798 1391
3 318 917 1737
3 326 1182 1315
3 1385 915 1861
3 213 214 1346
3 447 408 1622
3 607 411 1619
3 819 196 1212
3 487 826 1764
3 1128 504 1397
3 476 1434 1145
3 798 573 1561
3 960 359 1859
3 808 516 1168
3 801 306 1022
3 933 351 1083
3 1312 441 1106
3 595 1002 586
3 1181 1066 1776
3 1222 763 1758
3 96 97 1465
3 167 168 1463
3 1033 792 1032
3 274 12 1473
3 1021 545 1487
3 450 589 1283
3 395 1193 1151
3 684 1027 1024
3 188 1263 1274
3 1049 1015 1538
3 334 1611 1324
3 357 510 1028
3 1113 327 1385
3 826 506 743
3 320 950 1686
3 1197 705 1863
3 1132 1263 1857
3 630 670 1434
3 202 1174 1220
3 335 724 1627
3 408 447 1830
3 547 740 995
3 1027 383 1024
3 871 969 709
3 721 720 1866
3 1257 330 1762
3 740 986 1839
3 1694 768 1703
3 1150 464 1272
3 1009 210 984
3 439 1141 1154
3 1162 752 1171
3 928 200 1537
3 775 771 1551
3 464 676 1147
3 454 905 873
3 840 581 1576
3 814 322 1751
3 479 368 1753
3 585 886 1691
3 694 405 1402
3 148 867 1065
3 24 298 793
3 266 8 890
3 927 1013 1373
3 204 205 1192
3 1449 362 1474
3 1251 505 1093
3 26 607 1619
3 524 884 1563
3 694 478 1051
3 429 34 1166
3 510 1038 1431
3 630 755 1607
3 1361 556 604
3 1513 277 1304
3 1038 893 1431
3 740 348 389
3 636 1248 1688
3 1193 395 1723
3 404 843 1462
3 676 508 1683
3 700 551 1005
3 1331 589 890
3 14 277 1513
3 501 887 1652
3 256 646 1795
3 1318 285 943
3 1071 1185 1344
3 377 823 1803
3 1020 433 1045
3 747 844 1135
3 1183 779 1304
3 921 451 1549
3 559 1083 1589
3 643 1251 970
3 1164 700 1005
3 341 1054 765
3 915 800 1861
3 731 1627 1670
3 844 385 1135
3 334 1130 1757
3 408 499 1739
3 438 1131 698
3 313 314 1173
3 316 317 1389
3 242 243 1453
3 709 969 1504
3 574 1537 1220
3 882 72 1547
3 669 453 1586
3 843 404 1536
3 374 1204 1163
3 1193 22 1151
3 1321 457 937
3 617 133 1029
3 945 517 1821
3 1113 48 1048
3 647 1020 1045
3 567 1312 1106
3 1563 884 1240
3 669 1165 1188
3 1054 768 765
3 1153 349 1291
3 805 346 1103
3 1174 347 1562
3 163 164 1216
3 100 101 1086
3 433 1321 1685
3 1014 118 1042
3 1018 655 1325
3 844 663 1001
3 173 174 1221
3 656 930 1767
3 177 178 1512
3 1461 1077 868
3 1281 565 1235
3 628 1172 1728
3 90 91 1488
3 565 1281 1440
3 295 1492 1544
3 1312 567 1223
3 324 27 1285
3 403 512 1249
3 1204 473 1163
3 274 1473 1799
3 1248 495 1688
3 786 23 1544
3 924 510 1431
3 671 1489 1001
3 150 1264 513
3 516 808 948
3 204 1192 1609
3 379 1248 1604
3 652 896 1750
3 1074 576 1123
3 565 823 1572
3 522 1424 797
3 1742 785 1336
3 1030 507 1019
3 521 1270 1444
3 28 265 0
3 431 1484 1340
3 1480 1413 1760
3 1247 123 1026
3 1051 611 1661
3 1022 307 1608
3 86 87 834
3 596 661 1741
3 470 1193 1723
3 886 587 1691
3 180 181 901
3 512 1078 1249
3 723 673 1703
3 782 658 1255
3 356 1077 1058
3 1015 622 1538
3 1549 592 1239
3 182 183 715
3 387 1153 1594
3 805 620 1868
3 751 396 1148
3 19 287 898
3 654 352 1467
3 499 1264 1362
3 1259 668 920
3 292 989 1365
3 1226 243 1659
3 881 1573 1062
3 1179 638 1085
3 830 1202 1230
3 1014 635 1099
3 1153 753 1594
3 708 1293 1272
3 1484 788 1340
3 518 1385 1861
3 1002 384 577
3 591 1006 1402
3 672 361 1435
3 61 758 1520
3 1077 545 1058
3 889 843 1478
3 591 1353 1006
3 83 84 1377
3 1219 116 1099
3 428 736 626
3 501 1259 920
3 1380 903 1378
3 435 537 940
3 23 786 1651
3 748 1361 604
3 910 404 1462
3 1122 1681 1350
3 434 639 1497
3 515 1632 954
3 81 82 1376
3 1661 789 1714
3 1046 765 1825
3 270 10 1036
3 1281 42 1440
3 483 947 436
3 122 1247 1766
3 299 300 734
3 582 894 1408
3 553 805 1868
3 1338 340 1135
3 561 844 1678
3 505 1251 1336
3 1704 621 1210
3 833 1331 890
3 844 747 1678
3 809 1179 1085
3 502 763 1126
3 386 435 940
3 2 99 879
3 165 5 1034
3 441 1312 1278
3 887 590 1652
3 751 38 744
3 1131 348 1839
3 929 1275 1144
3 1353 780 1006
3 911 346 1497
3 1275 540 1144
3 1204 374 1760
3 1059 396 744
3 1197 580 1485
3 1301 553 1267
3 1448 334 1757
3 845 902 1042
3 1165 1652 1188
3 112 113 1139
3 108 109 1503
3 1307 564 1276
3 896 652 1646
3 209 1009 1154
3 1528 335 1841
3 5 166 1034
3 98 2 879
3 45 843 1536
3 302 303 1533
3 1557 1156 1511
3 51 1312 1223
3 403 481 777
3 1008 726 1856
3 1078 583 1249
3 935 333 1486
3 1427 671 1001
3 1244 530 872
3 650 1182 1062
3 935 376 1211
3 712 1011 1716
3 647 637 1655
3 1254 467 1717
3 1390 524 903
3 526 924 1431
3 648 935 1486
3 729 814 1751
3 578 1018 1325
3 358 981 1412
3 839 674 1471
3 116 1219 1837
3 1074 74 1109
3 800 915 1611
3 755 630 1715
3 1642 955 1814
3 318 319 917
3 421 610 964
3 771 754 1730
3 1550 281 1840
3 694 1051 1661
3 610 442 964
3 1329 735 1513
3 1536 404 988
3 1047 127 1393
3 74 1074 1123
3 458 773 615
3 146 147 1167
3 12 281 858
3 761 793 1530
3 195 819 1630
3 707 1063 815
3 761 734 1527
3 24 793 1118
3 752 787 1108
3 672 712 1716
3 284 770 943
3 424 1218 1700
3 467 736 1717
3 1422 377 1803
3 397 1156 953
3 1341 708 1272
3 1172 628 1401
3 236 237 1107
3 663 1427 1001
3 823 565 988
3 39 1059 744
3 453 669 1489
3 27 325 1400
3 1223 567 1829
3 385 844 1001
3 621 1172 1401
3 696 530 1439
3 1263 188 1857
3 392 758 1656
3 540 657 1144
3 390 831 1666
3 1370 940 1797
3 817 1003 1778
3 534 861 1706
3 421 861 1838
3 292 21 579
3 384 1002 1072
3 1108 393 1690
3 1368 474 1293
3 861 534 1838
3 1193 470 1853
3 651 536 1232
3 270 1037 1508
3 989 641 1365
3 1130 327 1829
3 473 1204 1008
3 1434 670 1145
3 683 1226 1659
3 175 6 1634
3 380 1262 1692
3 6 176 1634
3 1542 928 1644
3 1120 1039 1100
3 706 859 1209
3 598 657 1454
3 1409 407 1675
3 587 654 1467
3 352 944 1664
3 293 292 1365
3 828 1000 1834
3 1288 1057 1246
3 472 613 1134
3 88 1 1647
3 456 1214 1759
3 994 1158 1801
3 1168 505 1867
3 514 1170 975
3 1 89 1647
3 840 1576 1407
3 1047 368 1101
3 894 543 1408
3 455 765 1592
3 930 1041 1767
3 901 907 858
3 481 1310 1754
3 902 1014 1042
3 562 873 766
3 930 656 1673
3 132 133 617
3 859 776 1209
3 869 10 1333
3 1290 551 1682
3 518 910 1462
3 1611 915 1324
3 55 1038 1417
3 1003 355 1778
3 391 1241 1031
3 1323 219 1410
3 1111 526 1682
3 286 1066 1229
3 758 392 1671
3 143 144 999
3 357 54 1417
3 1321 433 1640
3 399 814 1245
3 995 514 975
3 1247 1026 1252
3 1132 190 1466
3 661 353 864
3 1264 678 513
3 847 1531 1092
3 423 1390 903
3 1315 650 1791
3 808 1168 1867
3 1465 802 1383
3 719 1463 1738
3 854 1078 1714
3 916 584 1605
3 1207 387 1577
3 1096 1512 1388
3 1027 684 1758
3 403 469 1127
3 852 1022 1608
3 306 307 1022
3 1301 416 1669
3 698 1131 1839
3 434 1497 1805
3 576 1074 1526
3 1492 446 1544
3 807 945 1360
3 539 1351 1534
3 28 29 1289
3 1066 1181 1606
3 430 1121 1612
3 1650 439 1744
3 1531 597 1092
3 607 1499 1725
3 517 945 1260
3 510 924 1327
3 620 1103 1769
3 21 291 938
3 458 1243 1625
3 353 661 1110
3 945 807 1260
3 1052 980 1081
3 145 896 1646
3 1156 397 1511
3 551 700 1682
3 224 453 836
3 1221 914 1566
3 706 779 1328
3 1002 595 1224
3 470 1524 1567
3 1185 1273 1344
3 535 1449 1474
3 1644 928 1674
3 1226 511 1643
3 895 1626 1784
3 27 820 1452
3 1022 852 1256
3 1652 590 1188
3 880 817 1778
3 946 1073 1806
3 572 565 1572
3 725 1546 993
3 637 468 1655
3 717 1488 1213
3 285 284 943
3 1359 1046 1812
3 1241 755 1031
3 657 598 1677
3 453 671 836
3 533 1377 1036
3 781 795 925
3 751 710 1200
3 1009 984 1334
3 834 774 1460
3 1546 952 993
3 337 1644 1674
3 1090 783 1464
3 999 144 1646
3 273 272 825
3 279 278 1366
3 471 1251 1093
3 529 946 1806
3 481 403 1127
3 264 265 1289
3 668 1557 1511
3 888 431 1459
3 154 776 1160
3 1494 268 1835
3 1216 1084 1082
3 363 1086 1258
3 947 483 1739
3 1181 563 1606
3 393 1490 1690
3 905 377 437
3 303 304 993
3 390 1353 831
3 1297 580 1668
3 1627 519 1670
3 281 280 1840
3 447 435 1830
3 783 1377 974
3 553 1301 1669
3 777 481 1754
3 219 1323 1137
3 1546 1294 1785
3 1419 378 937
3 491 1437 1683
3 1482 956 1574
3 904 635 1665
3 1524 575 1567
3 875 250 998
3 1263 633 1274
3 901 539 1493
3 827 1184 1180
3 874 760 1231
3 1750 896 1874
3 1375 1013 1804
3 1577 529 1806
3 819 1212 1842
3 560 906 1837
3 596 1741 1843
3 360 972 1159
3 651 649 1448
3 685 1419 937
3 189 1132 1857
3 536 1028 1748
3 1192 522 1609
3 793 761 1507
3 1078 405 1714
3 1363 994 1801
3 832 731 1670
3 600 997 1119
3 415 758 1671
3 1158 775 1801
3 1243 504 1625
3 582 328 1749
3 396 1059 1181
3 670 630 1745
3 1045 433 1685
3 1302 580 1297
3 657 351 1454
3 649 558 1118
3 596 1343 1494
3 816 633 1707
3 686 1505 979
3 271 270 1508
3 918 582 1749
3 254 941 1621
3 1270 521 1585
3 249 875 1720
3 883 1798 1628
3 649 651 1232
3 529 1265 1257
3 625 558 1748
3 930 111 1426
3 638 1179 1271
3 708 1341 919
3 610 193 1300
3 831 350 1666
3 369 1502 1781
3 758 415 1772
3 1292 489 1581
3 565 572 1235
3 734 761 1530
3 795 734 925
3 1183 277 1848
3 301 781 925
3 1322 978 1620
3 277 1183 1304
3 197 198 790
3 1270 647 1045
3 404 910 1803
3 755 1241 1607
3 668 1259 1557
3 367 882 1326
3 734 300 925
3 274 880 1696
3 884 562 766
3 247 1143 1560
3 10 269 1333
3 713 272 1672
3 279 1177 1479
3 1104 1536 988
3 1075 707 1384
3 799 1223 1829
3 818 710 1148
3 558 649 1232
3 622 1404 1538
3 684 1202 1519
3 1028 1327 1748
3 845 120 1061
3 1341 729 919
3 238 239 1419
3 1202 532 1519
3 433 1020 1768
3 1329 779 796
3 520 1335 1775
3 908 369 1761
3 792 345 1605
3 459 918 1749
3 704 1285 1452
3 1505 640 979
3 1264 151 1362
3 814 729 1245
3 254 255 941
3 745 308 1628
3 299 734 1530
3 922 586 965
3 497 1322 1620
3 343 1542 1644
3 981 161 1412
3 103 839 1471
3 986 740 1705
3 875 854 1720
3 897 326 1284
3 658 1343 1255
3 754 771 1097
3 429 484 1411
3 1103 730 1769
3 827 884 766
3 1158 354 1374
3 1427 663 1410
3 1653 1069 1793
3 753 1265 1594
3 462 1750 1874
3 1437 666 1683
3 1139 727 1575
3 602 905 437
3 308 745 1608
3 1049 1355 1015
3 814 399 571
3 232 233 1420
3 376 935 1617
3 558 625 1017
3 715 817 1473
3 1798 745 1628
3 332 838 1526
3 686 1418 1746
3 448 837 1558
3 647 1270 1585
3 824 458 615
3 436 665 1780
3 391 1273 1185
3 570 866 1640
3 866 457 1640
3 1130 334 1324
3 675 1247 1252
3 13 679 1309
3 1343 596 1255
3 367 520 1775
3 821 459 1749
3 872 561 1678
3 1428 476 1145
3 923 447 1622
3 1449 535 1789
3 503 1449 1789
3 1626 416 1784
3 526 1290 1682
3 530 696 872
3 953 829 1849
3 376 1617 1398
3 211 212 1531
3 646 555 1795
3 1139 113 1810
3 804 617 1029
3 1490 393 1415
3 658 1376 869
3 1561 515 954
3 706 157 796
3 1538 1404 1559
3 1026 659 1252
3 546 1273 1286
3 360 450 1774
3 624 1121 1815
3 586 528 965
3 346 805 1356
3 16 1616 1175
3 777 350 609
3 1251 643 1742
3 1533 952 1785
3 1019 507 1230
3 62 63 1656
3 1346 214 1582
3 1191 282 1852
3 92 93 1435
3 171 172 626
3 375 641 1091
3 355 816 1707
3 599 1397 966
3 353 1261 864
3 16 289 1616
3 1075 459 336
3 1179 451 1271
3 933 559 1411
3 1273 546 1727
3 1184 475 1180
3 645 600 1119
3 874 400 1684
3 1502 786 1781
3 1248 636 1604
3 1332 1046 1359
3 613 862 1134
3 1331 106 1283
3 793 488 1658
3 652 999 1646
3 139 1314 1525
3 417 930 1426
3 94 95 991
3 169 170 1436
3 147 148 1065
3 1020 647 1655
3 710 818 1618
3 475 1018 1239
3 1314 139 1667
3 807 1360 1752
3 776 665 1160
3 362 1449 1100
3 483 1622 1739
3 393 957 1415
3 1741 425 1843
3 1531 212 1161
3 378 1444 1685
3 216 217 1439
3 661 596 1469
3 1418 583 1746
3 380 832 1670
3 247 248 1143
3 1158 1374 1870
3 1251 1742 1336
3 599 966 1518
3 140 141 764
3 213 1346 1161
3 1467 352 1664
3 545 1294 1487
3 1192 205 851
3 1366 358 791
3 674 825 1087
3 469 1418 979
3 245 246 1450
3 187 188 1274
3 604 556 1305
3 800 1416 1064
3 1205 942 1540
3 344 792 1217
3 1160 738 959
3 826 743 1764
3 36 37 1200
3 665 1129 1780
3 984 847 1334
3 805 608 1356
3 585 1691 1836
3 688 1132 1466
3 361 672 1716
3 1179 592 1549
3 790 198 1542
3 995 740 389
3 50 51 1223
3 736 428 1717
3 105 1331 1629
3 160 981 1280
3 839 104 1629
3 739 1051 1407
3 1329 159 1280
3 323 324 1124
3 734 795 1527
3 26 312 1499
3 793 298 1530
3 924 625 1327
3 44 45 1536
3 817 880 1799
3 895 366 1626
3 1277 458 1625
3 710 751 1148
3 48 49 1048
3 900 1076 936
3 957 375 1415
3 311 26 1648
3 137 138 757
3 1277 603 1198
3 180 901 1493
3 23 295 1544
3 1565 514 1687
3 583 1418 1249
3 65 1322 815
3 817 715 1579
3 1294 420 1487
3 265 28 1289
3 863 515 1561
3 711 1457 449
3 394 810 1308
3 573 863 1561
3 742 649 1658
3 705 1030 1019
3 1322 497 1384
3 1212 448 1842
3 200 201 1537
3 707 1322 1384
3 1153 387 1734
3 1377 84 974
3 42 43 1440
3 1416 412 1064
3 377 905 1423
3 762 1281 1235
3 343 790 1542
3 128 129 856
3 1132 688 1237
3 850 1025 1601
3 743 560 1764
3 201 202 1220
3 506 434 1826
3 1444 1270 1685
3 938 291 1371
3 578 1549 1239
3 219 220 1410
3 193 194 1300
3 854 875 1491
3 351 933 1454
3 1077 356 868
3 1118 793 1658
3 1118 558 1017
3 801 725 1702
3 451 1179 1549
3 1394 644 1005
3 575 754 1578
3 576 520 1326
3 1459 431 1340
3 158 1329 796
3 665 776 1129
3 945 538 1360
3 1710 788 1175
3 919 323 1124
3 117 1014 1099
3 1551 311 1648
3 207 208 1141
3 520 367 1326
3 1273 391 1286
3 730 1103 1206
3 971 1779 1762
3 934 699 1236
3 365 604 1305
3 859 706 1328
3 727 1139 1810
3 1397 504 966
3 715 183 1579
3 639 434 1203
3 801 677 1319
3 982 554 1638
3 1244 872 1678
3 470 1723 1854
3 671 1427 1500
3 641 724 1564
3 1051 478 1407
3 537 435 1581
3 373 927 1373
3 699 1004 1761
3 600 1047 1101
3 416 1301 1732
3 273 932 1532
3 835 278 1580
3 892 67 1804
3 1055 711 1524
3 521 709 1504
3 63 1063 1656
3 818 18 1618
3 1020 1727 1768
3 1368 704 1653
3 930 417 1041
3 996 949 1610
3 1376 658 1584
3 208 209 1154
3 1101 479 1597
3 592 1180 1239
3 153 154 1160
3 321 814 950
3 589 450 1811
3 426 810 1654
3 757 599 1518
3 114 115 906
3 1338 669 1188
3 161 162 1412
3 102 103 1471
3 435 386 1830
3 81 1376 1584
3 514 389 1687
3 1126 556 1827
3 1409 554 679
3 607 983 973
3 1442 671 1500
3 488 793 1507
3 205 206 851
3 38 39 744
3 194 195 1630
3 1554 343 1644
3 725 801 1319
3 913 1301 1267
3 551 1394 1005
3 1548 344 1699
3 484 933 1411
3 121 122 1766
3 999 652 1645
3 276 13 1309
3 556 1214 1827
3 1131 438 1635
3 806 999 1645
3 1551 771 1730
3 394 1132 1237
3 527 769 1818
3 650 1573 1765
3 368 1047 1393
3 1640 433 1396
3 112 1139 1426
3 305 801 1702
3 283 654 977
3 218 219 1137
3 1617 737 1398
3 333 935 1211
3 804 624 759
3 646 257 985
3 541 1192 851
3 371 1112 1815
3 1496 490 1684
3 325 24 1017
3 941 944 1621
3 753 1153 1862
3 966 531 1518
3 1727 546 1768
3 263 1425 1846
3 275 274 1696
3 557 1409 679
3 901 181 1187
3 576 1547 1123
3 656 895 1774
3 1028 510 1327
3 1173 1828 1451
3 76 77 960
3 8 273 1532
3 278 14 1580
3 769 527 1555
3 1316 636 1688
3 852 1608 1872
3 193 610 1060
3 182 715 1187
3 543 894 1735
3 865 1314 1667
3 924 526 413
3 894 339 1735
3 861 516 1706
3 1454 933 1729
3 754 25 1730
3 1190 338 1456
3 904 487 1764
3 1262 546 1692
3 474 1368 1653
3 1447 371 1815
3 886 17 977
3 614 1111 1682
3 420 1337 1178
3 892 978 1719
3 1070 1389 1737
3 1376 533 869
3 504 983 966
3 1353 591 831
3 83 1377 1516
3 457 1321 1640
3 1322 65 1381
3 445 1170 1565
3 1828 461 1451
3 398 934 1236
3 1311 30 1481
3 1527 795 1271
3 460 946 1637
3 282 16 1484
3 907 715 1473
3 1376 82 1516
3 552 769 1555
3 870 1012 1700
3 262 263 1846
3 1018 578 1239
3 1598 409 1786
3 935 648 1701
3 1355 547 1015
3 823 377 1572
3 589 1331 1283
3 1143 789 1560
3 832 380 1692
3 490 1724 1684
3 268 9 1835
3 946 529 1637
3 606 1311 1515
3 590 1338 1188
3 978 1322 1381
3 157 158 796
3 1112 624 1815
3 1573 968 1765
3 9 1301 913
3 556 1361 1759
3 450 360 1811
3 1351 388 1534
3 1314 1128 1525
3 400 1496 1684
3 30 31 1481
3 1424 541 1430
3 766 602 1184
3 234 1205 962
3 474 1653 1793
3 151 152 1362
3 663 1323 1410
3 1608 745 1872
3 927 373 1712
3 1217 623 1541
3 773 376 615
3 427 850 1866
3 860 1070 1737
3 1311 990 1515
3 732 1663 1116
3 847 863 1334
3 926 827 1180
3 11 1011 1672
3 84 85 974
3 675 1222 1758
3 1254 15 1479
3 368 856 1753
3 863 660 1334
3 338 1215 1456
3 1842 493 1521
3 996 899 1846
3 484 1318 1729
3 790 448 1212
3 1522 482 1697
3 179 180 1493
3 1372 588 813
3 126 1047 645
3 197 790 1212
3 804 422 1194
3 769 438 1818
3 771 934 1097
3 488 921 1325
3 1011 11 1539
3 1285 708 1124
3 772 1445 709
3 15 1254 1199
3 681 927 1155
3 1459 469 979
3 983 531 966
3 1285 27 1452
3 1088 1378 1134
3 190 191 1466
3 140 764 1667
3 120 121 1061
3 1489 385 1001
3 906 727 1810
3 1294 401 1785
3 236 1107 1303
3 1576 511 1822
3 479 917 1597
3 605 1415 1813
3 598 1454 1729
3 1043 1069 1653
3 643 923 1595
3 1409 557 1483
3 800 1064 1861
3 1172 621 1704
3 1139 417 1426
3 528 577 1186
3 717 1598 1786
3 143 999 1114
3 60 61 1520
3 1419 239 1238
3 926 592 1455
3 1335 1152 1775
3 1397 4 1525
3 921 578 1325
3 1170 514 1565
3 740 1355 1705
3 810 808 1867
3 999 806 1114
3 1173 371 1828
3 1322 707 815
3 24 1118 1017
3 344 1217 1541
3 1490 1023 1690
3 1009 1334 1744
3 739 1576 1822
3 410 1359 1812
3 861 421 1834
3 490 1389 1070
3 216 1439 1218
3 827 766 1184
3 461 1499 1451
3 1554 1644 1649
3 188 189 1857
3 910 412 1422
3 9 913 1835
3 116 117 1099
3 933 484 1729
3 878 452 1403
3 515 1140 1632
3 732 969 1663
3 630 1607 1745
3 1182 878 1403
3 903 524 1330
3 245 1450 1354
3 508 491 1683
3 931 716 1790
3 779 706 796
3 976 1315 1791
3 640 888 1459
3 409 1090 1464
3 1222 675 1252
3 798 954 1523
3 67 892 1719
3 697 1372 1195
3 487 904 1665
3 136 137 1612
3 1156 1420 953
3 1053 851 1433
3 1360 329 1752
3 880 274 1799
3 1387 668 1511
3 1307 374 1163
3 142 143 1114
3 233 234 962
3 1718 569 1743
3 610 421 1838
3 708 1368 1293
3 430 757 1518
3 129 130 1231
3 1343 658 1333
3 72 73 1547
3 895 360 1774
3 391 832 1286
3 355 1624 1778
3 1144 657 1677
3 1318 598 1729
3 825 713 1847
3 1177 1366 1535
3 1627 731 1841
3 198 199 1542
3 923 1196 1595
3 794 572 1572
3 572 563 1235
3 124 125 967
3 230 231 1557
3 671 1442 836
3 1502 798 1523
3 1723 1040 1854
3 877 1463 1468
3 1465 444 1472
3 659 1222 1252
3 4 139 1525
3 327 1130 1324
3 770 598 943
3 450 1503 1774
3 952 1546 1785
3 769 552 1224
3 765 768 1592
3 885 1168 1347
3 1279 639 1203
3 597 1531 1161
3 503 837 1554
3 722 353 1110
3 1205 234 1873
3 495 1361 1688
3 972 360 1784
3 136 1612 1169
3 618 1715 1824
3 67 68 1804
3 837 343 1554
3 1558 837 1789
3 595 769 1224
3 967 125 1831
3 989 382 1091
3 1105 1102 1564
3 1450 246 1560
3 857 1307 1163
3 1442 223 836
3 909 1488 1786
3 64 65 815
3 1232 536 1748
3 1331 833 1629
3 981 735 1280
3 833 839 1629
3 898 703 1228
3 1231 130 1395
3 1497 346 1805
3 223 224 836
3 1323 663 1788
3 320 321 950
3 422 804 759
3 483 923 1622
3 1355 593 1705
3 115 116 1837
3 1361 495 1759
3 895 656 1767
3 1585 521 1504
3 735 1329 1280
3 969 511 1663
3 761 1527 1602
3 36 1200 1287
3 397 1387 1511
3 798 784 1391
3 626 172 1566
3 1020 1655 1727
3 92 1435 1213
3 1128 1397 1525
3 437 412 1242
3 13 275 1345
3 442 610 1300
3 1117 647 1585
3 215 216 1218
3 325 1017 1400
3 1334 660 1744
3 698 986 627
3 476 1428 1721
3 1605 584 1217
3 1262 570 1396
3 807 1509 1401
3 1201 537 1623
3 991 95 1383
3 169 1436 1738
3 1372 697 1548
3 1260 807 1401
3 792 1605 1217
3 1013 892 1804
3 183 184 1579
3 769 595 1635
3 300 301 925
3 438 698 642
3 638 1461 868
3 73 74 1123
3 139 140 1667
3 340 938 1371
3 275 550 1345
3 690 508 912
3 1184 602 1242
3 616 419 1755
3 741 785 1483
3 74 75 1109
3 585 1144 1677
3 677 1337 1319
3 419 616 842
3 619 680 1035
3 704 1043 1653
3 345 698 627
3 542 897 1284
3 1222 659 1731
3 582 918 1438
3 612 1710 1175
3 1236 699 1441
3 918 601 1438
3 480 865 1571
3 838 576 1526
3 405 1050 1402
3 416 972 1784
3 592 926 1180
3 454 898 1228
3 856 760 1753
3 1292 471 1475
3 1273 1727 1344
3 641 989 1091
3 1631 721 1601
3 489 1292 1475
3 1663 581 1116
3 243 244 1659
3 730 900 1769
3 412 1416 1242
3 123 124 1026
3 366 895 1767
3 537 1201 1342
3 811 824 615
3 1125 550 1624
3 69 70 1755
3 319 320 1686
3 1583 461 1447
3 1351 539 1550
3 472 903 1330
3 3 126 645
3 1421 429 1411
3 1127 469 1340
3 559 1421 1411
3 1266 971 1762
3 1614 339 1733
3 914 1221 1477
3 602 437 1242
3 277 276 1848
3 557 741 1483
3 750 1614 1733
3 80 81 1584
3 680 1115 1035
3 111 112 1426
3 1655 468 1727
3 720 427 1866
3 114 906 1810
3 459 1306 336
3 634 1370 1797
3 498 1282 1849
3 891 349 1639
3 560 904 1764
3 670 692 1269
3 699 934 1374
3 214 215 1582
3 229 1259 1250
3 1418 686 979
3 1165 1476 1652
3 452 784 1403
3 508 464 912
3 1632 682 954
3 234 235 1873
3 1246 462 1681
3 332 1526 1556
3 446 1236 1441
3 251 252 1553
3 1058 1049 1538
3 440 1614 1155
3 1727 468 1344
3 1122 1246 1681
3 225 226 1586
3 210 211 984
3 194 1630 1300
3 541 1506 1430
3 70 616 1755
3 525 1631 1601
3 324 1285 1124
3 598 1318 943
3 1390 423 1718
3 598 770 1677
3 1362 152 959
3 698 345 642
3 783 1090 1037
3 438 769 1635
3 1573 650 1062
3 1370 678 1227
3 1428 883 1721
3 788 1484 1175
3 554 982 1309
3 250 251 998
3 417 1139 1575
3 969 871 1643
3 757 138 1807
3 907 901 1187
3 614 820 1111
3 192 193 1060
3 1587 961 1256
3 1517 877 1468
3 444 1708 1472
3 382 1501 1098
3 1425 263 1657
3 614 700 1660
3 715 907 1187
3 106 107 1283
3 1526 1074 1556
3 76 960 1763
3 26 1619 1648
3 1394 59 1358
3 599 757 1807
3 30 1311 1711
3 34 35 1166
3 381 1269 1771
3 1259 501 1250
3 700 331 1660
3 308 309 1628
3 558 1232 1748
3 1054 723 1703
3 54 55 1417
3 356 1058 1538
3 1587 381 1771
3 563 572 1514
3 787 380 1670
3 191 594 1466
3 659 1026 967
3 378 1685 937
3 1589 990 1481
3 78 79 992
3 386 1370 1227
3 349 891 1379
3 1332 806 1645
3 102 1471 1258
3 1412 162 1082
3 990 1083 1515
3 1377 533 1516
3 365 1222 1731
3 768 1054 1703
3 17 283 977
3 972 416 1732
3 533 1376 1516
3 618 1792 1808
3 1480 374 1405
3 1624 880 1778
3 820 733 1111
3 466 1512 1079
3 963 691 1794
3 1605 345 627
3 128 856 1393
3 440 1480 1405
3 960 77 1783
3 819 1842 1521
3 770 585 1677
3 860 1157 1724
3 60 1520 1358
3 934 771 1870
3 581 840 1186
3 997 666 1119
3 1088 1380 1378
3 1140 597 1871
3 252 1505 1553
3 546 1262 1768
3 983 1243 973
3 215 1218 1582
3 687 929 1836
3 1501 544 1098
3 1282 498 1171
3 272 11 1672
3 15 279 1479
3 1214 556 1759
3 824 811 1790
3 511 969 1643
3 597 1140 1092
3 1437 3 1119
3 738 1362 959
3 407 1409 1483
3 499 947 1739
3 340 1371 1135
3 1756 909 1786
3 1371 747 1135
3 852 1587 1256
3 774 834 1756
3 228 229 1250
3 788 1127 1340
3 486 982 1638
3 1685 1321 937
3 1161 1346 1871
3 757 430 1612
3 764 865 1667
3 903 472 1378
3 203 204 1609
3 360 895 1784
3 622 1615 1349
3 29 30 1711
3 287 286 1229
3 307 308 1608
3 417 619 1035
3 916 1605 627
3 1567 1578 1869
3 644 1394 1358
3 640 1505 841
3 891 542 1379
3 296 23 1651
3 1047 600 645
3 1499 312 1451
3 1453 1226 1643
3 784 881 1403
3 263 264 1657
3 605 1490 1415
3 313 1173 1451
3 1528 755 1715
3 1476 228 1250
3 1095 802 1472
3 719 1348 1468
3 258 259 687
3 267 972 1732
3 700 614 1682
3 856 368 1393
3 137 757 1612
3 1520 644 1358
3 866 942 1339
3 773 1277 1198
3 1389 317 1737
3 663 844 1788
3 443 1424 1430
3 350 831 609
3 774 1756 1464
3 1691 803 1836
3 871 1453 1643
3 629 1539 1508
3 1408 543 1297
3 974 85 1460
3 179 1493 1388
3 35 36 1287
3 853 773 1198
3 898 454 951
3 159 160 1280
3 104 105 1629
3 572 794 1514
3 1207 1577 1806
3 65 66 1381
3 1567 575 1578
3 244 245 1354
3 680 1356 1115
3 1078 854 1491
3 211 1531 984
3 940 1142 1797
3 829 1205 1540
3 866 570 1171
3 893 1290 1865
3 1548 697 1032
3 856 129 1231
3 649 742 1448
3 257 258 985
3 457 866 1339
3 760 856 1231
3 500 1408 1297
3 921 488 1507
3 559 1589 1421
3 269 1343 1333
3 1071 1600 1555
3 328 812 1749
3 1346 1089 1871
3 670 1269 1145
3 894 582 1438
3 934 398 1097
3 554 1409 1675
3 481 1127 1710
3 613 756 1615
3 322 323 1751
3 1072 1002 1224
3 840 528 1186
3 370 1140 1871
3 11 271 1539
3 433 1768 1396
3 1140 515 1092
3 1205 829 962
3 280 15 1199
3 1427 221 1500
3 1166 35 1287
3 1306 392 336
3 794 1572 1423
3 652 631 1645
3 1245 729 1147
3 803 687 1836
3 1399 365 1731
3 1447 461 1828
3 514 995 389
3 1420 233 962
3 144 145 1646
3 1040 1055 1854
3 864 359 1741
3 944 941 1664
3 829 1420 962
3 851 206 1433
3 1208 373 1373
3 1457 711 1721
3 463 1095 1472
3 1348 372 1468
3 949 351 1610
3 378 1419 1823
3 1199 1133 1840
3 679 554 1309
3 1779 432 1762
3 66 67 1719
3 153 1160 959
3 1768 1262 1396
3 1323 1788 1850
3 1502 369 908
3 1415 375 1813
3 1420 829 953
3 871 1445 1860
3 550 557 1345
3 566 1019 1230
3 1446 288 1740
3 583 1078 1491
3 1539 271 1508
3 917 319 1686
3 258 687 985
3 844 561 1788
3 304 305 1702
3 1397 599 1807
3 196 197 1212
3 4 1397 1807
3 289 288 1367
3 651 1448 1757
3 1486 987 1796
3 860 1724 1070
3 422 1112 1794
3 1356 608 1115
3 1071 1555 1697
3 1492 939 1253
3 569 1446 1740
3 1413 1204 1760
3 779 1513 1304
3 1378 472 1134
3 1133 1351 1840
3 288 1446 1367
3 633 846 1707
3 729 1341 1147
3 501 1476 1250
3 951 569 1740
3 235 236 1303
3 3 1437 1831
3 507 830 1230
3 1215 718 1379
3 109 110 1673
3 595 586 1802
3 812 821 1749
3 1098 605 1813
3 1612 1121 1169
3 619 417 1575
3 811 1398 1809
3 662 950 571
3 423 1446 1718
3 1375 69 1755
3 464 1341 1272
3 1036 783 1037
3 1084 1216 1517
3 1086 363 1708
3 695 967 1831
3 1678 747 1591
3 569 951 1743
3 1626 608 1669
3 539 858 1550
3 392 1306 1671
3 1579 184 1833
3 1477 466 1079
3 1503 109 1673
3 1531 847 984
3 555 1467 1664
3 586 922 1802
3 1586 226 1570
3 883 1457 1721
3 280 1199 1840
3 874 1231 1395
3 492 1291 1364
3 1616 612 1175
3 1496 400 1194
3 1127 788 1710
3 1449 460 1100
3 794 1228 1514
3 166 167 1313
3 97 98 1676
3 873 562 1743
3 89 90 1770
3 718 1215 1858
3 1218 424 1582
3 764 876 1545
3 587 646 1736
3 899 540 1275
3 506 619 1575
3 1607 588 1745
3 1032 697 1596
3 309 310 1722
3 516 948 1706
3 1404 622 1349
3 1041 417 1035
3 1407 478 1593
3 174 175 1773
3 969 732 1504
3 986 698 1839
3 1291 718 1364
3 347 797 406
3 1089 370 1871
3 942 1205 1873
3 25 311 1730
3 1215 338 1858
3 840 1407 1593
3 1202 566 1230
3 1476 501 1652
3 1025 1008 1856
3 975 548 1698
3 617 804 1194
3 1290 526 1865
3 526 1431 1865
3 622 1015 1615
3 78 992 1783
3 239 240 1238
3 1105 335 1808
3 80 1584 1317
3 46 47 1478
3 1632 956 1482
3 1445 871 709
3 56 57 1695
3 185 186 1689
3 52 53 1278
3 451 921 1602
3 797 822 406
3 1572 377 1423
3 181 182 1187
3 498 866 1171
3 661 864 1741
3 87 88 1529
3 1639 1007 406
3 483 436 1832
3 511 1576 1663
3 679 13 1345
3 212 213 1161
3 1090 629 1508
3 1279 721 1631
3 134 135 1357
3 428 1599 1820
3 246 247 1560
3 59 60 1358
3 176 177 1782
3 875 1746 1491
3 1202 684 1024
3 822 1639 406
3 416 1626 1669
3 722 342 1267
3 1800 337 1495
3 1341 464 1147
3 1520 758 1772
3 992 79 1317
3 1626 366 1115
3 131 132 1443
3 682 1632 1482
3 82 83 1516
3 1689 1003 1833
3 1419 1238 1823
3 221 222 1500
3 164 165 1603
3 99 100 1787
3 1228 703 1514
3 784 452 1391
3 666 1437 1119
3 1367 701 1616
3 957 393 1108
3 1148 396 1776
3 1310 1044 1754
3 1598 361 1819
3 676 1245 1147
3 326 1315 1284
3 881 784 908
3 653 1166 1287
3 125 3 1831
3 373 1480 1712
3 1315 976 1284
3 323 919 1751
3 1050 512 609
3 862 975 1698
3 1788 561 1850
3 248 249 1720
3 1245 676 1470
3 750 1136 1620
3 928 1537 1674
3 337 1674 1495
3 1159 589 1811
3 820 704 1452
3 101 102 1258
3 162 163 1082
3 557 679 1345
3 149 150 513
3 289 1367 1616
3 1446 569 1718
3 1296 662 571
3 1017 625 1400
3 291 290 1591
3 1404 549 1455
3 118 119 1042
3 987 1266 1796
3 1266 330 1796
3 806 1332 1359
3 288 19 1740
3 648 1486 1796
3 632 480 1571
3 360 1159 1811
3 1540 498 1849
3 708 919 1124
3 95 96 1383
3 168 169 1738
3 1457 883 1722
3 1431 893 1865
3 1327 625 1748
3 1291 492 1862
3 1558 535 1543
3 509 1728 1864
3 1698 1088 1134
3 833 890 1532
3 493 1558 1543
3 631 652 1750
3 446 1492 1253
3 931 338 1190
3 639 1279 1631
3 992 425 1783
3 310 1457 1722
3 1303 1107 1339
3 648 667 1298
3 494 1120 1590
3 1143 248 1720
3 809 1404 1455
3 742 334 1448
3 241 242 1860
3 312 313 1451
3 1728 1288 1864
3 172 173 1566
3 687 803 985
3 1425 996 1846
3 530 870 1700
3 298 299 1530
3 875 998 1746
3 335 1528 1808
3 1201 509 1342
3 317 318 1737
3 178 179 1388
3 1414 1193 1853
3 884 827 1240
3 1619 411 1801
3 763 1305 1126
3 941 255 1795
3 18 285 1392
3 865 764 1545
3 1107 457 1339
3 91 92 1213
3 1437 695 1831
3 167 1463 1313
3 1465 97 1676
3 1450 1560 1844
3 678 1138 1227
3 1617 492 1364
3 1180 475 1239
3 837 503 1789
3 608 1626 1115
3 85 86 1460
3 1746 583 1491
3 1053 1141 1189
3 20 297 1680
3 982 1183 1848
3 1310 481 1176
3 1208 419 842
3 1463 877 1313
3 444 1465 1676
3 649 1118 1658
3 222 1442 1500
3 628 1201 1855
3 1698 548 1713
3 422 1496 1194
3 437 377 1422
3 624 1112 759
3 431 1191 1852
3 244 1354 1659
3 789 1143 1714
3 1112 746 1794
3 1138 386 1227
3 656 1503 1673
3 1689 186 1588
3 361 1716 1819
3 720 487 1665
3 827 926 1240
3 990 1311 1481
3 1544 446 1781
3 1445 241 1860
3 1305 556 1126
3 75 76 1763
3 596 1494 1469
3 1346 1582 1089
3 1494 342 1469
3 500 1297 1668
3 648 1298 1701
3 482 1522 1195
3 399 1245 1470
3 436 749 1832
3 1198 603 1016
3 737 1617 1364
3 640 1459 979
3 469 1459 1340
3 1143 854 1714
3 549 1563 1240
3 1141 439 1189
3 412 437 1422
3 949 606 1515
3 865 1545 1571
3 40 41 1510
3 1000 538 1347
3 620 722 1868
3 342 722 1110
3 1528 618 1808
3 496 1310 1176
3 1201 1623 1855
3 186 187 1588
3 710 1618 1094
3 1537 574 1674
3 697 1522 1596
3 419 1208 1373
3 187 1274 1588
3 1063 392 1656
3 77 78 1783
3 1506 958 1430
3 818 1148 1776
3 185 1689 1833
3 1473 817 1799
3 716 931 1190
3 1109 75 1763
3 1717 428 1820
3 90 1488 1770
3 1088 1698 1713
3 1599 1133 1820
3 950 814 571
3 226 227 1570
3 1221 174 1773
3 919 729 1751
3 1050 591 1402
3 255 256 1795
3 79 80 1317
3 756 1330 1563
3 689 720 1665
3 1499 461 1725
3 155 156 1209
3 331 1043 1660
3 1330 524 1563
3 444 1086 1708
3 1216 877 1517
3 374 1480 1760
3 629 1598 1819
3 1480 440 1712
3 775 1619 1801
3 206 207 1433
3 519 787 1670
3 850 1601 1866
3 138 4 1807
3 1270 1045 1685
3 1236 446 1253
3 152 153 959
3 1282 1023 1849
3 854 1143 1720
3 782 992 1317
3 611 1051 1747
3 1095 463 1847
3 372 1348 1535
3 113 114 1810
3 432 1637 1257
3 132 617 1443
3 434 1805 1826
3 1372 813 1195
3 1615 756 1349
3 787 519 1108
3 184 185 1833
3 1357 135 1169
3 270 1036 1037
3 1637 529 1257
3 580 1302 1485
3 1302 564 1485
3 359 864 1859
3 926 549 1240
3 135 136 1169
3 771 1158 1870
3 1064 518 1861
3 342 1494 1835
3 853 1198 1016
3 127 128 1393
3 1026 124 967
3 1354 683 1659
3 130 131 1395
3 1488 909 1770
3 131 1443 1395
3 858 281 1550
3 466 1221 1773
3 253 254 1621
3 1033 1032 1596
3 877 1216 1603
3 1086 444 1787
3 728 1109 1763
3 932 833 1532
3 735 835 1580
3 134 1357 1029
3 1484 16 1175
3 1221 466 1477
3 1112 422 759
3 404 1803 988
3 1120 494 1636
3 816 1689 1588
3 1805 680 1826
3 802 1465 1472
3 1463 719 1468
3 1601 721 1866
3 1039 1120 1636
3 451 1527 1271
3 342 913 1267
3 177 1512 1782
3 1576 581 1663
3 600 1296 997
3 864 1261 1859
3 834 87 1529
3 1216 164 1603
3 100 1086 1787
3 597 1161 1871
3 1214 500 1827
3 618 1528 1715
3 567 1757 1829
3 1726 750 1620
3 1398 737 1809
3 1512 466 1782
3 1051 739 1747
3 1120 460 1590
3 133 134 1029
3 1618 523 1094
3 1716 1011 1819
3 207 1141 1433
3 768 1694 1592
3 910 1422 1803
3 1513 735 1580
3 1600 552 1555
3 432 1257 1762
3 767 714 1679
3 1723 395 1792
3 1694 971 1592
3 948 688 1706
3 549 926 1455
3 1722 883 1628
3 1354 1450 1851
3 993 304 1702
3 555 941 1795
3 350 777 1754
3 909 834 1529
3 1369 1197 1485
3 813 482 1195
3 356 1085 868
3 714 333 1679
3 430 1583 1447
3 747 1371 1591
3 834 909 1756
3 1450 611 1851
3 906 115 1837
3 311 1551 1730
3 1558 493 1842
3 489 1623 1581
3 1040 1723 1792
3 1505 686 1553
3 471 1292 970
3 1803 823 988
3 811 615 1398
3 1153 1291 1862
3 1623 537 1581
3 1141 1053 1433
3 1641 1049 1058
3 1254 1717 1820
3 929 1144 1836
3 731 1031 1841
3 1484 431 1852
3 1453 871 1860
3 1757 1130 1829
3 595 1802 1635
3 1756 409 1464
3 574 1220 1562
3 581 577 1116
3 936 332 1569
3 1225 347 1432
3 543 1735 1276
3 1488 717 1786
3 446 1441 1781
3 1149 496 1176
3 955 964 1552
3 611 1450 1844
3 964 442 1552
3 497 849 1384
3 849 1075 1384
3 688 948 1237
3 883 1428 1798
3 714 987 1486
3 615 376 1398
3 725 993 1702
3 955 1642 964
3 577 384 1116
3 1642 421 964
3 347 1225 1562
3 1351 1550 1840
3 1527 451 1602
3 1031 755 1841
3 1432 1007 1406
3 1503 656 1774
3 619 506 1826
3 419 1375 1755
3 517 1623 1821
3 339 1320 1735
3 545 1641 1058
3 494 1590 1779
3 1441 369 1781
3 1154 1009 1744
3 1583 430 1518
3 1623 489 1821
3 890 8 1532
3 502 1126 1827
3 713 1095 1847
3 1348 1177 1535
3 1261 936 1569
3 1129 486 1780
3 531 1583 1518
3 1034 166 1313
3 98 879 1676
3 1371 291 1591
3 1614 440 1320
3 1802 1131 1635
3 1406 1007 1734
3 481 1710 1176
3 1630 442 1300
3 495 1248 1352
3 1555 527 1697
3 542 1215 1379
3 601 849 1136
3 1320 778 1735
3 1012 870 1680
3 922 1565 1687
3 1309 982 1848
3 1293 1150 1272
3 1777 1233 1817
3 1366 791 1535
3 1087 825 1847
3 1157 760 1724
3 1524 470 1854
3 1512 1096 1079
3 1623 517 1855
3 931 811 1809
3 1694 494 1779
3 460 1120 1100
3 1735 778 1276
3 1618 18 1392
3 1055 1524 1854
3 550 275 1696
3 1622 408 1739
3 1296 399 997
3 460 1637 1590
3 400 617 1194
3 913 342 1835
3 381 1587 1872
3 971 1694 1779
3 552 1072 1224
3 570 1162 1171
3 1578 398 1869
3 644 1520 1772
3 1248 812 1352
3 398 1236 1253
3 786 1544 1781
3 682 1651 1523
3 1647 89 1770
3 1404 809 1559
3 749 436 1780
3 175 1634 1773
3 646 985 1736
3 468 1600 1344
3 976 1190 1456
3 1210 621 1509
3 1010 1777 1817
3 680 619 1826
3 470 1567 1853
3 165 1034 1603
3 879 99 1787
3 1690 1023 1282
3 328 456 1352
3 1780 486 1638
3 1146 1210 1509
3 658 869 1333
3 1567 939 1853
3 1220 1174 1562
3 1302 543 1276
3 683 1747 1822
3 527 1522 1697
3 1287 1200 1429
3 282 1484 1852
3 493 1552 1521
3 1637 432 1590
3 1073 1554 1649
3 798 1561 954
3 1651 786 1523
3 382 1098 1813
3 617 400 1443
3 1617 935 1701
3 88 1647 1529
3 1253 939 1869
3 439 1154 1744
3 566 1202 1024
3 1634 176 1782
3 594 688 1466
3 1733 601 1136
3 760 1157 1753
3 478 1006 1593
3 492 1298 1862
3 492 1617 1701
3 1522 527 1596
3 1683 666 1470
3 588 692 1745
3 921 1507 1602
3 535 1558 1789
3 546 1286 1692
3 807 1752 1509
3 440 1405 1320
3 1752 1146 1509
3 1600 1071 1344
3 692 670 1745
3 755 1528 1841
3 1144 585 1836
3 339 1614 1320
3 439 1650 1189
3 1356 680 1805
3 1037 1090 1508
3 752 1690 1282
3 855 1225 1432
3 692 568 1269
3 1582 424 1089
3 1547 73 1123
3 1651 682 1482
3 1200 710 1429
3 564 1302 1276
3 1666 350 1754
3 1650 402 1189
3 775 1551 1648
3 1747 739 1822
3 1115 366 1035
3 3 645 1119
3 942 1303 1339
3 1229 1066 1606
3 444 879 1787
3 1034 877 1603
3 879 444 1676
3 877 1034 1313
3 1286 832 1692
3 1157 479 1753
3 612 1616 1149
3 1225 574 1562
3 425 992 1843
3 549 1404 1349
3 564 1369 1485
3 1576 739 1407
3 1111 733 413
3 1708 463 1472
3 372 1517 1468
3 1006 780 1593
3 998 686 1746
3 14 1513 1580
3 346 1356 1805
3 1642 828 1834
3 1507 761 1602
3 421 1642 1834
3 763 1027 1758
3 870 20 1680
3 961 1587 1771
3 1085 356 1559
3 577 581 1186
3 1522 697 1195
3 809 1085 1559
3 603 480 1016
3 1742 643 1595
3 841 253 1621
3 1616 701 1149
3 448 1558 1842
3 399 1296 571
3 463 1087 1847
3 791 372 1535
3 342 1110 1469
3 1654 505 1336
3 703 1229 1606
3 364 1068 1363
3 1044 1666 1754
3 1265 1577 1594
3 276 1309 1848
3 1587 852 1872
3 676 1683 1470
3 1269 568 1771
3 477 1633 1817
3 939 1567 1869
3 389 348 1687
3 1403 881 1062
3 705 1019 1863
3 543 1302 1297
3 1590 432 1779
3 1432 347 406
3 296 1651 1482
3 480 632 1016
3 466 1634 1782
3 1136 497 1620
3 407 1742 1595
3 1583 531 1725
3 992 782 1843
3 1405 778 1320
3 1624 550 1696
3 944 841 1621
3 941 555 1664
3 1719 978 1381
3 66 1719 1381
3 1428 381 1798
3 1633 1010 1817
3 242 1453 1860
3 1634 466 1773
3 1577 387 1594
3 785 1654 1336
3 1686 662 1597
3 1182 1403 1062
3 1238 772 1823
3 1498 1146 1752
3 329 1498 1752
3 369 1441 1761
3 985 803 1736
3 686 998 1553
3 1041 366 1767
3 667 753 1298
3 1074 1109 1556
3 1647 909 1529
3 666 997 1470
3 872 696 1850
3 909 1647 1770
3 746 963 1794
3 1818 438 642
3 683 1354 1851
3 749 1780 1638
3 789 1661 1844
3 754 1097 1578
3 333 714 1486
3 1085 638 868
3 1109 728 1556
3 998 251 1553
3 526 1111 413
3 811 931 1790
3 1441 699 1761
3 1260 628 1855
3 1256 961 1816
3 574 1225 1495
3 517 1260 1855
3 917 1686 1597
3 461 1583 1725
3 1661 611 1844
3 1225 855 1495
3 381 1428 1145
3 338 931 1809
3 1033 1818 642
3 409 1756 1786
3 1474 465 1543
3 356 1538 1559
3 772 1444 1823
3 722 1267 1868
3 1068 994 1363
3 677 1256 1816
3 1798 381 1872
3 1298 492 1701
3 1215 542 1456
3 1303 942 1873
3 1545 410 1571
3 1016 632 414
3 855 1800 1495
3 803 1691 1736
3 561 872 1850
3 1444 378 1823
3 1498 329 1814
3 465 1498 1814
3 1560 789 1844
3 388 1477 1079
3 568 1699 1771
3 442 1630 1521
3 375 1091 1813
3 1295 465 1814
3 1267 553 1868
3 955 1295 1814
3 653 1287 1429
3 786 1502 1523
3 1644 337 1649
3 534 1060 1838
3 632 1679 414
3 1060 610 1838
3 756 1563 1349
3 896 1167 1874
3 1091 382 1813
3 955 1552 1295
3 1167 702 1874
3 1699 961 1771
3 1552 493 1295
3 1011 1539 1819
3 628 1260 1401
3 1509 621 1401
3 1699 344 1541
3 961 1699 1541
3 667 648 1796
3 366 1041 1035
3 976 1791 1190
3 1619 775 1648
3 1843 782 1255
3 440 1155 1712
3 1674 574 1495
3 1563 549 1349
3 653 1094 1234
3 1069 1604 1793
3 1199 1254 1820
3 1691 587 1736
3 1288 1246 1864
3 1246 1122 1864
3 1630 819 1521
3 1019 566 1863
3 1747 683 1851
3 1539 629 1819
3 523 1618 1392
3 1791 716 1190
3 1007 1432 406
3 997 399 1470
3 471 1093 1382
3 829 1540 1849
3 1133 1199 1820
3 1211 853 414
3 1574 1012 1680
3 1207 1806 1693
3 330 667 1796
3 1806 1073 1693
3 954 682 1523
3 297 1574 1680
3 505 1654 1867
3 855 1432 1406
3 1093 885 1382
3 542 1284 1456
3 1364 718 1858
3 1110 661 1469
3 1654 810 1867
3 1827 500 1668
3 737 1364 1858
3 570 1640 1396
3 853 1016 414
3 596 1843 1255
3 330 1266 1762
3 849 497 1136
3 387 1406 1734
3 1137 1323 1850
3 939 1414 1853
3 502 1827 1668
3 527 1818 1596
3 1097 398 1578
3 880 1624 1696
3 1681 462 1874
3 580 1613 1668
3 465 1295 1543
3 235 1303 1873
3 535 1474 1543
3 650 1765 1791
3 1613 502 1668
3 1821 489 1475
3 1067 1821 1475
3 471 1382 1475
3 1765 716 1791
3 1382 1067 1475
3 563 1514 1606
3 1079 1096 1534
3 1155 927 1712
3 611 1747 1851
3 1552 442 1521
3 1818 1033 1596
3 1040 1792 1824
3 1604 636 1793
3 1541 623 1816
3 1284 976 1456
3 702 1681 1874
3 627 986 1709
3 1094 653 1429
3 333 1211 414
3 986 1705 1709
3 961 1541 1816
3 371 1447 1828
3 1705 593 1709
3 1812 1046 1825
3 862 1698 1134
3 1094 523 1234
3 388 1079 1534
3 612 1149 1176
3 767 1812 1825
3 1724 490 1070
3 916 627 1709
3 398 1253 1869
3 978 1726 1620
3 812 328 1352
3 750 1733 1136
3 1269 381 1145
3 337 1800 1693
3 1792 618 1824
3 1342 509 1845
3 1142 1342 1845
3 1649 337 1693
3 696 1137 1850
3 1514 703 1606
3 1679 333 414
3 1556 728 1569
3 1374 934 1870
3 309 1722 1628
3 1298 753 1862
3 338 1809 1858
3 634 1797 1350
3 1800 1207 1693
3 1809 737 1858
3 1797 1142 1350
3 710 1094 1429
3 728 1859 1569
3 1710 612 1176
3 1845 1122 1350
3 1142 1845 1350
3 332 1556 1569
3 1295 493 1543
3 1845 509 1864
3 1073 1649 1693
3 745 1798 1872
3 1122 1845 1864
3 1568 1012 1574
3 1859 1261 1569
3 956 1568 1574
CELL_DATA 3432
SCALARS Von_Mises float 1
LOOKUP_TABLE default
57366889.71943919 21728839.645281035 48505087.89742896 45465904.51930511 35341344.441372454 41963197.16367616 31922266.231660016 23831856.577525977 27825335.801554795 11323102.158502929 51853058.452981904 31480976.480373614 35360500.80293576 48439582.45727296 59381162.87494863 42056055.65691546 29002601.716110878 52651153.42469681 48464412.849444605 55465036.08824434 24378627.07137812 50096597.20935949 30492348.736695543 17626311.257167287 17601309.949568223 36645422.05770821 50536679.37052347 54686392.09470278 99704845.03069912 3128235.0250927624 18897983.17559149 40767649.06415289 32637702.06187716 110490442.16338058 33943417.89105971 26191768.613315213 39525436.702497 7868005.47695402 87816335.59265497 56097900.02692344 62533683.15450338 50678059.101171814 36215964.57039073 61722602.96990196 56747073.31267939 56072317.70366603 37822227.67761719 54810039.80688621 22966236.783348847 49605213.292565286 37296340.76886477 57476632.750815645 33620483.64544032 55969809.629813895 30930660.422170784 1533713.8649287773 54349114.09243963 36379682.805273905 53701303.17632529 25277580.24358489 44326848.26009141 16462553.497969706 15036198.435801454 89348737.14818828 36336212.84569302 50007849.72205687 49802550.37689518 52671525.05126969 48654672.105463475 49275291.26697562 19492262.710390344 49068651.15440329 48361830.27147543 55677907.71421569 17600493.921702743 14244932.053637816 59181871.40239678 30975880.517520122 27121552.13817622 27192716.114433367 22021536.826465532 50293049.864165686 43561999.73251914 63428351.05516207 40606838.08182792 44902859.4606819 49534234.00668097 52146055.579955354 74907004.11713096 51831228.43667629 58530938.59976287 20610222.333676476 34621534.38872156 19257395.39456233 19294496.68243006 50388202.49526407 48144073.48104936 28927134.13048921 60253654.05765108 1095911.3961628245 40508951.855484396 9783753.0505678 29367827.534898482 17635878.711705327 34806146.340001754 51849012.01008134 49692591.32013654 48399863.721592546 58556620.73391868 89532632.68744063 56736820.206347294 26911957.00429078 51106201.343264826 52596325.67152883 51295962.70142331 57701768.83451517 38718366.99770237 54115668.39652173 4962498.284483654 35839320.84342532 35589927.55453478 52307926.88998263 52926632.41156136 62269287.63952753 40071996.08242962 33102920.511351623 17955901.22997637 40901865.233403295 58177893.09692009 22682092.196238823 50477022.132202744 50766999.58714201 57797242.11480013 19721922.29868394 19577695.805950813 32836143.089805562 50410631.62882117 26923129.699522786 20774528.668604176 25033624.09500435 57787576.86454724 47241703.706522614 37392746.30892824 24351356.431223974 38591965.574454196 57675780.6607003 42345437.84802314 38531502.04734377 27101628.646866653 104504238.21681385 34841479.51990549 27094997.237793405 63855219.909126475 40095656.45059016 21820873.469693378 16521739.75830399 38843836.68005346 52511681.09580647 68383214.81446055 35545093.32706492 67633297.42316714 63000084.36634503 119696270.37928735 59769962.872919366 53613619.97778284 33438331.261732306 49904506.84312612 52273444.473522514 60722382.75370232 81960511.55589938 50566371.36303559 50826729.969456404 53463317.767222606 40405259.84321078 12406546.966028318 59380122.61790211 26268756.125808723 57790074.2971681 41610332.92506771 59027129.7168483 42555499.824144505 51799754.39885975 50633499.35374833 5366055.003675992 35382635.49823694 42450577.6241453 54110414.651968926 56435841.72239433 33410005.135561995 40149021.89125824 51914453.52979674 49313789.51787228 19781880.574185267 46042452.88228091 51024799.056515634 8702765.452050917 50915395.64875515 28977302.535363734 27112977.981872693 67433731.36530294 34286630.70763062 58481456.487083584 54108718.00128325 84777452.33360884 34527513.51618826 38511909.71592944 25803908.111901354 7345436.228112989 30709861.051962152 44144069.674973264 54434419.90471444 12907245.634563552 53840604.796270214 51555138.30488805 16433848.883965993 56487853.19998585 33156996.261946194 21789630.083920147 47115325.73872652 40256230.26698347 19788271.258445114 16161382.157352803 39291619.67405231 51165788.795202754 59894795.88949727 40485138.71619553 48903057.1374736 52684623.44046914 50431648.46838041 3235572.838189323 30221844.073703542 26441025.80566297 57125467.71844298 26480610.94434928 48555990.82020379 60410582.43984543 46036874.34550568 48006868.32243926 30449111.409836616 51043004.476481944 46207550.826549485 55777381.50373217 48301620.37496154 72252452.4051031 49314595.30841799 69270650.79937108 37008454.68731358 47575583.10918366 50883605.26890554 18616685.275986724 61542039.286243275 47253087.32045679 55249479.456226416 31353913.009968977 51295882.72299373 45933092.271026425 51400556.748141326 20323323.802718844 20302679.39671337 5420488.706255853 50598172.79640697 20082955.48973312 25345821.12971309 12496936.27256232 19091079.505255777 65115336.75082799 12206478.762734996 45185660.665603496 14085523.437158478 16506745.607132854 57061369.21537554 19568963.347133037 51551873.490541525 48786120.76066233 58510465.88823136 51227061.38183438 29636402.918187696 44823468.728972234 44638588.06962632 34595655.49517499 35637662.718281396 35320531.99926591 24517530.574809797 21638995.43047219 24091210.153679527 31401007.659455597 39902873.68922296 50145330.763375945 52252004.074070394 39627738.54971198 50697062.19337234 49847074.35090222 56297836.41035239 28091378.48462773 20912741.797563855 53122604.63573139 59115909.18728499 27432623.965868525 52763754.39498589 71536839.93130991 47371634.26789291 57481754.15717782 55490102.44242752 64887891.853233896 46712692.71955975 29688381.23142565 57067961.761901595 52814812.16298236 48978141.57908997 38125970.07739286 53101427.78596475 50930154.85939385 14500923.297387492 54688223.24116844 46647731.78114502 46207953.566155665 55509123.60440319 7624673.154355756 16143656.952353926 51235673.029896125 36529662.662727796 245292206.36459592 53623458.07597368 55510510.00410048 70026454.48186843 53884823.61112207 52595879.819203354 18383521.270390145 32033507.922342565 31531809.967693686 60320268.19780101 51728659.67032336 53546705.21222733 82292263.06974052 50647842.89640512 38278316.38219022 90825101.25655596 23850309.235702384 44108640.3254346 53354353.59964336 7559581.931921933 28253065.908447824 46763068.70687983 50890631.543412305 34491884.92100933 55667561.83998807 54441434.381176636 21763294.989841703 51451995.495885596 57073519.3550072 60530030.46532952 52438877.14389551 51306668.99174666 33927038.436174214 54263307.957787186 57242376.28946409 62011131.0518878 63911127.60621912 40970154.35075695 78954254.21019498 140356935.5739043 58328687.77724676 31059198.79784631 62734084.16689133 47450822.24048021 46911558.04410696 61006216.57699985 38459880.50173482 6839607.018267699 49941818.55060657 55751469.8819626 57637123.225855455 54007177.17366142 51992419.99087318 41644375.68399639 18727972.58886395 46532672.22625433 11360700.490732195 14626443.847307492 61450665.143821724 41266460.40499387 34385050.09729942 32732478.470517587 54997538.94549906 20232378.688182276 54267419.514523655 40054660.98858098 5151825.644084364 49852605.8600284 38184461.718224026 54813226.8036548 58487505.831406444 47511791.517778076 47744021.13072082 37146618.648901865 55069391.24897812 10713711.045760205 208946060.0969109 57146801.67946101 48689618.60543202 30096202.893319264 45924922.22021162 58027697.44579248 41473650.43430933 55750629.9886906 52551295.889827885 47082980.418697394 65189022.373383395 59722358.3709233 52133373.923103005 30738395.53958963 47452693.47886103 58586257.1825133 42618805.27375445 44375316.911599815 58255796.76572659 17088946.35341819 17088946.35341819 123038544.79115592 65156551.188116394 51330432.626981854 8506183.43979188 50875062.82441802 28237377.245315544 37357427.23474069 57612953.99304185 21714192.23816196 31968665.22806702 56743223.78457778 56511283.50661207 51608767.96047456 49936279.65034785 62712723.13028043 86974850.42999569 55349591.90014681 46252581.025031164 57983290.05209273 49425507.2397029 55801265.25997349 48865407.72636024 57416519.9692174 34973103.04483666 57570882.4638106 56903261.097248904 53538819.815081656 42338062.67512373 28223926.15080845 52011493.743031934 33504146.750906456 11221107.60739674 39581067.78797838 62702508.0988325 46323377.13779068 60233098.75603947 68509194.63320583 48225441.0384136 38074828.6522174 30026474.522855796 55066392.21256526 33005027.40487937 40541604.39851125 49608391.52397134 18311971.23383455 54092933.078652404 14888669.763879234 30608435.03359447 24952584.741631195 51118331.935266726 50583301.20384922 55989041.79896024 46177496.324623995 2567281.6643914804 83783404.03260195 67305032.25847617 52485267.270755626 58487379.59252364 48499966.41069558 110866458.12625046 51147729.58603681 50848142.36535654 51591833.35088276 4743623.299149385 54114500.859286115 18903158.542537436 38527243.12185264 56707832.971778445 43847687.37977421 21260382.960947197 29526535.157700773 48162733.470024794 22291904.43727259 48801959.75592043 52496812.93711678 13933465.178200494 53269869.74959667 4980195.900909337 50496222.11419718 57524270.696586646 22386717.498915985 22409698.928830616 50407217.29265553 45718904.68095936 25040518.53412585 62209135.63841871 22111655.39951443 62844056.654879004 84452733.56631775 50337397.75256603 70138890.66626559 19859841.22322807 88107037.87080406 5129870.289545802 54334899.09455675 44837683.87272203 29053986.534390144 54196802.33037762 52267554.09686078 51239201.53785907 9557903.947107997 55461057.525168255 22706412.722935718 22654519.447820194 41219371.09325717 49736099.293087654 64266045.449332684 35300183.79612253 23306406.655856002 23427023.434088722 54427377.53664722 41536136.64790048 41043313.17243174 28650836.820006184 39927505.89446225 58601237.41963863 46295174.42520285 45181534.29093451 59708344.8503796 53815951.65971892 89105046.77201688 56276691.11328035 54794709.049523935 70061173.4245298 79792792.83628002 52138588.032718524 27521464.639894478 58022359.84650764 5184411.998979026 53026358.6598177 51543501.16395127 50164107.017995045 50862864.26697483 54476196.582084104 51930741.591993526 54633852.36134254 63540857.41709116 37547541.17914536 53618627.8095083 69407753.82426934 51785249.248929 60755227.94930293 63038643.7728942 47143755.867139846 1096379.1847326767 56385013.44765665 60741927.28092579 55560320.012489036 28603156.654918972 16797111.813439045 23879634.326323688 34844286.2207695 63427251.67389434 49069749.16626615 33980636.588192195 55895306.22203776 20328395.861398436 37501092.228864826 58621934.49316455 56756568.78885408 28176745.93829341 44254065.3899185 62843666.76466148 62718891.6130985 41188726.82995962 12534349.41289415 47877394.72414694 15420667.969609797 22973913.406528383 46644766.947944686 55604600.26527085 58943479.78579094 10257100.42079698 53728687.33434497 163246639.39375183 48474381.22673334 64664533.07105214 7237968.203525829 92680157.71499489 22018500.384754483 22010541.106349047 58646685.34062942 55673012.52364676 47156348.59132465 61727971.51726731 30827671.44506097 63085065.96975974 52258003.73785262 105230888.43828681 3557363.7648223 47678501.946069375 75521344.97495215 15250738.53050602 40463706.56215503 58454167.211386666 112760364.97268057 49973287.604929805 38153840.938419454 21928338.694874797 46750487.334683165 66219342.39053201 37724177.523628615 53919571.57343239 50321711.68365847 3730761.0013095946 42809866.351905346 53455907.91915212 46662432.40187204 46243549.78625436 35147109.617249236 1314749.82084158 5748352.466364319 27349259.915117092 6238779.323755657 63270285.73368831 24400738.83391513 41763390.95607883 57297201.67428491 46340489.33684874 1167832.371927076 47937990.96641923 57650225.73752626 52101569.54593659 51422406.61920153 29674641.94665187 48623671.888251014 61516943.08538786 65978338.28534046 47894486.96083989 39521422.7807991 34103557.867530525 51088402.11800956 61147980.7242479 54068905.65786503 36146702.27574213 53523315.01941555 39414116.34512842 3192796.8611587733 64969437.31335313 49606061.95913916 5060680.270711785 51117158.07603084 57289868.88531094 11202587.699426502 11241174.447469734 7255690.55389982 10666517.21319744 44485253.46831786 92864154.2303217 56217236.21786976 34500027.55214782 35108182.88478088 47699436.416916706 32112298.19814063 25227315.565300167 85027156.41530466 67380450.23581831 56253227.37232446 57406809.57858709 40385176.37640935 29179135.55462538 21208122.951197684 64316249.39596462 6337041.482345868 6411891.463936599 51753524.17470767 6081972.157361996 98700328.50633004 21662900.690080814 51240106.916833185 16445434.390644591 51345951.66187445 51144745.779710345 67773030.64353484 51052699.925507635 53629920.96687925 34581782.98184191 59085453.926435396 42600152.75652908 10541555.774792686 42064858.09167971 31585131.075545374 47962515.09157185 62405388.5002705 69702979.10533606 31341308.362293717 36692258.42808447 21206905.021886304 4393384.029663807 59666663.478675365 15333904.763089623 39413399.11717311 20823115.464451164 61350852.027668014 35975838.36287618 14398328.070982141 13026412.133702885 82082161.86292797 49120244.66915449 32634226.162201736 53255568.007166736 48255267.26934548 52958164.44069808 53578294.993068375 56280287.86745068 55674131.58034541 48009412.20194147 50201860.95235101 34290821.04766135 20171621.023247845 33230619.319712393 46975391.34582732 48844990.70541532 62125721.96284254 53436948.84547768 42457575.43465184 51456747.72401067 49012633.59734409 55798872.248473465 51622216.182180986 53694714.507731095 40005013.83066481 36045405.576707184 19449798.45732755 45703813.80714398 37922558.401659206 16492805.275387673 47362414.84450688 54271103.04308336 25341101.02912537 57529872.73216481 59784878.04052274 96171982.68270847 42941776.992299095 63411209.09769772 64415512.4404394 25545873.208225682 9791171.517223764 39041137.72102503 2192528.0883099735 45102572.98399216 51849678.14082308 18785947.69454757 18714215.566234995 38867730.02283664 16266066.586617233 32389254.505960684 60832485.67302062 12240725.716126665 14170203.36539089 14140764.295977157 18012430.953946088 54875562.092576854 58098190.05076953 34954810.21607296 47658258.00191254 33248219.523220308 69325121.77265668 25063427.304092117 36398924.60940115 41647214.8591026 15368084.883574052 51817819.080393694 15239362.736741904 68352651.59866469 50362014.62418369 43810503.105339736 16573632.017008286 24932164.562346287 12704789.476694897 12868385.198957855 19406719.33796858 41173408.56804071 59338287.27855771 51141262.48160057 31202865.914957102 16026007.246540159 36965688.40040502 22960432.37403158 15779796.750882668 15810138.404674452 52417688.16714394 31022646.486902915 2613613.0851784544 48227753.951718606 6840627.755768498 52033182.98521708 33061824.561977115 56288316.03575425 16631870.786555283 9197343.03415555 3432898.4251497393 35460176.959063 21958220.741735503 7641463.644371209 31644668.50889239 44855967.55463832 47869115.484664455 1660043.8242520066 55388980.24599254 52316542.34438263 42149702.3601519 4426222.056053201 38711134.31338716 16711968.196184732 16740368.926406626 5060327.478817305 16817682.159869406 56371207.275619134 61040407.99363053 58600441.53545191 52812008.40125734 51145360.92498023 60154677.49840963 47356788.59445992 28970137.89463702 53608933.17644528 51980233.05787865 28914006.237134844 52889919.650794245 53491063.22497551 59393172.664424516 16407912.39476155 45754325.86899082 18664960.73993497 49870503.912591144 36713562.45769124 108458800.3881313 9121078.768527977 53030627.83817184 33279781.205212805 26400094.65493691 51001224.22910417 9727978.20707605 79964426.25487597 26386053.645113375 38185896.29528998 40441651.97503575 25284565.56178932 24695811.036438003 43599067.0619997 9372723.038362348 51208699.730345234 18197075.200562287 18810476.400741093 40632582.58853681 62209926.91690521 51806757.60375352 24473935.327176176 24166602.302599724 59311032.918655194 25802465.979920007 25751568.818732616 42476863.49856573 34372046.726655394 34407529.52969575 51425912.178813845 46731151.579697125 37517723.10743929 5353700.099401376 57967800.31098672 63586125.09932045 59239231.33593307 44591175.50582544 48855576.364245676 38492110.32745024 26570733.868019223 48158709.445447125 16053967.411065754 15149067.24423969 52561551.998885274 11019961.704139177 81283725.96844248 50087918.74064396 46332030.180509664 3747163.3659020606 55151016.15909479 25345772.90909364 44062818.97979775 21356895.86871074 19065698.636203907 86050989.73911864 38890593.635224424 49624916.95631769 37676258.55226609 49350878.97229737 51804897.63201394 60239562.53604748 48689729.898072824 14404362.125926599 49248873.9251704 22211682.043987222 18080511.237611078 20655983.771292847 20226870.636667233 66754681.800325535 52494608.72171535 34815037.81450866 25708491.239036556 54605185.871157825 22945399.726048063 52143460.41722091 35854599.37518083 52888972.15883852 52420375.13216136 47471809.19693015 14587417.092503667 50892898.44965123 3942641.8679704648 57640163.49085568 56139566.45644839 13921359.247216487 49842791.29118115 21605906.76757251 42176918.14069081 11052332.721006963 11146430.819263767 52914654.4147656 17993088.896912113 8167341.700767612 31002164.90641658 51479405.22692482 43218762.58415938 49936307.29841007 61763927.1693631 74451763.37466387 928150.2356555368 55829425.74419161 25681757.10940968 23968674.160769057 48087278.54560766 33311232.142399833 47937103.22547586 36585236.58693854 50130399.99268439 235716948.16026592 13385614.087521803 50788712.29926274 51146375.898259595 6465516.224568618 30495338.188705333 48076119.77913171 20965557.75895773 53720742.84293414 52455785.769114986 6673152.171947975 10105359.140970154 26601825.56357971 24420205.208842453 74759212.6397466 51969041.84370621 97775780.81770669 59981771.969543144 50869880.222468816 135811925.72462854 83153233.57673167 6273834.96869366 61040749.73179657 55517286.730540976 35117103.76657689 5701212.879769616 15349625.818426562 38352242.828856416 47032709.367564216 48257135.6972673 16847877.274099164 16726377.519077485 37319404.26569168 105079389.50211734 33064268.093387175 47300419.636394344 24771544.461928245 48991953.11792554 61122673.8343538 36895756.69319005 22896192.801964242 25915514.97849852 13001586.642908545 51491244.307631955 9666709.953903968 50733374.039686896 60147740.848913714 71414942.28723347 60772232.81674308 27496109.688102048 51553585.799813844 37157657.92886383 49174395.59510243 50996078.2337184 50840672.36109956 48876627.31322844 37171380.44477044 47497138.75627424 65115638.12592419 49024969.633780055 52394944.027415484 35698713.0834113 61532228.64907466 40681671.37047529 55125776.21800336 48002464.10447085 39464425.581573434 33298836.682312284 25866167.100396615 27896068.9641565 36244095.77282486 51153728.18972813 46677489.54895226 104819201.35271443 58098441.394970916 63732800.462308556 52610660.57851831 52135830.44117496 187993946.0770933 45608900.852672815 37355950.9080838 18538413.894636676 29707306.138629727 54369191.77855239 57046013.34462118 64882683.07151709 37551100.67489089 38332271.928932875 62388093.24198025 48626228.69561431 30243114.933220543 53024992.578075215 45071519.39205786 47216215.87694221 107075757.03206277 15360116.506494861 12925158.474726954 12210153.884950677 35951767.97787111 38327594.69880377 46452399.56574707 45905993.65325545 67896354.17857438 40237279.24403506 9348475.720723756 51278201.182937644 49954924.42446145 46112170.20294525 27118651.7312244 27395493.463648573 21845861.686012864 9760555.011468291 52458355.19152942 37087698.32697481 1875934.1445830904 14014122.155234763 59431211.07378017 50199915.57594102 61883343.49828258 61017843.07196429 10121954.052224156 29264232.37524049 53887935.52278248 36415359.26925498 58152035.82643956 74933693.69079304 50356573.466512024 10666029.679031866 45036990.5695457 5186509.184174817 45386062.82332122 20694426.606247384 46431967.74009454 51849282.11334251 51639091.99529261 58605202.99743464 12350894.040551651 12427921.585667765 53229062.904420234 47764519.29298683 37705057.80422567 12493783.456107669 15971559.10620272 54896982.168893486 12931650.60791051 34031497.679792985 40168373.13684377 48776664.27009117 15998600.402461654 37477684.22849962 25036414.983217977 11563200.87992783 77696383.41157804 22308500.15575762 52894231.42847071 68871193.4720966 60164505.62203341 47778535.7801545 33683097.64458374 11770284.430548005 52326281.86344046 55415945.862914965 59264958.443983026 60844198.742277294 49889678.01204958 60744036.89971672 40134738.20838318 51653539.94230513 52335609.94302364 49729603.896445625 53162285.915811405 68050.1435421929 28309526.317777127 55285198.90480006 42913311.5095095 39299411.69319807 41734175.64445984 12913035.565672196 64627144.09160179 62228693.18012823 21665934.72873033 21085415.942848217 29278050.886329204 47215305.85375723 65475017.72125882 34668955.28243751 39998403.661000565 42077469.92504712 27170960.724201977 50513103.8099239 51991410.14050323 31993572.447694432 68151032.07233901 13352248.065998282 53368107.33849211 28520160.502606437 48572737.53870891 52007024.68634857 19794722.661758464 37158074.610535376 48142192.463258445 48715317.688356325 51495377.676011 69981434.7603442 25074615.346383784 26192758.717445295 40511185.03331046 32269738.106477056 28592863.051572517 51362291.732569 33127585.021652747 25417024.14425524 36665911.47126975 21024388.3765827 49098169.183941826 28278219.602310143 15045453.37431584 53884248.67033389 50393651.20218527 32971434.26214792 58389112.87686072 29818003.960207906 49616298.110250324 51486759.94215074 22987979.25745637 27368894.496847596 34128839.15402213 45744025.37900261 67794552.86129925 36477473.63758141 54526527.40782146 44899510.702225335 31609307.763924558 56103313.61352815 52572755.212892324 35965917.858278364 22273130.65564385 52065713.4808658 49308278.685953 36803914.3677301 30164214.475641966 38240465.69200321 51778944.43761285 50574240.72160709 852695.7860588351 844549.7020558412 15924663.798307879 20190790.546414245 25905983.981909525 38415998.3121785 26028815.797856066 32874921.260347363 51593335.355652034 17049829.127514213 53809694.60988833 29263876.860966608 51772054.86019366 53221461.08856615 18210802.297489423 47257113.93878574 16877398.212678995 53781321.66614079 47956632.177630946 53683842.52168314 50315821.88094171 50487503.254483715 35557811.69386268 948585.9636830277 957787.8932432132 29816722.09396818 26784324.241901584 43606492.03558826 9282498.238078676 27264174.936845094 53215680.83147214 28834533.27156025 55516195.41041787 2623031.098135438 20789474.45810003 20439415.43434317 60156636.27988023 30048383.722400073 40060017.232234865 29967008.17471282 50667138.62485797 33555808.80016533 53772550.892015085 43009230.69327162 40179637.50261342 25664950.12150175 25642458.411456987 50240141.30925888 62650311.34350907 27030707.342538882 50467827.214116715 55041879.063333794 6623619.646486899 57122970.032906674 65238487.932107314 2780416.169407591 37873137.29504798 58529835.33115022 37860869.40410358 32999079.663507916 33398103.20029232 62457483.30169513 78330198.83055 51056993.09625782 67697024.66333537 39812864.280208826 59736461.13445685 57332205.229952484 35194446.34885077 82237989.87392057 27787349.493038207 20478088.790366247 29221133.04495354 30746469.316459585 20415152.03658762 38717419.00668852 46570746.561616965 64064739.39234742 48759957.69483237 76935545.49375357 5399845.169393111 38286606.84696766 27943183.3945649 16157977.45169059 8251838.126193552 850585.895498605 22356275.15530567 49318119.906640805 7780843.370016058 62261282.2512828 53413637.24882267 17021123.746884022 32514479.093958016 50438609.97498151 63993340.23099234 57364798.88271011 56715255.73490137 35868384.60959273 38581181.72597129 24484467.75073319 72478657.0417957 58231848.79126996 60768888.603549644 7007734.933674942 2697097.558813605 19101831.337066792 7161169.754346733 53028640.84847578 69495713.54621437 47479789.88585025 886933.9735023982 35167747.29663965 781382.2191187679 61282676.5126503 49481579.06695864 50178653.63169391 7316514.62330343 52323234.271444105 1735491.2541307623 17435108.686970558 59164580.69487477 54229659.38634129 47888542.95899091 45064104.37647174 767005.2516334296 56173719.24319328 49682958.413867 54404494.87206513 36859910.66419188 857872.0934227195 42281543.219029605 27838244.929162912 54851844.626092926 46002685.18261066 54853541.72945643 39240409.07762647 35390907.836126745 48308388.069667295 45193124.90746441 54396446.96515266 71213394.0094141 53660885.23806675 82035619.83923136 41076131.37486506 28031249.527022287 23147124.145102 32722072.49640733 65924381.49223259 34857237.70291342 10138949.066210141 39687162.41459731 80026550.51120552 54670024.81365215 53902028.83884983 30544253.234622717 49098688.15978421 35206905.02660917 40161893.55563792 44257927.941300616 60538125.873556495 59810302.833801 52568703.58664894 35147690.78968816 54322795.76616169 32415064.5144174 54332725.30058006 15912447.22251986 15843475.47028811 31902504.641848076 35947977.09625628 51201002.85169058 14825259.995658834 47748064.75839383 26372665.759841472 44249484.4869082 37533863.42591064 57885372.69608439 35247052.934556745 51732341.98808271 59901517.05874005 11932531.761246292 50800196.741580255 19499118.650696225 374466.18304662313 57042258.491284065 90906056.23724078 41461855.02748909 36862757.185746185 134336256.11847794 50092469.87280123 23527990.41280921 52169617.22587719 53151178.41691057 95094329.2134161 58695115.04239211 50782233.78761854 55497126.2422575 51293574.933830224 34180817.94924946 43900449.34788546 2704465.7472040607 15797684.124308486 57837689.85707548 35891280.71140419 72627274.36971071 40709366.445211925 52836067.58666883 58376936.00711223 49879773.595193125 62253615.946976714 106734988.19781527 38769829.92723999 26103370.641607676 65715308.92394353 52200723.53714945 45447675.85676994 28116406.70128858 41984537.54202378 15892060.936100319 17519721.888459124 45304560.13286507 39809813.67772006 7627678.075490719 3649408.4307176364 40052374.90928282 30694977.107410558 22591392.353881095 49313513.64878211 14521466.514201479 28004163.954989895 58659607.043184824 19587209.179071404 51303455.65328275 6460660.850551757 6483429.178661791 51229307.22044387 52652662.771353856 27350175.60402391 302305.60045767576 33273207.98872282 27215866.98149606 54361131.77872964 65030863.216682695 13846021.137293624 13930157.713084033 53437928.05237603 48456465.882517695 32678602.263364453 42071119.065733 27234607.307052374 36063255.48332247 52922973.06121144 30107802.499347523 2222977.299986207 50922581.44293436 28821800.627222836 52310015.65328037 29253023.224937636 8598078.162564037 28525873.62956792 56538624.72012851 50188295.74025166 33238682.560378328 50112618.568122655 93001280.07983357 24186791.39287822 60979868.048507586 28455958.93249852 42546708.605703555 37862380.795904 49755204.71916333 59884557.93547833 51021965.92091516 59936384.29906535 50835920.700826555 64759839.80047874 69935001.60934874 16587224.442233816 66672617.08731164 61246161.358041376 10726258.2659047 58238915.10060771 43790826.366797514 29929966.695679873 60190739.930892244 35721477.85128172 34315659.78535134 53655826.82903374 66628391.37640808 114039651.89138015 57168827.48695172 36437865.25544601 65304442.185952865 45120766.84339109 53497175.101607785 4564348.4160350105 15522572.209735198 76506163.55982204 61484362.2649005 25153134.63415734 1564588.19762944 56531898.5028991 4413404.3898616 47902034.859060444 29502459.737747096 74768141.40989979 4942786.863461983 49874669.824034385 9429654.578581855 53685706.33019729 37506692.33838812 56209312.13539361 59785746.151629575 34626254.18541348 3674903.0036397655 51547620.669255234 50458515.85000129 42151872.12149884 38496016.371556304 30581221.43202188 85654590.15475358 28220948.73719415 58090726.07098666 67692857.97333343 62944700.5781602 45533336.45198465 34076623.41120744 46453166.305151656 29000679.067022968 58944550.15338793 30789687.73907483 86571095.07044 45158738.53635399 36657538.40810336 104798159.86335385 27141297.868196607 27056470.046319127 34633119.86680795 56798821.001496926 1523205.438529454 28199412.752518166 11492008.056998193 39021006.3660329 47879399.87645442 20016558.056279045 46621045.02913266 55847352.846307166 72788350.87328295 46872312.70721635 43074545.87428633 38604317.02397693 56948898.59267599 4975249.1511646435 34754836.32376533 57017082.00176051 93510638.3925359 21536861.20501764 53426706.64053249 36664461.31786232 6996559.71345827 54583639.77662043 33877464.39854988 37108269.08457981 57307453.054287694 58228911.55803507 23741887.643446613 23702079.23782045 36259082.18908677 31385180.699182507 36031356.4347259 67684285.45965259 21433144.40884249 16150479.257512802 53669619.02320894 44519053.26128723 35640043.019704275 11556955.764527129 66744375.256870225 51056876.67660623 49219963.05621756 46684743.2767583 52317886.38170445 44021179.137289226 55090814.70073832 38334582.92449256 31355276.822294213 69366374.76789565 61572867.759461425 7623046.612982536 55448165.43052981 68791561.22281948 57713711.48158898 27404372.401542917 56651080.640350215 49512143.59075083 77892949.63696456 56643265.8103923 35367547.777313024 51785508.44193611 51140552.92961446 16629553.283939378 44375390.934392296 54234706.72855966 69753639.73281062 57338726.4832585 56767857.45585958 24824942.843674984 86667406.82427166 51921907.52349315 54434045.5795729 54297088.75305326 62931318.34729832 38186495.039255 12143468.008828374 45100167.42289826 61057561.33699385 70886275.66025355 12897398.681419373 52256574.43756492 67395993.16469006 23929701.901297696 55692131.791462064 6314407.271905569 42836217.30063204 39570181.4488279 43134146.927494094 35268338.51943549 56044155.23471235 82905549.13132103 36157865.58862326 52536038.941472195 52866997.445141196 31820753.430619683 51318329.0027717 27693307.894942846 48996507.96399368 56533043.464002915 47861490.451035686 12266976.097150251 41283251.89398202 41230482.39448483 13723828.592835683 61612648.87690968 124753498.72433367 59373166.843463086 88631891.75812295 56499036.5931654 37077901.20233551 13602319.390178004 40444457.8646691 40955993.51173987 30042103.253377356 43819888.85493408 26778227.28160879 61614809.90312976 47544110.32239314 44910889.990184784 38553973.7883846 44977153.658836655 51242713.78694925 49735223.06702984 53811064.587858394 41190716.993088745 40989405.1687298 51026935.25010709 43569084.5055875 34789714.41754813 38985910.51606896 55418334.96130634 51731013.006412916 54559745.62485494 51445558.45971445 53145769.291770786 25470895.40759179 62748773.908577815 52556470.57164127 56179629.93547434 9790634.288935985 65270180.32087127 23546872.306385756 30449352.221356247 39681871.26050294 21844094.911337066 52048987.762090795 92264187.12531805 64232773.29611105 52606985.65652307 15078755.00206072 31864306.8291164 56920842.07456047 17401436.619534187 17731742.263783846 27391201.01606295 47335624.59458836 64074752.84594309 53726658.02217269 32940420.28033046 59293678.04184436 35845902.50775931 54409356.79676733 50878441.66358416 13882654.077431025 57041620.56317186 33311749.816552475 53039321.31366352 19659559.72221727 60329213.257926986 22860159.1903723 39611033.4771925 60790122.14292115 38116238.97470223 12798766.65121886 22709840.50809135 30192879.931453682 28038020.983112987 27693002.07299702 42605575.65798819 30533175.504786216 57344098.64098767 35206195.385414414 70051167.56761637 44258278.536487445 28719563.35566208 33397226.288864516 71768443.66802073 59063441.47736296 98829916.17789258 26896545.178984188 5186185.684110706 55900342.58847341 15606661.780345358 85052263.44432485 172158833.08666897 83360598.14188877 25664828.366595924 42743159.43051429 35511192.58925064 26310503.558229797 57998194.97017878 44254454.10631467 29760577.77616489 178351.62612121602 2531257.708748934 147761235.9940604 58334649.495820165 4911300.48368499 28971500.528170656 50167862.20666737 56813302.01269833 58312651.99090395 65945144.445218645 57366215.86181538 52293478.623471044 25868855.898442682 37952186.54492307 35282822.762192786 47846589.21282457 39828611.36683375 60607824.7893038 42105991.0162176 59361417.63044164 51486516.30728751 51123932.25473336 66377222.36852202 52046560.45491714 50639479.53267387 73768533.7665839 40410454.566321254 27194462.464682754 60877550.47606379 29768257.128624674 5518950.5667646 33808620.82605994 43317864.22854994 13049374.886999479 29033679.409032214 41147164.300007805 48259965.843108535 78033088.19364525 59299293.288360454 27417525.553404897 39812455.168942615 55939674.45404066 52155380.07873296 29203767.33043094 49143690.25009 48876824.3343707 37120071.39289526 60625849.378253125 58292215.17033483 39829856.80292287 52812837.77052974 48649017.83927511 12169234.129877413 53678756.49973851 54693304.53908055 52616384.033372335 102866416.0363629 45494351.26592696 51427774.42785106 33292092.091401167 65049908.90157654 31565174.96184956 70542540.93500887 3696734.4615412736 15962347.2835339 37608003.90941283 50254238.58982308 57219297.291739695 15323657.485266402 21260918.35948756 58400034.333392054 43847263.1251578 40600065.412066795 59793181.50334025 114985000.82862906 50632871.647363 55689243.525287464 38831295.64934353 42545691.16047587 71358427.15701991 54331420.02573252 5962010.867143416 44692886.1469419 61131323.27978371 19497811.849236213 40999452.85031259 55478573.747189954 22613715.66311472 53938178.37983883 55673131.31030662 110895404.69015549 51000736.61425581 30542023.95859913 21104703.89235203 20940339.20672497 51128076.427586034 46382934.250653826 39169353.56086585 53959268.55308802 52915959.055406846 113356022.82600956 4842328.436645639 51430009.71592833 62904753.75119212 17727424.76541069 61074665.76181951 58187776.18085004 31240345.668285117 53030234.13226 45409065.81404903 42190558.52849487 13699693.37933952 45700947.82666749 49706687.6383975 69258574.5797221 54590513.36446829 35513385.96751153 48988588.914859004 2793822.0559727065 58419308.436029844 36912094.99178904 30246449.901442 29662487.158204284 46563513.674664244 53402623.47557368 30744595.881897144 21270199.72071039 26957933.899145726 59362877.58940903 59626369.25971347 69752585.4140981 23245251.30540886 57285018.0793642 47411250.84909882 32184688.20382105 3144984.268902338 12113496.590050552 51327496.56337409 116796657.88926046 38263959.567122355 6950274.576543831 83233539.27528554 51758641.09019158 30559276.53594816 61559663.39976582 56579015.53719458 22575739.934840012 22660017.57058814 66012240.86649906 73345952.45164327 70234127.18016404 39696018.99692921 62505872.027319446 49578851.0761185 59563473.09457704 33432229.8759402 55341692.82199827 45151477.22863374 32475022.430240747 55103625.46555212 56578858.953928754 6896327.895848805 96281751.76879291 44489229.668591626 50523160.25574736 36869580.79646161 73973703.71740775 60287974.61447458 34987425.58277429 40688294.628498726 31484658.73119474 58630637.96031485 12196553.720447507 38715830.637866564 125143759.27638546 30839892.131642453 30595798.108646862 53491312.53321253 58954805.922259614 34950403.076491244 53174466.33848351 4797047.365436847 5045020.046459272 33980196.807190545 50961101.97601329 65934783.558110826 39450176.41975358 33366954.27745922 36004038.08921434 19873495.587147478 7043110.31234699 40885849.422012046 5059552.278709647 55921422.53183205 37862360.71643708 43644890.634398624 37447553.82914375 39223418.159503534 37637061.18324745 26500054.258619085 72133510.20954777 50923827.521819465 1736893.2853560236 24764180.413761057 57796481.050518736 30532052.04608555 57041466.770400524 37219013.89840018 48221619.839570194 57084866.950377114 58461447.55880734 6853459.039859297 104562792.12402146 33729307.42940275 4779222.822154347 50812800.63701052 42945802.08847018 63722679.99384682 67580982.49847946 54583779.293566026 1508775.4837129887 51673922.01135894 56518327.47119951 35095493.86762676 72777450.41100557 50874896.58983982 14284581.612863341 4580429.443074954 46363935.51652933 34723481.91255599 42205489.50925382 36169899.88968006 22649484.43560396 46475414.67430608 36277306.56778744 27787984.010721274 25033046.667793836 46731165.48750915 58152407.48327309 12256563.452918038 11366311.175202662 60255525.81800165 39046168.95822465 22587548.53313347 45700893.09886191 29099354.024250213 60273883.91688963 50009231.96344089 36286813.10079857 18580725.284821324 41005599.6185461 34335774.29626992 65233082.67331607 55004595.42942336 34445623.92226411 57548659.73809846 24562035.132142477 103342920.46215329 119177620.09538817 46372816.156619385 62468248.63829722 51330555.772959605 46006421.76137865 16044097.948777469 51561956.97014563 29120731.723055396 67322022.38947737 48080892.41760712 8269480.814832027 20441892.18394477 10750490.668593079 63963905.88854068 51743411.37452156 53346514.284999534 31778384.050343 48146521.0116137 53606803.0634688 37284412.610958986 7860130.116941075 52023287.22632681 51770450.13022667 63187198.43650829 42109860.70479557 56141309.223124586 113517455.08093092 41037905.11312055 38899060.95361997 35021610.64728891 56150906.80739067 51364916.410807624 31350214.331064675 57209518.35293552 24974791.890901435 40530990.620191336 29836273.994921673 38589718.69789204 42545512.06919145 47984202.469236106 56621096.62809029 16486644.487564819 23966986.753978312 42878168.86600696 44044716.38480548 56217755.20698769 64039448.169559106 36937399.96650898 58395881.91062671 48918267.849645354 14506454.096296225 18334587.56320839 10390604.008053385 43919071.220424615 55004188.561614774 19633663.119586747 48958257.68739148 44265535.99711521 51141361.07453919 52221521.094017364 44604153.82323891 38642169.24393131 25631510.950922202 6752766.7331062425 46217378.289316185 18927845.652081314 59508489.40166464 44048912.42109406 50063396.579216376 156287070.27268872 46500409.054776065 56083436.49807718 51900087.15729392 72514779.9757109 32051513.258210354 53140910.33731907 57204751.57064359 76220903.21450421 51439574.479406595 58394988.964869864 70191666.79055882 93526645.80535343 44996289.422589555 74761539.36488873 63192321.83100967 61076614.23563437 35288636.26280879 67796083.98193295 16932289.728579395 10661623.52033963 8725848.913840719 8573089.343508745 33768887.6145245 64263189.99599866 52621205.48878107 46979989.45478484 48146262.38024515 43233831.69000535 51856371.84052271 1796036.8877762917 29831472.274775427 79108727.85910149 3990658.103548987 3982737.1608894817 44861447.939427376 91396752.86693898 12816648.873970807 12211823.185719755 52171358.29400185 28706212.18645461 39098252.76559 47170770.05217772 53509693.94016305 51040342.013442256 52942893.92488191 56239280.11865042 58400025.463537954 70646436.58987232 60855380.58842851 65957384.01915882 114195590.56284851 54391365.91746695 61059069.76744084 56911829.755558595 56652773.29754776 37568012.33895512 36330160.23442442 17286750.34573125 12573512.27615725 40293659.02020624 53254084.48147855 3244587.6663795873 4090570.8098090976 59668070.31701755 5869886.311179231 33313671.984586433 26007466.320624072 25821343.610216036 64133219.01360481 45580908.030974895 51917419.94425402 8349269.686996145 9913499.316036278 12534067.833160242 53548286.592495434 53203502.05910811 36581911.62034834 49730727.627890006 58339130.05732413 57023361.93548374 51595555.19090768 34019330.55025051 49543720.28302022 39331385.485930316 19562781.429295853 34597400.97980712 9741500.839017862 22111074.40865886 41487737.64348712 22786815.947035156 105540220.10428402 39228534.736434326 69078645.85652426 58787065.2900705 41883448.248186596 38482011.95931557 8011907.373370764 38058635.95437075 36605527.74684279 102899614.0046349 33724187.932254985 45584499.92197909 50287276.765180394 49685560.11491564 22724661.67860537 22646492.080319136 41309190.42212812 49749311.584904954 37914792.79794583 58806355.84861748 37885130.16592341 35947645.8312842 28910555.3514243 35931079.48716663 34391717.40983058 64194815.46338338 64209881.039119594 55136477.45198816 60553456.196343124 56616640.52741388 41523102.9788969 60194336.84268872 54124612.07801594 65188149.50969094 16743222.993115237 31666405.27967844 59132958.669182174 53537003.842551686 70777639.76363753 34387871.924387954 39580327.72812175 45265913.26898106 56718580.108068 38852111.032085665 9598011.495225778 56247827.025339685 48824305.335839815 59359159.20472947 29554185.615697145 69126001.00124484 41963667.649559684 55110588.60331845 29760797.664287925 50948439.93680485 36211122.20309762 8171741.69701015 51241873.75357551 50514488.9649458 40877072.26950339 56069270.180978484 53600839.04931533 37400080.318909265 44272136.59831336 58171196.134597495 49755398.902448565 67683545.23742571 65788225.921358585 61763819.475873515 482539.4480459403 83979930.8282219 16815145.29327108 49432482.21237503 51686099.36173234 18745494.675533954 25415830.960613787 11538391.838211441 47833254.894350454 56140772.88070662 8521571.60130752 40956456.1887145 82310752.40728027 52019453.54847106 56078897.29301184 38306175.045990705 53907525.474822 54903286.857695244 39110553.554455414 50550172.16867527 51816560.88397813 55377115.31817229 50871489.83965236 47000910.87779203 47212519.60905085 50269347.36598529 58880325.61283873 15730510.895796156 62623328.2971465 24078777.285188448 21073686.388267472 10823648.1169807 8595967.775055815 59848726.54830517 20639742.217481937 75911640.43022558 49337046.20843346 59621139.75693783 10669988.57737828 23307566.69703539 36805654.849921666 56025453.05443229 41238318.2990884 49019488.0296528 12109543.81854899 67330276.41811082 59716371.882497214 45215137.27454687 60316872.883718796 51337767.96423058 68740554.94849332 11479326.103421332 54814457.9896267 13809454.41469323 54271010.209518574 38339474.982801326 16760036.867752433 38869737.46457331 28541915.8301954 51242008.75081655 94417443.25124902 38358071.73139501 61303313.85492022 28539042.664546754 52873933.14403696 52733493.35100847 133232849.35774374 29216383.008381523 45507865.263678215 61047552.06284808 41965428.54580471 7168987.414699338 7183155.027973364 12171877.491892092 2492722.5357126505 50806528.879807346 37377325.44460165 29348775.478654932 59929222.462760985 63353845.00407228 157396409.23583257 48189027.18521639 123643133.55846281 1294747.07274879 19589879.40350377 61349582.71624328 24957308.698136855 53648634.45697971 65224689.60249367 10022437.493127814 47725139.791218676 39011877.87057434 35818114.686319016 50339571.6865381 50052518.86668627 34018414.03356024 60510214.937033944 42385984.77653457 58302889.08658712 8701706.866130373 59946165.71385401 51226734.90460202 48952381.440262064 48573883.40778403 18726196.4575937 18717161.546717994 3205553.0767640625 29366725.824768495 48566399.608373806 46360303.825334616 35734086.04534264 67011915.163918525 37356446.400155395 41963976.54540373 54513989.27174937 73100937.5077293 35171005.73386375 6998061.225613918 18397728.846608255 36720960.148307845 35498949.4078625 55434934.93321159 62472969.4289139 58184495.980585426 29317050.24129134 20622762.446048215 49290984.626672946 17071530.260124013 41891468.65668303 36072216.85773389 51241758.59889704 40091736.55633876 20441130.559843745 41313267.1936225 107315220.18593518 38643285.183072515 29232573.010120027 15146585.569737094 40814264.164047115 30476700.474628177 29936792.70131039 56622965.84924459 64178746.91645388 46210532.311007224 22411731.68272856 36147509.27199888 54187789.83872589 51932334.87049743 53419369.21277389 62716519.48658797 7158371.109448516 41289756.43337321 46787787.69254406 14434767.391735613 23757946.545380574 25440313.275483888 62846327.35731584 51430844.8676522 57059751.56942002 125753528.75611076 55354243.87044047 49849160.45044451 66146486.5231387 62086042.39695654 41136631.09054148 1295838.7556716579 79841509.14730285 46416108.640812986 53321448.85928823 33641327.14558232 53617125.86750459 46584791.424975686 22892656.243529674 44373624.621840335 59193049.81171377 33218505.252899133 59039841.616500214 52954349.48278191 12848350.81800931 2214986.078519836 24644039.955033313 11843427.065131994 48559251.38886022 20243562.85085154 7811496.673210353 7821044.217497486 39876785.73554087 63309012.233486265 44983496.47232079 34570263.792684205 119526512.34688073 50029776.55630354 59518774.73715712 86509798.20362635 14197098.749207087 11189206.357558537 46309667.59392475 29569361.67894328 13104080.926221974 24192305.177554127 52256636.77269184 6525060.338858211 54966705.29188325 19803379.244892836 19776743.504074622 16890357.737789836 74921559.56941393 57516275.52410827 17464581.589366697 16869956.764063694 54404620.895155385 53309149.90669978 60171908.7947234 54472627.744487576 51859542.42465673 53839809.07739527 31162753.498201564 49627863.738871396 50081261.928989656 53558811.44475122 43698547.46559758 38356769.9047007 42995621.071296394 38780292.84846079 25047427.41859387 40915324.999793805 58014159.54623819 36930435.470383555 54600791.655899435 46632478.11937552 12575516.911263589 73777412.93109328 36580626.97599151 57384956.084434815 37230180.61112809 73241395.65235563 55804524.332596436 8874939.618367024 55230592.65205346 26822786.776016038 43132589.79558746 37124755.72592523 40446738.465633236 39390648.33253403 23835812.291830022 30506873.425715916 45250821.36135036 9699479.984094992 62915523.44523383 30073856.132153608 6420450.611709959 19321845.57606522 55397288.684344836 50852839.104586184 48266137.11280916 50784141.19298673 20138975.54420835 47252346.98920894 44714942.11358826 37065858.440764286 63945352.52621708 52499213.69989982 83918606.12974577 61638052.05789318 13596605.077846954 57579098.82927381 56215567.553769074 57618858.16086043 139875559.62564644 4377525.157327903 4390850.524826202 6428375.526410485 61169300.025667965 6202992.522153726 58251824.317009866 48427246.99654873 60851210.61824853 54472567.01399282 41215384.077475116 5606500.8099181345 4200533.262239642 19975778.30613223 54414933.02935104 57883987.5960294 56092862.561707795 49145779.79492053 60163984.580252066 25579762.074148525 36139267.6827737 5494205.851940256 26134164.1861204 15868779.600723188 28823655.592281755 105204577.35508397 62371112.24605719 129895625.72674412 77304771.27993944 6000358.92000325 50977133.40465626 15504818.438913401 41237262.25334536 53689108.92138193 40832061.311221495 40112203.79604395 57914208.5476397 54541642.942927666 64729494.68859492 48767556.995391265 7339739.821948335 68128346.02665655 62695267.89406408 50017755.758190595 11923699.925110864 48540757.27792987 77593321.72316226 50462970.63489519 48932691.46676267 46703350.400208265 52971783.57324119 35933228.659313 57790835.159868136 19575027.686189998 118245019.30608502 53020859.734841116 60336739.93695257 20476613.57436024 57934265.24652797 60215407.11475845 58515276.19136584 34967376.90076952 14601194.140569165 14703967.681990122 41233098.20128809 42367193.043018006 50218583.05537969 55977091.75745579 34147260.47369671 54468654.52333084 50774478.78108858 7568649.806267514 52729640.97318326 49640399.35314021 10636360.858066123 36891620.33301619 3396863.2900636466 110822332.19609024 36268562.98505665 42547754.12691781 52021503.64169001 49197570.60773707 47180670.99723566 28744572.221128434 50741337.35847397 56205364.21950536 5638539.6687921295 5695871.54124873 45726959.9436936 5070546.89653999 50254932.57087149 40764459.555881985 51968972.40748523 20273752.31599884 20609019.658003632 52276633.99933558 55475404.40709303 37679157.92570832 85016693.3324824 56896713.27200501 41611657.36885098 54683413.55184732 40043477.9571628 5265936.981624946 49514314.4529554 35596750.97149864 51588400.667590626 55238894.58843585 45167130.79921335 59804991.89849294 12878511.369979588 48048441.871089704 37187909.48983701 48619786.200494334 17420164.89049241 52724888.71007816 39158169.98906245 59967205.73675768 38942442.88788421 35965688.930525005 40498859.80839991 61556367.27824662 70650676.06138076 24746495.411623247 51485194.42180649 21929555.46700561 26881166.396270413 56420059.73188513 43534223.78679836 57445551.26293929 29733707.01408208 41899616.44056199 50946479.87426699 44332478.7471641 20043081.839729063 47938433.68028003 61847810.20862042 4276656.101041792 50584669.97466202 54886847.70092833 42492490.0079609 48771913.40115592 78529563.8099105 6907489.127188431 50896967.12764269 107624068.23389772 18295330.30436255 44324444.48038087 49036308.37762125 4319657.239865148 25668056.644270834 47954065.54799943 51307104.01506894 59226234.01357634 56524150.13341506 56699100.77803841 57649838.21272998 52765778.7281773 55331687.84410166 56022903.03609908 59353295.683422 49428433.41490323 19851084.2747201 55438487.94751246 64492383.28490083 14493111.382607631 4354282.361220222 4400000.583817746 63342151.31167392 11111025.196775911 50516507.01558392 71019319.41387704 26978108.215791356 33140041.843917783 35156024.87188654 18577114.699879438 46535938.60646999 35407486.541971296 6001464.409307813 19945089.525729038 39384004.06388348 56469780.94444903 34504298.760526285 49690357.79723944 32807800.24343702 43123309.420510985 14897356.378334008 36515805.76144328 46833905.95196692 56501213.95911002 61736305.72669968 56141555.77982889 56437185.873279184 72659181.46424356 18690800.059890334 18668766.74337886 52218969.136376604 52454667.27370803 64144746.9971049 54565922.416708454 18160751.82286397 7843696.83342188 96560572.88214476 41573495.57264069 47190178.717946455 50158299.56945076 49229215.96368533 46218160.50059795 78735299.7099888 52218044.34451081 54241038.325927265 61478863.61901299 45017026.749851204 65133219.08385407 31445807.714505956 31250544.575866353 94875837.6563458 34099480.68349832 13977953.766967196 53107067.08885224 54944938.77076218 48867055.7007839 46482610.346780695 51185988.949627645 56370924.78344886 49076521.58708196 12623254.471126167 48878407.02618466 51056999.64501018 61237296.70258564 120216233.43931839 68817769.26621187 52052265.52551983 49445692.14362879 32655305.699780736 41149978.49799503 19101663.732868027 63926469.92738545 20638776.847801458 48444181.18109255 30479679.518413022 29831496.671617284 6958969.7253428055 21994442.149514705 36056338.90692455 28928258.207534097 28680558.616452444 49087726.27121489 12146625.568120768 19630428.5078331 77362247.10913917 43952668.262305014 83463202.4524008 50591507.00722677 11479339.396361874 47002711.599248275 45584428.013654664 58320079.338136494 31108412.773654863 40720085.30930751 7593932.053772906 7625320.004098781 43553046.163016945 51581849.747647114 55074421.07883084 41549710.12529196 54772510.75850571 56239054.74712675 19741106.84555328 29389211.69858695 48037774.16927937 27954275.064824354 70982103.8496104 33015571.78007847 58610329.09813545 9062274.809279716 9093992.59161966 43262741.45986179 5003190.397704394 49213477.58815704 42567604.99708871 39340583.71324795 40342054.72162633 58695022.57837991 28292014.07138743 47977002.35959424 35492651.704577856 26216681.746849123 51625874.312697046 52891624.706957206 59747896.90422304 24443677.3086028 50468099.41017755 43340591.11441987 3849533.0423487173 1094254.5167271974 58240784.096146524 53571450.79614551 66311547.572182514 65324428.56425784 53345619.38868155 65581905.486837275 54063479.90186558 52984226.90230007 43135042.047036074 40355684.672922924 55817787.33927046 77938884.09380408 54417119.84830311 26925882.440891627 26231102.279945403 32548355.46529855 43472422.16207307 44980888.914054394 37339372.30457186 2689798.182895277 49508289.62730587 30868450.7123239 52880540.88207455 54067949.46632752 56092841.74038894 40386253.42650128 41822875.68989831 49793821.8306864 63149318.733507745 23351406.997428145 58522428.95312317 41698255.61337248 57827265.61413843 60559021.67134187 55928971.395332016 64977162.12949816 44187591.03571443 46823878.71488416 54482304.46969232 67288443.30881235 46889376.94371713 63531271.27867835 24581478.435369074 7212464.091581704 43135508.83147974 11244972.66254662 18596840.150888827 8609518.890086481 6778864.290612383 42393546.061751485 35041058.232705906 22383629.66230232 49789005.24818793 45849881.5334867 49678054.84338083 125716258.04086745 48772762.75978509 53908894.958618455 47374868.25815769 6383029.813428477 6324701.9186507575 54617572.41042309 10534216.221202314 55455030.0447056 79178820.0379658 62189534.12927329 27258004.775719717 51522427.87944136 210442209.61063743 52235692.20330796 1602280.0468140114 55679869.76080353 37595995.15800784 34724555.82089024 57715856.640941784 43320843.48319017 3222832.0816171514 3251238.3349278453 52525462.383621 49420282.14504044 56679883.45034751 52022537.348223165 44889062.85834576 43513438.89361594 30473460.624131985 49508729.284701034 99784682.1868865 14372232.584163718 51090530.73859007 52392874.07257552 52948374.21061891 61654366.16672724 43187420.39572774 135160135.871751 23926071.302133963 27333118.2234141 61458694.196168676 71092845.23652083 44075375.682419784 40602570.6894022 50255876.33572011 51245931.471853495 8675345.460085642 51176038.13739052 14733915.670995902 8182735.773385618 8334498.910159098 39288325.352489196 8773900.261284921 8811331.80269323 63490791.458059564 29961370.276832398 34042394.97549024 82627295.15923499 35673993.32435785 3808382.200692809 42367021.725511566 33402017.910593055 48281804.634347506 60334120.59867279 52668269.10087877 11213970.345981576 11209740.004969476 50849058.43794376 49742621.016569406 38119274.0913391 53119769.771568425 7529184.145797352 45796058.72940016 26876549.20042137 59019139.71535421 7289768.743497192 7323754.990990958 7358754.32310438 35899213.93389859 55081469.82882132 42277345.190774016 2456219.4721646733 57494705.917711675 57733232.82969532 8900120.457956973 39027698.79462959 49469961.03128086 86967144.01886661 27277266.01616753 23781973.84820369 55195676.817526974 46462011.01105119 33387653.519305106 52155650.85661103 41094219.45033295 50068124.13993501 49942066.9438197 48704896.90813221 47823043.692867465 57420779.13410864 41880465.532506734 86787153.94078335 47051781.33856701 27690721.7087095 6121473.364268462 31337856.170448296 8763341.245420959 51979888.52196731 39125218.38633479 35975498.25171727 53237932.19811505 69229195.1295714 75226045.98530859 6397882.710633757 43640970.98965692 50654682.54639824 23658562.74136491 56461056.87913989 50190754.514422886 63309838.1550546 18527070.3706917 50771896.66429811 36908416.718161896 66585050.25380181 50497345.6722925 50087606.27067732 53259436.58825383 34708171.15184257 23819882.71589893 20173765.299008664 32511809.026494753 35089688.48262818 57731458.58882841 10770863.70938016 37803685.35749179 10735920.28158691 58327780.87142408 43288924.674190424 58667910.65262814 55656949.14320294 54094410.76569191 11019509.717067616 6116177.410592335 42845548.9952958 56882699.80146125 40810580.18617556 56911984.09858718 57152592.91641076 55904543.0547268 58536058.42727468 81575576.3640324 49831049.28110856 67309425.95064776 28844705.932883006 55571999.507577166 38734260.719406694 56984556.73205866 55031288.546775624 17088044.443048857 37829910.83329958 41528453.23859422 51612227.25027336 55107074.04737884 52372789.246039994 59735171.14894768 50262897.84449915 55559421.35807213 33892611.587472305 48592302.05311242 4968068.997541149 50406817.11832726 99985163.14919738 50215457.77405442 48394416.35836589 52112477.13097601 4749887.164232149 4534385.189535079 57407995.09640176 60085218.24647834 83695318.03149085 5284943.018789504 5313661.448298423 60453415.752334595 55954714.42839321 35343581.731426604 52487373.9396247 35153602.38973848 59699405.73432709 59640948.939286426 36035805.05203346 46884910.554248914 56612202.503457725 54534518.884071924 36042194.88343758 39041095.57325356 73440812.32068558 65246617.41963845 53613993.01672451 7250747.727819517 7344381.664610613 22964261.268311564 95557298.62553391 14401882.525172006 49719183.41026197 56175990.17213636 47916423.87093968 50795441.692731135 54709932.2625617 33046706.67270846 98729085.41153204 61441069.44675485 52487119.624295115 29916717.020589516 50352826.463541165 47197077.27783218 60575492.55938797 58297440.819491185 47688223.66773468 35979243.442474425 45840749.8989245 24654242.828800164 49173224.25695653 59096149.10871793 1354487.439758234 2885327.4780111336 44476494.71319761 4888929.568238417 38801655.34423798 57566792.444605425 4751061.320835449 17833623.412323497 37244211.39112975 42126506.40030294 49973826.27264044 52864892.81744474 52657385.51277912 75836351.61754379 5238083.118509639 5269069.116246679 39907598.61720312 57768273.625220746 61208941.59541019 49956201.91898634 61882105.66897232 55764862.123814546 60145154.89990104 54226167.41765767 43717505.19725862 40313599.11718105 19840326.825530555 19285481.076934483 56747864.64818281 49632876.86126983 56180825.74065054 23875069.211322453 55063847.34409677 13403487.6531816 58203013.44814493 55220612.680972636 4995319.472196904 27772872.87499576 42390728.44606753 49124128.77713387 5087033.7914882805 59997078.65879471 56032629.89523612 26609994.225282494 35293057.5385546 51901252.391737655 54760966.02989546 37434816.192238346 46814889.80844671 54330443.773518994 42157646.33649955 54733336.747215755 38604111.415023714 50423655.925441444 54972622.25397205 51171680.214894384 41090670.534648016 61168799.133363806 35698745.94703657 26792207.741342332 55327115.25886584 42818867.3998141 52659582.074797764 17413826.66920748 31765379.655592337 53620541.82541845 61068996.488692425 33863702.2055099 61680926.71978589 37957364.49719236 21324326.7757003 52944225.76193037 31551698.861801732 37557781.27766602 89889860.22536524 46223677.02111744 55235529.2933629 37970926.87197434 59453375.9301076 58215542.81990874 2712390.131797378 2697060.3576624338 2991899.525162716 2980048.8294372717 33444133.276878025 16368487.695292348 46622688.82673441 58684559.158568546 62749403.413385175 41901069.38654749 51847022.98157808 41117430.03273969 41843804.861530535 4439634.280070983 4379357.485957189 39219953.95145135 21233112.814736616 50028531.83451892 52125509.83445389 55255050.62342711 40981788.943331204 55350665.01514482 49652208.221413955 16433148.378886146 51225324.9492457 36996914.286690034 39479425.62065817 38989037.86553837 38835906.78113441 66588489.14575723 51781151.79148072 8481202.068126354 60017690.01556757 58318363.619030185 27147171.81077917 9923581.53000046 9745203.542925326 61443714.53875707 53755582.45946442 70838337.17076086 54652493.73549493 36176979.32306108 50357637.553181194 60546817.534977 46176976.88705171 48446786.440592244 50551694.5454091 53975199.5430497 43779676.998963706 36526581.79000776 17244050.692551453 49932392.26640049 53575730.9866215 49272397.81931043 52499014.31184345 68495651.22771817 59647998.37966254 2756943.0408651694 57204296.60588899 51103058.71926323 115200740.29241632 61160379.85420293 54982663.09852828 72622567.91320524 16295832.326492846 9473339.923688065 59364732.78339993 59244294.46413106 71518347.21914607 53974610.275712244 56545953.98471527 2839280.78494323 52341609.88264961 52431776.13213022 9732933.9112359 21255752.020424042 57767907.20249768 51504999.34661494 52708552.9453054 8629130.064362954 19638633.26706114 25146228.459896673 56157094.7580132 51398996.59296915 61670311.352391705 2844985.4190144176 42048138.17776445 11296422.79919365 2803610.4223896586 19215449.864923093 36838954.51671249 44513022.37968788 60240822.490679845 40399439.62792714 37563125.24899663 52527512.26691907 35773206.214598045 61251144.4393175 20583874.032782834 35033691.66478895 56969196.16058877 12113007.822862275 49455529.79428423 42622185.21404483 55845645.23312886 50101597.918594785 8151077.191443717 80074607.01497106 38623470.60970312 56380126.69729887 74379586.37818743 52077037.59361881 37845701.65288904 3563012.9859672617 53758094.08442306 37013767.76216221 59703838.147326775 51808113.088105015 51918286.20807649 36488834.13218304 60433031.21863412 53648058.02303979 42965784.79760335 68480387.44908556 47811125.56301819 59995612.36730222 54259834.174205005 20973268.787580773 13056881.809909485 54981032.76273179 52982671.41699886 53971338.77291311 36900356.22490234 4747392.960699083 50618162.65831273 58398857.98161757 20015825.727705844 54026035.74529269 52978207.69275343 55299579.153326415 21058965.696412124 25339956.792431943 56290852.38632742 58304049.75524378 55182962.306480356 59205623.79502197 44035669.10309671 50622193.51158251 12673840.745361933 55500597.45688183 50487128.11929901 43725373.51003602 56646394.7435778 27402968.870899703 49599418.987502426 49148118.901508436 39624227.37282933 44195617.5747353 51571823.06471415 54957289.12767768 39768935.37267229 134244760.30703112 63805554.32778629 56338074.33250815 59022946.4076231 43574841.3854394 22723859.006212134 62957632.74594686 27411868.885430533 13133015.218545545 48636674.64837226 48892129.803982206 59750188.83774752 49787213.45035724 47313209.10966109 25175186.042865552 26467411.33628742 44303824.45688548 53122252.25293877 37225644.474502355 51681139.60564059 54068380.55179032 25420820.367104735 63130084.01910659 17824825.238920514 52718905.45225427 50843506.95174371 54602866.57065768 39352864.02094548 38783257.58168147 53977111.19025385 54374749.71272354 51611613.002958246 41304476.223565415 50618183.06315892 61869136.75243662 55270622.31982678 53388619.417473 54543317.42813652 43594209.31788881 65851157.26748934 66635256.05209604 49681142.98725026 56345712.20365714 51031706.01202281 10218682.211791234 45667728.163706854 52876499.21726071 39512314.36453654 32376313.45900198 72715260.11570399 49460767.16071545 52568453.85496225 54910103.23835201 68193242.26813823 54299035.86801165 37476199.691804424 51886472.39614447 50759108.74949039 50725898.67832721 50911592.852765426 40268821.284611605 51415211.099855445 58278318.99136271 12749397.564035887 56515142.70133513 40972174.48760337 58339340.3292033 36458153.493775286 68398034.35637408 64024435.51264532 38642880.620508984 39850291.5793775 50081111.632760026 34343898.34891623 21061185.4848591 59184466.913524345 35769201.82555263 38247526.00482216 52617010.30624185 35556034.02048136 47577678.849967934 42421619.61824304 20891177.421699703 10485582.041549908 46675422.771161236 46364675.72959651 23966159.55648921 36289838.164675206 26939439.196294878 57347167.2437256 58152646.68802489 56770601.639697365 63163711.62250173 54441620.299733564 52434204.48869207 49344662.97416541 49473306.41780258 56138001.92217578 4534188.87403923 59438480.85592241 56286514.69771712 60996894.781860135 14858355.182740036 73429524.69199266 51511502.004518576 51685266.75395374 50206723.62511698 54516712.38107363 53993876.323319405 50039463.41272771 26470961.315744366 59827913.63913242 34946403.396723635 49359905.02096571 49722009.67768393 58747731.15417574 55180891.998053625 48953747.6687936 54142869.20473899 60724599.067716554 49218724.59078494 41575003.456993 60021872.221643075 20285124.44666904