# vtk DataFile Version 2.0
Really cool data
ASCII
DATASET POLYDATA
POINTS 2337 float
0.07187500000000001 0.14 0
0.093125 0.14 0
0.105 0.12 0
0.093125 0.1 0
0.07187500000000001 0.1 0
0.08 0.085 0
0.1 0.085 0
0.12 0.105 0
0.1849999999999999 0.10703125 0
0.28 0.11 0
0.295 0.095 0
0.315 0.095 0
0.33 0.11 0
0.33 0.13 0
0.315 0.145 0
0.295 0.145 0
0.28 0.13 0
0.1849999999999999 0.13296875 0
0.12 0.135 0
0.1 0.155 0
0.08 0.155 0
0.32 0.12 0
0.305 0.135 0
0.29 0.12 0
0.305 0.105 0
0.07400000000348979 0.14 0
0.07612500000779271 0.14 0
0.07824999999894969 0.14 0
0.0803749999952566 0.14 0
0.08249999998390638 0.14 0
0.08462499994822933 0.14 0
0.08674999994006395 0.14 0
0.08887499993420249 0.14 0
0.09099999995734342 0.14 0
0.09420454546797791 0.1381818181591951 0
0.09528409093074393 0.1363636363271681 0
0.09636363639190157 0.13454545449785 0
0.09744318184341337 0.1327272726847775 0
0.09852272731240327 0.1309090908422682 0
0.09960227276056262 0.129090909034842 0
0.1006818182120926 0.1272727272217388 0
0.101761363665652 0.1254545454052176 0
0.102840909107117 0.1236363636090661 0
0.1039204545501074 0.1218181818103455 0
0.1039204545351962 0.118181818164541 0
0.1028409090709904 0.1163636363300891 0
0.1017613635938893 0.1145454544739189 0
0.1006818181248819 0.1127272726313801 0
0.0996022726730604 0.1109090908177859 0
0.09852272721320884 0.1090909089906675 0
0.09744318175503311 0.1072727271663716 0
0.09636363629795157 0.1054545453439184 0
0.09528409086031671 0.1036363635542176 0
0.09420454543107991 0.1018181817786609 0
0.09099999999569708 0.1 0
0.08887499996523776 0.1 0
0.08674999994887313 0.1 0
0.08462499993589656 0.1 0
0.08249999993105153 0.1 0
0.08037499993731956 0.09999999999999999 0
0.07824999995016058 0.09999999999999999 0
0.07612499993691299 0.1 0
0.07399999995578486 0.09999999999999999 0
0.07289062500457012 0.09812499999156286 0
0.0739062500150524 0.09624999997221094 0
0.07492187501767741 0.0943749999673648 0
0.07593750001518247 0.09249999997197084 0
0.07695312501915545 0.09062499996463608 0
0.07796875002345953 0.08874999995669013 0
0.07898437501595107 0.08687499997055191 0
0.08200000000315096 0.085 0
0.08400000000745388 0.08499999999999999 0
0.08599999998316099 0.085 0
0.08799999996401804 0.085 0
0.08999999995273557 0.085 0
0.09199999995121089 0.08500000000000002 0
0.09399999993491398 0.08499999999999999 0
0.09599999993196628 0.08499999999999999 0
0.09799999995619146 0.08500000000000002 0
0.1014285714352388 0.08642857143523879 0
0.1028571428514799 0.08785714285147984 0
0.1042857142734444 0.08928571427344442 0
0.1057142856932188 0.09071428569321878 0
0.1071428571212457 0.0921428571212457 0
0.1085714285484982 0.09357142854849816 0
0.1099999999822123 0.0949999999822123 0
0.1114285714037534 0.09642857140375334 0
0.1128571428189054 0.09785714281890537 0
0.1142857142250183 0.09928571422501833 0
0.1157142856555137 0.1007142856555137 0
0.1171428570890342 0.1021428570890342 0
0.1185714285384064 0.1035714285384064 0
0.1220967741945716 0.1050655241935804 0
0.1241935483896608 0.1051310483871769 0
0.1262903225842215 0.1051965725807569 0
0.1283870967914896 0.1052620967747341 0
0.1304838709523535 0.105327620967261 0
0.1325806451356187 0.1053931451604881 0
0.1346774193244425 0.1054586693538888 0
0.1367741935195587 0.1055241935474862 0
0.1388709677096723 0.1055897177409272 0
0.140967741904188 0.1056552419345059 0
0.1430645160818684 0.1057207661275584 0
0.1451612902720435 0.1057862903210014 0
0.1472580644834145 0.1058518145151067 0
0.1493548386909325 0.1059173387090916 0
0.1514516128937171 0.1059828629029287 0
0.1535483870840411 0.1060483870963763 0
0.1556451612840673 0.1061139112901271 0
0.1577419354622279 0.1061794354831946 0
0.1598387096478209 0.1062449596764944 0
0.1619354838311416 0.1063104838697232 0
0.1640322579966667 0.1063760080623959 0
0.1661290321782136 0.1064415322555692 0
0.1682258063682311 0.1065070564490072 0
0.1703225805506956 0.1065725806422093 0
0.1724193547380076 0.1066381048355627 0
0.1745161289385439 0.1067036290293295 0
0.1766129031440386 0.1067691532232512 0
0.1787096773606842 0.1068346774175214 0
0.180806451572158 0.10690020161163 0
0.1829032257837579 0.1069657258057425 0
0.1871111110949683 0.1070972222217178 0
0.1892222222073375 0.1071631944439793 0
0.1913333333069006 0.1072291666658407 0
0.1934444444244364 0.1072951388882637 0
0.1955555555409172 0.1073611111106537 0
0.1976666666573558 0.1074270833330424 0
0.1997777777758331 0.1074930555554948 0
0.2018888888758623 0.1075590277773707 0
0.2039999999790267 0.1076249999993446 0
0.2061111110874008 0.1076909722214813 0
0.2082222221875015 0.1077569444433594 0
0.2103333332991501 0.1078229166655984 0
0.2124444444082138 0.1078888888877567 0
0.214555555514163 0.1079548611098176 0
0.2166666666268244 0.1080208333320883 0
0.2187777777389668 0.1080868055543427 0
0.2208888888700059 0.1081527777771877 0
0.2229999999771461 0.1082187499992858 0
0.2251111110862768 0.1082847222214461 0
0.2272222221914409 0.1083506944434825 0
0.22933333332185 0.1084166666663078 0
0.2314444444493727 0.1084826388890429 0
0.233555555547392 0.108548611110856 0
0.2356666666578623 0.1086145833330582 0
0.2377777777790404 0.108680555555595 0
0.2398888888836342 0.1087465277776136 0
0.2419999999904152 0.1088124999997005 0
0.2441111110885862 0.1088784722215183 0
0.2462222221889084 0.1089444444434034 0
0.2483333332892328 0.1090104166652885 0
0.2504444443711533 0.1090763888865986 0
0.2525555554727744 0.1091423611085242 0
0.2546666665661229 0.1092083333301913 0
0.256777777669444 0.1092743055521701 0
0.258888888786205 0.1093402777745689 0
0.2609999998910937 0.1094062499965967 0
0.2631111109984147 0.1094722222187004 0
0.2652222221168434 0.1095381944411514 0
0.2673333332319658 0.1096041666634989 0
0.2694444443374155 0.1096701388855442 0
0.2715555554599857 0.1097361111081245 0
0.2736666666167846 0.1098020833317745 0
0.2757777777520244 0.1098680555547508 0
0.2778888888643243 0.1099340277770101 0
0.2815000000048408 0.1084999999951592 0
0.2829999999845247 0.1070000000154753 0
0.2844999999495719 0.1055000000504281 0
0.2859999999473485 0.1040000000526516 0
0.2874999999311151 0.102500000068885 0
0.2889999999081732 0.1010000000918268 0
0.2904999998895342 0.0995000001104658 0
0.2919999999010073 0.09800000009899273 0
0.2934999999328345 0.09650000006716551 0
0.2969999999888869 0.095 0
0.2989999999509399 0.095 0
0.3009999998509222 0.095 0
0.3029999998570208 0.095 0
0.304999999834998 0.095 0
0.3069999997763833 0.095 0
0.3089999997820753 0.09499999999999999 0
0.3109999997982706 0.09500000000000001 0
0.3129999998537683 0.09500000000000003 0
0.3164999999890818 0.09649999998908175 0
0.3179999999869472 0.09799999998694721 0
0.3194999999529219 0.0994999999529219 0
0.3209999999275956 0.1009999999275956 0
0.3224999999076311 0.102499999907631 0
0.3239999999035144 0.1039999999035145 0
0.3254999998508883 0.1054999998508883 0
0.3269999998504224 0.1069999998504224 0
0.3284999999146953 0.1084999999146953 0
0.33 0.1120000000092327 0
0.33 0.114000000011418 0
0.3300000000000001 0.116000000010283 0
0.33 0.1180000000050822 0
0.33 0.1200000000058445 0
0.33 0.1219999999961714 0
0.33 0.1239999999598676 0
0.33 0.1259999999371502 0
0.33 0.1279999999316106 0
0.3285000000000593 0.1314999999999407 0
0.3269999999852956 0.1330000000147045 0
0.3255000000061409 0.134499999993859 0
0.3239999999710653 0.1360000000289347 0
0.3224999999559119 0.1375000000440881 0
0.3209999999811112 0.1390000000188888 0
0.3194999999686343 0.1405000000313656 0
0.3179999999715397 0.1420000000284603 0
0.3164999999664321 0.1435000000335679 0
0.3130000000024226 0.145 0
0.3109999999822802 0.145 0
0.3089999999004059 0.145 0
0.3069999998641698 0.145 0
0.304999999832711 0.145 0
0.3029999998062666 0.145 0
0.3009999997901222 0.145 0
0.2989999998023704 0.145 0
0.2969999999079275 0.145 0
0.2935000000019651 0.1435000000019651 0
0.2919999999635098 0.1419999999635098 0
0.2904999999178378 0.1404999999178378 0
0.2889999998888693 0.1389999998888693 0
0.2874999998924269 0.1374999998924268 0
0.285999999900084 0.135999999900084 0
0.2844999998684388 0.1344999998684388 0
0.2829999998879884 0.1329999998879884 0
0.2814999999467386 0.1314999999467386 0
0.277888888865162 0.1300659722229637 0
0.2757777777488749 0.1301319444453477 0
0.2736666666262377 0.1301979166679301 0
0.2715555554911404 0.1302638888909019 0
0.2694444443641688 0.1303298611136197 0
0.2673333332364198 0.1303958333363619 0
0.2652222221036561 0.1304618055592607 0
0.2631111109809754 0.1305277777818445 0
0.2609999998747984 0.1305937500039125 0
0.2588888887403508 0.130659722226864 0
0.2567777776175223 0.1307256944494524 0
0.2546666664738158 0.1307916666726933 0
0.2525555553479824 0.1308576388953755 0
0.2504444442432063 0.1309236111173998 0
0.2483333331358039 0.1309895833395061 0
0.2462222220247446 0.1310555555617267 0
0.2441111109010006 0.1311215277843437 0
0.2419999997904759 0.1311875000065476 0
0.2398888886586995 0.1312534722294156 0
0.2377777775482717 0.1313194444516165 0
0.2356666664344699 0.1313854166739228 0
0.2335555553125034 0.1314513888964843 0
0.2314444441989065 0.1315173611187842 0
0.2293333330915751 0.1315833333408883 0
0.2272222219863942 0.1316493055629252 0
0.2251111108867915 0.1317152777847878 0
0.222999999784013 0.1317812500067496 0
0.2208888886835361 0.1318472222286395 0
0.2187777775847347 0.131913194450477 0
0.2166666664644777 0.1319791666729851 0
0.2145555553441905 0.132045138895494 0
0.2124444442264792 0.1321111111179225 0
0.2103333331272063 0.1321770833397748 0
0.208222222009487 0.1322430555622035 0
0.2061111109107374 0.1323090277840394 0
0.2039999998408325 0.132375000004974 0
0.2018888887389089 0.1324409722269091 0
0.1997777776369715 0.1325069444488446 0
0.1976666665462138 0.1325729166704308 0
0.1955555554520901 0.1326388888921222 0
0.1934444443625876 0.1327048611136691 0
0.1913333332572465 0.132770833335711 0
0.1892222221730091 0.1328368055570935 0
0.1871111110811715 0.1329027777787134 0
0.1829032257919895 0.1330342741940003 0
0.1808064516035068 0.1330997983873904 0
0.1787096774004645 0.1331653225812355 0
0.1766129032167902 0.1332308467744753 0
0.1745161290112352 0.1332963709683989 0
0.1724193548107046 0.1333618951621655 0
0.1703225806016447 0.1334274193561986 0
0.168225806380597 0.1334929435506063 0
0.1661290321906047 0.1335584677440436 0
0.1640322580052328 0.1336239919373365 0
0.1619354838200844 0.1336895161306224 0
0.1598387096340086 0.1337550403239372 0
0.157741935411958 0.1338205645183763 0
0.1556451612051385 0.1338860887123394 0
0.1535483870098964 0.1339516129059407 0
0.1514516128074389 0.1340171370997675 0
0.1493548386204793 0.13408266129311 0
0.1472580644489166 0.1341481854859713 0
0.14516129024589 0.1342137096798159 0
0.1430645160484392 0.1342792338734863 0
0.1409677418424181 0.1343447580674244 0
0.1388709676422827 0.1344102822611787 0
0.1367741934603847 0.134475806454363 0
0.1346774192739591 0.1345413306476888 0
0.1325806451013045 0.1346068548405842 0
0.1304838709192946 0.134672379033772 0
0.1283870967379882 0.1347379032269379 0
0.1262903225481262 0.1348034274203711 0
0.1241935483588164 0.134868951613787 0
0.1220967741862635 0.1349344758066793 0
0.1185714285713015 0.1364285714286985 0
0.117142857126582 0.137857142873418 0
0.1157142856926561 0.1392857143073439 0
0.1142857142529462 0.1407142857470538 0
0.1128571428227231 0.1421428571772769 0
0.1114285714005104 0.1435714285994895 0
0.109999999966754 0.145000000033246 0
0.1085714285416614 0.1464285714583386 0
0.1071428571069369 0.1478571428930631 0
0.1057142856839982 0.1492857143160018 0
0.104285714271708 0.150714285728292 0
0.1028571428568646 0.1521428571431355 0
0.1014285714243423 0.1535714285756576 0
0.09799999999525662 0.155 0
0.0959999999804166 0.155 0
0.09399999998244948 0.155 0
0.09199999997540215 0.155 0
0.08999999997763833 0.155 0
0.0879999999619174 0.155 0
0.08599999994402807 0.155 0
0.08399999994457016 0.155 0
0.08199999996401805 0.155 0
0.07898437500435544 0.1531250000080408 0
0.07796874997707184 0.1512499999576711 0
0.07695312497074101 0.1493749999459834 0
0.07593749997401156 0.1474999999520213 0
0.07492187497197592 0.1456249999482633 0
0.07390624995642209 0.1437499999195485 0
0.0728906249795073 0.1418749999621673 0
0.3198716729217008 0.1219578928749942 0
0.3194888873953908 0.1238822856726012 0
0.3188581929872855 0.1257402514864031 0
0.3179903810488608 0.1275000000136931 0
0.316900300087728 0.1291314214568172 0
0.3156066017099777 0.1306066017256187 0
0.3141314214199619 0.131900300116008 0
0.3124999999877731 0.1329903810638258 0
0.3107402514392436 0.1338581930068196 0
0.3088822856473048 0.134488887402169 0
0.3069578928764588 0.1348716729215079 0
0.3030421071254312 0.1348716729217568 0
0.3011177143551662 0.1344888874028311 0
0.2992597485290696 0.1338581929936944 0
0.2974999999757027 0.1329903810427385 0
0.2958685785442143 0.1319003000885195 0
0.2943933982582916 0.130606601693888 0
0.2930996998848481 0.1291314214210777 0
0.2920096189313828 0.1274999999794741 0
0.291141807001665 0.1257402514597273 0
0.2905111125998384 0.1238822856547966 0
0.2901283270778624 0.121957892871676 0
0.290128327078116 0.1180421071263977 0
0.2905111126038824 0.1161177143301111 0
0.2911418070108527 0.1142597485180918 0
0.2920096189434981 0.1124999999995415 0
0.2930996999019985 0.1108685785565715 0
0.2943933982868415 0.1093933982775621 0
0.2958685785660414 0.108099699894732 0
0.2975000000056999 0.1070096189399425 0
0.2992597485525805 0.106141806996567 0
0.3011177143407397 0.1055111126010345 0
0.3030421071201468 0.1051283270789389 0
0.3069578928789905 0.1051283270788254 0
0.3088822856843688 0.1055111126077623 0
0.310740251512063 0.1061418070233432 0
0.3125000000286154 0.1070096189597546 0
0.3141314214771094 0.1080996999278428 0
0.3156066017560716 0.1093933983204751 0
0.3169003001250137 0.1108685785917745 0
0.3179903810705764 0.1125000000239193 0
0.3188581929961699 0.114259748535046 0
0.3194888873957696 0.1161177143288126 0
0.3198716729211445 0.1180421071207806 0
0.1307447840793092 0.1181816724912727 0
0.142419546974378 0.1247402791281313 0
0.1291388117351501 0.1221903374907664 0
0.1967106785996609 0.1248619209918548 0
0.2672210457476075 0.1239275723978868 0
0.1500685165545438 0.1203763951094573 0
0.1618518055402072 0.1169737092364651 0
0.2568106660200222 0.115835743844846 0
0.1039886391097541 0.1015599074030168 0
0.2557042711540556 0.1199999999992877 0
0.2946277869006168 0.1001584867435442 0
0.1069760750101544 0.1287090114835862 0
0.1573100427581776 0.1249647984587552 0
0.08226815957271248 0.08897930195039962 0
0.1205815462501654 0.1192316008805713 0
0.1350901477846742 0.1201896973540782 0
0.2661511823108601 0.1199999999998542 0
0.1129074249568744 0.112719870129019 0
0.3017470191394944 0.1036948401028806 0
0.1105833691815181 0.1096025168328423 0
0.2077678671885867 0.1200442510547211 0
0.2375462874228227 0.1228395674502068 0
0.2029171924474859 0.1196345421427249 0
0.2874443195268432 0.1142536883215602 0
0.1202947699324997 0.1125436445316222 0
0.1355002012541424 0.1272892049341076 0
0.2146490541515119 0.1171239827240658 0
0.1740908288452848 0.1110118419417034 0
0.2028999485265043 0.1263510934941351 0
0.1800007674495105 0.1238338502307192 0
0.1572162816676957 0.115030755232957 0
0.299318291938756 0.1038493266018711 0
0.2514666850305899 0.1199994478319493 0
0.2341849840721201 0.1160432267292536 0
0.1776988226027832 0.1266206085875972 0
0.1169697058568942 0.1235095985398646 0
0.3210601991241224 0.1086844204185854 0
0.221670424025434 0.1242030578109902 0
0.1636047583008177 0.1132557612762541 0
0.1503776367077043 0.12727319997941 0
0.2279084691122821 0.120002975422224 0
0.190484927307189 0.1135873318213255 0
0.2342542859006628 0.1239922248801835 0
0.1016859648933965 0.1419408766322103 0
0.1192743288210301 0.132925151518225 0
0.1868436130520406 0.1144605562879153 0
0.2979139790998697 0.1392727677461066 0
0.0988145836854506 0.1391676603965018 0
0.1646181069257587 0.1200162026029115 0
0.2849362671135222 0.1263159485748939 0
0.2109853639132627 0.109842341605067 0
0.2899991786522203 0.1069594979294071 0
0.1163044122847522 0.1343122565037368 0
0.3035404731664107 0.1001004669351308 0
0.1462175930835075 0.1172598749942071 0
0.1318509380099251 0.1143409681003966 0
0.1455986458763167 0.1291846528551453 0
0.1639199254853259 0.1269530461870848 0
0.2093502946761625 0.1252361312696285 0
0.08499999994429917 0.1475286458334136 0
0.1879650726994135 0.1168560668017925 0
0.1844756502180808 0.1144423792978747 0
0.09881458368943866 0.1008323395884983 0
0.2194646449663536 0.1206897678688592 0
0.2464478950313507 0.1262169969219004 0
0.1624105486618999 0.1252415233315616 0
0.1429742794504711 0.1309228018886717 0
0.09677741466146542 0.147645271531253 0
0.2152281371017401 0.1257495142852884 0
0.1715223185273494 0.1150406284069995 0
0.2702339965317765 0.1225431801617865 0
0.1263278918864019 0.1169995980062261 0
0.1738571127483893 0.1182606130121939 0
0.1407000841698109 0.1201716101346878 0
0.2397421566935639 0.1257267979012962 0
0.08499999999530737 0.0924713541689617 0
0.208906614097553 0.1154694181896172 0
0.1202947699333216 0.1274563554679833 0
0.08151747111380583 0.09699416020196015 0
0.0838535830505093 0.1435333806252306 0
0.09821465056277585 0.08909233391628504 0
0.1235629466810907 0.1236241180723469 0
0.1151770036493913 0.1200361259282364 0
0.1970700643094919 0.1146043552653906 0
0.2854474851378937 0.1197488194529229 0
0.1841057204463643 0.1250096101070588 0
0.19288763189638 0.1166726098414461 0
0.2279219634091768 0.1259590098809979 0
0.3242462187031995 0.1128993875924921 0
0.2804799209899471 0.125491906183732 0
0.3163155795864366 0.1360601991269525 0
0.1278775764595915 0.1145444454597407 0
0.2812763803087632 0.1209954044959958 0
0.2813304267305748 0.1174595945505185 0
0.2341265902532495 0.1137535298031937 0
0.2154248704934774 0.1139475456854385 0
0.2495930173707102 0.1290814305222909 0
0.1249716408997927 0.1102615900713654 0
0.110583369185446 0.1303974831627823 0
0.1070737132146846 0.1052268315482325 0
0.08931363568384319 0.1450676622473685 0
0.1016859648911173 0.09805912335535835 0
0.1710838274932784 0.125079708875575 0
0.09331604032011268 0.09527198768794207 0
0.1383020256668105 0.1237964250608709 0
0.1815713562440388 0.1287422672580482 0
0.2201070187885358 0.1100911382815846 0
0.2092337636380273 0.129547308291247 0
0.2399171848741376 0.1142555229603039 0
0.1039886391142168 0.1384400925817254 0
0.3193413838334869 0.1093283495720303 0
0.223322197977534 0.1200000000104918 0
0.1070737132317263 0.1347731684409547 0
0.3242727677953839 0.1270860207269459 0
0.1055779958017372 0.1184959573914656 0
0.07556668659572359 0.09779895520832434 0
0.1649609100506414 0.1098122644604241 0
0.106118975846865 0.1146115140729122 0
0.2514188812609801 0.1117051721490744 0
0.2694469658944889 0.1189066191783505 0
0.1264284227060082 0.119955868614375 0
0.3121006122494652 0.100753781269113 0
0.2242158396346348 0.1275681272103134 0
0.2364676777227137 0.1195225666531589 0
0.08669122548700808 0.1491595816025965 0
0.2424053684974518 0.1166994114872132 0
0.3248415132888232 0.1096277869330367 0
0.3035404731956817 0.1398995330579271 0
0.1111179769618291 0.1375719074288397 0
0.113955507813381 0.1365340432890572 0
0.2377175932791163 0.1167156930823564 0
0.1428880022142338 0.1090138994433869 0
0.162261431651535 0.1148079570945237 0
0.1277267559161633 0.1253308247140359 0
0.312100612405222 0.1392462187056153 0
0.1501341606880321 0.1128879892016877 0
0.2406633327405817 0.1284012380607562 0
0.1421958628103648 0.1150024439384319 0
0.1094372699845772 0.1266607226878761 0
0.1069760750104923 0.1112909885074809 0
0.1034344243998571 0.108295495582925 0
0.291003408084015 0.1310707116457674 0
0.1016902385127306 0.1463758899835018 0
0.2846396364972271 0.109192508566663 0
0.1310012780146638 0.1109841028814085 0
0.2429972360986153 0.1292882979874798 0
0.1497760861297107 0.1164586410817933 0
0.146133776263387 0.1080103691052131 0
0.09197468705527084 0.1476279675766502 0
0.1129074249572714 0.1272801298700034 0
0.2881067664710863 0.1310977069996895 0
0.1594109223406009 0.1199406193322537 0
0.1171413778451009 0.1310115717657388 0
0.1573100427600067 0.1179184971175235 0
0.2457269360001057 0.1242892165486148 0
0.1491578198534645 0.1095192197171505 0
0.1249716409004223 0.1297384099310262 0
0.2905324066090514 0.1364014826360429 0
0.1171413778362548 0.1089884282350258 0
0.1954385251657505 0.1204588446400074 0
0.272301763783054 0.1197956064938423 0
0.08054178685884933 0.0948678058140017 0
0.1778060652398095 0.1200985517757881 0
0.2317353299998031 0.1126506550313766 0
0.2869231080109332 0.1107028924539262 0
0.2535816841634955 0.1172108396327502 0
0.2900395554683113 0.1101083062062846 0
0.08115134201671806 0.1529682142922889 0
0.2208506687061201 0.1278333926535253 0
0.2535947268739256 0.122730067319779 0
0.321212296929878 0.1120489641996416 0
0.2403062736801766 0.1199091920833155 0
0.2762713521957717 0.1243236352520853 0
0.1071645195582596 0.1402551771916343 0
0.1547025193457665 0.1292382780027354 0
0.2281224637119275 0.1171393993804591 0
0.0886661330009105 0.09778446329880554 0
0.1298807859538565 0.1158531912074971 0
0.2172695513407784 0.1262083727705041 0
0.1348677899084189 0.1124461357444211 0
0.256634779783766 0.1240372536925696 0
0.1467716458475104 0.1233225972800073 0
0.1130295625516491 0.1066535529493591 0
0.3078966150458501 0.140651377377307 0
0.2942987322145822 0.1343291962462831 0
0.2029488881655484 0.1137456497356282 0
0.2850212818442824 0.1297051228732737 0
0.1906927920174218 0.1196675702363076 0
0.2514699071066617 0.1254705421441636 0
0.1017899817016313 0.1360727738780546 0
0.3271872417507561 0.1195609630390463 0
0.1133533452064605 0.1200000000000006 0
0.2621580146672556 0.1200954874096644 0
0.2152810656136354 0.1202076057129248 0
0.0971510625734934 0.097341548275892 0
0.2979139791937285 0.100727232224819 0
0.1940685041416605 0.1283555888131429 0
0.1905516286113866 0.1264090467489591 0
0.1098657273470002 0.1336711178731309 0
0.1453202025854846 0.1187170495360156 0
0.09099999995197315 0.09097943746003467 0
0.3210818763996311 0.1312976529287034 0
0.1682166800841468 0.1112510883409837 0
0.1016902385086914 0.09362411000535314 0
0.1034870925735435 0.1284315181222721 0
0.1565006218341944 0.1216843278246291 0
0.2317353298554997 0.1273493449869319 0
0.2457733857098102 0.1156842657460944 0
0.3256513773568795 0.1171033849504012 0
0.3162976528776283 0.1039181235600272 0
0.2515798113868665 0.1146928454752943 0
0.2839164099422702 0.1151688711623927 0
0.1071645195538487 0.09974482279940493 0
0.1995160785086487 0.1283419860372219 0
0.2722475343102721 0.1147925654474837 0
0.2672395639823164 0.115966731670936 0
0.1775737447130572 0.1134852386411981 0
0.09677741465415463 0.09235472846019128 0
0.1737735117432132 0.1288457640629382 0
0.1389925403443344 0.1265877550401537 0
0.1429884443801098 0.1118450864286424 0
0.219033508835881 0.1119930975173317 0
0.09099999997651965 0.1490205625540563 0
0.1458693861659169 0.1109173745953969 0
0.09715106257446059 0.1426584517161223 0
0.1044552513633457 0.09338661165238224 0
0.1400524102735112 0.1295434141936693 0
0.1048805236829073 0.09565620209843415 0
0.154501547070523 0.1108823235073504 0
0.2188481174880378 0.1278868172973831 0
0.175279415232792 0.1233649281859854 0
0.1827952270086979 0.1204735125631057 0
0.08054178684577737 0.1451321941668595 0
0.09122836408720954 0.09708143340309444 0
0.138147586466096 0.1163970362476085 0
0.2077007954975298 0.117471519808998 0
0.1402680902809198 0.110223642843818 0
0.1130295625656322 0.1333464470464713 0
0.205728368282409 0.1234537541266172 0
0.2055133214470893 0.1168155973756035 0
0.2064397469493122 0.1281151906551862 0
0.202881889004467 0.1292726188265411 0
0.1967677120858717 0.1269447529310752 0
0.09452179883633975 0.0892261239845052 0
0.1344851166585072 0.1308787956100126 0
0.2215752494267768 0.1157526636572265 0
0.2279219635977425 0.1140409901344768 0
0.1034344243954112 0.1317045043948294 0
0.1902127513369218 0.1296122066479313 0
0.1322657455437825 0.1237998640592825 0
0.20044657136584 0.1168629283748992 0
0.1312802113137284 0.1296456533120968 0
0.1092334855311206 0.1234421308737816 0
0.3006437368450366 0.09822852897571324 0
0.1700068115103592 0.1199985406431642 0
0.2242158397710679 0.1124318728424995 0
0.3248995330621852 0.1214595267959779 0
0.1017899816972673 0.1039272260994679 0
0.2755645194990974 0.1132792396628568 0
0.2880746837654835 0.1275611154743639 0
0.3180060374044223 0.1065359099719431 0
0.2119589510327168 0.1119422107403719 0
0.1203598262109848 0.1238178867327167 0
0.2301820371460073 0.1231567735592437 0
0.1375329336175515 0.1314399894993481 0
0.09100775591904522 0.1519550658306471 0
0.1545725763655955 0.1188937335720145 0
0.1591812082180135 0.1228547653044522 0
0.1111179769518586 0.1024280925656844 0
0.3176716851935863 0.1386940092854533 0
0.08755527754899332 0.1510503040989631 0
0.3227142835868966 0.115797644755908 0
0.08931363569737619 0.0949323377614409 0
0.2773598158275902 0.1161940366919745 0
0.1605238833456644 0.1259471271779749 0
0.2471392748987037 0.1201417060149266 0
0.2400431669347697 0.1224430569986523 0
0.1235733769024536 0.1269814324436733 0
0.1164981113656054 0.1271281314319998 0
0.1989443496682947 0.1217804064202461 0
0.2640827084468033 0.1172927096120664 0
0.1211693835498051 0.1087688592033165 0
0.3184640899979961 0.1330060374307045 0
0.0782469316463284 0.1479321688473158 0
0.1233769655019295 0.1162626958920685 0
0.1775963223276395 0.1298873189206258 0
0.2535718099622225 0.1149623211731809 0
0.1478684430710457 0.1123447100914217 0
0.2454738404187946 0.1218303265026248 0
0.2882203632278976 0.125011378201817 0
0.09665349616160125 0.1495984967766717 0
0.1585302995249982 0.1135588749902206 0
0.2691667227844825 0.11314673998461 0
0.09665349614305253 0.0904015032151718 0
0.2745402590081219 0.1270706659008767 0
0.1098976493940813 0.1199999999999828 0
0.28418751115793 0.1314472358449897 0
0.1775759401288849 0.1101167272010382 0
0.2254144443597661 0.1233940525323321 0
0.172235169715375 0.1222017190289608 0
0.2871346833401581 0.1229527067195731 0
0.3231877774856209 0.1188608753527851 0
0.1067603921372544 0.1302665153962334 0
0.1669732372352309 0.1236771227917287 0
0.3202654342058393 0.1327561974920713 0
0.2567371890878578 0.1137758886133818 0
0.1022360290925261 0.1026168810173717 0
0.3191362731811508 0.1036020991743364 0
0.2936727819214244 0.1360528322617706 0
0.3248415133068948 0.1303722130177982 0
0.2598866340628316 0.1226166502827305 0
0.293753153134916 0.1034447224146298 0
0.2127421883775361 0.1233386665416691 0
0.2217073684368896 0.1217722280904222 0
0.3061391245427476 0.1018122224980811 0
0.3006437368048414 0.1417714709927587 0
0.2687278654766346 0.1270130485208988 0
0.1815713562244737 0.1112577327356592 0
0.3008589085397229 0.1020118960676153 0
0.1520919121638158 0.1181224086402107 0
0.1298433492295234 0.1244313959318188 0
0.2124439119117968 0.115365160140842 0
0.166827295544675 0.1158711525323018 0
0.3078966149587136 0.09934862257466151 0
0.2238196230253083 0.1101953042282815 0
0.2322297582226415 0.1248609192376292 0
0.1092334855310113 0.116557869123329 0
0.1202649596200011 0.1158660384806769 0
0.3159120993436622 0.1057340064313017 0
0.3153722129282807 0.100158486629886 0
0.3050265069716752 0.136644002007288 0
0.2435367059863016 0.1273243679298495 0
0.2435643169211253 0.1126989529761308 0
0.2970676271202179 0.1362298764771621 0
0.2859687931979174 0.1322797389329881 0
0.1462147542557956 0.1149873759080585 0
0.1168695398850579 0.1163845931584658 0
0.1915156235487767 0.1219522943727129 0
0.2424892453526255 0.1231761491608976 0
0.2619591333167968 0.1146988058575843 0
0.08385358306223364 0.09646661936652255 0
0.1234411675884475 0.1207753032334711 0
0.2641373350224315 0.1226731709039389 0
0.1930764406909732 0.1259826761895806 0
0.2734580792877571 0.1229380409574854 0
0.2619707604588936 0.1252757870214293 0
0.2587238124947607 0.1270452773859582 0
0.1140394898088932 0.1302840097513119 0
0.1003428015947665 0.1432234475437812 0
0.1181227445840882 0.1054615983701423 0
0.1070761121669388 0.1223010697367335 0
0.1075412517819402 0.113149974881157 0
0.1429443763377966 0.1280973656465541 0
0.2915855627440408 0.1333131915786274 0
0.1164981113668739 0.1128718685677878 0
0.2771593719455543 0.120304865386682 0
0.2802368861208758 0.1136179542912611 0
0.1685895007225488 0.1146660664778619 0
0.2275077900406406 0.1112484803954702 0
0.098214650584695 0.1509076660726219 0
0.1225556557220459 0.1185061614165974 0
0.1805244903273571 0.1258261349242873 0
0.3213979008059233 0.1341362732171354 0
0.2155098795613698 0.111018619369535 0
0.2442534242101453 0.123190025747283 0
0.2746119045177522 0.1175023102383892 0
0.1151906367443533 0.1218794418997919 0
0.1529421440606144 0.1230245872512657 0
0.2254793617631771 0.1170701348358804 0
0.1103910023899367 0.0993711483919816 0
0.3092023552358736 0.1377142835983872 0
0.09331604031167054 0.144728012306662 0
0.1709684963359363 0.1096765319061016 0
0.2328041608752009 0.1201538187732013 0
0.2437578371336619 0.1249888851456872 0
0.2179730120497574 0.1240969720089427 0
0.1704926619497697 0.1279967616903011 0
0.1469942789889678 0.1266483005579569 0
0.2672456147619043 0.1119603911435249 0
0.2883434192428371 0.1050730751839127 0
0.2966292366012405 0.142045807889 0
0.1537084962698981 0.1151462164567027 0
0.2361876597940918 0.112545617953354 0
0.32369400927835 0.1073283148052605 0
0.09422872643982001 0.1422294658966635 0
0.2983456511142447 0.140961350183164 0
0.1682166800796701 0.1287489116595983 0
0.2344982211958867 0.1216513716501185 0
0.1805302540912221 0.1166444875665995 0
0.1211693835565624 0.1312311407963268 0
0.1597290102991299 0.1109722313097731 0
0.1111889389387066 0.1136961164006371 0
0.1573115353791847 0.1308559728890191 0
0.1597290102951558 0.1290277686900591 0
0.07739524151921998 0.09642592778029152 0
0.157226041344371 0.112174233341929 0
0.2590877482664283 0.1188732251314181 0
0.2716849740107791 0.1255246359549581 0
0.1796940422916797 0.1308541921519747 0
0.115197029587116 0.1181928099566728 0
0.2787903310323575 0.1182099097962676 0
0.2869519421651143 0.1076022813737557 0
0.1502006583632934 0.1182117661034325 0
0.3080724958826282 0.1434827532801034 0
0.3054390369580929 0.1421872417713234 0
0.1041115097194451 0.134564362172583 0
0.1407893411289443 0.1163997482863821 0
0.2139489107392162 0.1122851122096479 0
0.1041115097062589 0.1054356378069126 0
0.1851534107172303 0.1179450691608458 0
0.170968496332959 0.130323468084711 0
0.15022358069971 0.1290547203420213 0
0.164096442329634 0.1158927582422658 0
0.1109176554553072 0.1218509892554318 0
0.2218154494430228 0.1291507277260129 0
0.09855410714701199 0.1043477344257739 0
0.1841642112147898 0.1302373725033767 0
0.1940685041482115 0.1116444111696147 0
0.1169237400998218 0.1108395185624459 0
0.1082394299218834 0.1306034232377745 0
0.3214096114664458 0.1055438228245952 0
0.1869744054336755 0.1288099792593256 0
0.1377921020837053 0.114155779153083 0
0.2074782224235505 0.1263876972802209 0
0.1109888638230767 0.1247715448215321 0
0.2905742879263035 0.103782211461851 0
0.1868408896015024 0.1112016341771935 0
0.09422872644342223 0.097770534102292 0
0.1222856814195229 0.1107265197142803 0
0.2000685718741287 0.1247089515210082 0
0.09452179885948062 0.1507738760150793 0
0.2092319781560989 0.1104555365881966 0
0.3266285893712287 0.1304932684357283 0
0.1745739080835175 0.1150182941246655 0
0.1048805236864823 0.1443437978912133 0
0.1044552513678031 0.1466133883450692 0
0.1046604904805825 0.09863790653300061 0
0.1260676937012036 0.1227678145280622 0
0.08755527755102115 0.088949695892248 0
0.2288427881135799 0.1243147949150529 0
0.2218139366551156 0.1108464781156916 0
0.1930177089849122 0.1235218117373767 0
0.2437632457081525 0.1149954347530926 0
0.0992963151024411 0.09835482899302879 0
0.08226815955569693 0.1510206980511832 0
0.1656030434115913 0.1178400094888754 0
0.309950620793675 0.1399279415541903 0
0.08493207146444139 0.08759097293963015 0
0.185963940684722 0.1162652112739594 0
0.2303774591284042 0.1144307775912134 0
0.1352080511956577 0.1233829441592842 0
0.2064397469756498 0.1118848093419709 0
0.1005282877446086 0.1069193971733255 0
0.1139555078069889 0.1034659567030808 0
0.282310012147785 0.1279663258877631 0
0.1967721949663746 0.1299304672713993 0
0.2859601833213921 0.1279652568203818 0
0.2787945816022159 0.1231119252548411 0
0.09287874918882782 0.08709093200822692 0
0.1994273901999726 0.1114606051958023 0
0.08609015605260419 0.1457716989662652 0
0.2160650338196095 0.122663222009468 0
0.1307999672061075 0.1265209470839509 0
0.1860084223605761 0.126615083303795 0
0.1697459819126119 0.1173463169300469 0
0.2835112570428822 0.1232278352170258 0
0.2119322527443963 0.1282227055363381 0
0.1364850633647016 0.1170314916708034 0
0.285241291821994 0.1132278224429714 0
0.1298447980930805 0.112612728986807 0
0.1331705882003043 0.1179189770991816 0
0.1397730725234891 0.1135521437653221 0
0.1864065273933069 0.1218352139849549 0
0.08493207146049443 0.1524090270722164 0
0.242060263157921 0.1188544591790268 0
0.1746442087193842 0.127421702133332 0
0.09370399190106625 0.09236038457729472 0
0.1621677199790327 0.1231328101318845 0
0.3014398459094613 0.09648773857488929 0
0.1529303989541831 0.120997453002208 0
0.08696938892250618 0.1427023796717643 0
0.1247470266383761 0.1185171925656434 0
0.09944933233027578 0.09206550578863415 0
0.3249279415348764 0.1150493791995713 0
0.282364454890307 0.1250422379725519 0
0.09122836406759438 0.1429185666019901 0
0.2802424685470798 0.1277266008533156 0
0.1551183875134917 0.1251209857461294 0
0.2614154459996043 0.1174417456993434 0
0.195785085743558 0.1226588750339195 0
0.1776728371496248 0.1237085165415231 0
0.1676512824240426 0.1087598656764334 0
0.1521372922108769 0.1309282088174803 0
0.3194561771758034 0.1364096114791405 0
0.1509320425762818 0.1108166412069086 0
0.09370399190754328 0.1476396154108247 0
0.09100775589647203 0.08804493417555184 0
0.3156716504232479 0.134341383844718 0
0.1192743288112221 0.107074848478327 0
0.2115427205020766 0.1187522918231446 0
0.07935597806623719 0.141864870352021 0
0.3195001621345375 0.1052061512540503 0
0.1151246246086018 0.1254286554306451 0
0.1529854279474685 0.1126256675025048 0
0.1079424924872974 0.1024925652654647 0
0.162256757809788 0.1097275390126317 0
0.09496571604404959 0.1485232128665077 0
0.1946717736357687 0.1244005904085462 0
0.158612349304513 0.1269823103013543 0
0.07800097503928896 0.09408181647676046 0
0.2361876597934728 0.1274543820781809 0
0.2208476936700814 0.1183686312878804 0
0.127732240457079 0.1160869474611336 0
0.1046604904819292 0.1413620934530736 0
0.2178740626389775 0.1170328072503093 0
0.1802774245068899 0.1203682986825936 0
0.2657123823155483 0.1111849602821205 0
0.3145505643363112 0.1067510804081575 0
0.1375329336486393 0.1085600105029277 0
0.1372294691821556 0.1108771034971348 0
0.1344610096620835 0.1091559586476916 0
0.2532570208770669 0.1289814602753404 0
0.2833892515945775 0.1178031635964932 0
0.2833524089396683 0.1114077315384236 0
0.1823829652901612 0.1172394135445292 0
0.1169670030596354 0.1200722518564804 0
0.3028618184445052 0.1425639053858546 0
0.2991946610072634 0.101980184833864 0
0.2479839490456048 0.1126211778678737 0
0.08866613298009289 0.1422155367019851 0
0.2458021560700535 0.1281781367943843 0
0.2588784066679978 0.1160282356618432 0
0.2479839490457997 0.1273788221212468 0
0.204874002382096 0.1098051195189792 0
0.2418874562140793 0.1257426377151722 0
0.08151747110912583 0.143005839779163 0
0.1134933734455479 0.1236155245094243 0
0.1151336956673733 0.1146590292725733 0
0.1133482980592499 0.1163806726706267 0
0.2955648841495591 0.1058513314608806 0
0.2725111718145167 0.1117873008876668 0
0.1410563117733664 0.1227846799465038 0
0.2547034508570618 0.112898437459481 0
0.2278088029721678 0.12290264534917 0
0.2547034508567046 0.1271015625430127 0
0.1036745784621414 0.1035987529730988 0
0.1005282877450004 0.1330806028078275 0
0.2969531641522024 0.1037818003140038 0
0.1095708876524085 0.1149485221498475 0
0.2306706475969515 0.1167451227324119 0
0.2301325443948899 0.1254801335389088 0
0.1727570178719708 0.1133072513785077 0
0.08208259920724792 0.09292259862247654 0
0.1595115047539388 0.108602275316822 0
0.132124532470069 0.1208570077269109 0
0.1079424924961844 0.1375074347269208 0
0.1795645149854956 0.1186514063890585 0
0.2620036781219815 0.1284753376650894 0
0.3267714710377405 0.1243562630913341 0
0.1488716555168396 0.1256181805035612 0
0.1490093799565039 0.1304834196904072 0
0.1521532579759285 0.1091173787234853 0
0.3269972733433273 0.1143834052255699 0
0.1376136717713451 0.1212725504912965 0
0.2495930174565955 0.1109185694642107 0
0.1331951546975977 0.1280150495869892 0
0.1061189758598837 0.125388485917907 0
0.09768210019008035 0.09912807850620219 0
0.1065393580606312 0.1317841095890724 0
0.1706788897626095 0.1214688160438865 0
0.1899155517782764 0.12800236525741 0
0.3008589085013528 0.1379881039419816 0
0.3248003203873379 0.1233374960988426 0
0.1504522415813973 0.1078344524917729 0
0.2090595860456209 0.1133195910829784 0
0.321347772891879 0.1232629476977048 0
0.0963435062925824 0.1002945564226284 0
0.3229881039197296 0.1241410914177756 0
0.2792745393893952 0.1203241414446408 0
0.1531483510434198 0.1264609435324816 0
0.3016625039113218 0.1398003203963527 0
0.2587369686891517 0.1129236835995254 0
0.2567418611151615 0.1282419539674186 0
0.1188282452362203 0.1221614576791578 0
0.151902630357053 0.1287037938162277 0
0.1189663844153966 0.1176764503085065 0
0.2013522594810908 0.1122047464760862 0
0.2779839548589403 0.1126401509553694 0
0.1349429024085569 0.116251161857447 0
0.2053990668357719 0.120400962249041 0
0.1851185870744751 0.1198134153939858 0
0.1669240753101969 0.1135803592129337 0
0.09634350629812817 0.1397054435560109 0
0.161782391728805 0.1115003443309066 0
0.1670809849393585 0.119373432272223 0
0.1622567578000092 0.1302724609895173 0
0.1649609100472056 0.130187735537968 0
0.2174755739530249 0.1299378245809089 0
0.2221995027999474 0.1134571389272016 0
0.2651926600452212 0.1131200744026595 0
0.1186073672690949 0.1200182365298394 0
0.2927050498902077 0.1313750701469943 0
0.1314387446556511 0.1072200433169005 0
0.2651930669271663 0.1268982224532598 0
0.2890561204107251 0.1234086358192996 0
0.287316408776376 0.1173122562397766 0
0.1439776332189218 0.1219840202839296 0
0.3153722130612213 0.1398415132738813 0
0.1075412517863069 0.1268500251125076 0
0.2923283146892087 0.138694009183398 0
0.2946277868075309 0.1398415131760518 0
0.2770696577069985 0.1143321621331863 0
0.2966292367428836 0.0979541920998429 0
0.1103910023963137 0.1406288515991877 0
0.1079474298960264 0.1069467960236414 0
0.1603666120159467 0.1141034143252085 0
0.3061391246400683 0.1381877774946982 0
0.309202355066944 0.1022857163845916 0
0.1039643615348007 0.1261552998548423 0
0.1898374546871381 0.1230983856772631 0
0.2993386480680568 0.136157746283857 0
0.2198675317387775 0.1256602445810144 0
0.2256707471827396 0.1256351705182595 0
0.3129510357923534 0.1362122969294602 0
0.3138508774157205 0.1382451893938975 0
0.3210953560324875 0.1141923703958065 0
0.3232040685108873 0.1287964887442462 0
0.1353289503929459 0.1185334281553097 0
0.3212334528767689 0.1279197336698433 0
0.1024760666575876 0.09598286152727718 0
0.3219576584382016 0.1216209230428906 0
0.3129510357015335 0.1037877030047012 0
0.1024760666615482 0.1440171384610917 0
0.3033790769402017 0.1369576584450951 0
0.3033790768892869 0.1030423415625985 0
0.2492948318103056 0.1173327484342987 0
0.2158665825637412 0.1181420116744972 0
0.2480828781348789 0.1249297942187744 0
0.2493187032086821 0.1226922396062959 0
0.1399679467939176 0.1247267656610553 0
0.1755542754560716 0.1129224846822518 0
0.1280987232063378 0.1085412131821775 0
0.1384701028578623 0.1301102312415863 0
0.1185598491771497 0.1261888488578361 0
0.1280717671127839 0.1314850543426973 0
0.2341506562574876 0.1284122334997258 0
0.2101716178278151 0.1218048555861825 0
0.08237805757958556 0.1447327262783842 0
0.2705511706023408 0.1115607075606075 0
0.2191632526641767 0.1151652931493812 0
0.07739524151092596 0.1435740721891431 0
0.2745163572607028 0.1116451215968502 0
0.1755933823003404 0.1309257112098285 0
0.1163044122754219 0.1056877434890107 0
0.3269778651502084 0.1114077779228106 0
0.2828499775990504 0.1299497755628484 0
0.2747197415933434 0.1207935546205329 0
0.10943726998382 0.1133392773089656 0
0.07572934353874392 0.09593036888704701 0
0.2074756346668615 0.1097330794672819 0
0.1758840760740735 0.1187208466213627 0
0.207475889641037 0.1302673269448784 0
0.2661359458378538 0.1180628060627856 0
0.198523720174264 0.1262753109662803 0
0.1151718503108596 0.1076099026592785 0
0.1140394897951083 0.1097159902425707 0
0.1485349116295497 0.1144259090938445 0
0.2860416898806907 0.1157049415963219 0
0.2266087017537794 0.1214290817580549 0
0.08016528366279456 0.1484506983394122 0
0.1512343479142231 0.1147574465639428 0
0.2116097401015322 0.1252879824311761 0
0.2813257296303476 0.1233500702196216 0
0.0801652836695896 0.09154930166342728 0
0.1256785119682538 0.1125473030511436 0
0.1596820547859394 0.1167308173901005 0
0.08208259918871263 0.1470774013764236 0
0.1256394154078969 0.1257622703731935 0
0.2009944822562833 0.1303201338975067 0
0.2701140451692746 0.1204994702971164 0
0.1875335387292509 0.1251396974816302 0
0.1284786046842858 0.11758630277785 0
0.1499957881224319 0.1240208185560222 0
0.1747741501865384 0.1257286735798062 0
0.1357996708407932 0.132562936151278 0
0.2863433250901629 0.1090981129954501 0
0.1222856814197337 0.1292734802823695 0
0.2931899394284564 0.1065332069031549 0
0.287406503977937 0.1205029699439751 0
0.2029208789355895 0.1309708052637034 0
0.2722946128264542 0.1177757785796286 0
0.2913725768251178 0.1110577873848617 0
0.1448014301384155 0.1160888387588879 0
0.292153822169197 0.1087380639808559 0
0.2438822544036269 0.1198088104346143 0
0.234150656355423 0.1115877665331284 0
0.1080631463991458 0.1250942966986578 0
0.1721937784634996 0.1198946845956999 0
0.1902303688098783 0.1103883316819132 0
0.1923174988800033 0.109496978317216 0
0.09310700724033023 0.1490301691245173 0
0.2765589347735828 0.1181333214660388 0
0.1759176791367348 0.1287292454069117 0
0.3108076295901244 0.1360953560386674 0
0.103487092556364 0.111568481866784 0
0.2598372319716833 0.1206110846780758 0
0.1107469940673422 0.1183512350673547 0
0.125694910769476 0.1147097836907962 0
0.1235733769007406 0.1130185675577493 0
0.2797261111884282 0.1158823046870672 0
0.223819701605147 0.1298045503267444 0
0.2680296112053284 0.1216604290879895 0
0.253716100094276 0.1193400785917842 0
0.2091090511629047 0.1269721530381417 0
0.1410758664616083 0.127288740919375 0
0.2987593021768221 0.1427647873696422 0
0.2383155095971045 0.1187029467479527 0
0.1124520134506239 0.1085998205267034 0
0.1098657273332368 0.106328882121187 0
0.08954026750828449 0.1505753589759194 0
0.1086444769748592 0.1353866650109315 0
0.08911400980232075 0.1529142567886249 0
0.1709996523446996 0.1233344912198332 0
0.1007702092338478 0.08864346109586754 0
0.1086444769622519 0.1046133349808508 0
0.1132251367859507 0.1015084696646433 0
0.2740446363895029 0.1249479475500204 0
0.08828566327482154 0.1478794004339247 0
0.08828566328148177 0.09212059954517313 0
0.1606326122622836 0.1275163059723674 0
0.2670421469877981 0.1279971789736213 0
0.1314563233858885 0.1322097089560337 0
0.1358587905299252 0.121620218997301 0
0.1461260025730429 0.13218642592288 0
0.1003428015929825 0.09677655244619036 0
0.1771973566711221 0.1168536279123356 0
0.1124520134615118 0.1314001794661916 0
0.1144520138283972 0.1346655399857764 0
0.1014867135831647 0.09046349050156605 0
0.09100007352619216 0.08639765775751436 0
0.1014867136033821 0.1495365094876476 0
0.2457112318099626 0.1183498358643542 0
0.2692599824585912 0.1161339639844206 0
0.1256757677946983 0.1278899068116014 0
0.1080401865114105 0.1447555501752584 0
0.2044791354047872 0.1121470588347956 0
0.2028818891100193 0.1107273811677668 0
0.2883845994002697 0.1187765601068742 0
0.2014119415962574 0.1278709084500679 0
0.2598585796953707 0.124900091072398 0
0.3017482555482795 0.136305589514239 0
0.1524262475973569 0.1325954484432272 0
0.1503478308687377 0.1321691858500607 0
0.2380091374768129 0.1266413036438496 0
0.3135922220896269 0.1419778651504544 0
0.2382526085248873 0.1207757384678181 0
0.310616594773632 0.1419972733534951 0
0.1978730803040154 0.1181890354300048 0
0.3135922219406617 0.0980221348173994 0
0.3106165946603492 0.09800272663499014 0
0.2535720298719139 0.1250647833924211 0
0.3285492215218265 0.1150060427111049 0
0.1151718503215755 0.1323900973366635 0
0.106539358064359 0.1082158904025983 0
0.2854335247973865 0.1177441575329853 0
0.1394196883763529 0.1181868212289178 0
0.2255541552683669 0.1193778919310267 0
0.1374124540073992 0.118326899202558 0
0.1397950359444717 0.1320420339161384 0
0.2174722587679016 0.119350201907552 0
0.1035524752800449 0.1331170415590467 0
0.2907184841966905 0.1054631840867314 0
0.3025994645803659 0.09897999766747666 0
0.09892017857081706 0.09494502816681426 0
0.09892017857370268 0.1450549718259617 0
0.2231108034416315 0.1176531966327809 0
0.242173291116768 0.1210123088467498 0
0.2356464640330558 0.1172349363204461 0
0.182332821792548 0.1309458134997231 0
0.1055624103765079 0.1124160236995466 0
0.2987593022746114 0.09723521259188628 0
0.2963952561423489 0.09975252597910603 0
0.1823324058128358 0.1090542690727611 0
0.2521596693158159 0.1183333475389938 0
0.327045807906496 0.1283707631427747 0
0.09892438321245095 0.0868028216262127 0
0.2464605511390651 0.113772815633731 0
0.2341582092346081 0.1262562938901099 0
0.2777636202398275 0.1269422804026458 0
0.2901927428634831 0.1345298059075438 0
0.1886580888695185 0.1288263645719902 0
0.08020461552075135 0.1507959068912432 0
0.2884406281838869 0.1341674051472017 0
0.1002940472919906 0.1087442493159155 0
0.1573115354109102 0.1091440270956345 0
0.09944933234039087 0.1479344941993868 0
0.1377714095039567 0.1330678934751885 0
0.1555916901496492 0.1164398066846199 0
0.149036599053661 0.1219379426660842 0
0.2155190093305256 0.1290196874087364 0
0.3260200023346131 0.1224005354157326 0
0.2168969033216384 0.1125875991332408 0
0.1064675864175515 0.1459695216150439 0
0.2175047372194927 0.1101154519522784 0
0.1039643615149213 0.1138447001517897 0
0.2581812271978478 0.1146137704230386 0
0.3285110460703317 0.1188673459786472 0
0.3216440020036873 0.1199734930129849 0
0.3155570853533716 0.09837683263622372 0
0.3137596588966115 0.09965637794127097 0
0.3266231672832112 0.1094429145074045 0
0.3061326538812672 0.09648895391816464 0
0.08329221803961402 0.08690487672712784 0
0.3054390368813117 0.09781275821203927 0
0.1796911305224972 0.1091463858656279 0
0.3275639054250956 0.1221381814881606 0
0.2940477289787176 0.1376790142189521 0
0.09818877150156585 0.1487643552821029 0
0.3252277689204101 0.1192118767776465 0
0.2275077898783424 0.1287515196132569 0
0.1064675864219262 0.09403047838542547 0
0.278356793547442 0.125005131602813 0
0.165429081952189 0.1121001619301256 0
0.1079923028208878 0.09690496386286074 0
0.1098069114477869 0.1423448040952958 0
0.09142746745166247 0.0954299646411351 0
0.223474343975708 0.1146104212407575 0
0.1079923028248394 0.1430950361279564 0
0.1951556378762823 0.1134362476094976 0
0.2873805665128035 0.1293990865879677 0
0.2818267138082902 0.1153505145492588 0
0.168522954683766 0.1213966880211127 0
0.257646828024751 0.1217790198658415 0
0.2022848253512129 0.1230113601146814 0
0.1169237401041221 0.1291604814385022 0
0.2922082088979266 0.134963026067347 0
0.2404113561495961 0.1115380548110197 0
0.1335936852427568 0.1325759719419385 0
0.197615152389819 0.1201345145046035 0
0.2379845114318226 0.1287921716444486 0
0.1425465841019349 0.117723711853862 0
0.09249721254451465 0.09839169874616285 0
0.1484716257356994 0.1283867988818475 0
0.1549449091701303 0.1136893896596445 0
0.1618507675523418 0.1285238400792689 0
0.1444057129237581 0.1116722250009078 0
0.1949708954406215 0.1173058161322793 0
0.2852669094625252 0.1235500968506441 0
0.1087091721873976 0.1215131904506028 0
0.1277215369882684 0.1283094847738017 0
0.2922883299294896 0.1049125129260869 0
0.09892438323353381 0.1531971783708984 0
0.1275764491451403 0.1115218673582545 0
0.214135352851003 0.1154757233875203 0
0.1144520138163462 0.1053344600083489 0
0.1419924327166578 0.110391137071922 0
0.1418944014356703 0.1325822726528243 0
0.1185598491777341 0.1138111511424423 0
0.1841642112065553 0.1097626274996806 0
0.2163882203721975 0.1244841096418168 0
0.09496571603059346 0.09147678712766784 0
0.1904081882940754 0.116092493861333 0
0.08499999994429919 0.1538474519702712 0
0.2323862361900675 0.122486699158251 0
0.08954026749871988 0.08942464102833203 0
0.2962361441559648 0.1345850414518511 0
0.1530999499280585 0.1245757404865967 0
0.2009818125869886 0.1096516648475523 0
0.2301281593774588 0.1209200679274018 0
0.1606262393454427 0.1217656511895921 0
0.1055349451406438 0.09227647267609548 0
0.103476995130053 0.09130640051255398 0
0.1052867055484647 0.1100304827171557 0
0.2048740022796766 0.1301948804832556 0
0.2219086737206608 0.1306695796980795 0
0.2822386571258662 0.1192955876855352 0
0.1052867055563486 0.1299695172745005 0
0.09855410714750482 0.1356522655260025 0
0.3261277782478698 0.1129150562348454 0
0.1272378355128513 0.121511273306514 0
0.08609015608273116 0.09422830104120966 0
0.3025148951408816 0.1383895835014134 0
0.1111948481582069 0.1263031655908765 0
0.08696938893489277 0.09729762032771781 0
0.2198518011959363 0.1167958983984007 0
0.1515604825070693 0.1197658163752097 0
0.147202837820528 0.1208508686899316 0
0.1841666351249241 0.1271526249589151 0
0.1051504220069766 0.123506311407488 0
0.1570459017921678 0.1278370156402576 0
0.2797838469979565 0.1220347421605975 0
0.1580316258575267 0.1292844197019112 0
0.1109888638226636 0.1152284551765595 0
0.1365934235485099 0.1156489328910939 0
0.1759108449935473 0.1109192136723484 0
0.1967721949862124 0.1100695327114119 0
0.1542125891865886 0.1079175213072839 0
0.1285301337102697 0.1197894797383257 0
0.247358505864841 0.1225187854285535 0
0.1769167701593269 0.1219912180196645 0
0.1805707157237763 0.1143513179336604 0
0.08664090394103391 0.08693685590465867 0
0.2978408700312606 0.1347542682788771 0
0.3177717408510227 0.1349205081330994 0
0.2514188811343144 0.1282948278455063 0
0.2227030708038658 0.1279986354542034 0
0.3232451893992984 0.1111491225771566 0
0.2526827719430504 0.113120960255942 0
0.2532570209560696 0.1110185397298254 0
0.09091570364339757 0.09371964392626325 0
0.09284098677958061 0.1461972217022484 0
0.2894989068436329 0.1142527484169967 0
0.09142746743842704 0.1445700353608269 0
0.0909157036410554 0.1462803560744055 0
0.288570164270974 0.1108891946524712 0
0.166594689306596 0.1263017054746506 0
0.2007053185516569 0.1263689550481358 0
0.08911400979015234 0.08708574321539335 0
0.1234098843249513 0.1320267669030072 0
0.1293142801512888 0.1328775661386693 0
0.1484770712423196 0.1197542786371373 0
0.1234098843224827 0.1079732330989167 0
0.2961863926659428 0.1017863636189545 0
0.09482467536111595 0.0963140424870152 0
0.1079474299035257 0.1330532039705293 0
0.1070761121596272 0.1176989302512081 0
0.1171631149999204 0.1217880100488013 0
0.2325799467631555 0.116969102186859 0
0.2043625465085022 0.1278875902271712 0
0.319265993538168 0.1309120993750221 0
0.1172646286023084 0.1328366556340642 0
0.2798958310031801 0.1240154916572517 0
0.2956138049768429 0.1434118300643491 0
0.2134754839972905 0.1252465345913465 0
0.1765390031298881 0.1150391817431788 0
0.1887428522274801 0.1144737499103536 0
0.3195793653588161 0.128783666828749 0
0.1897470536869248 0.1181328000295597 0
0.1014951238144867 0.1012076601699636 0
0.1014951238183718 0.1387923398154896 0
0.3231344768431396 0.1140948313749584 0
0.2640798723753221 0.1150794107804601 0
0.1357144692473779 0.1074017741130926 0
0.1012578017971607 0.1479365476438106 0
0.2853587181045923 0.1218455005901198 0
0.2140944316915983 0.1219006798315041 0
0.2835281900025861 0.1209280353888441 0
0.2385609179604533 0.1245079703230066 0
0.1619805704447086 0.1195708573633448 0
0.1860703169345318 0.1242482759548759 0
0.1157087995696426 0.1361379190709734 0
0.2514370023342445 0.1166939921942972 0
0.1993846493584036 0.1144032801026308 0
0.1506547473695896 0.1304256566143998 0
0.2620036781352413 0.1115246623345408 0
0.260794462225055 0.126787370678267 0
0.2600116439079047 0.1287546425368359 0
0.1339461863675971 0.1141828356243586 0
0.1931048796892099 0.1139977673128882 0
0.1298573197121811 0.1281251845159611 0
0.2575338944466172 0.1197220357923562 0
0.2892982037557864 0.1122596954427154 0
0.3212639487173143 0.1103143554986746 0
0.1491981157696767 0.111242690045488 0
0.08678021043500807 0.147274136933668 0
0.09710400319093786 0.08754620811580467 0
0.09710400322021989 0.1524537918773097 0
0.09701698561071713 0.08610360192120127 0
0.3099506206559675 0.1000720584174946 0
0.1696992021599822 0.1224742166313826 0
0.1987773795822505 0.11636446674825 0
0.3199205081180114 0.1072282591289485 0
0.2659950077424552 0.1220593037034132 0
0.120826976093778 0.1176030087477231 0
0.1431703137366865 0.1196042196449899 0
0.0841264336689499 0.09446007133545176 0
0.2922312201725044 0.1369860764149913 0
0.2296248982967112 0.1287248731069893 0
0.229624898464705 0.111275126909246 0
0.2109420931159628 0.1164987134565233 0
0.2303517598633739 0.130362226210103 0
0.09603253429184026 0.09526520570402519 0
0.2939706570807099 0.1049315552696544 0
0.3040883312879509 0.09853172799679664 0
0.09501922137462167 0.1462195479074146 0
0.09603253428719746 0.144734794287652 0
0.2891149989485418 0.1030424622451164 0
0.2626781309794187 0.1163063743041025 0
0.0928787492176129 0.1529090679950873 0
0.07556668660115172 0.1422010447655857 0
0.07935597804448043 0.09813512963003375 0
0.1645765146380813 0.1226337187654129 0
0.1948518640800257 0.1154634399790139 0
0.1238833811032152 0.1286027832980889 0
0.08321917414769661 0.1415481493842371 0
0.1449934490397553 0.1276018306052494 0
0.07923996099259915 0.1438341200665182 0
0.1753725834918706 0.1207302931942825 0
0.1172443117129757 0.135792613241344 0
0.2529297112485241 0.1210519172951489 0
0.2399425447035189 0.117444034886276 0
0.2717337962773165 0.1236570760979307 0
0.1705143559106827 0.1120146352485502 0
0.1552141807659888 0.1273301641696384 0
0.1729413829803617 0.1310905291605713 0
0.3108076295133307 0.1039046439339178 0
0.08237805760519933 0.09526727370962314 0
0.2458061005279085 0.1118251947536227 0
0.2670816949386083 0.1259511030095022 0
0.1823098536057008 0.1154127453501128 0
0.1819161560344077 0.1243496967626369 0
0.1118701565527958 0.1234653407418002 0
0.1467474969658532 0.1249825001527722 0
0.2072709156461601 0.1137106478642401 0
0.1336539111574118 0.1219713997707736 0
0.1831519692940382 0.122740285118774 0
0.3285122614255003 0.1235601539810212 0
0.09469322649397206 0.1405704413916083 0
0.3193841769001249 0.101678737045001 0
0.302861818435441 0.0974360945699253 0
0.1835729357663302 0.1185447446098263 0
0.301439845879643 0.1435122614079362 0
0.3264682719842301 0.1209116686458857 0
0.1278264191910339 0.1235168341597798 0
0.3043516874717527 0.1434581631025676 0
0.1482759764932307 0.1177966995661471 0
0.2493175582381312 0.1195358293789121 0
0.1850271456389451 0.1111484054001879 0
0.1036745784691455 0.1364012470070707 0
0.184191915267771 0.1126128286350331 0
0.1832779030757334 0.111099103297633 0
0.2315120043000831 0.1185587375845092 0
0.1433004683354407 0.126602882148122 0
0.1409908030449331 0.1118856969287167 0
0.09668202320620994 0.1021118839762416 0
0.3176716850787069 0.101305990626879 0
0.3220737992888036 0.1326958622291919 0
0.2973615658336192 0.1435253631795039 0
0.3254613481965677 0.1321373294368378 0
0.3236940093110222 0.1326716851562751 0
0.2838602422399373 0.1193577587993309 0
0.2973615659389643 0.096474636805018 0
0.3171599202739523 0.1404771880853931 0
0.2924250300893542 0.1013187486719718 0
0.1612748622559257 0.1318314448616914 0
0.2202809500790729 0.1135823635904357 0
0.1129102535351783 0.1253908056742021 0
0.138795001539856 0.1118717132378661 0
0.1580316258617062 0.1107155802977118 0
0.1776730848660818 0.1281287541357375 0
0.3171599201735809 0.09952281185515713 0
0.1985714789801601 0.1241127713895266 0
0.3144252267032375 0.1433613994780924 0
0.3236076300112095 0.1203985248754197 0
0.2362458558922768 0.1212793154938687 0
0.2629852359675527 0.1268135229457936 0
0.1589742624660193 0.1247673658907048 0
0.121776141995654 0.1163797435196374 0
0.3231156659311173 0.1055969212964021 0
0.2713808417557478 0.1132430527552165 0
0.1329544869420761 0.1120424916888517 0
0.2054919735039029 0.1257926891275022 0
0.152866410694742 0.1106255849571995 0
0.2070755849306606 0.1155472630202264 0
0.2054546040273298 0.1142015553639183 0
0.1665448063724658 0.1295876257681753 0
0.07800097501905497 0.1459181834917845 0
0.1665419993236947 0.1104349368941373 0
0.078246931665066 0.09206783111243522 0
0.2688417592175973 0.1112921661423846 0
0.09929631510323086 0.141645170996422 0
0.2583227190737742 0.110957335488976 0
0.09768210019021696 0.1408719214845755 0
0.2694292929125855 0.1247923951121107 0
0.3155570854541763 0.1416231673288471 0
0.188302195079696 0.11923213722219 0
0.2730161076190481 0.1284728677378821 0
0.1237281209879156 0.1114229132839754 0
0.2895077948756236 0.1324233832952063 0
0.1693691841646021 0.110025271552137 0
0.1930464088027103 0.1203799308596159 0
0.3195884044102639 0.1112511909635628 0
0.2884797938053211 0.108826843633711 0
0.1157087995575746 0.1038620809140797 0
0.1182930744154927 0.12791162824415 0
0.1357493008841046 0.1142488016696137 0
0.1656049325342973 0.1317497704842167 0
0.1676512824242942 0.1312401343276816 0
0.2357644500798463 0.1230279454846725 0
0.2034478335586489 0.1174070521663717 0
0.286223954486482 0.1249057986666259 0
0.1209338146179455 0.1067449282979548 0
0.2096035872576554 0.1179977634302286 0
0.2020091531009664 0.1158616251767774 0
0.3253436220121017 0.111240340961291 0
0.1396292436037484 0.1078862014951411 0
0.09030357035647579 0.1415720845276276 0
0.1712706987627199 0.1080037689907885 0
0.0946932264913864 0.09942955860510241 0
0.1923149820744168 0.1305030985762436 0
0.1949478760945361 0.1094006323707717 0
0.1920254369653788 0.1119264282507327 0
0.188957632094987 0.112019753883704 0
0.1634978247856392 0.1084295528425568 0
0.1438753659790832 0.1147743878103041 0
0.1967920041576499 0.1128264738481119 0
0.1958982288357217 0.1114682021158839 0
0.1677776328345853 0.1175874674144265 0
0.1409004342325611 0.1146607670109868 0
0.1094815559317265 0.1029681070515784 0
0.1601727710402062 0.1125731852374053 0
0.1543728042837565 0.131633557096759 0
0.1840683227039512 0.1166831280366238 0
0.156451218171322 0.1077432661775459 0
0.1191889014972647 0.1296243240244288 0
0.1355975418489241 0.1108266650361914 0
0.2824103892461447 0.1221253363303718 0
0.1191889014887698 0.1103756759774651 0
0.1121849123432574 0.0995127129226702 0
0.1450691028636653 0.1252861944412998 0
0.1220862878306276 0.1277718003843132 0
0.2997323960334872 0.100334206897975 0
0.30999395710517 0.09645077847302018 0
0.2362170787479126 0.1148564390319524 0
0.1755019699390562 0.1089832496300991 0
0.1848274086035431 0.123048447647061 0
0.1612748622711936 0.1081685551412038 0
0.3211617871099211 0.1256558997168713 0
0.1738477016395678 0.1217910452012674 0
0.2942780507408255 0.1324239792517949 0
0.2008754034826526 0.1194777993410684 0
0.2173208090537259 0.1211893927694786 0
0.1551739920640781 0.1202970468892813 0
0.1474733778714049 0.109251559157669 0
0.1513446690161138 0.1255385524655266 0
0.1136845076238595 0.1318996565950369 0
0.2709053628925024 0.118917996671841 0
0.08500488766117349 0.1495718955498988 0
0.2108104932399666 0.1139806370312331 0
0.08500488768177511 0.0904281044468201 0
0.08409094375596671 0.08896780268178622 0
0.1244236312954503 0.1223446989137561 0
0.1216001250098581 0.1221768359772796 0
0.2158114996279467 0.1272870005529385 0
0.1587379496140823 0.111998821035408 0
0.1843005943785666 0.1215419872923355 0
0.2101015357245252 0.1118335650134374 0
0.23822951795768 0.111126030034965 0
0.3076701943246464 0.1010857166159073 0
0.2361270194888841 0.129573674277369 0
0.2381164083149792 0.1131415821714187 0
0.2361975907874527 0.1104491460478845 0
0.323914283301453 0.1173298055063643 0
0.1635886207713134 0.1108042706421498 0
0.142289932928054 0.1214942719551365 0
0.1371613702094429 0.1291618951646075 0
0.2552778865606307 0.1146153273888184 0
0.1377531155371162 0.106924303734084 0
0.2812162079731715 0.1118090031039395 0
0.1121849123536272 0.140487287065152 0
0.2863041064263818 0.13068056144023 0
0.1132251367986155 0.1384915303214261 0
0.1276595835494904 0.1067204542240841 0
0.210634577617093 0.1267303986315076 0
0.1111511404872039 0.1047825935955747 0
0.1364948314859772 0.1252169053221327 0
0.1111511405009198 0.1352174064024987 0
0.3144252265925322 0.09663860050204866 0
0.1581782732763093 0.1214111026322291 0
0.1056931180036883 0.1028241074691774 0
0.1294695329146191 0.1142863142147362 0
0.1055338571551706 0.135429594381895 0
0.1056931180125024 0.1371758925169626 0
0.107015787425603 0.1361396980666218 0
0.2323351716191923 0.1150890472153254 0
0.1752299087245488 0.1168170360615102 0
0.1518743808753359 0.1271352029047604 0
0.2129128354113473 0.1203929839049051 0
0.1629568494759508 0.1213727547882547 0
0.1605234162200959 0.1240523254216965 0
0.2708067717245219 0.1278947872022848 0
0.1984752629206843 0.1093813772971797 0
0.2216552151220217 0.1198747295412923 0
0.234254285901089 0.1184620974946698 0
0.2015375104208119 0.1180167779853497 0
0.2091769336676961 0.1230737351329301 0
0.08412643364190636 0.1455399286612705 0
0.2219086739101246 0.1093304203186753 0
0.1686662651421573 0.127108864192686 0
0.2584506835795203 0.1236903135277423 0
0.1688335969813789 0.1253748923118755 0
0.08739479032391716 0.1413772947689522 0
0.08664090392798125 0.1530631440989671 0
0.2764077373597161 0.1222432845034084 0
0.1482109765605774 0.1322176653459798 0
0.09310700722377366 0.09096983087672869 0
0.2221381582155397 0.1263870110459639 0
0.1604026997182652 0.1182880033557547 0
0.2627116456440385 0.1184795311235341 0
0.2363845389099241 0.1250190913250154 0
0.1581211400775673 0.1076882173655255 0
0.1341964961387882 0.1252539135878942 0
0.2077654164264431 0.1224353884438622 0
0.1082394299220537 0.109396576754889 0
0.1297867044639606 0.1311801043135113 0
0.2160012714632929 0.1161853212223093 0
0.1169676164620603 0.1145635288719242 0
0.1170636863680962 0.1182080384079792 0
0.2656283483801216 0.1289167708526386 0
0.1182930744131399 0.1120883717563526 0
0.2865993361640995 0.1060445048464465 0
0.1438830808733508 0.1237119746561427 0
0.2886007132588332 0.1158059660602255 0
0.2702627719122893 0.1146666981803865 0
0.1880820989957262 0.1306895111303085 0
0.1812686718064984 0.1221819936293116 0
0.188349845432366 0.1093322461567857 0
0.2039539222854805 0.121998317867996 0
0.185826334507492 0.1309671622906764 0
0.2264956572470271 0.1125775662445252 0
0.2254142141201902 0.1147083545786369 0
0.2270103278810587 0.1156551119431014 0
0.163553480524325 0.1239690193603971 0
0.2236740563938089 0.1250776391046812 0
0.1071284283928131 0.1239464589269136 0
0.3281508048241226 0.1128523807771444 0
0.21358529441275 0.1100187864994859 0
0.2109863458525209 0.1301935779988743 0
0.3016625039039055 0.1001996796096882 0
0.2135827845145468 0.1300102453789811 0
0.1055624103868396 0.1275839762942693 0
0.1832779030930665 0.1289008966976052 0
0.1793932910281805 0.1287234301046999 0
0.180615558660286 0.1126177543136583 0
0.1983872014108803 0.1129587947595457 0
0.1793388518133415 0.1112835621889446 0
0.1805885526751221 0.1274178422023339 0
0.2895990945141274 0.1284259790826263 0
0.1200538705756314 0.1257386845488588 0
0.2997323959706188 0.1396657930940427 0
0.2136155439264189 0.1186980234687256 0
0.2429972362933337 0.1107117019879368 0
0.2200807356541624 0.1298912512335751 0
0.2720935704404203 0.1217044881047823 0
0.1271339573580439 0.1268376121674602 0
0.1663425370128281 0.1213701612244505 0
0.2549868105249384 0.1161070324870937 0
0.1020058310819042 0.109867885634943 0
0.1020058311054084 0.1301321143342054 0
0.1324859131418979 0.1094639634025362 0
0.1362768344292424 0.1305984381240767 0
0.2480957645300264 0.1150424547246065 0
0.1268807260652718 0.1134517198143958 0
0.3284581631403751 0.1206483124578089 0
0.1449049770113673 0.1130619928101159 0
0.1124204953329653 0.1365935701515497 0
0.1984856055136228 0.1305956012814669 0
0.2037892080693791 0.1243310584013889 0
0.1573361247964064 0.119700205181865 0
0.2763462996470178 0.1114733191093675 0
0.1587754006388717 0.1183978265832541 0
0.2567343097207751 0.1117867339584178 0
0.2887936546726451 0.1173140218377923 0
0.2566737469167731 0.1261989447506225 0
0.2754990516546784 0.1192961222270462 0
0.2243191796622608 0.1215364337788055 0
0.08566235960386956 0.1439448892547213 0
0.2913070128235323 0.1292664275972634 0
0.08944784498699938 0.1489524487788299 0
0.2238104531496278 0.1161286015823333 0
0.1581238647837241 0.1323041479092348 0
0.1595115047171217 0.1313977246833906 0
0.2479255582184494 0.1186113147814265 0
0.2654733608756433 0.1162234582426365 0
0.1441040497897382 0.1177438701572366 0
0.2598451403081393 0.1174938428034674 0
0.2183001428364368 0.1224075784529377 0
0.2828221475906773 0.1095456826979587 0
0.1061949410582095 0.09783350442515834 0
0.1071519111160173 0.1199999999971252 0
0.1290505816349148 0.1102879942880529 0
0.3207776812103398 0.1034043559465239 0
0.1261764797065547 0.1075905975083514 0
0.1418296580071491 0.1073812109549141 0
0.115573768994185 0.1306183684553069 0
0.2552293553880542 0.1291684675815835 0
0.1276475308123704 0.1332631174516787 0
0.1474553197921945 0.1223650341564017 0
0.1261741875116649 0.1324116361297182 0
0.1112315851644624 0.139190927199857 0
0.1248903086789957 0.1086819207798367 0
0.0992644564100821 0.1076559507643671 0
0.2983456512053493 0.09903864979489038 0
0.09876492121167202 0.1338647180566183 0
0.3285253632067083 0.1276384339746061 0
0.3277647874381643 0.1262406976468185 0
0.09983450920588997 0.0904597203294058 0
0.2905833616708475 0.1020115006782142 0
0.2018116506301384 0.1246654798201017 0
0.3284827532688391 0.1169275040529999 0
0.1779784447290175 0.1183523042177078 0
0.1721286288523877 0.111055484584402 0
0.3080724957777782 0.09651724670322945 0
0.3069638664197146 0.1419521948137813 0
0.3061326539445173 0.1435110460640376 0
0.08409094374284218 0.1510321973254733 0
0.3268929815413298 0.1160144138773406 0
0.1719908768181086 0.1288630489032788 0
0.08020461553778443 0.08920409309340366 0
0.1064114371028616 0.1387761428492804 0
0.2290840934117078 0.1157413459399532 0
0.2894355799037734 0.1263598400537372 0
0.1459928382067894 0.1220829810202144 0
0.08115134203319985 0.08703178570129076 0
0.1064114370965 0.1012238571398774 0
0.1917026968872716 0.1281469616136137 0
0.2295120911725574 0.1130016627245675 0
0.2746919081507534 0.1288220557207536 0
0.1392426259911949 0.1221936597250078 0
0.2190791095232124 0.1184615938247912 0
0.09834012853784571 0.1469132061572652 0
0.1608575080269852 0.115667337818777 0
0.2101358325323152 0.128221079154341 0
0.305788123126136 0.09977223105389464 0
0.181474014204341 0.1188391380128668 0
0.3057881232130657 0.1402277689268885 0
0.1719736998928441 0.1170621824398887 0
0.2294511600578886 0.1270178226561361 0
0.2679292521799035 0.1196596613714407 0
0.2962018820686819 0.1382055537119206 0
0.3138508772922401 0.1017548105237026 0
0.1917214067967136 0.1150875507092482 0
0.3197664548065366 0.1128357951677676 0
0.09247584957341004 0.0894042196853768 0
0.0924758495991175 0.1505957803239856 0
0.1112788212493638 0.1327612594942982 0
0.07730825875293793 0.09846144310739577 0
0.09582054955868011 0.09837971973318868 0
0.124995912275977 0.116191444997309 0
0.1007702092455718 0.1513565388974123 0
0.08566235962189478 0.0960551107461044 0
0.1034769951532258 0.1486935994838111 0
0.1055779958109814 0.1215040425974685 0
0.1650591388182862 0.1248680252127293 0
0.1882999478062949 0.1269836718077255 0
0.2874496763902683 0.1324414190461234 0
0.1207877912196165 0.1290781357614365 0
0.1687604525628825 0.1128760463306034 0
0.0773082587701758 0.1415385568723549 0
0.1451481216448553 0.1204445419088461 0
0.1620229725195834 0.1267707952534344 0
0.1217592767348517 0.1257644949092776 0
0.1200486865154943 0.1142373611608998 0
0.12183960666908 0.114309687655757 0
0.1155737689885054 0.1093816315474157 0
0.1839756219801555 0.1083195018626928 0
0.08944784498540853 0.0910475512154901 0
0.1725395859516474 0.126864724695661 0
0.1729736550572078 0.1088761232408655 0
0.1216916667648979 0.1204251490630692 0
0.2282124801045345 0.1124287652816571 0
0.1187962240730869 0.1087044903819132 0
0.1187962240820707 0.1312955096177721 0
0.1635736987049899 0.1181036718524479 0
0.1439658649080165 0.1324855466477071 0
0.09501922137256004 0.09378045208522309 0
0.2047594227875153 0.1186030125095033 0
0.2656547820060946 0.1252232160151392 0
0.1125906907377864 0.1293741320859952 0
0.2640807704561778 0.1249180394605856 0
0.2419935607291887 0.127975598420431 0
0.2634991161069546 0.1210515066600271 0
0.1776342059425198 0.1316566615978348 0
0.2544344927227077 0.1209662838045615 0
0.2140076911397805 0.1274632244907198 0
0.2853603674199361 0.1112074908694837 0
0.2612569219220926 0.1237408883410244 0
0.2873479449401183 0.1123179253769175 0
0.1112315851559869 0.1008090727911293 0
0.131814629404801 0.1164036395625038 0
0.229235036911807 0.1186538870726141 0
0.2764587297514849 0.1282368838517318 0
0.07639698700034873 0.1453373773293945 0
0.114602708462572 0.1287102057319814 0
0.114416337803059 0.1132074239884471 0
0.2892589567448642 0.1374391802784136 0
0.1146027084590128 0.1112897942659156 0
0.1556997093517498 0.1148886061004209 0
0.2012327467157838 0.1212279200735722 0
0.2170331092269091 0.1279942038094438 0
0.3246657931031301 0.1252676039069759 0
0.19500698198174 0.1264387304198023 0
0.172991972811841 0.1240716963924849 0
0.2753720629007319 0.1154157048989815 0
0.3099939572474544 0.1435492215298229 0
0.07878069705388649 0.0903743179320658 0
0.2556811974831708 0.1179956632296301 0
0.2579814051326403 0.1176600570274115 0
0.2513865266839647 0.1222523276583489 0
0.3283613994593231 0.1105747732847575 0
0.2963952560320758 0.1402474740074342 0
0.2999735342008992 0.1437297461743269 0
0.323412674715667 0.1225047401133491 0
0.1007381181996743 0.09973044225034208 0
0.1172646285895443 0.1071633443658001 0
0.1786360791308132 0.1152071918263896 0
0.1965741658224332 0.1314236571263043 0
0.2520113461457713 0.1239705094199214 0
0.08329675429710603 0.1488973939770619 0
0.0816336743735967 0.09064353878302064 0
0.08329675432671933 0.09110260601628688 0
0.194947516510539 0.1305993786035042 0
0.09701698565208096 0.1538963980735091 0
0.1789626428404348 0.1220138411529313 0
0.1109591385510238 0.1281727845337005 0
0.1109591385476394 0.1118272154620357 0
0.1056469143435449 0.1064594209634404 0
0.241601937128067 0.1125781336983432 0
0.2419850179309126 0.1144909594923352 0
0.2185394695624227 0.1136216606751566 0
0.1305939692810964 0.1204312805878464 0
0.1334914279564747 0.1296209111529747 0
0.2701622260311303 0.1263062166975631 0
0.3123757139737252 0.1023379349411142 0
0.2063114104362363 0.1186927371750596 0
0.261995582985713 0.1221568248879402 0
0.09197468704925935 0.09237203242549298 0
0.09030357037857681 0.0984279154764578 0
0.09865957458030104 0.0966157185287183 0
0.1117009361462694 0.1165567252383437 0
0.3176976735842775 0.1029250040657808 0
0.2656950490668176 0.1147303395655894 0
0.2826787181568453 0.1135087129723794 0
0.1923338243452969 0.1187240860336705 0
0.2919745633162622 0.103067905055424 0
0.3137888838129035 0.1054241605997937 0
0.3182489195728156 0.1295505643688776 0
0.3137488090311367 0.1345884044103893 0
0.1038953342361685 0.09713090082012332 0
0.3197685481258586 0.1271441324200259 0
0.3211686366020848 0.1296959680653179 0
0.3147067903582474 0.1038294063287973 0
0.3121662911554632 0.1052341992901444 0
0.1012578017849634 0.09206345234679128 0
0.3182285281877761 0.110645697588766 0
0.154738684055132 0.1221885637402411 0
0.1070157874139902 0.1038603019225881 0
0.1652702613583009 0.1142225725695281 0
0.1335725373762323 0.107328897525558 0
0.2642491584047704 0.1194021518024833 0
0.3090812721319879 0.1361158663667848 0
0.2683717089492166 0.1177178662455641 0
0.1246298747266679 0.1332810091566558 0
0.2609062350345702 0.1130137794501934 0
0.1533099819599771 0.1280841191497544 0
0.1023096818621577 0.1128517030747616 0
0.09668202320388834 0.1378881159889763 0
0.3043516874481765 0.09654183686338522 0
0.264005298674399 0.1286202058402108 0
0.2906497201064006 0.112923225110186 0
0.1006715910806479 0.09505289950054516 0
0.2640052986866209 0.1113797941580699 0
0.1974116155168837 0.1229580541875527 0
0.1225352784857835 0.1333884516603821 0
0.1151493174001755 0.1376612699724437 0
0.1511430095074151 0.1219856476026647 0
0.2598703176029859 0.1145418629625876 0
0.08969140250416072 0.1434743259510421 0
0.1670551485506889 0.1279679023591878 0
0.2486711224209091 0.1211915569895175 0
0.1636580464260431 0.1292787841516555 0
0.165462092891589 0.1281651749586857 0
0.2686709123579087 0.1287261418293573 0
0.1293452954588484 0.1070117910744009 0
0.2977192177597596 0.105326776862653 0
0.1085601809046262 0.09892395286248597 0
0.1788243429365559 0.1252945980161889 0
0.232205670809832 0.1297351347073692 0
0.2322056710046652 0.1102648653123092 0
0.1912884247404351 0.1243431074632449 0
0.2600116439199699 0.1112453574653985 0
0.1387824331509649 0.1198936060375894 0
0.2583227190680173 0.1290426645062551 0
0.3177631531995675 0.136981224928268 0
0.1563350458319048 0.1292888568593076 0
0.3219812249254884 0.1072368467941013 0
0.1695549450884059 0.1082979337956768 0
0.1695549451027102 0.1317020662075167 0
0.1130017440082591 0.1352714013750707 0
0.2555169013564328 0.122115970742289 0
0.1270761999165522 0.118491827828028 0
0.08321917412704777 0.09845185060599682 0
0.2074639837024584 0.124380175037102 0
0.1168618313357172 0.1252540085643113 0
0.2124095420962897 0.1266088659157994 0
0.3162340011449256 0.1076976115335851 0
0.1112788212351489 0.1072387405004602 0
0.3157196312082212 0.1323221715203852 0
0.317302388456502 0.1312340011601022 0
0.1867510965932198 0.1182693666483022 0
0.2627448062421744 0.1237810186725138 0
0.2370368111579976 0.1180440357009785 0
0.1098069114437376 0.09765519589830524 0
0.1094535944302602 0.1437533638062492 0
0.1904245912943583 0.1119804614094188 0
0.1053885354375555 0.0997793352120541 0
0.2953168754420743 0.1362564531091329 0
0.1339160818956253 0.1267125151846573 0
0.08783400741630738 0.1460313578321401 0
0.3177561974325105 0.1047345657585492 0
0.3197938486982427 0.1345001621617656 0
0.2840387023430542 0.1281116881010728 0
0.1774171745571826 0.1117742041665437 0
0.2098720065534719 0.1199689402916613 0
0.3269521948332587 0.1180361335494687 0
0.2404750218383082 0.1243238364351291 0
0.2233570945756319 0.1231966822634462 0
0.2173227329113442 0.1147799499853934 0
0.3074048135431952 0.1369687237019927 0
0.3211158663597329 0.1159187278661168 0
0.155571618626733 0.1121544058339623 0
0.2867101081220726 0.126396680259058 0
0.3219687236949315 0.1175951864492808 0
0.2607188058332306 0.1188713106744901 0
0.3074048134260349 0.1030312762850833 0
0.08163367435243502 0.1493564612453336 0
0.2654077874143586 0.1237694343198777 0
0.1967184204221924 0.1167964977795629 0
0.2671487008313327 0.1139747743766061 0
0.118122744596509 0.1345384016206383 0
0.2734737782262964 0.1158846305300726 0
0.1564779206455371 0.1321819135466576 0
0.2011118518584296 0.1140135126047007 0
0.1465177218236036 0.1133252386225973 0
0.2739363140176112 0.119097573067497 0
0.2945067313984156 0.1416285893145579 0
0.2956138050686669 0.09658816992416998 0
0.2945067314695303 0.09837141067486163 0
0.1055338571426212 0.1045704056024086 0
0.1032252292183908 0.09446073987120687 0
0.1530812322495243 0.1192661469664856 0
0.1219937204338099 0.1238508744244675 0
0.1185977435843177 0.1244369569243546 0
0.2199437690796688 0.1230058703250821 0
0.1685951438275885 0.1162465465570224 0
0.1209338146338673 0.1332550717044759 0
0.1225352784713102 0.1066115483473799 0
0.2750430063775247 0.1232688416551091 0
0.1482519794579771 0.1076276847463733 0
0.1246191776271822 0.1067510685277132 0
0.1887776549676539 0.1212399263772646 0
0.1128606161004746 0.1146031630744456 0
0.1094535944335295 0.09624663619417909 0
0.1857809535399347 0.1091263337481022 0
0.108956089073232 0.1285655750363712 0
0.1089560890712439 0.1114344249578951 0
0.1554627555967999 0.109329089866361 0
0.1902338710434298 0.131352416323666 0
0.2942682442763386 0.1077627779281118 0
0.3121476192210333 0.1431508048254912 0
0.3121476190686337 0.09684919516610424 0
0.0832922180159713 0.1530951232714312 0
0.2501273629375944 0.1243397081690408 0
0.227131749207486 0.1244411346391625 0
0.1051504219918997 0.1164936885756647 0
0.1857608183408986 0.1129370792327772 0
0.1234283319404956 0.1304021451163082 0
0.1454054152627147 0.1235915096842028 0
0.2393293432331815 0.1277769059189387 0
0.3076701944819632 0.1389142833202775 0
0.1003536662954001 0.1350307259901772 0
0.2786844335139458 0.114418979033387 0
0.2794651875634624 0.111600227225516 0
0.2406901668136703 0.1157701636724748 0
0.1439527810095682 0.1075367027489646 0
0.1449805288116315 0.1307071141832843 0
0.2129623989954095 0.1137607278116901 0
0.0952978741136417 0.08688172319283803 0
0.0952978741485564 0.1531182768064386 0
0.2039353326771402 0.1155491378354754 0
0.1095226512353412 0.1011320984368579 0
0.1095226512427158 0.1388679015564603 0
0.1578892549389294 0.1164768493287831 0
0.2473781979116622 0.1170196470111535 0
0.1565708392772836 0.1135928313443607 0
0.1311342630072746 0.1223106586445101 0
0.1558399650972299 0.1306397156788957 0
0.182316348491201 0.1268034907551153 0
0.1824356531824089 0.1130761289531776 0
0.2502087707080994 0.113391425851739 0
0.2500944566222307 0.1268060650238037 0
0.2526730538059513 0.1268958723130011 0
0.1520462994857043 0.1163793671305034 0
0.2863699691867144 0.133999718461425 0
0.2991946609422388 0.1380198151806427 0
0.2977463871670039 0.1376757153875998 0
0.3230198151445944 0.1258053389386154 0
0.1634978247797874 0.1315704471574085 0
0.1087091721969689 0.1184868095473209 0
0.0924972125318634 0.1416083012572782 0
0.1202798392539728 0.1214358438074266 0
0.1999326704617554 0.1130081878277532 0
0.1002318223789812 0.1027908584413114 0
0.1002318223945348 0.1372091415423387 0
0.2271258370457978 0.1186097402105541 0
0.2286159416667067 0.1214442632102311 0
0.3109051686165295 0.1381344768492856 0
0.3226620649973891 0.1126242858787956 0
0.31090516847984 0.1018655231161881 0
0.2853443756971347 0.1073515826444702 0
0.1022528775720572 0.1343048541302213 0
0.1022528775643507 0.1056951458562884 0
0.2155681571547237 0.1093337818711515 0
0.1912252718359911 0.1176688540246679 0
0.09876492119018981 0.1061352818690765 0
0.2396273288016522 0.1102777041291216 0
0.24758772450165 0.1106639606388798 0
0.2475869355294224 0.1293367056678309 0
0.1559634188497667 0.123368163848523 0
0.2407436554360313 0.127043921077981 0
0.1362246941194559 0.1093089501129484 0
0.206252024938966 0.1218331129462632 0
0.1080631463969171 0.114905703296287 0
0.3089855860001791 0.09810701837741198 0
0.2888818558703695 0.1359103467208373 0
0.1531660303530462 0.1297164563100995 0
0.08783400743190936 0.09396864218967614 0
0.1019138749047498 0.1321316484914917 0
0.185069651955754 0.1287805198356156 0
0.1002940473217376 0.1312557506194205 0
0.1384355446944794 0.1098330983850156 0
0.1230043182017313 0.1225543661242643 0
0.1328914647018823 0.130949293523303 0
0.0992644563617785 0.132344049183205 0
0.1369068705855545 0.1229546062177194 0
0.2107996815551435 0.1236533196623551 0
0.1353040745065462 0.1289849104455546 0
0.3137596590324896 0.1403436220166923 0
0.31208494361565 0.09887222177130117 0
0.1538383757081125 0.1174594502502635 0
0.1264502914365291 0.1242772745063662 0
0.1061949410617431 0.142166495563295 0
0.1056469143525773 0.1335405790250114 0
0.1048956072374008 0.1080134287770227 0
0.2004710568302861 0.1154617512374659 0
0.262983080622052 0.1131848670485151 0
0.2773862521098818 0.1232712988638804 0
0.3252474740283072 0.1286047437644764 0
0.1079449392630622 0.1007824281523685 0
0.3215956440072621 0.1357776812712 0
0.13383105100891 0.1236020303943086 0
0.1893830234501513 0.1248243349879244 0
0.3287297461803569 0.1250264656346956 0
0.299973534262331 0.09627025382022922 0
0.1413088973538633 0.1309464924970112 0
0.2436562853793157 0.1181978894148987 0
0.2089507683328026 0.1214654341018714 0
0.136838493014798 0.112477727784898 0
0.2832153290961331 0.1265555074774577 0
0.1965741659233442 0.1085763428471648 0
0.1478981126595594 0.1106448900102716 0
0.1125906907317961 0.1106258679098478 0
0.0893329934284344 0.09345617202029466 0
0.2687284865993245 0.1232308941899433 0
0.08933299344364545 0.1465438279636275 0
0.1787882560215189 0.116973800156435 0
0.1036660765178437 0.1301810389814832 0
0.09015948205665913 0.09228257276545812 0
0.0866912255051501 0.09084041838265376 0
0.2113353163376499 0.120368434857353 0
0.1608343840270915 0.1302371712963533 0
0.1879714755105863 0.1234264679167628 0
0.2283075764422186 0.130182779372641 0
0.2283075766401597 0.1098172206394921 0
0.1471697428957839 0.1302361138334498 0
0.1127417774507889 0.1218581244881479 0
0.1130273592968749 0.1182189563177466 0
0.1151527794045858 0.1163870711473015 0
0.2761478367679687 0.1261647555145954 0
0.1766068721917557 0.1252538984646677 0
0.1325976515142703 0.1261539444969798 0
0.2442610156542721 0.1167963890373493 0
0.1124204953217079 0.1034064298458119 0
0.1961245274767113 0.1186347304810223 0
0.3194030786788102 0.1381156659120997 0
0.3224049278571735 0.1042125548472492 0
0.2608657237006146 0.1160606529441202 0
0.3254771880254859 0.1078400796878494 0
0.2928564605169012 0.09952356053673873 0
0.292862670407857 0.1404613480922741 0
0.1085601809095385 0.1410760471291607 0
0.3259613502182036 0.1266543487132209 0
0.111312868527642 0.09817448410721333 0
0.1418932622847627 0.129460617151016 0
0.1688647230480185 0.1237506322951159 0
0.1016537734976272 0.1284273937166573 0
0.2905978799386982 0.138126094122437 0
0.1538921339676365 0.1095698951421851 0
0.234355228070559 0.1098929944674473 0
0.130236756018719 0.1089181846909127 0
0.1032279744345693 0.09976588239050176 0
0.1032279744352587 0.1402341175933327 0
0.2260133423581672 0.1295750436750587 0
0.2413480524346042 0.1103448146669656 0
0.2260133312803896 0.1104249355595436 0
0.1152795043982088 0.1237282926939754 0
0.3120849437689709 0.141127778247458 0
0.172948960516475 0.11553457596787 0
0.2281728876020509 0.1275793854559335 0
0.08550978023671214 0.1418830253946195 0
0.08550978024257698 0.09811697460354227 0
0.150673840496768 0.1093219230348293 0
0.07572934352577526 0.1440696310657604 0
0.07639698702602254 0.09466262261668691 0
0.1080401865170564 0.09524444982376386 0
0.2082363620042124 0.1117155160119355 0
0.1267363375782018 0.1099171805890055 0
0.1266167046413285 0.1301242383771363 0
0.2146655825599953 0.1238971211501821 0
0.2887191120601917 0.1216785237465794 0
0.2004906474644943 0.1230681993446098 0
0.1066826095987453 0.09598984861909374 0
0.2867962643678943 0.1187899169806468 0
0.07878069703001668 0.1496256820175194 0
0.273610912794541 0.1137210726168764 0
0.3121642048138639 0.1347664548127549 0
0.194131091137869 0.1189236743996758 0
0.1032252292267804 0.1455392601185917 0
0.07964400919329308 0.0932765506657509 0
0.07964400922135172 0.1467234493371742 0
0.2549280279443916 0.1238886589433905 0
0.1006715910833538 0.1449471004892549 0
0.124991172966348 0.1240086287567595 0
0.09702204983652736 0.1363334903840387 0
0.09702204981436072 0.1036665095405842 0
0.09826091725358117 0.1372501347675716 0
0.1023096818967432 0.1271482968641456 0
0.1016537735207318 0.1115726062499355 0
0.212831723217507 0.1170328225567159 0
0.1707591404801053 0.1186016109387601 0
0.09818877148719371 0.09123564470459669 0
0.09983450922368148 0.1495402796485146 0
0.2506352462675666 0.1183939335897974 0
0.1656049325378171 0.1082502295173793 0
0.1446394432187276 0.109307680541714 0
0.1440486371661583 0.1292271439518524 0
0.128261304303573 0.113342668289083 0
0.1482726780324837 0.1236307811257711 0
0.1320381534134724 0.1194676527463988 0
0.3284118301027128 0.1293861948374544 0
0.1371492604229067 0.1273212990522301 0
0.1608246160657888 0.1097662836241895 0
0.1762161165787875 0.1269401029213428 0
0.2685875819787301 0.1147609799490272 0
0.2844532561227827 0.1165957642835289 0
0.3146856444960216 0.1362639487165528 0
0.09826091724720051 0.1027498651944819 0
0.1117807968118091 0.1200465508547774 0
0.1776178192919512 0.1083309933967957 0
0.1516553136941055 0.1238574980271269 0
0.2712695651667812 0.1161245072459367 0
0.315940056035544 0.1023105082298923 0
0.3226873556348834 0.1090393422908163 0
0.3226823120639698 0.1309291876046571 0
0.2944240852394526 0.1018637814226009 0
0.3159606577117457 0.1376873556328629 0
0.07923996099577686 0.09616587989803417 0
0.3233212629464364 0.1343841769763093 0
0.2805820669173913 0.1192569275945916 0
0.2951355116620534 0.103633470126536 0
0.1380820709969687 0.1253834874317802 0
0.3050265068411941 0.1033559979987551 0
0.2500959157324992 0.1154891971494494 0
0.1003536662870682 0.1049692739775406 0
0.1038953342401983 0.1428690991677598 0
0.1478038643183588 0.1161857001288101 0
0.2896231241584031 0.1249690277213558 0
0.3090812720094072 0.1038841336200836 0
0.2381689027904714 0.1149577136506706 0
0.12342833193976 0.109597854883668 0
0.3173221714995397 0.109280368792543 0
0.3169306325565526 0.1331236135381962 0
0.08823175268916286 0.09037739276563381 0
0.08823175268145039 0.14962260721758 0
0.1688166987255018 0.1189490881997495 0
0.1096018632280123 0.1321055050770918 0
0.1096018632197683 0.1078944949171683 0
0.1288109403561133 0.1296825388180594 0
0.171241351965676 0.1319810755942326 0
0.2785462768547164 0.1283640797513937 0
0.1839471198766012 0.1317203390553254 0
0.2552278451538947 0.1108372700060172 0
0.2830227046109546 0.1163839863079707 0
0.2396624303189209 0.1127499614170922 0
0.1902746662689448 0.1086799152792979 0
0.1151493173790124 0.1023387300052703 0
0.08678021045931594 0.09272586306553487 0
0.1185614764524479 0.1155701832591707 0
0.09704780606778897 0.09422042067491218 0
0.09292041436800624 0.0967099435112736 0
0.09704780606960148 0.1457795793155513 0
0.2956363011262579 0.1332457796162374 0
0.1095708876523446 0.1250514778477541 0
0.2412933734292475 0.1296527121096185 0
0.1026582020975254 0.08948465502739854 0
0.0986595745830629 0.1433842814647283 0
0.1524575906596619 0.1073727235346144 0
0.09284098678520943 0.09380277829042012 0
0.3046014751144803 0.1386076300166537 0
0.3046014750230802 0.1013923700200149 0
0.1564075097738193 0.1107175059681661 0
0.2759756795049143 0.116811343323846 0
0.2874384906066963 0.135515494024395 0
0.1026582021021484 0.1505153449735768 0
0.09100007354929408 0.1536023422455314 0
0.2882616136679621 0.1068223095795759 0
0.2263586263681356 0.1274437020222872 0
0.3207874451198756 0.1374049279168716 0
0.2445826668628119 0.1295799978624757 0
0.1113128685321651 0.1418255158857719 0
0.1996010908060447 0.118217328130542 0
0.2029190690912102 0.1090251659858436 0
0.2580625985013067 0.1252040403783274 0
0.2977354317895561 0.1023250620676215 0
0.3226761623659814 0.1272521753730181 0
0.2914751507104813 0.1068507716031565 0
0.08586785343162211 0.1511758633019464 0
0.2905011498868342 0.1084981637927029 0
0.2728185497503948 0.1267821808692044 0
0.1314841310570863 0.1126650577548696 0
0.25012491133412 0.1211024162403818 0
0.14102598772636 0.1183808339975978 0
0.1207877912169402 0.1109218642351091 0
0.1220848911877832 0.1121571994964156 0
0.1693710716103142 0.1299868818175726 0
0.3089855861005338 0.1418929815819184 0
0.281682612696835 0.1265689418850259 0
0.2455142625253599 0.1201145362245044 0
0.3025148200202451 0.1016104425719428 0
0.128851698731059 0.1266158825029789 0
0.2781329728625429 0.1218382179703042 0
0.1236834750553528 0.125171451193506 0
0.1238423500709845 0.1147608022842051 0
0.1007381182012621 0.1402695577370341 0
0.1036660765037066 0.1098189610059312 0
0.101913874890379 0.1078683515078632 0
0.3040883313479788 0.1414682719905505 0
0.2118248891558352 0.1218628755963488 0
0.2155658566930113 0.1306785258068867 0
0.3025994645889151 0.1410200023038321 0
0.1340733483006801 0.1107870429039384 0
0.1968917179740545 0.1215292975913795 0
0.1314568366623231 0.127861346834539 0
0.10223602909958 0.1373831189649358 0
0.2895050987139423 0.1302367210181709 0
0.2395820709080237 0.1295980771879231 0
0.1130017439967792 0.1047285986204351 0
0.1467946797146074 0.1282786451997998 0
0.2445826669804832 0.1104200020898924 0
0.1048956072346871 0.1319865712235375 0
0.1739623486067878 0.1198940527656577 0
0.1028703937609269 0.1470851456837064 0
0.1028703937520986 0.09291485431017855 0
0.138801629395762 0.1283547064499224 0
0.2553024070747099 0.1252582406644033 0
0.09482467535573784 0.143685957508505 0
0.3069638663315047 0.09804780515015024 0
0.1251672240560407 0.1208938449741175 0
0.2392872784921829 0.1158286256504164 0
0.08739479034111707 0.09862270523187619 0
0.1412840739900095 0.1089410379357711 0
0.1616375929474621 0.1132481324528596 0
0.08499999999530748 0.08615254804589444 0
0.2814126696234781 0.1292758381203042 0
0.2439643863378867 0.121522026152779 0
0.1940441141228233 0.1219986670810306 0
0.3123757141108131 0.1376620649914403 0
0.09100596823014379 0.08946330808732383 0
0.09100596825074173 0.1505366919211521 0
0.0958205495587226 0.1416202802589142 0
0.09628610459725945 0.08881888056741642 0
0.09628610462428214 0.1511811194275673 0
0.113684507612344 0.1081003433982646 0
0.1071284283852641 0.1160535410638802 0
0.1435351823897409 0.1104374588511966 0
0.2303517601029895 0.1096377738216133 0
0.1055349451351543 0.1477235273317856 0
0.1394636537994675 0.1150496081252884 0
0.142203530458676 0.113458836541049 0
0.1313358307884475 0.1251309368934068 0
0.1335568930365832 0.1199493258267824 0
0.1576846379004135 0.1231750873265489 0
0.09995533413185248 0.0936087375168504 0
0.09995533413788352 0.1463912624763666 0
0.1067603921363424 0.1097334845955309 0
0.1144163377995541 0.1267925760073098 0
0.09756223121684815 0.09567758427007239 0
0.09756223121760503 0.1443224157220032 0
0.1066826096007569 0.1440101513679923 0
0.1427253011536142 0.1229430451939688 0
0.1467626911778477 0.1192306075016113 0
0.220821608290164 0.1121129367355847 0
0.1868397055743487 0.1200697160369021 0
0.2028890814089327 0.1278455527494788 0
0.2029155430403614 0.1122062090535692 0
0.09015948206305203 0.147717427230249 0
0.1366800906849081 0.119950115990654 0
0.1976626640141207 0.1285367766569168 0
0.197653155751438 0.1114319149858955 0
0.1094815559389103 0.1370318929465437 0
0.2841059343385116 0.1248186430598756 0
0.2348802832003108 0.1201123680827846 0
0.08774226007419338 0.1441752881686266 0
0.08774226009400747 0.09582471183796101 0
0.2092441709169172 0.1310186986311061 0
0.209244013713505 0.1089833406810213 0
0.2791865931803574 0.1264593943756899 0
0.2905638065194553 0.127288412810338 0
0.1248717706742551 0.131330700935642 0
0.1590226493023457 0.1152062229747958 0
0.1430045864753001 0.1162506470857016 0
0.1566601724268678 0.126447054863227 0
0.1702559342339737 0.1138402355153405 0
0.1702864059762846 0.1264091324635626 0
0.1874291610633817 0.1130185546983887 0
0.1557764232726004 0.1179684723013075 0
0.1079449392699979 0.1392175718396818 0
0.08586785343863332 0.08882413669945842 0
0.2154360959125118 0.1124452352789586 0
0.1543725168814126 0.1236556082145512 0
0.2448531223030478 0.1262531505089336 0
0.2448629253305657 0.1137442236969049 0
0.1053885354409732 0.1402206647751686 0
0.1958800260369536 0.1285166079680709 0
0.2343411136606354 0.1301115696109743 0
0.09292041435751887 0.1432900564886543 0
0.1670322781123548 0.1120612071769047 0
0.2082083715153432 0.1283963126647018 0
0.1992778580680875 0.1199784672502053 0
0.08140608900315377 0.09877144743816135 0
0.08140608904019783 0.1412285525509185 0
0.2514661473313474 0.1101926578973201 0
0.251466147204824 0.1298073421018115 0
0.2227046688297631 0.1119903035477623 0
0.1035524752676667 0.1068829584243565 0
0.2243666296126774 0.1185253058525449 0
0.1332826824630726 0.1157724335746846 0
0.09834012853032531 0.09308679383268732 0
0.2930026938352643 0.1330945804014694 0
0.2702185433421465 0.1175774152054515 0
0.3181236134996105 0.1080693674130747 0
0.0896914025297595 0.09652567405525772 0
0.3143543024140681 0.1332285281910653 0
0.1700753362167008 0.1157304028781204 0
0.2846684192031511 0.1330154522708608 0
0.2815732068074721 0.1103047129952621 0
0.1736990260843237 0.1166815466279105 0
0.2649331668826098 0.1209554531785808 0
0.1791372772848329 0.1269938879695188 0
0.1791612163574297 0.1131200297568498 0
0.1172443116975725 0.1042073867425879 0
POLYGONS 4298 17192
3 1613 1205 635
3 275 774 274
3 120 1190 119
3 967 733 698
3 679 1566 1291
3 365 2147 1900
3 1894 706 342
3 1898 1183 375
3 89 1101 88
3 306 1537 305
3 1239 701 639
3 391 1108 1390
3 427 2203 1458
3 2047 1325 848
3 848 1325 1501
3 601 1196 603
3 810 1178 811
3 519 1653 167
3 621 1151 887
3 977 1643 349
3 1028 1078 661
3 594 1078 1028
3 1479 1529 881
3 971 1846 1973
3 478 2070 1098
3 1207 2070 679
3 2080 1595 631
3 498 2192 2078
3 1566 2070 478
3 604 1896 879
3 511 870 879
3 492 1529 1479
3 1973 1846 972
3 837 1652 751
3 970 1621 424
3 1613 2230 1205
3 879 1896 1219
3 1210 1460 1490
3 1493 1585 794
3 1458 2191 427
3 343 706 1009
3 332 1183 1006
3 1010 2147 364
3 275 1748 774
3 1190 2134 119
3 720 1619 1032
3 237 933 236
3 158 1330 157
3 791 1990 51
3 36 1669 1253
3 1032 1619 536
3 1592 1478 802
3 1074 1478 1592
3 418 701 1239
3 233 1556 232
3 917 1694 449
3 528 1210 1490
3 1493 794 534
3 449 1530 917
3 42 1264 994
3 1180 1940 45
3 1621 1207 679
3 51 2110 791
3 1253 2109 36
3 1537 1840 305
3 89 2171 1101
3 1138 1113 613
3 558 1230 1040
3 377 1015 917
3 1059 1768 606
3 606 2055 1059
3 603 1915 601
3 811 2103 810
3 570 1299 1357
3 1361 2241 600
3 1759 1744 525
3 393 2037 1762
3 270 1475 269
3 125 1075 124
3 569 1507 837
3 1575 1163 418
3 886 1163 1575
3 1654 1851 588
3 549 2066 2017
3 700 2080 631
3 498 2078 1086
3 660 857 736
3 25 1365 331
3 63 491 62
3 570 1713 1299
3 2241 2255 600
3 1090 2069 602
3 613 1511 1138
3 1040 2258 558
3 1199 1851 1654
3 2017 2066 1203
3 959 1976 638
3 1119 2093 532
3 473 2092 1050
3 1935 1428 211
3 1601 1775 193
3 183 1543 1936
3 698 1823 967
3 517 1643 977
3 879 1219 757
3 233 1848 1556
3 476 1288 1289
3 1285 1201 648
3 675 1504 1768
3 1073 1702 448
3 1480 2264 1630
3 542 1067 1337
3 270 1933 1475
3 1075 2170 124
3 97 978 96
3 298 1107 297
3 736 857 717
3 580 1606 1252
3 1248 1155 1080
3 1630 2264 596
3 424 1621 1367
3 1367 1621 679
3 1229 1952 471
3 1507 1652 837
3 773 1377 1102
3 928 2104 1049
3 1045 2105 1052
3 1071 470 539
3 758 470 1071
3 582 1163 1021
3 1021 1163 886
3 764 1781 1276
3 537 2104 928
3 1052 2105 608
3 638 1976 1518
3 1291 1719 679
3 170 755 169
3 757 1046 879
3 879 1046 511
3 1479 1502 111
3 283 1420 1973
3 1050 2092 1228
3 1225 2093 1119
3 1073 2115 1702
3 1341 1161 456
3 735 1227 1342
3 424 821 970
3 437 1941 421
3 751 1235 837
3 477 1110 1005
3 1008 724 419
3 114 867 113
3 281 1463 280
3 360 915 361
3 776 1085 469
3 163 916 162
3 1357 2272 570
3 600 2273 1361
3 501 850 1376
3 1376 850 547
3 277 1028 276
3 118 1500 117
3 662 1327 586
3 541 1327 662
3 449 2207 1350
3 1616 1012 569
3 1657 1394 187
3 2025 2143 205
3 1436 1333 431
3 884 2297 388
3 291 1109 290
3 104 523 103
3 1299 1713 803
3 760 2255 2241
3 471 1952 783
3 2096 1427 655
3 401 2012 941
3 555 1333 1436
3 433 1719 1291
3 655 1427 1838
3 917 2275 377
3 919 1981 639
3 927 2298 1378
3 593 1741 1236
3 882 1360 443
3 649 1085 776
3 1404 1986 781
3 784 1987 921
3 941 1883 401
3 608 1372 911
3 454 2142 537
3 399 1043 844
3 388 1432 884
3 21 1183 332
3 22 706 343
3 364 2147 24
3 907 1773 383
3 520 1625 1436
3 788 1823 698
3 1208 1081 686
3 547 1092 1376
3 661 1608 774
3 1190 1611 673
3 704 1885 636
3 1305 680 658
3 952 1410 53
3 34 1832 968
3 1891 1323 652
3 565 1986 1404
3 921 1987 633
3 405 1386 737
3 1276 1385 764
3 788 1739 382
3 1252 1606 387
3 515 1155 1248
3 1294 1839 765
3 657 1922 1297
3 577 680 1305
3 585 1885 704
3 1741 1299 479
3 747 2241 1360
3 765 1942 1294
3 1297 2155 657
3 294 1144 293
3 101 1471 100
3 2012 1797 941
3 76 834 75
3 319 1364 318
3 719 1691 573
3 417 1477 1334
3 445 2298 927
3 572 1691 719
3 1334 1477 793
3 402 1012 1616
3 855 1916 1508
3 1244 1239 639
3 749 1239 1244
3 844 1043 587
3 774 1608 481
3 693 1611 1190
3 789 1224 671
3 671 1974 1082
3 674 1044 919
3 477 1814 2076
3 2077 2150 419
3 2076 1814 812
3 889 2150 2077
3 819 1110 477
3 419 724 1446
3 628 1224 789
3 1082 1974 702
3 624 1691 1475
3 1075 1477 1074
3 774 1154 274
3 120 1158 1190
3 417 1311 1478
3 887 1558 439
3 439 1695 887
3 480 1694 1015
3 1015 1694 917
3 925 1756 551
3 729 1454 517
3 1311 2300 1478
3 438 1779 1314
3 1315 2219 423
3 737 1852 405
3 277 1380 1028
3 1500 1734 117
3 486 1347 412
3 873 1279 466
3 1118 1827 591
3 684 1211 560
3 428 1113 1138
3 1040 1230 1029
3 1357 1299 1741
3 1360 2241 1361
3 1345 2070 1207
3 837 1321 569
3 587 1808 844
3 487 1558 1151
3 1151 1558 887
3 418 1239 763
3 421 1311 436
3 1130 1428 1935
3 1030 1775 1601
3 1936 1543 1134
3 652 1323 397
3 1855 713 817
3 42 994 41
3 46 1180 45
3 887 1260 621
3 551 1980 744
3 723 1744 1759
3 1762 2037 1041
3 679 1719 1367
3 1590 1594 797
3 802 1929 1592
3 1028 1748 276
3 118 2134 1500
3 1083 888 447
3 749 1407 1559
3 698 821 788
3 1067 1835 1337
3 436 824 421
3 1390 2266 391
3 421 824 437
3 170 1362 755
3 1218 935 415
3 753 935 1218
3 560 1882 684
3 74 1293 73
3 321 1097 320
3 358 1069 359
3 844 1808 899
3 344 996 345
3 362 407 363
3 333 1503 334
3 1208 1336 1081
3 855 1508 1821
3 1322 1320 841
3 24 2147 365
3 342 706 22
3 375 1183 21
3 1096 1300 574
3 1094 990 1100
3 467 888 1083
3 167 1653 166
3 487 1641 689
3 728 2069 1090
3 582 1853 1353
3 1354 1854 539
3 1390 1108 826
3 774 1748 661
3 673 2134 1190
3 79 1099 1161
3 1227 1715 315
3 547 1152 652
3 652 1152 714
3 488 1300 1096
3 1100 990 475
3 1559 1407 1303
3 1689 1684 69
3 325 1167 543
3 1291 1847 433
3 1289 2040 476
3 648 2038 1285
3 344 1126 996
3 407 394 363
3 333 951 1503
3 961 1349 390
3 1102 1377 720
3 1314 2076 384
3 485 2077 1315
3 403 1734 1500
3 1028 1380 594
3 628 1600 726
3 1301 2259 702
3 834 1115 75
3 319 2190 1364
3 859 1254 938
3 822 2082 1132
3 1135 2014 1344
3 708 2234 1383
3 906 2194 707
3 108 1272 107
3 287 1487 286
3 995 713 1855
3 726 1224 628
3 702 1974 1301
3 1245 1555 643
3 517 977 729
3 519 1751 899
3 941 1797 627
3 264 1249 263
3 131 909 130
3 1228 1656 845
3 692 1384 1449
3 1449 1384 380
3 1263 1963 461
3 437 1964 1405
3 795 1300 944
3 1139 990 1579
3 455 1023 911
3 454 1382 716
3 663 1909 599
3 360 1934 915
3 845 1656 520
3 676 1320 1064
3 459 1610 1328
3 1373 1036 538
3 1064 1320 460
3 435 1784 1052
3 928 1786 451
3 602 2239 1090
3 911 1023 608
3 537 1382 454
3 1768 1504 606
3 853 1555 1245
3 348 977 349
3 788 508 414
3 382 508 788
3 1594 2004 797
3 802 1403 1929
3 595 1015 1090
3 1043 1588 981
3 412 1338 486
3 704 1817 585
3 1305 1816 577
3 466 2131 873
3 1353 1703 582
3 539 1692 1354
3 340 1079 341
3 373 1001 374
3 366 1381 367
3 1395 854 178
3 198 1392 1191
3 216 1397 902
3 1475 1787 269
3 125 1476 1075
3 1768 1098 675
3 1009 1126 343
3 1006 951 332
3 364 394 1010
3 461 839 1263
3 336 1874 337
3 369 1871 370
3 511 1042 663
3 1142 1641 487
3 866 2055 606
3 911 1370 455
3 716 1867 454
3 1405 1941 437
3 578 1455 1378
3 1378 1455 748
3 752 2210 762
3 786 2210 752
3 573 1855 719
3 719 1855 817
3 399 1588 1043
3 433 441 1719
3 994 1264 942
3 493 1940 1180
3 927 1016 809
3 403 1016 927
3 636 1871 704
3 658 1874 1305
3 652 1131 547
3 397 1131 652
3 866 1789 405
3 1376 1092 506
3 414 1823 788
3 336 1812 1874
3 369 893 1871
3 381 1261 1841
3 789 1387 628
3 702 1805 1082
3 1005 1915 603
3 810 2103 1008
3 607 1591 891
3 1437 1304 404
3 561 1121 1440
3 616 1304 1437
3 1440 1121 827
3 1087 1055 446
3 20 543 324
3 70 1689 5
3 1391 1591 607
3 1244 1407 749
3 1091 761 691
3 629 1668 1156
3 1671 2067 934
3 1334 1707 417
3 826 1541 1577
3 1627 1162 904
3 583 1162 1627
3 1013 440 530
3 908 440 1013
3 990 2162 1579
3 795 2161 1300
3 743 1841 855
3 845 2122 1228
3 1973 1420 971
3 881 1502 1479
3 589 1124 1054
3 1243 962 835
3 1054 1124 617
3 1122 962 1243
3 2052 2133 1082
3 441 1598 1719
3 1052 1901 1045
3 1049 1785 928
3 899 1653 519
3 1953 2256 619
3 806 2257 1954
3 593 1236 669
3 666 882 443
3 1475 1933 624
3 1074 2170 1075
3 998 1599 674
3 639 1981 1244
3 1031 672 228
3 1013 1938 1966
3 1508 2301 1634
3 952 943 438
3 423 1448 968
3 870 1438 879
3 435 1562 836
3 1256 1351 451
3 1005 1814 477
3 419 2150 1008
3 1633 1593 614
3 819 1779 438
3 423 2219 1446
3 405 1852 866
3 691 761 1615
3 1497 1668 629
3 934 2067 1766
3 438 1410 952
3 968 1832 423
3 538 1275 1373
3 1772 1773 1336
3 1540 1485 644
3 504 2285 1542
3 855 1821 743
3 62 491 61
3 26 1365 25
3 481 1154 774
3 1190 1158 693
3 651 1274 664
3 456 2256 1341
3 1342 2257 735
3 19 1227 315
3 79 1161 6
3 461 1386 1391
3 1273 1057 376
3 383 1181 907
3 538 932 891
3 611 1468 396
3 424 1554 1324
3 1772 1336 385
3 1475 1691 572
3 793 1477 1075
3 452 1468 611
3 74 1115 1293
3 1097 2190 320
3 628 1387 800
3 1268 1805 702
3 53 1474 952
3 968 1393 34
3 464 1254 859
3 510 2082 822
3 1344 2014 497
3 1324 1245 527
3 384 682 1314
3 1315 2229 485
3 135 1602 134
3 260 1605 259
3 1314 1978 438
3 423 1979 1315
3 376 1057 553
3 933 1834 236
3 158 1837 1330
3 817 883 719
3 1334 1368 462
3 834 1709 872
3 641 1710 1364
3 331 1365 330
3 64 491 63
3 1965 2148 1627
3 834 1953 619
3 806 1954 1364
3 167 1985 519
3 325 543 20
3 5 1689 69
3 867 2119 113
3 281 1462 1463
3 1324 1573 382
3 444 2094 1235
3 898 1251 469
3 1324 1739 424
3 619 1709 834
3 1364 1710 806
3 996 1126 947
3 694 394 407
3 1503 951 953
3 1625 2226 1436
3 1350 1530 449
3 1756 1407 1244
3 606 1275 866
3 639 815 919
3 551 1686 925
3 846 2322 964
3 1330 1856 157
3 237 1332 933
3 872 1240 1293
3 1097 1095 641
3 258 973 257
3 137 1179 136
3 479 2183 1741
3 1360 1286 747
3 627 2228 941
3 753 1371 1495
3 689 1641 1892
3 272 1590 271
3 123 1592 122
3 591 2129 1118
3 188 1657 187
3 206 2025 205
3 1391 1501 461
3 523 1509 599
3 294 1172 1144
3 1471 1533 100
3 915 1934 1063
3 660 1714 857
3 390 1349 736
3 405 1591 1386
3 553 1755 376
3 1293 1240 814
3 646 1095 1097
3 1386 1591 1391
3 904 1965 1627
3 1013 1966 908
3 919 1939 674
3 744 1597 551
3 431 1755 553
3 643 1544 1245
3 1083 1628 467
3 1087 1704 1055
3 891 1789 538
3 1309 2094 444
3 749 2287 763
3 1094 1100 1540
3 1542 1096 574
3 631 1202 974
3 1572 1599 498
3 959 1302 976
3 599 1909 1630
3 527 1573 1324
3 563 713 1926
3 860 1048 841
3 462 1707 1334
3 1064 2095 676
3 264 1065 1249
3 909 2197 130
3 1209 1593 1633
3 1542 2285 1096
3 1100 1485 1540
3 904 1162 1383
3 906 440 908
3 1350 2207 1216
3 610 1141 1143
3 608 1023 1052
3 928 1382 537
3 959 1918 411
3 712 2173 961
3 755 1147 427
3 638 1918 959
3 961 2173 703
3 763 1239 749
3 1245 1544 527
3 228 672 227
3 731 1077 776
3 69 1684 68
3 326 1167 325
3 1044 1641 1142
3 744 1645 1596
3 776 1077 649
3 1062 1942 765
3 657 2155 804
3 1367 1554 424
3 382 1739 1324
3 1572 997 413
3 915 1850 361
3 698 1483 821
3 129 1243 128
3 266 1054 265
3 963 1948 732
3 112 1479 111
3 283 1973 282
3 1177 1893 471
3 1436 2226 555
3 1596 1202 631
3 498 1599 998
3 1328 1346 459
3 1750 1309 444
3 465 1048 860
3 821 1483 970
3 1052 1562 435
3 451 1351 928
3 1320 1223 841
3 627 1797 2008
3 1755 2322 846
3 844 1751 1753
3 1107 1213 297
3 97 1824 978
3 683 1394 1657
3 738 2143 2025
3 963 1635 165
3 676 980 665
3 801 1147 755
3 494 1283 1965
3 1965 1283 586
3 564 1967 1966
3 1966 1967 1280
3 1596 1645 1202
3 976 1302 901
3 1388 2123 935
3 719 1767 572
3 793 1204 1334
3 1577 1541 401
3 853 1554 1367
3 923 1850 915
3 1131 1092 547
3 661 1748 1028
3 1500 2134 673
3 1419 1673 172
3 165 1948 963
3 404 1292 1674
3 1508 1916 642
3 978 1849 96
3 298 1295 1107
3 403 1677 1734
3 1380 1683 594
3 1054 1632 589
3 835 1557 1243
3 1013 1274 1014
3 530 1274 1013
3 900 1700 764
3 1109 1570 290
3 104 1924 523
3 541 1772 1088
3 1088 1772 385
3 857 2243 717
3 764 1385 900
3 696 1961 625
3 1073 1504 675
3 1841 1261 855
3 741 1910 1066
3 1337 1290 542
3 1341 2256 1953
3 1954 2257 1342
3 474 1711 2161
3 2162 1872 395
3 1545 1690 880
3 931 1685 1548
3 1789 1591 405
3 891 1591 1789
3 144 2074 1854
3 1853 2310 250
3 665 1466 676
3 886 1525 1021
3 1071 1527 758
3 1367 1598 853
3 603 1814 1005
3 1008 2150 810
3 501 1794 818
3 750 910 714
3 1337 1287 399
3 618 1767 379
3 459 1204 1481
3 1596 1595 622
3 463 2192 998
3 1066 1910 536
3 1112 1711 474
3 395 1872 1093
3 1047 1539 434
3 1069 1934 359
3 358 1067 1069
3 278 1380 277
3 117 1734 116
3 506 2244 1376
3 1926 713 995
3 732 1947 963
3 992 706 1894
3 677 1183 1898
3 1900 2147 690
3 1237 1313 436
3 1514 1355 452
3 1064 1123 23
3 1195 2084 1353
3 1354 1736 734
3 821 1739 788
3 825 1550 925
3 639 701 926
3 1025 1421 621
3 1442 659 328
3 66 1444 885
3 881 1529 969
3 1220 1846 971
3 744 1980 1142
3 135 1988 1602
3 1605 2224 259
3 1694 1857 449
3 190 2063 759
3 1411 1426 186
3 1415 1414 204
3 172 2064 1419
3 208 1418 645
3 985 2065 222
3 2078 2192 1195
3 734 1595 2080
3 203 1414 808
3 1913 2064 173
3 221 2065 1911
3 1378 1677 927
3 476 1843 1288
3 1201 2327 648
3 742 2051 567
3 150 1992 1383
3 906 1993 244
3 379 1039 618
3 909 1121 1122
3 617 1304 1249
3 827 1121 909
3 1249 1304 616
3 381 1841 1174
3 1082 2133 671
3 1481 1610 459
3 572 1787 1475
3 1075 1476 793
3 471 1581 1229
3 1373 1275 606
3 431 2205 1436
3 665 1687 635
3 435 500 1513
3 1515 2044 451
3 1116 1319 1717
3 1247 1819 1114
3 436 1311 1237
3 697 1355 1514
3 1005 1836 579
3 518 2107 1008
3 916 1024 162
3 579 1915 1005
3 1008 2103 518
3 567 2133 2052
3 1161 1099 456
3 735 1715 1227
3 759 1434 190
3 645 2060 208
3 567 458 742
3 1442 1372 608
3 537 2142 885
3 1353 2048 1195
3 734 2049 1354
3 556 1865 1208
3 203 808 202
3 174 1913 173
3 221 1911 220
3 907 1651 1773
3 606 1504 1373
3 563 1926 1451
3 399 1753 1337
3 635 1897 665
3 1689 1188 389
3 820 1937 543
3 1090 1015 377
3 1378 1723 578
3 762 1564 752
3 1556 1848 692
3 258 2224 973
3 1179 1988 136
3 1101 2171 829
3 505 1840 1537
3 1575 1129 886
3 1801 1081 568
3 686 1081 1801
3 872 1115 834
3 1364 2190 641
3 522 778 1401
3 222 2072 985
3 1145 1507 569
3 642 2301 1508
3 703 1349 961
3 1073 2236 1504
3 1293 1277 73
3 321 1568 1097
3 1053 1119 653
3 1084 1050 1083
3 782 1141 610
3 446 1377 1449
3 1236 1741 852
3 871 1360 882
3 427 2191 755
3 1617 2234 708
3 707 2194 521
3 748 1677 1378
3 752 1683 786
3 885 2142 770
3 1026 1372 1442
3 1366 2142 454
3 911 1372 876
3 1016 1310 809
3 592 1310 1016
3 1063 1934 1069
3 1069 1067 542
3 1383 2307 708
3 707 2306 906
3 758 1526 1499
3 844 1753 399
3 376 1796 1273
3 1449 1377 773
3 274 1154 273
3 121 1158 120
3 1197 2054 548
3 1436 2205 520
3 376 1755 846
3 1383 1992 904
3 908 1993 906
3 619 1571 1709
3 1710 1076 806
3 543 1167 820
3 389 1684 1689
3 535 2251 1456
3 963 987 634
3 865 2251 535
3 1319 2237 1717
3 1247 2238 1819
3 997 1919 413
3 751 1919 997
3 1534 1808 732
3 1655 1718 2
3 2 490 1655
3 1144 1172 640
3 894 1533 1471
3 51 1990 50
3 37 1669 36
3 404 1633 1437
3 1437 1633 614
3 1687 2293 1613
3 848 1521 966
3 814 1277 1293
3 1097 1568 646
3 891 1700 607
3 1338 2138 1282
3 1002 2139 1816
3 1706 2137 1817
3 2131 2141 1000
3 1376 1949 501
3 1854 2074 1071
3 1021 2310 1853
3 436 1313 1451
3 654 2271 878
3 913 1760 730
3 557 2123 1388
3 634 1635 963
3 1501 1521 848
3 1556 1452 232
3 822 1945 746
3 859 1528 647
3 993 1524 1344
3 813 2243 1255
3 1237 1311 417
3 614 1868 1437
3 1440 1439 615
3 766 1424 929
3 929 1424 1170
3 1647 1267 769
3 768 1267 1647
3 390 976 961
3 1177 1795 1893
3 961 1583 712
3 570 1804 819
3 1446 2181 600
3 1599 1892 674
3 522 1042 1046
3 1046 1042 511
3 520 2205 845
3 1419 2140 687
3 1089 799 434
3 452 1389 950
3 1107 1580 627
3 522 1968 778
3 1237 1707 462
3 438 943 819
3 1446 1448 423
3 627 2008 1107
3 379 883 865
3 114 1862 867
3 1463 1863 280
3 635 1687 1613
3 1236 1571 619
3 806 1076 882
3 1523 1527 146
3 248 1525 1215
3 411 1302 959
3 584 1528 859
3 559 1945 822
3 1344 1524 699
3 1559 2287 749
3 607 1521 1391
3 469 2168 898
3 1038 1827 1704
3 775 2052 914
3 431 1546 845
3 1595 1736 622
3 463 2084 2192
3 396 1468 1889
3 1705 1192 1882
3 1383 2234 150
3 244 2194 906
3 582 701 1163
3 470 1550 539
3 477 1779 819
3 1446 2219 419
3 1355 1468 452
3 1038 1704 392
3 736 1433 660
3 1411 2137 705
3 502 2138 759
3 1415 2139 685
3 386 2140 1419
3 983 2141 645
3 985 1192 986
3 563 1809 1456
3 878 1422 912
3 914 1927 913
3 1021 1853 582
3 539 1854 1071
3 1602 783 637
3 842 1750 1605
3 739 783 1602
3 1605 1750 1175
3 1550 1303 925
3 523 1950 103
3 291 1740 1109
3 1750 1870 1309
3 1179 1177 739
3 597 1177 1179
3 845 2205 431
3 1118 2325 1827
3 1513 1784 435
3 451 1786 1515
3 1590 1933 271
3 123 2170 1592
3 1664 2093 1020
3 1017 2092 1658
3 712 1583 775
3 567 2052 775
3 163 1027 916
3 765 1839 1921
3 1467 1922 657
3 382 1573 1051
3 832 1205 562
3 484 1793 1794
3 687 1810 1419
3 484 2169 1793
3 776 954 731
3 883 2251 865
3 775 1583 901
3 817 2251 883
3 1293 1115 872
3 641 2190 1097
3 1379 1860 550
3 865 1838 379
3 914 2053 775
3 616 1037 1249
3 909 1035 827
3 775 2053 712
3 1124 1292 404
3 926 701 582
3 539 1550 825
3 1465 1742 398
3 615 1742 1465
3 460 2098 1064
3 1265 1860 1379
3 447 1714 1083
3 434 1539 1089
3 23 2095 1064
3 412 1861 2138
3 466 1859 2141
3 901 458 775
3 1249 1065 617
3 1122 2197 909
3 660 1433 1729
3 1079 1826 341
3 1001 1895 374
3 366 2153 1381
3 341 1826 342
3 374 1895 375
3 365 2153 366
3 1495 1388 753
3 1249 1037 263
3 131 1035 909
3 902 1400 216
3 178 1833 1395
3 1191 1629 198
3 957 681 1637
3 958 1639 722
3 129 2197 1243
3 1054 1065 265
3 1729 2218 660
3 640 1018 1144
3 1144 1018 602
3 1032 1923 720
3 736 1735 390
3 1454 2230 517
3 775 458 567
3 1051 1697 382
3 688 1309 1047
3 1440 1955 561
3 689 1919 439
3 1605 1603 842
3 637 426 1602
3 398 1593 1764
3 798 1423 847
3 377 1408 1090
3 1090 1408 728
3 654 1460 1210
3 794 1585 730
3 984 1930 387
3 515 1931 727
3 1893 1581 471
3 316 1227 19
3 6 1161 78
3 1451 1313 563
3 605 1618 973
3 1179 482 597
3 342 1826 1894
3 375 1895 1898
3 1900 2153 365
3 621 1421 974
3 599 2120 523
3 1192 1352 684
3 1401 2151 522
3 890 1893 1025
3 1465 1955 615
3 717 1735 736
3 691 2225 902
3 1395 1148 629
3 934 1176 1191
3 2021 1829 1330
3 715 1829 2021
3 933 1331 1431
3 1431 1331 721
3 755 1362 801
3 2138 1861 759
3 2141 1859 645
3 974 1202 621
3 413 1599 1572
3 416 1044 1142
3 1720 839 1056
3 797 839 1720
3 1917 2217 1727
3 287 1127 1487
3 1272 2182 107
3 1956 2024 1851
3 2066 2302 1957
3 362 1850 407
3 18 1905 420
3 874 725 7
3 1090 2239 595
3 470 1499 409
3 758 1499 470
3 763 1464 418
3 1314 1779 2076
3 2077 2219 1315
3 1085 1206 469
3 1559 1153 499
3 1215 2231 248
3 146 1991 1523
3 417 1707 1237
3 1756 1980 551
3 1188 1516 389
3 820 1681 1937
3 902 1397 691
3 629 854 1395
3 1191 1392 934
3 836 1340 435
3 451 2172 1256
3 726 1718 1655
3 1655 490 1301
3 582 1703 926
3 825 1692 539
3 615 1955 1440
3 621 1260 1025
3 1025 1260 890
3 468 1251 1322
3 985 1352 1192
3 1632 2283 589
3 835 2284 1557
3 457 2217 1917
3 1077 1640 741
3 656 1038 1825
3 1825 1038 392
3 785 1875 966
3 731 1569 1032
3 269 1787 268
3 126 1476 125
3 196 1675 195
3 181 1678 180
3 214 779 213
3 439 1558 689
3 461 1963 1386
3 1385 1964 437
3 1734 1677 748
3 786 1683 1380
3 1031 1887 562
3 923 2199 407
3 1503 2200 1004
3 996 1971 709
3 625 2265 696
3 732 1206 1085
3 948 1766 953
3 694 1497 1604
3 956 1615 947
3 546 1338 1282
3 1002 1816 1004
3 999 2131 1000
3 1706 1817 1007
3 1273 1255 496
3 1875 2278 966
3 398 1560 1465
3 1471 2006 894
3 612 2006 1471
3 416 1756 1244
3 1956 1851 745
3 989 2066 1957
3 509 1620 1053
3 378 1961 696
3 867 1455 578
3 762 2210 1463
3 82 1247 81
3 313 1717 312
3 407 1850 923
3 378 1255 1273
3 778 1968 695
3 1487 1127 868
3 937 2182 1272
3 1042 1909 663
3 1164 2054 1197
3 676 2095 980
3 1066 1906 741
3 2076 1881 384
3 485 2308 2077
3 879 1438 604
3 950 1514 452
3 595 2146 1015
3 1101 1494 88
3 306 1535 1537
3 1542 1711 613
3 558 1872 1540
3 1602 1988 739
3 1175 2224 1605
3 912 2051 742
3 1753 1751 540
3 462 1989 1237
3 1068 1480 711
3 462 1368 1222
3 741 1640 1910
3 186 1394 1411
3 204 2143 1415
3 420 1921 18
3 7 1467 874
3 599 2036 663
3 1705 1882 709
3 416 1980 1756
3 967 1723 733
3 1566 1564 1291
3 669 2256 456
3 735 2257 666
3 1437 799 616
3 827 1389 1440
3 1222 2102 462
3 663 1339 511
3 668 1904 754
3 878 1869 654
3 730 1582 913
3 450 1323 1891
3 705 1426 1411
3 759 2063 502
3 685 1414 1415
3 1419 2064 386
3 645 1418 983
3 986 2065 985
3 1577 2056 625
3 478 1768 1733
3 1733 1768 1059
3 574 1711 1542
3 1540 1872 1094
3 742 1302 411
3 53 1410 52
3 35 1832 34
3 770 2089 885
3 1442 1758 1026
3 553 1546 431
3 599 1509 2036
3 519 1061 1751
3 1774 1938 1014
3 973 2224 1175
3 739 1988 1179
3 1562 1642 836
3 1256 1716 1351
3 1047 2011 688
3 54 1803 1217
3 1975 1472 33
3 901 1302 742
3 1011 1959 1627
3 1627 1959 583
3 1102 2204 773
3 520 2075 1625
3 1950 1659 102
3 292 1232 1740
3 380 1348 1087
3 1764 1593 1209
3 230 1757 229
3 1526 2154 1499
3 913 1582 712
3 398 1764 1506
3 868 2001 1487
3 1487 2001 550
3 514 1930 984
3 727 1931 1033
3 996 1278 345
3 1625 2075 978
3 1766 1972 953
3 694 903 1497
3 1615 1970 947
3 712 2053 913
3 1783 1938 1774
3 1757 2165 229
3 178 854 177
3 199 1392 198
3 217 1397 216
3 970 1207 1621
3 1208 1865 385
3 1298 2145 2140
3 742 458 901
3 411 2081 742
3 819 943 570
3 600 1448 1446
3 1733 2299 478
3 752 2299 1733
3 764 1700 932
3 1081 1336 772
3 185 1184 184
3 192 1186 191
3 210 1450 209
3 765 1722 1062
3 804 2208 657
3 615 1439 611
3 611 1439 452
3 765 1921 420
3 874 1467 657
3 396 1997 965
3 913 2053 914
3 912 2081 878
3 895 1996 2006
3 1098 2070 1345
3 1032 1640 731
3 1602 426 134
3 260 1603 1605
3 984 1072 514
3 1033 1998 727
3 1063 1358 915
3 1490 1738 528
3 534 1737 1493
3 1506 1560 398
3 885 2104 537
3 608 2105 1442
3 1694 2010 939
3 742 2081 912
3 144 1854 143
3 251 1853 250
3 624 1933 1590
3 1592 2170 1074
3 1673 1362 171
3 1499 1153 409
3 506 1153 1499
3 478 1098 1768
3 709 1278 996
3 868 1329 960
3 420 1738 765
3 657 1737 874
3 915 2145 923
3 415 935 1510
3 1510 935 1058
3 1575 1323 1129
3 1503 1815 334
3 732 1808 1206
3 80 1099 79
3 315 1715 314
3 546 1983 1001
3 1381 1799 1007
3 999 2252 1079
3 973 1618 257
3 137 482 1179
3 755 1586 169
3 1572 544 997
3 669 2116 593
3 443 1193 666
3 765 1738 1490
3 1493 1737 657
3 434 2011 1047
3 1500 1270 403
3 846 2124 376
3 713 2251 817
3 398 1742 965
3 863 1379 955
3 655 2227 1214
3 1451 1875 436
3 60 1366 59
3 28 876 27
3 1109 1951 2050
3 880 1822 1545
3 1548 1549 931
3 927 1677 403
3 1545 921 384
3 485 1404 1548
3 1456 713 563
3 1056 2027 1720
3 711 1909 1042
3 2050 1951 432
3 899 1808 1534
3 1456 2102 535
3 1838 2227 655
3 1720 2027 573
3 185 1426 1184
3 1186 2063 191
3 1450 1418 209
3 2085 1642 455
3 716 1716 2086
3 1664 2294 2093
3 2092 1666 1658
3 1272 2073 937
3 829 2058 1101
3 1537 1631 505
3 1490 1460 453
3 400 1585 1493
3 1243 2197 1122
3 617 1065 1054
3 875 1616 1553
3 1553 1616 569
3 1006 1778 951
3 394 2214 1010
3 1009 1257 1126
3 1490 1722 765
3 657 2208 1493
3 885 2089 66
3 328 1758 1442
3 54 1217 3
3 1 1975 33
3 1273 1796 378
3 526 2230 1454
3 689 1892 413
3 1869 2081 411
3 1072 2178 514
3 1033 924 1998
3 1344 1999 1135
3 1132 2211 822
3 938 1682 859
3 1637 681 918
3 920 1639 958
3 1477 1880 1074
3 2006 1996 894
3 1101 2058 644
3 504 1631 1537
3 406 1958 1173
3 1173 1958 529
3 487 2321 1142
3 453 1722 1490
3 1493 2208 400
3 878 2081 1869
3 1044 1981 919
3 1004 1815 1503
3 1751 1061 540
3 1578 1868 614
3 1219 1763 757
3 496 1866 1273
3 1456 2251 713
3 905 1843 2288
3 2289 2327 552
3 1966 1938 564
3 664 1274 530
3 974 2319 631
3 498 1281 1572
3 1793 2079 1617
3 818 2307 583
3 530 2306 750
3 535 2227 865
3 923 2145 1298
3 311 1178 310
3 84 1196 83
3 1518 1735 717
3 413 1919 689
3 1578 1997 396
3 792 2004 1594
3 1929 1403 1234
3 1769 1906 2100
3 605 554 997
3 997 554 751
3 773 2204 1556
3 1194 1528 584
3 1701 1945 559
3 699 1524 1699
3 711 430 1068
3 101 1659 1471
3 1144 1232 293
3 969 2127 881
3 766 2127 969
3 971 2046 1220
3 1220 2046 769
3 964 1003 846
3 711 1480 1630
3 651 1845 1274
3 611 1800 615
3 421 2300 1311
3 671 2133 789
3 1435 2100 590
3 916 2100 1435
3 1784 1901 1052
3 928 1785 1786
3 653 2217 1053
3 1083 2218 1084
3 965 1800 396
3 691 1777 1091
3 1156 2029 629
3 934 2028 1671
3 2044 2172 451
3 435 1340 500
3 211 1428 14
3 193 1775 12
3 11 1543 183
3 377 1587 1495
3 839 2004 1263
3 82 1246 1247
3 1717 2262 312
3 1212 2079 1793
3 1265 2297 884
3 460 1320 1322
3 469 2144 776
3 1624 2005 39
3 48 1169 1623
3 797 2004 839
3 555 2226 1491
3 1769 2100 634
3 1759 1660 723
3 1041 1730 1762
3 647 1316 859
3 746 1982 822
3 1344 1984 993
3 819 1804 1110
3 724 2181 1446
3 553 888 467
3 525 1744 1790
3 1791 2037 393
3 543 1937 324
3 70 1188 1689
3 1523 1526 758
3 886 1129 1215
3 677 1528 1194
3 992 1945 1701
3 1699 1524 690
3 76 1953 834
3 1364 1954 318
3 1215 1525 886
3 758 1527 1523
3 822 1982 510
3 859 1316 464
3 497 1984 1344
3 1469 1560 626
3 1465 1560 1469
3 1143 843 610
3 1205 1536 562
3 73 1277 72
3 322 1568 321
3 467 1546 553
3 624 946 1691
3 994 1606 580
3 1080 1155 1180
3 1003 2266 846
3 1069 2201 1063
3 686 1565 1208
3 1208 1565 556
3 542 2203 1069
3 296 1213 1060
3 1318 1824 98
3 798 2033 1423
3 1184 1185 1134
3 1130 2013 1450
3 1030 1470 1186
3 578 1443 867
3 1463 1441 762
3 1390 1961 930
3 1117 1648 651
3 625 1961 1390
3 1385 1488 900
3 910 1891 714
3 501 1949 1794
3 583 2307 1162
3 440 2306 530
3 830 1887 1031
3 588 1881 1654
3 2017 2308 549
3 1370 2085 455
3 716 2086 1867
3 1055 1704 495
3 1471 2246 612
3 826 2010 1541
3 602 2030 1144
3 1439 1389 452
3 434 799 1868
3 586 2148 1965
3 1145 1695 439
3 379 1767 883
3 1368 1204 459
3 391 2266 1003
3 569 1321 1553
3 673 1270 1500
3 1495 1408 377
3 575 1650 430
3 550 1962 1487
3 973 1765 605
3 532 1369 1119
3 1050 1453 473
3 1241 1882 560
3 2076 1779 477
3 419 2219 2077
3 1559 1303 409
3 1036 2236 448
3 1373 2236 1036
3 714 1891 652
3 1053 2016 509
3 818 1794 708
3 707 910 750
3 947 1970 996
3 407 903 694
3 953 1972 1503
3 108 1489 1272
3 1487 1907 286
3 757 1763 1173
3 218 1413 1091
3 1156 1417 176
3 200 1670 1671
3 1133 2314 1214
3 705 1185 1184
3 1450 2013 983
3 1186 1470 502
3 1056 1325 2047
3 905 2288 856
3 1259 2289 552
3 284 1646 1647
3 929 1576 110
3 1063 2201 1226
3 1163 701 418
3 409 1550 470
3 1210 1660 1759
3 1762 1730 794
3 272 1594 1590
3 1592 1929 122
3 803 2175 1299
3 2241 2311 760
3 2196 2314 1133
3 581 1994 1821
3 554 1519 444
3 439 1507 1145
3 1087 1348 392
3 232 1452 231
3 679 2070 1566
3 808 2023 1160
3 1911 1776 756
3 988 1157 1913
3 1109 2050 1570
3 416 1981 1044
3 1225 2215 1335
3 1225 1620 2215
3 1106 1384 692
3 388 2267 1432
3 753 2233 1371
3 1655 1224 726
3 1301 1974 1655
3 979 1384 1106
3 614 1997 1578
3 513 2264 1480
3 1569 1923 1032
3 997 544 605
3 396 2032 1578
3 1198 1823 414
3 967 1823 1198
3 733 1920 698
3 1690 2024 880
3 931 2302 1685
3 140 700 139
3 255 1086 254
3 430 1650 1068
3 1789 1275 538
3 1212 2169 1523
3 499 2287 1559
3 2119 1443 492
3 972 1441 1462
3 951 1778 953
3 694 2214 394
3 1126 1257 947
3 1523 1991 1212
3 867 1443 2119
3 1462 1441 1463
3 1226 2201 1147
3 1243 1557 128
3 266 1632 1054
3 795 1930 474
3 395 1931 1579
3 1518 1976 1735
3 253 2078 2048
3 2049 2080 141
3 717 2007 1518
3 248 2231 247
3 147 1991 146
3 1578 1561 1868
3 486 2326 1347
3 873 2157 1279
3 812 1881 2076
3 2077 2308 889
3 430 2276 575
3 1994 2305 1821
3 1153 1877 499
3 530 740 664
3 625 2026 1577
3 685 2023 808
3 1913 1157 386
3 986 1776 1911
3 1608 1612 481
3 693 1609 1611
3 146 1527 145
3 249 1525 248
3 384 1690 1545
3 1548 1685 485
3 155 1447 1637
3 958 1858 239
3 437 1488 1385
3 1411 1806 2137
3 1415 1412 2139
3 1142 2321 744
3 172 1673 171
3 1432 2267 643
3 1228 1628 1050
3 1868 1561 434
3 1721 1536 526
3 263 1037 262
3 132 1035 131
3 507 1659 1950
3 1740 1232 442
3 1765 1519 554
3 754 1904 975
3 113 2119 112
3 282 1462 281
3 1871 893 704
3 1874 1812 1305
3 1060 1213 620
3 896 1824 1318
3 899 1751 844
3 621 1645 1151
3 664 2213 651
3 1053 1620 1119
3 965 1593 398
3 402 2114 1229
3 960 1329 787
3 453 1460 1019
3 1233 1585 400
3 462 2102 1809
3 605 544 1618
3 171 1362 170
3 1630 1909 711
3 1575 1464 397
3 418 1464 1575
3 1255 2243 496
3 385 1336 1208
3 513 2296 782
3 782 2296 1216
3 1066 2136 1906
3 637 1522 426
3 1857 2282 1143
3 690 1524 1900
3 1894 1945 992
3 1898 1528 677
3 569 1012 1145
3 1247 1246 601
3 811 2262 1717
3 1900 1524 993
3 746 1945 1894
3 647 1528 1898
3 777 2191 1458
3 296 1060 295
3 99 1318 98
3 94 1538 1658
3 1664 1662 300
3 1759 2271 654
3 730 1760 1762
3 1341 1343 1161
3 1227 1788 1342
3 241 897 240
3 154 1284 153
3 1637 2167 155
3 239 1661 958
3 478 2299 1566
3 152 940 151
3 243 472 242
3 693 1406 1964
3 1963 1607 481
3 1110 1836 1005
3 1008 2107 724
3 1381 1818 367
3 373 1708 1001
3 340 2101 1079
3 112 2119 1479
3 1973 1462 282
3 396 1800 611
3 1001 1983 1316
3 1079 2252 1982
3 1984 1799 1381
3 429 1359 1699
3 1194 1398 632
3 1701 2222 503
3 1634 2301 529
3 536 1910 1032
3 1401 2276 430
3 800 2178 628
3 702 924 1268
3 778 1296 1401
3 1206 1808 587
3 387 1930 795
3 1579 1931 515
3 388 2297 863
3 2122 1628 1228
3 160 1445 754
3 191 2063 190
3 186 1426 185
3 173 2064 172
3 204 1414 203
3 209 1418 208
3 222 2065 221
3 1699 1359 1189
3 566 1398 1194
3 780 2222 1701
3 328 659 327
3 67 1444 66
3 1593 1997 614
3 1531 1018 1626
3 1518 1917 638
3 486 1338 1457
3 1811 1817 704
3 1312 1816 1305
3 873 2131 1813
3 563 1989 1809
3 481 1607 1154
3 1158 1406 693
3 754 892 160
3 424 1739 821
3 413 1892 1599
3 401 1883 1577
3 455 1642 1562
3 1351 1716 716
3 1142 1980 416
3 732 1948 1534
3 1675 1137 195
3 779 1770 213
3 181 1498 1678
3 403 1270 1016
3 969 1529 414
3 433 1846 1220
3 447 1866 857
3 1039 2283 618
3 699 1999 1344
3 822 2211 559
3 859 1682 584
3 857 1866 496
3 589 2283 1039
3 474 1930 1790
3 1791 1931 395
3 1019 1460 654
3 730 1585 1233
3 1458 2203 542
3 689 1558 487
3 1570 2050 936
3 1626 1018 640
3 316 1788 1227
3 1161 1343 78
3 927 2083 445
3 809 2083 927
3 1007 1818 1381
3 1001 1708 546
3 1079 2101 999
3 942 1606 994
3 1180 1155 493
3 1326 1113 428
3 1029 1230 1459
3 505 1113 1326
3 1459 1230 829
3 596 1221 1630
3 1630 1221 599
3 1313 1989 563
3 1349 1433 736
3 3 1474 53
3 34 1393 1
3 208 2060 207
3 190 1434 189
3 644 1754 1101
3 1537 1665 504
3 649 1947 1085
3 289 1128 288
3 106 949 105
3 1596 1597 744
3 674 1939 998
3 848 2278 1926
3 1152 850 1070
3 547 850 1152
3 1926 2278 1451
3 2137 1806 585
3 2139 1412 577
3 376 2124 1796
3 644 2058 1540
3 1542 1631 504
3 496 2243 857
3 654 1869 1019
3 1233 1582 730
3 1252 2235 2042
3 2220 2019 1248
3 613 1864 1542
3 1540 2232 558
3 134 426 133
3 261 1603 260
3 1111 1551 1310
3 1072 1600 628
3 702 2259 1998
3 1688 1943 982
3 583 1959 1117
3 1211 2324 560
3 409 1303 1550
3 223 2072 222
3 482 2277 597
3 1541 2010 480
3 1000 2013 510
3 1282 1470 464
3 497 1185 1706
3 1368 1903 1222
3 352 980 353
3 1322 1416 460
3 993 1984 1381
3 1079 1982 746
3 1001 1316 647
3 236 1834 235
3 159 1837 158
3 2055 1852 410
3 866 1852 2055
3 857 1714 447
3 1553 2045 875
3 1048 1307 1266
3 80 2180 1099
3 1715 2189 314
3 1174 1841 1058
3 480 2010 1694
3 409 1153 1559
3 1556 1798 773
3 407 2199 903
3 1972 2200 1503
3 1970 1971 996
3 1603 1698 842
3 297 1213 296
3 98 1824 97
3 823 1516 1188
3 1937 1681 849
3 671 1224 1655
3 1655 1974 671
3 355 1287 356
3 1016 1888 592
3 1735 1976 390
3 960 787 415
3 1138 1306 428
3 1029 1780 1040
3 965 1997 1593
3 982 1943 1587
3 1577 2026 826
3 692 1798 1556
3 970 2160 1207
3 2116 2323 593
3 443 1696 1193
3 584 1890 1194
3 559 1679 1701
3 1699 2242 699
3 238 1332 237
3 157 1856 156
3 1263 1607 1963
3 1964 1406 1405
3 528 1306 1138
3 1040 1780 534
3 138 482 137
3 257 1618 256
3 2042 2235 623
3 516 2019 2220
3 1216 2207 782
3 961 976 1583
3 841 1492 1322
3 1541 2146 2126
3 115 1862 114
3 280 1863 279
3 744 2321 1151
3 918 2167 1637
3 958 1661 920
3 605 1765 554
3 96 1849 95
3 299 1295 298
3 967 2312 1723
3 1564 1844 1291
3 847 2263 798
3 798 2263 610
3 1583 976 901
3 88 1494 87
3 307 1535 306
3 1322 1492 468
3 594 1683 1733
3 246 521 245
3 149 1617 148
3 831 2283 1632
3 1557 2284 1271
3 629 2029 854
3 1397 1777 691
3 1392 2028 934
3 635 1205 832
3 1611 1888 673
3 669 1236 619
3 806 882 666
3 60 1712 1366
3 876 1724 27
3 696 2215 509
3 412 2138 1338
3 1816 2139 577
3 1817 2137 585
3 466 2141 2131
3 797 1166 1590
3 62 4 63
3 331 0 25
3 1658 1925 94
3 300 1828 1664
3 162 1024 161
3 15 1308 219
3 175 1912 10
3 13 2125 201
3 509 1399 696
3 805 1427 2096
3 1590 1166 624
3 838 2215 696
3 955 1242 863
3 696 1399 378
3 548 2054 1102
3 1773 1651 772
3 840 2329 1702
3 1702 2329 445
3 1541 2126 401
3 707 1746 910
3 936 2050 1218
3 1205 2230 526
3 866 1275 1789
3 1117 2057 583
3 536 1512 1066
3 1019 1614 453
3 400 1728 1233
3 1173 2015 757
3 1102 2054 670
3 1174 1296 381
3 1262 1296 1174
3 324 1937 323
3 71 1188 70
3 697 1952 1229
3 397 1323 1575
3 499 1092 1131
3 1310 1551 809
3 422 1776 1705
3 1298 1157 571
3 489 2023 1002
3 939 1857 1694
3 472 1966 1280
3 908 1966 472
3 494 1965 940
3 940 1965 904
3 1588 1287 355
3 1194 1890 566
3 1189 2242 1699
3 1701 1679 780
3 1824 1625 978
3 1107 2008 1213
3 1141 1857 1143
3 1517 2243 813
3 219 1413 218
3 176 1417 175
3 201 1670 200
3 1213 2008 620
3 896 1625 1824
3 1978 2149 791
3 1253 1946 1979
3 1099 2180 1114
3 1116 2189 1715
3 502 1470 1282
3 983 2013 1000
3 1706 1185 705
3 1882 1192 684
3 1781 2335 1276
3 830 2249 862
3 168 1586 1985
3 2048 2078 1195
3 734 2080 2049
3 1244 1981 416
3 1175 1765 973
3 1959 1648 1117
3 529 2301 1173
3 601 1246 1196
3 1178 2262 811
3 1333 1461 964
3 446 2039 1087
3 1637 1447 957
3 722 1858 958
3 661 1425 1608
3 619 2256 669
3 666 2257 806
3 1087 2039 380
3 39 2005 38
3 49 1169 48
3 998 1939 463
3 622 1597 1596
3 110 1502 929
3 1647 1420 284
3 415 1552 960
3 1217 1803 609
3 861 1472 1975
3 610 1269 798
3 9 1948 165
3 459 1903 1368
3 708 1793 1617
3 414 2247 969
3 289 1570 1128
3 949 1924 105
3 460 1416 1140
3 623 2003 1624
3 1623 2221 516
3 165 1635 164
3 1073 945 630
3 675 945 1073
3 1128 1570 936
3 531 1924 949
3 103 1950 102
3 292 1740 291
3 392 1704 1087
3 441 1555 853
3 650 1555 441
3 1769 987 649
3 1048 1266 468
3 803 1474 1217
3 1975 1393 760
3 2069 2121 442
3 1217 2175 803
3 760 2311 1975
3 862 2212 830
3 648 2327 2289
3 2288 1843 476
3 1623 2113 48
3 39 2071 1624
3 164 1027 163
3 929 2127 766
3 769 2046 1647
3 1046 1968 522
3 23 1123 354
3 285 1646 284
3 110 1576 109
3 633 2149 1978
3 1979 1946 565
3 1162 2307 1383
3 906 2306 440
3 710 1536 1721
3 634 987 1769
3 86 1928 85
3 309 1879 308
3 969 1486 766
3 1220 1726 433
3 769 1105 1220
3 782 2207 1141
3 981 1140 1043
3 1140 1416 898
3 562 1887 832
3 863 1994 388
3 1324 1554 1245
3 1245 1554 853
3 1366 1712 770
3 1026 1724 876
3 1100 1822 880
3 931 1549 1096
3 816 1563 700
3 1086 1250 790
3 1217 1474 3
3 1 1393 1975
3 939 2282 1857
3 2012 2126 1531
3 401 2126 2012
3 1733 1683 752
3 311 2262 1178
3 1196 1246 83
3 1684 1785 1049
3 1045 1901 1167
3 468 2144 1251
3 1862 1455 867
3 1463 2210 1863
3 1092 1877 506
3 386 1157 1298
3 1705 1776 986
3 1002 2023 685
3 721 1331 1125
3 1125 1331 722
3 1154 1607 792
3 1234 1406 1158
3 1273 1866 1057
3 1284 1283 494
3 918 1283 1284
3 1280 1967 897
3 897 1967 920
3 1568 2202 646
3 814 2303 1277
3 1052 1023 1562
3 1351 1382 928
3 475 1822 1100
3 1096 1549 488
3 1173 1763 406
3 456 2116 669
3 666 1193 735
3 1878 1928 86
3 308 1879 1200
3 1136 1967 564
3 920 1967 1136
3 586 1283 662
3 662 1283 918
3 1534 2331 899
3 910 1746 1995
3 1131 1430 499
3 397 1430 1131
3 1624 2071 580
3 1080 2113 1623
3 1206 2168 469
3 938 1254 1601
3 1132 2082 1935
3 1936 2014 1135
3 655 2314 1764
3 1764 2314 1506
3 1601 1254 1030
3 1134 2014 1936
3 1935 2082 1130
3 1741 2183 852
3 871 1286 1360
3 1381 2153 993
3 746 1826 1079
3 647 1895 1001
3 18 1921 302
3 92 1467 7
3 1266 1307 833
3 1129 1323 450
3 1853 1356 1353
3 1354 2261 1854
3 1629 1182 197
3 179 1187 1833
3 1400 1680 215
3 1918 1614 1019
3 1233 1728 2173
3 638 1614 1918
3 2173 1728 703
3 1658 1538 1017
3 1020 1662 1664
3 954 2144 468
3 925 1686 825
3 825 1686 622
3 463 815 926
3 926 815 639
3 1618 544 790
3 1229 2114 697
3 1057 888 553
3 998 2192 498
3 631 1595 1596
3 1151 2321 487
3 651 2213 1117
3 1117 2213 1070
3 808 1414 685
3 386 2064 1913
3 1911 2065 986
3 426 1522 807
3 2027 2047 995
3 1627 2148 1011
3 1732 2043 1104
3 1103 2281 1644
3 2018 1146 2235
3 2019 2320 1792
3 593 2174 1741
3 1360 2176 443
3 1513 1681 1784
3 1786 1516 1515
3 1014 1938 1013
3 30 1370 29
3 58 1867 57
3 921 1914 784
3 781 1547 1404
3 554 1235 751
3 444 1235 554
3 975 892 754
3 1469 1955 1465
3 676 1223 1320
3 516 2220 1623
3 1624 2042 623
3 960 2001 868
3 756 761 1091
3 1156 1668 988
3 1160 2067 1671
3 1151 1645 744
3 1070 2031 1117
3 876 2316 911
3 454 2315 1366
3 1767 2309 572
3 793 1482 1204
3 1790 1930 514
3 1033 1931 1791
3 234 1584 1106
3 1623 2220 1080
3 580 2042 1624
3 1211 1165 729
3 1104 2043 2038
3 2040 2281 1103
3 2056 2265 625
3 782 1484 513
3 244 1993 243
3 151 1992 150
3 436 1875 824
3 1691 946 573
3 1741 2174 1357
3 1361 2176 1360
3 1674 1292 805
3 700 2319 816
3 790 1281 1086
3 1036 1676 538
3 1228 2092 1656
3 1099 1672 456
3 735 2117 1715
3 1114 1672 1099
3 1715 2117 1116
3 28 2316 876
3 1366 2315 59
3 1409 2264 847
3 1656 2092 1017
3 1784 1681 820
3 389 1516 1786
3 16 2165 862
3 1167 1901 820
3 389 1785 1684
3 1556 2204 1452
3 1149 1836 1110
3 724 2107 1150
3 556 2106 1865
3 1064 2098 1123
3 461 1325 839
3 594 851 1078
3 1170 1576 929
3 1647 1646 768
3 754 1445 668
3 352 2152 980
3 932 1700 891
3 976 1976 959
3 610 2263 782
3 1449 2039 446
3 212 1935 211
3 194 1601 193
3 183 1936 182
3 847 2264 1484
3 303 1905 18
3 7 725 91
3 700 1563 139
3 255 1250 1086
3 239 1858 238
3 156 1447 155
3 781 1146 2018
3 1792 2320 784
3 824 1875 785
3 122 1929 8
3 17 1594 272
3 987 1947 649
3 654 1210 1759
3 1762 794 730
3 2140 2145 687
3 1202 1645 621
3 503 1257 2184
3 2185 2214 429
3 632 1778 1429
3 290 1570 289
3 105 1924 104
3 904 1992 940
3 472 1993 908
3 982 1530 1350
3 572 2309 1787
3 1476 1482 793
3 128 1557 127
3 267 1632 266
3 1491 1996 895
3 1301 490 1940
3 1264 1718 726
3 548 2022 1197
3 465 2212 862
3 984 1606 942
3 493 1155 727
3 1049 1771 1684
3 1167 2099 1045
3 1781 1310 592
3 161 1445 160
3 1111 1310 1781
3 690 2185 1699
3 1194 1429 677
3 1701 2184 992
3 862 2249 16
3 583 2057 818
3 1347 2326 636
3 1279 2157 658
3 533 1165 1211
3 235 1584 234
3 622 1692 825
3 926 1703 463
3 1164 2165 1757
3 160 892 159
3 1308 1413 219
3 175 1417 1912
3 2125 1670 201
3 1699 2185 429
3 632 1429 1194
3 503 2184 1701
3 813 1255 1399
3 1091 1777 218
3 176 2029 1156
3 1671 2028 200
3 109 1489 108
3 286 1907 285
3 1733 851 594
3 750 740 530
3 636 877 1347
3 658 1886 1279
3 890 1695 1145
3 1688 1725 1262
3 380 2039 1449
3 1035 2091 827
3 616 2313 1037
3 773 1798 1449
3 381 1296 778
3 930 2266 1390
3 1399 1255 378
3 618 2309 1767
3 1204 1482 1481
3 1654 1814 603
3 810 2150 2017
3 589 1292 1124
3 2015 2301 642
3 1110 1804 1149
3 1150 2181 724
3 668 2129 1904
3 1056 2047 2027
3 1449 1798 692
3 313 2189 1717
3 1247 2180 81
3 562 672 1031
3 863 2297 1379
3 957 1181 681
3 1119 1369 653
3 1084 1453 1050
3 812 1814 1654
3 2017 2150 889
3 77 1953 76
3 318 1954 317
3 1856 1829 957
3 1330 1829 1856
3 1332 1331 933
3 722 1331 1332
3 884 1432 650
3 2025 1886 738
3 1657 877 683
3 1827 2325 495
3 95 1538 94
3 300 1662 299
3 1114 2180 1247
3 1717 2189 1116
3 667 1486 991
3 43 1264 42
3 45 1940 44
3 1125 1752 721
3 686 1752 1125
3 691 1615 956
3 1604 1497 629
3 934 1766 948
3 964 1461 1269
3 1091 1413 756
3 988 1417 1156
3 1671 1670 1160
3 937 1438 870
3 816 2277 482
3 615 1800 1742
3 240 1661 239
3 155 2167 154
3 425 1897 832
3 102 1659 101
3 293 1232 292
3 950 1522 1514
3 1514 1522 637
3 631 2319 700
3 1086 1281 498
3 564 1783 1136
3 1136 1783 545
3 949 2182 937
3 106 2182 949
3 868 1127 1128
3 1128 1127 288
3 1985 1586 777
3 168 1985 167
3 483 1698 1603
3 387 1606 984
3 727 1155 515
3 1347 877 796
3 1279 1886 869
3 197 1182 196
3 180 1187 179
3 215 1680 214
3 85 2090 84
3 310 1120 309
3 1639 2198 722
3 990 1792 475
3 488 2018 1300
3 1386 1963 737
3 1276 1964 1385
3 1742 1800 965
3 994 2112 41
3 46 1831 1180
3 164 1635 1027
3 1787 2309 831
3 1271 1482 1476
3 729 2324 1211
3 254 2078 253
3 141 2080 140
3 1727 2217 653
3 1084 2218 1729
3 1616 2114 402
3 384 1881 1690
3 1685 2308 485
3 1729 1433 703
3 169 1586 168
3 93 1925 1922
3 1839 1828 301
3 196 1182 1675
3 1678 1187 180
3 214 1680 779
3 592 2335 1781
3 1300 2018 944
3 1139 1792 990
3 940 1992 151
3 243 1993 472
3 1306 1738 420
3 874 1737 1780
3 878 2271 1422
3 1927 1760 913
3 869 1886 2025
3 796 877 1657
3 528 1738 1306
3 1780 1737 534
3 1039 1292 589
3 580 2112 994
3 1180 1831 1080
3 1725 2276 1262
3 187 1394 186
3 205 2143 204
3 656 1574 1363
3 1545 1914 921
3 1404 1547 1548
3 1745 1431 721
3 715 2021 1317
3 1317 2021 975
3 979 1431 1745
3 1299 2175 479
3 747 2311 2241
3 1936 1498 182
3 212 1770 1935
3 194 1137 1601
3 2126 2146 595
3 1015 2146 480
3 1353 2084 1703
3 1692 1736 1354
3 1241 2177 346
3 899 2331 1653
3 1036 1551 1111
3 31 2085 30
3 57 2086 56
3 2050 2233 1218
3 93 1922 92
3 302 1839 301
3 354 1638 355
3 1702 2115 840
3 1674 2096 1209
3 722 2198 1125
3 1258 2178 800
3 1268 924 767
3 1643 2293 350
3 179 1833 178
3 216 1400 215
3 198 1629 197
3 226 1969 225
3 856 1642 2085
3 2086 1716 1259
3 415 787 1218
3 514 2178 1258
3 767 924 1033
3 1709 1571 576
3 598 1076 1710
3 1675 1682 1137
3 779 2211 1770
3 1498 1999 1678
3 1318 1533 894
3 640 1172 1060
3 99 1533 1318
3 1060 1172 295
3 818 2057 501
3 445 2083 1702
3 1720 1166 797
3 1078 1425 661
3 801 1362 1673
3 353 2095 23
3 1700 1396 607
3 10 1912 174
3 202 2125 13
3 220 1308 15
3 900 1396 1700
3 1145 1012 890
3 1094 2162 990
3 1300 2161 574
3 1615 761 422
3 571 1668 1497
3 1766 2067 489
3 2115 2160 840
3 667 1520 1486
3 491 1712 61
3 26 1724 1365
3 1837 2021 1330
3 975 2021 1837
3 933 1431 1834
3 1834 1431 979
3 346 2177 347
3 16 2249 228
3 1284 2167 918
3 920 1661 897
3 630 2115 1073
3 880 1485 1100
3 1096 2285 931
3 897 2318 1280
3 241 2318 897
3 494 2317 1284
3 1284 2317 153
3 895 2033 1491
3 1491 2033 555
3 839 1325 1056
3 1059 851 1733
3 1935 1770 1132
3 1135 1498 1936
3 1601 1137 938
3 1321 2223 1553
3 688 2223 1321
3 562 1536 672
3 152 2317 940
3 940 2317 494
3 1280 2318 472
3 472 2318 242
3 1525 2310 1021
3 1071 2074 1527
3 1055 1619 446
3 1790 1744 474
3 395 2037 1791
3 489 1972 1766
3 1497 903 571
3 422 1970 1615
3 1365 2088 330
3 64 1034 491
3 377 2275 1587
3 1178 1120 310
3 84 2090 1196
3 832 1887 425
3 769 1267 884
3 884 1267 1265
3 1184 1426 705
3 983 1418 1450
3 502 2063 1186
3 672 1536 710
3 343 1126 344
3 363 394 364
3 332 951 333
3 674 1641 1044
3 1684 1771 68
3 326 2099 1167
3 662 1622 541
3 545 2106 1136
3 573 946 1720
3 1363 1574 864
3 561 1955 1469
3 355 1638 1588
3 753 1388 935
3 1371 2233 432
3 696 2265 838
3 862 2292 465
3 670 2204 1102
3 642 1916 2015
3 245 2194 244
3 150 2234 149
3 247 2179 246
3 148 2079 147
3 2136 1589 590
3 714 740 750
3 911 2316 1370
3 1867 2315 454
3 1125 1565 686
3 1173 2301 2015
3 627 2163 1335
3 536 1619 1055
3 638 1917 1727
3 944 2235 1252
3 1248 2019 1139
3 629 1148 1604
3 956 2225 691
3 948 1176 934
3 228 2249 1031
3 571 2199 1298
3 1705 1971 422
3 1002 2200 489
3 980 2152 665
3 464 1983 1282
3 510 2252 1000
3 1706 1799 497
3 425 2286 1466
3 480 2146 1541
3 665 1897 1466
3 2213 2250 1070
3 1229 1581 402
3 448 1551 1036
3 870 1339 531
3 1048 1492 841
3 646 2202 500
3 2044 2303 814
3 729 1165 1454
3 301 1828 300
3 94 1925 93
3 2100 1906 590
3 626 2196 1346
3 379 1427 1039
3 1613 2293 1643
3 468 1492 1048
3 491 1034 770
3 1026 2088 1365
3 1672 1819 858
3 1171 1319 2117
3 770 1712 491
3 1365 1724 1026
3 474 1744 1112
3 1093 2037 395
3 304 1374 303
3 91 2336 90
3 799 2313 616
3 827 2091 1389
3 1636 1958 1051
3 1611 2335 1888
3 500 2202 1513
3 1515 2303 2044
3 1333 2322 431
3 1654 1881 812
3 889 2308 2017
3 372 1820 1457
3 339 2328 1813
3 1312 1812 335
3 1811 893 368
3 2000 1165 533
3 1454 1721 526
3 939 2010 1108
3 1940 2259 1301
3 726 1600 1264
3 1168 1165 2000
3 1106 1848 234
3 90 2336 1459
3 1326 1374 304
3 378 1796 1961
3 1809 2102 1456
3 2184 1257 1009
3 1429 1778 1006
3 1010 2214 2185
3 1851 2024 588
3 549 2302 2066
3 1235 2094 837
3 371 1820 372
3 338 2328 339
3 335 1812 336
3 368 893 369
3 1878 1851 1199
3 1203 2066 1200
3 380 1902 1348
3 431 2322 1755
3 383 1532 681
3 1639 2240 556
3 1089 2313 799
3 1389 2091 950
3 1218 787 936
3 805 2096 1674
3 1138 1660 528
3 534 1730 1040
3 770 2142 1366
3 876 1372 1026
3 511 1339 870
3 1026 1758 2088
3 1034 2089 770
3 1987 2221 828
3 922 2003 1986
3 2062 1842 715
3 1346 2196 1133
3 748 1473 1734
3 1734 1473 116
3 1380 2164 786
3 278 2164 1380
3 2093 2294 532
3 473 1666 2092
3 841 2286 860
3 1138 1511 723
3 1041 2258 1040
3 777 1061 1985
3 526 1536 1205
3 1987 2320 2221
3 2003 1146 1986
3 1282 2138 502
3 705 2137 1706
3 685 2139 1002
3 1298 2140 386
3 1000 2141 983
3 986 1192 1705
3 1216 1650 1350
3 1350 1650 575
3 1336 1773 772
3 1298 2199 923
3 1004 2200 1002
3 709 1971 1705
3 1370 2316 29
3 58 2315 1867
3 1282 1983 546
3 1000 2252 999
3 1007 1799 1706
3 1499 2154 506
3 229 2165 16
3 417 1880 1477
3 414 1529 1198
3 1847 1846 433
3 140 2080 700
3 1086 2078 254
3 1985 1061 519
3 607 1396 966
3 1454 1165 1168
3 1270 1888 1016
3 1168 1721 1454
3 966 1396 785
3 1855 2027 995
3 2086 2245 56
3 31 1567 2085
3 728 2121 2069
3 1919 1652 439
3 573 2027 1855
3 2056 2228 838
3 399 1287 1588
3 956 1257 503
3 429 2214 1604
3 948 1778 632
3 1523 2169 1526
3 942 1072 984
3 727 1998 493
3 448 2236 1073
3 723 1660 1138
3 1040 1730 1041
3 849 2202 1568
3 1277 2303 823
3 941 2228 2056
3 1727 1496 453
3 400 2209 1729
3 450 1944 1129
3 465 1307 1048
3 925 1407 1756
3 1350 1725 982
3 430 2151 1401
3 1702 2332 448
3 664 2250 2213
3 1849 1538 95
3 299 1662 1295
3 630 945 1207
3 1207 945 1345
3 32 1472 905
3 552 1803 55
3 1295 1580 1107
3 1042 2151 711
3 474 2161 795
3 1579 2162 395
3 390 1976 976
3 550 1830 1379
3 810 2274 1178
3 1196 2097 603
3 966 1521 607
3 1888 2335 592
3 708 2307 818
3 750 2306 707
3 918 1532 662
3 1136 2240 920
3 1106 1584 979
3 1929 1731 8
3 17 2166 1594
3 653 1496 1727
3 1729 2209 1084
3 109 1576 1489
3 1907 1646 285
3 1234 1731 1929
3 1594 2166 792
3 346 1278 1241
3 590 1589 1435
3 916 1435 1024
3 1024 1435 668
3 905 1567 32
3 55 2245 552
3 860 2212 465
3 234 1848 233
3 1562 1023 455
3 716 1382 1351
3 776 2144 954
3 883 1767 719
3 1334 1204 1368
3 681 1181 383
3 408 1375 1774
3 1774 1375 545
3 48 2113 47
3 40 2071 39
3 447 888 1057
3 1057 1866 447
3 1849 2075 1017
3 875 1468 1355
3 1889 1468 875
3 634 2100 1027
3 111 1502 110
3 284 1420 283
3 1112 1744 723
3 1041 2037 1093
3 1709 2253 872
3 641 2254 1710
3 995 2047 1926
3 43 1718 1264
3 1940 490 44
3 368 1818 1811
3 1457 1708 372
3 335 1815 1312
3 1813 2101 339
3 786 2164 1863
3 1863 2164 279
3 115 1473 1862
3 1862 1473 748
3 1719 1598 1367
3 2165 2292 862
3 1643 2230 1613
3 1027 2100 916
3 783 1952 637
3 1466 2286 1223
3 1037 2313 483
3 807 2091 1035
3 357 1835 1067
3 1317 1363 715
3 656 1363 1317
3 1164 2292 2165
3 832 1897 635
3 731 2216 1569
3 305 1840 304
3 90 2171 89
3 517 2230 1643
3 540 1061 1458
3 541 1622 1772
3 1772 1622 383
3 66 2089 65
3 329 1758 328
3 1104 2172 2044
3 500 1340 1103
3 1466 1897 425
3 1892 1641 674
3 921 682 384
3 485 2229 1404
3 339 2101 340
3 367 1818 368
3 334 1815 335
3 372 1708 373
3 1757 2054 1164
3 304 1840 1326
3 1459 2171 90
3 576 2253 1709
3 1710 2254 598
3 423 2111 1979
3 1978 2132 438
3 1402 1845 651
3 225 2188 224
3 1088 1375 408
3 1632 1782 831
3 1271 2035 1557
3 267 1782 1632
3 1557 2035 127
3 957 1447 1856
3 1332 1858 722
3 670 2054 1757
3 542 1290 1458
3 1251 2144 469
3 1111 1676 1036
3 1207 2160 630
3 1905 1306 420
3 874 1780 725
3 620 1626 1060
3 1060 1626 640
3 2051 2133 567
3 450 1891 910
3 1222 2059 2102
3 2102 2059 535
3 699 2242 1999
3 1682 1890 584
3 2211 1679 559
3 1727 1614 638
3 703 1728 1729
3 61 1712 60
3 27 1724 26
3 1141 2207 449
3 142 2049 141
3 253 2048 252
3 1458 1061 777
3 1837 892 975
3 858 2323 2116
3 1193 1696 1171
3 345 1278 346
3 1039 1427 805
3 2231 2179 247
3 147 2079 1991
3 1794 1949 484
3 1197 2022 833
3 808 2125 202
3 174 1912 1913
3 1911 1308 220
3 1317 1649 656
3 718 1902 1745
3 1402 2118 408
3 1999 2242 1678
3 1675 1890 1682
3 779 1679 2211
3 789 2133 2051
3 1327 2118 1011
3 383 1773 1772
3 1402 1648 1011
3 2015 1916 695
3 1995 1944 450
3 1088 1159 541
3 1580 2163 627
3 541 1159 1327
3 545 1783 1774
3 408 1159 1088
3 601 2238 1247
3 1717 2237 811
3 738 1886 680
3 683 877 1885
3 449 1857 1141
3 1899 1574 568
3 561 1908 962
3 1085 1947 732
3 330 2088 329
3 65 1034 64
3 1885 877 636
3 680 1886 658
3 897 1661 240
3 154 2167 1284
3 1458 1290 540
3 932 2041 764
3 1422 1387 912
3 914 1805 1927
3 453 1614 1727
3 1729 1728 400
3 425 2034 2286
3 1371 1408 1495
3 12 1775 192
3 14 1428 210
3 184 1543 11
3 979 1584 1834
3 1154 2166 273
3 121 1731 1158
3 1461 2033 798
3 1095 1644 598
3 576 1732 1240
3 1003 2282 391
3 1143 2282 1003
3 944 678 795
3 1579 2270 1139
3 566 1182 1629
3 1833 1187 1189
3 780 1680 1400
3 1158 1731 1234
3 792 2166 1154
3 1011 2148 1327
3 715 1842 1829
3 1355 2114 875
3 697 2114 1355
3 1077 2187 649
3 1304 2279 404
3 561 2280 1121
3 935 2123 1058
3 226 2330 1969
3 1379 1830 955
3 795 678 387
3 515 2270 1579
3 1027 1635 634
3 508 2247 414
3 872 2253 1240
3 1095 2254 641
3 617 2279 1304
3 1121 2280 1122
3 800 1387 1422
3 1927 1805 1268
3 138 1563 482
3 482 1563 816
3 1618 1250 256
3 790 1250 1618
3 408 2206 1402
3 568 1747 1801
3 1801 1747 718
3 361 1850 362
3 1035 2291 807
3 483 2290 1037
3 132 2291 1035
3 1037 2290 262
3 575 1725 1350
3 1241 1278 709
3 1603 2290 483
3 807 2291 426
3 261 2290 1603
3 426 2291 133
3 1510 2135 1242
3 428 1306 1905
3 725 1780 1029
3 1014 2206 1774
3 1573 1636 1051
3 2161 1711 574
3 1094 1872 2162
3 1809 1989 462
3 1240 2158 814
3 646 2159 1095
3 322 1238 1568
3 1277 2248 72
3 463 1939 815
3 815 1939 919
3 551 1597 1686
3 1686 1597 622
3 1633 1674 1209
3 404 1674 1633
3 1020 1580 1295
3 1478 1880 417
3 1327 2148 586
3 1074 1880 1478
3 1240 2253 576
3 598 2254 1095
3 831 1782 1787
3 1476 2035 1271
3 1787 1782 268
3 126 2035 1476
3 1017 1538 1849
3 1295 1662 1020
3 718 1876 1801
3 1314 682 1978
3 1979 2229 1315
3 1478 2300 802
3 1157 1668 571
3 422 761 1776
3 489 2067 2023
3 591 1807 1904
3 757 1968 1046
3 692 1848 1106
3 1790 1258 525
3 393 767 1791
3 1856 1447 156
3 238 1858 1332
3 741 2187 1077
3 2286 2034 860
3 721 1876 1745
3 159 892 1837
3 731 1640 1077
3 1978 682 633
3 565 2229 1979
3 432 2121 1371
3 1371 2121 728
3 529 1636 1634
3 1634 1636 527
3 1534 1948 9
3 1114 1819 1672
3 2117 1319 1116
3 2093 2163 1020
3 853 1598 441
3 522 2151 1042
3 2011 2223 688
3 1964 1609 693
3 481 1612 1963
3 41 2112 40
3 47 1831 46
3 1865 2106 545
3 514 1258 1790
3 1791 767 1033
3 52 2110 51
3 36 2109 35
3 55 1803 54
3 33 1472 32
3 1926 2047 848
3 545 1749 1865
3 1514 1952 697
3 637 1952 1514
3 587 2168 1206
3 1568 1238 849
3 823 2248 1277
3 988 1668 1157
3 1776 761 756
3 2023 2067 1160
3 1024 1445 161
3 349 1643 350
3 68 1771 67
3 327 2099 326
3 1318 1996 896
3 668 1445 1024
3 894 1996 1318
3 709 1882 1241
3 555 2033 1461
3 1102 1923 548
3 630 2160 2115
3 1969 2330 710
3 1868 799 1437
3 1440 1389 1439
3 824 1488 437
3 1410 2110 52
3 35 2109 1832
3 785 1488 824
3 895 2006 1423
3 1423 2006 612
3 546 1708 1457
3 999 2101 1813
3 1312 1815 1004
3 1811 1818 1007
3 864 1574 1899
3 581 1508 1634
3 1745 1876 718
3 720 1923 1102
3 564 1938 1783
3 1251 1416 1322
3 1954 1788 317
3 77 1343 1953
3 1209 2096 1764
3 1501 1325 461
3 32 1567 31
3 56 2245 55
3 820 1901 1784
3 1786 1785 389
3 898 1416 1251
3 1409 1423 612
3 847 1423 1409
3 870 2087 937
3 856 1567 905
3 552 2245 1259
3 1011 2118 1402
3 535 2059 1214
3 1214 2059 1133
3 964 2322 1333
3 1081 1899 568
3 1801 1752 686
3 1285 2183 1201
3 1288 1286 1289
3 1174 1663 1262
3 441 1726 650
3 433 1726 441
3 1198 1529 492
3 972 1846 1847
3 1704 1827 495
3 1140 2130 1043
3 1586 2191 777
3 1346 2020 626
3 1457 1338 546
3 1813 2131 999
3 1004 1816 1312
3 1007 1817 1811
3 337 1873 338
3 370 2156 371
3 213 1770 212
3 182 1498 181
3 195 1137 194
3 1953 1343 1341
3 1342 1788 1954
3 531 2087 870
3 1201 2183 479
3 747 1286 1288
3 1274 1845 1014
3 444 1519 1750
3 1750 1519 1175
3 842 1870 1750
3 588 2024 1690
3 1685 2302 549
3 982 1725 1688
3 739 2304 783
3 783 2304 471
3 538 1676 932
3 651 1648 1402
3 975 1807 1317
3 755 2191 1586
3 711 2151 430
3 1745 1743 979
3 529 1958 1636
3 1058 2123 1174
3 382 1697 508
3 508 1697 991
3 1017 2075 1656
3 555 1461 1333
3 1252 678 944
3 1139 2270 1248
3 1924 1509 523
3 1252 2042 580
3 1080 2220 1248
3 1183 1429 1006
3 706 2184 1009
3 1010 2185 2147
3 805 1292 1039
3 276 1748 275
3 119 2134 118
3 30 2085 1370
3 1867 2086 57
3 348 1505 977
3 677 1429 1183
3 992 2184 706
3 2147 2185 690
3 387 678 1252
3 1248 2270 515
3 966 2278 848
3 684 1352 1211
3 1214 2227 535
3 597 1795 1177
3 1391 1521 1501
3 1152 2250 714
3 1177 2304 739
3 471 2304 1177
3 347 1505 348
3 87 2068 86
3 308 2195 307
3 1904 2129 591
3 492 1443 1198
3 1847 1441 972
3 741 1906 1769
3 1531 1626 2012
3 1834 1584 235
3 1510 1242 955
3 1384 1743 380
3 1328 2020 1346
3 1225 2163 2093
3 428 1374 1326
3 1459 2336 1029
3 1774 2206 408
3 1629 1398 566
3 1189 1359 1833
3 1400 2222 780
3 71 2248 1188
3 1937 1238 323
3 1871 2156 370
3 1874 1873 337
3 1191 1398 1629
3 1833 1359 1395
3 902 2222 1400
3 656 1649 1038
3 1038 1649 591
3 1906 2136 590
3 142 2261 2049
3 2048 1356 252
3 2049 2261 1354
3 1353 1356 2048
3 385 1749 1088
3 1260 1695 890
3 1122 2280 962
3 1124 2279 617
3 1469 1908 561
3 875 2114 1616
3 1555 1432 643
3 962 1977 835
3 1050 1628 1083
3 962 2280 561
3 404 2279 1124
3 991 2247 508
3 1893 1795 1025
3 1303 1407 925
3 756 1308 1911
3 1913 1912 988
3 1160 2125 808
3 1753 1290 1337
3 1825 1747 568
3 224 2188 2000
3 978 2075 1849
3 1211 1352 533
3 1309 1870 1047
3 1769 2187 741
3 1551 2332 809
3 1723 2312 578
3 762 1844 1564
3 1622 1532 383
3 556 2240 2106
3 231 1693 230
3 743 2135 1841
3 1347 1861 412
3 1279 1859 466
3 1188 2248 823
3 849 1238 1937
3 585 1806 1885
3 577 1412 680
3 887 1695 1260
3 9 2331 1534
3 591 1827 1038
3 649 2187 1769
3 1119 1620 1225
3 953 1778 948
3 947 1257 956
3 1604 2214 694
3 556 2198 1639
3 745 1851 1878
3 1200 2066 989
3 50 1667 49
3 38 2009 37
3 613 1711 1112
3 1093 1872 558
3 1288 1843 861
3 609 2327 1201
3 525 2271 1759
3 1762 1760 393
3 1259 2245 2086
3 2085 1567 856
3 359 1934 360
3 357 1067 358
3 86 2068 1878
3 1200 2195 308
3 1369 1496 653
3 1084 2209 1453
3 439 1652 1507
3 279 2164 278
3 116 1473 115
3 1425 2128 410
3 1062 1496 1369
3 1453 2209 804
3 1101 1754 1494
3 1535 1665 1537
3 1137 1682 938
3 1770 2211 1132
3 1135 1999 1498
3 1624 2003 2005
3 1169 2221 1623
3 1430 1464 763
3 1226 1810 687
3 540 1290 1753
3 1740 1951 1109
3 523 2120 1950
3 271 1933 270
3 124 2170 123
3 1218 2233 753
3 912 1387 2051
3 2052 1805 914
3 599 2260 2120
3 442 2121 1951
3 1994 2267 388
3 1781 2041 1111
3 764 2041 1781
3 251 1356 1853
3 1854 2261 143
3 1078 2128 1425
3 796 1861 1347
3 869 1859 1279
3 565 1946 1986
3 1987 2149 633
3 632 1176 948
3 1604 1148 429
3 503 2225 956
3 1479 2119 492
3 972 1462 1973
3 723 1511 1112
3 1093 2258 1041
3 1885 1806 683
3 680 1412 738
3 288 1127 287
3 107 2182 106
3 1905 1374 428
3 1029 2336 725
3 2051 1387 789
3 1082 1805 2052
3 1422 2271 525
3 393 1760 1927
3 1825 1574 656
3 1697 2295 991
3 610 843 1269
3 981 1638 1123
3 1986 1946 922
3 828 2149 1987
3 1430 2287 499
3 763 2287 1430
3 829 2171 1459
3 1326 1840 505
3 1022 2223 2011
3 772 1899 1081
3 801 1810 1226
3 1869 1918 1019
3 1233 2173 1582
3 579 2268 1819
3 1319 2269 518
3 411 1918 1869
3 1582 2173 712
3 1348 1902 718
3 81 2180 80
3 314 2189 313
3 936 1329 1128
3 1128 1329 868
3 1764 2096 655
3 75 1115 74
3 320 2190 319
3 949 2087 531
3 295 1172 294
3 100 1533 99
3 910 1995 450
3 1794 1793 708
3 1123 2098 981
3 1894 1826 746
3 1898 1895 647
3 993 2153 1900
3 1821 1508 581
3 432 2233 2050
3 1950 2120 507
3 442 1951 1740
3 1409 1231 596
3 937 2087 949
3 1444 1771 1049
3 1045 2099 659
3 718 2333 1348
3 1803 2327 609
3 861 1843 1472
3 659 2099 327
3 67 1771 1444
3 1043 2130 587
3 85 1928 2090
3 1120 1879 309
3 166 2331 9
3 681 1532 918
3 920 2240 1639
3 1442 2105 659
3 1444 2104 885
3 446 1619 1377
3 531 1339 2036
3 1819 2238 579
3 518 2237 1319
3 1889 2045 1022
3 1123 1638 354
3 1472 1843 905
3 552 2327 1803
3 954 2216 731
3 1922 1925 1297
3 1294 1828 1839
3 659 2105 1045
3 1049 2104 1444
3 265 1065 264
3 130 2197 129
3 1961 1796 930
3 809 2332 2083
3 1055 1512 536
3 2216 2022 1569
3 1264 1600 942
3 493 2259 1940
3 527 1544 1634
3 521 2194 245
3 149 2234 1617
3 218 1777 217
3 177 2029 176
3 200 2028 199
3 453 1496 1722
3 2208 2209 400
3 612 2246 1231
3 1335 2163 1225
3 468 1266 954
3 1969 1721 1168
3 1226 1358 1063
3 351 2152 352
3 525 1258 1422
3 1927 767 393
3 1450 1428 1130
3 1186 1775 1030
3 1134 1543 1184
3 1070 2250 1152
3 710 1721 1969
3 612 1231 1409
3 1377 1619 720
3 1346 1903 459
3 1133 1903 1346
3 350 2293 351
3 963 1947 987
3 1838 1427 379
3 683 1806 1394
3 738 1412 2143
3 2196 1560 1506
3 626 1560 2196
3 1422 1258 800
3 1268 767 1927
3 2069 2030 602
3 1030 1254 1470
3 1130 2082 2013
3 1185 2014 1134
3 2143 1412 1415
3 1394 1806 1411
3 548 1923 1569
3 2073 1932 604
3 1197 1307 465
3 833 1307 1197
3 1656 2075 520
3 1466 1223 676
3 1722 1496 1062
3 804 2209 2208
3 852 1571 1236
3 882 1076 871
3 1470 1254 464
3 2013 2082 510
3 497 2014 1185
3 246 2179 521
3 1617 2079 148
3 687 1358 1226
3 575 2276 1725
3 1889 2032 396
3 1022 2032 1889
3 838 2228 1335
3 1379 2297 1265
3 1979 2111 1253
3 791 2132 1978
3 1335 2228 627
3 521 1746 707
3 1720 946 1166
3 1184 1543 184
3 210 1428 1450
3 192 1775 1186
3 273 2166 17
3 8 1731 121
3 560 2177 1241
3 1878 2068 745
3 989 2195 1200
3 1112 1511 613
3 558 2258 1093
3 392 2333 1825
3 1262 1663 1688
3 1688 1663 557
3 1649 1807 591
3 136 1988 135
3 259 2224 258
3 791 2149 1990
3 1669 1946 1253
3 484 2154 1526
3 224 1761 223
3 875 2045 1889
3 1214 2314 655
3 599 1221 2260
3 249 2310 1525
3 1527 2074 145
3 189 2061 188
3 207 2193 206
3 748 1455 1862
3 1863 2210 786
3 2116 1672 858
3 1171 2117 1193
3 1963 1612 737
3 1276 1609 1964
3 865 2227 1838
3 670 1693 1452
3 438 2132 1410
3 1832 2111 423
3 1375 1749 545
3 230 1693 1757
3 896 2226 1625
3 1634 1544 581
3 1569 2022 548
3 1452 1693 231
3 380 1743 1902
3 568 1574 1825
3 580 2071 2112
3 1831 2113 1080
3 1841 2135 1058
3 227 2330 226
3 323 1238 322
3 72 2248 71
3 1423 2033 895
3 1793 2169 1212
3 143 2261 142
3 252 1356 251
3 1051 2295 1697
3 268 1782 267
3 127 2035 126
3 312 2262 311
3 83 1246 82
3 1226 1147 801
3 1821 2305 743
3 1242 2135 743
3 2036 1339 663
3 1434 1861 796
3 2060 1859 869
3 1673 1810 801
3 533 1352 2072
3 2072 1352 985
3 759 1861 1434
3 645 1859 2060
3 1419 1810 1673
3 1011 1648 1959
3 576 1571 1802
3 524 1076 598
3 495 1512 1055
3 139 1563 138
3 256 1250 255
3 262 2290 261
3 133 2291 132
3 633 682 921
3 1404 2229 565
3 1457 1820 486
3 704 893 1811
3 1305 1812 1312
3 1813 2328 873
3 714 2250 740
3 410 2334 1425
3 29 2316 28
3 59 2315 58
3 1921 1839 302
3 92 1922 1467
3 44 490 2
3 2 1718 43
3 703 1433 1349
3 2215 1620 509
3 250 2310 249
3 145 2074 144
3 153 2317 152
3 242 2318 241
3 78 1343 77
3 317 1788 316
3 1796 2124 930
3 1149 2323 2268
3 2269 1696 1150
3 1113 1864 613
3 558 2232 1230
3 1480 2296 513
3 1068 2296 1480
3 1452 2204 670
3 356 1835 357
3 2038 2002 1104
3 1103 1884 2040
3 1031 2249 830
3 1757 1693 670
3 1335 2215 838
3 1792 1914 475
3 488 1547 2018
3 501 2031 850
3 422 1971 1970
3 903 2199 571
3 489 2200 1972
3 465 2292 1197
3 1425 2334 1608
3 922 1946 1669
3 1990 2149 828
3 1117 2031 2057
3 784 1914 1792
3 2018 1547 781
3 1147 2201 427
3 1982 2252 510
3 1316 1983 464
3 497 1799 1984
3 1062 1369 1942
3 2155 1453 804
3 1197 2292 1164
3 1020 2163 1580
3 1198 2312 967
3 1291 1844 1847
3 756 1413 1308
3 1912 1417 988
3 1160 1670 2125
3 695 1968 2015
3 2015 1968 757
3 406 1960 667
3 667 1960 771
3 1990 1667 50
3 37 2009 1669
3 981 2098 1140
3 890 1581 1893
3 1942 1369 532
3 473 1453 2155
3 528 1660 1210
3 794 1730 534
3 728 1408 1371
3 1588 1638 981
3 1504 2236 1373
3 1345 945 1098
3 1098 945 675
3 1140 2098 460
3 1269 1461 798
3 1819 2268 858
3 1171 2269 1319
3 1230 2232 829
3 505 1864 1113
3 1865 1749 385
3 1237 1989 1313
3 1904 1807 975
3 977 2324 729
3 397 1464 1430
3 527 1636 1573
3 1287 1835 356
3 915 1358 2145
3 745 1754 1956
3 1957 1665 989
3 2218 1714 660
3 688 2094 1309
3 1047 1870 1539
3 1539 1870 842
3 1494 2068 87
3 307 2195 1535
3 1956 1754 644
3 504 1665 1957
3 1083 1714 2218
3 531 1509 1924
3 745 2068 1494
3 1535 2195 989
3 1199 1928 1878
3 1200 1879 1203
3 1159 2118 1327
3 644 1485 1956
3 1957 2285 504
3 980 2095 353
3 1956 1485 880
3 931 2285 1957
3 1025 1795 1421
3 1421 1795 597
3 751 1652 1919
3 673 1888 1270
3 533 1761 2000
3 884 1105 769
3 1494 1754 745
3 989 1665 1535
3 1294 2294 1828
3 1925 1666 1297
3 620 1797 2012
3 1337 1835 1287
3 2145 1358 687
3 1828 2294 1664
3 1658 1666 1925
3 1269 843 964
3 2298 2329 733
3 778 1261 381
3 695 1261 778
3 636 2326 1871
3 658 2157 1874
3 1495 1943 1388
3 2174 2323 1149
3 1150 1696 2176
3 1510 1552 415
3 955 1552 1510
3 628 2178 1072
3 1998 924 702
3 457 2108 2217
3 1657 2061 796
3 2025 2193 869
3 1747 2333 718
3 2217 2108 1053
3 1801 1876 1752
3 1118 1589 2136
3 907 1842 2062
3 734 1736 1595
3 2192 2084 1195
3 303 1374 1905
3 725 2336 91
3 991 2295 667
3 960 1552 1830
3 1830 1552 955
3 557 1943 1688
3 626 2020 1469
3 1488 1396 900
3 1687 2152 351
3 785 1396 1488
3 1526 2169 484
3 1104 2002 2172
3 1340 1884 1103
3 1489 1576 1170
3 768 1646 1907
3 351 2293 1687
3 2154 2244 506
3 881 2127 1502
3 1502 2127 929
3 1420 2046 971
3 1647 2046 1420
3 979 1743 1384
3 1058 2135 1510
3 1103 2159 500
3 2044 2158 1104
3 1491 2226 896
3 1845 2206 1014
3 1069 2203 2201
3 408 2118 1159
3 1836 2268 579
3 518 2269 2107
3 2057 2031 501
3 1144 2030 1232
3 1232 2030 442
3 1587 1943 1495
3 1531 2126 2239
3 2239 2126 595
3 1653 2331 166
3 1178 2274 1120
3 2090 2097 1196
3 796 2061 1434
3 869 2193 2060
3 896 1996 1491
3 499 1877 1092
3 1518 2007 1917
3 2072 1761 533
3 1348 2333 392
3 1917 2007 457
3 964 843 1003
3 650 1105 884
3 854 2029 177
3 217 1777 1397
3 199 2028 1392
3 1829 1842 957
3 1388 1943 557
3 826 2026 1390
3 1659 2246 1471
3 507 2246 1659
3 1910 1640 1032
3 2221 2320 516
3 623 1146 2003
3 850 2031 1070
3 1272 1932 2073
3 2201 2203 427
3 1129 1944 1215
3 1066 2325 2136
3 509 2016 1399
3 840 2160 1483
3 937 2073 1438
3 2012 1626 620
3 2008 1797 620
3 1405 1403 1941
3 1887 2034 425
3 434 1561 2011
3 2011 1561 1022
3 1941 1403 802
3 864 1651 2062
3 1231 2260 596
3 604 1932 2186
3 1860 1962 550
3 445 2329 2298
3 1166 946 624
3 828 2221 1169
3 2005 2003 922
3 1669 2009 922
3 828 1667 1990
3 922 2009 2005
3 1169 1667 828
3 1654 2097 1199
3 1203 2274 2017
3 467 1628 2122
3 1402 2206 1845
3 603 2097 1654
3 2017 2274 810
3 1149 2272 2174
3 2176 2273 1150
3 1676 2041 932
3 1545 1822 1914
3 1547 1549 1548
3 1804 2272 1149
3 1150 2273 2181
3 2000 1761 224
3 1914 1822 475
3 488 1549 1547
3 516 2320 2019
3 2235 1146 623
3 2005 2009 38
3 49 1667 1169
3 1168 2188 1969
3 957 1842 1181
3 1390 2026 625
3 852 2183 1802
3 524 1286 871
3 1451 2278 1875
3 650 1432 1555
3 838 2265 2056
3 833 2022 2216
3 507 2260 1231
3 771 2186 1424
3 1267 1860 1265
3 1698 2313 1089
3 1802 2183 1285
3 1289 1286 524
3 648 2002 2038
3 2040 1884 476
3 1587 2275 982
3 1486 1520 766
3 1915 2238 601
3 811 2237 2103
3 596 2264 1409
3 880 2024 1956
3 1957 2302 931
3 943 1713 570
3 600 2255 1448
3 2018 2235 944
3 1139 2019 1792
3 942 1600 1072
3 1998 2259 493
3 2277 2319 974
3 579 2238 1915
3 2103 2237 518
3 1530 2275 917
3 982 2275 1530
3 188 2061 1657
3 206 2193 2025
3 2000 2188 1168
3 952 1713 943
3 1448 2255 968
3 650 1726 1105
3 1690 1881 588
3 549 2308 1685
3 1565 2198 556
3 823 2303 1516
3 1681 2202 849
3 456 1672 2116
3 1193 2117 735
3 2062 1651 907
3 829 2232 2058
3 1631 1864 505
3 1516 2303 1515
3 1513 2202 1681
3 1088 1749 1375
3 1022 2045 2223
3 2136 2325 1118
3 1903 2059 1222
3 1133 2059 1903
3 743 2305 1242
3 1242 2305 863
3 1108 2010 826
3 768 1860 1267
3 1424 2186 1170
3 1517 2007 717
3 1752 1876 721
3 667 2295 406
3 898 2130 1140
3 483 2313 1698
3 717 2243 1517
3 1884 2288 476
3 648 2289 2002
3 1517 2108 457
3 609 2175 1217
3 1975 2311 861
3 2036 1509 531
3 816 2319 2277
3 1644 2159 1103
3 1104 2158 1732
3 448 2332 1551
3 787 1329 936
3 813 2108 1517
3 1969 2188 225
3 672 2330 227
3 950 2091 1522
3 1522 2091 807
3 771 1520 667
3 1486 2247 991
3 1986 1146 781
3 784 2320 1987
3 1435 1589 668
3 1484 2264 513
3 544 1281 790
3 1572 1281 544
3 1125 2198 1565
3 442 2030 2069
3 2083 2332 1702
3 836 2288 1884
3 2002 2289 1256
3 467 2122 1546
3 863 2305 1994
3 1481 2284 1610
3 1610 2284 835
3 1546 2122 845
3 2231 1944 512
3 1215 1944 2231
3 2038 2043 1285
3 1289 2281 2040
3 391 2282 1108
3 1108 2282 939
3 1949 2244 484
3 665 2152 1687
3 1231 2246 507
3 1438 2073 604
3 1991 2079 1212
3 512 2179 2231
3 532 2294 1942
3 2155 1666 473
3 1469 2020 1908
3 1399 2016 813
3 1410 2132 2110
3 2109 2111 1832
3 1942 2294 1294
3 1297 1666 2155
3 1376 2244 1949
3 1175 1519 1765
3 1995 1746 512
3 1216 2296 1650
3 1650 2296 1068
3 506 1877 1153
3 792 1607 2004
3 1403 1406 1234
3 2004 1607 1263
3 1405 1406 1403
3 2056 1883 941
3 1577 1883 2056
3 1506 2314 2196
3 662 1532 1622
3 2106 2240 1136
3 566 1890 1182
3 1187 2242 1189
3 780 1679 1680
3 1578 2032 1561
3 1561 2032 1022
3 1182 1890 1675
3 1678 2242 1187
3 1680 1679 779
3 457 2007 1517
3 740 2250 664
3 581 2267 1994
3 1960 1896 771
3 1219 1896 1960
3 2124 2266 930
3 846 2266 2124
3 1321 2094 688
3 837 2094 1321
3 1802 1571 852
3 871 1076 524
3 1825 2333 1747
3 710 2330 672
3 1223 2286 841
3 1203 1879 1120
3 2090 1928 1199
3 1941 2300 421
3 802 2300 1941
3 1531 2239 1018
3 1018 2239 602
3 1802 2043 576
3 598 2281 524
3 2120 2260 507
3 1951 2121 432
3 1642 2288 836
3 1256 2289 1716
3 500 2159 646
3 814 2158 2044
3 1199 2097 2090
3 1120 2274 1203
3 65 2089 1034
3 2088 1758 329
3 1852 2334 410
3 737 2334 1852
3 576 2043 1732
3 1644 2281 598
3 524 2281 1289
3 1285 2043 1802
3 668 1589 2129
3 1149 2268 1836
3 2107 2269 1150
3 960 1830 2001
3 2001 1830 550
3 484 2244 2154
3 856 2288 1642
3 1716 2289 1259
3 830 2034 1887
3 570 2272 1804
3 2181 2273 600
3 1012 1581 890
3 2268 2323 858
3 1171 1696 2269
3 1723 2298 733
3 1566 2299 1564
3 622 1736 1692
3 1703 2084 463
3 410 2128 2055
3 2055 2128 1059
3 1003 843 1143
3 836 1884 1340
3 2172 2002 1256
3 223 1761 2072
3 1443 2312 1198
3 578 2312 1443
3 1847 1844 1441
3 1441 1844 762
3 1181 1842 907
3 782 2263 1484
3 1434 2061 189
3 2060 2193 207
3 771 1896 2186
3 1398 1176 632
3 429 1148 1359
3 2222 2225 503
3 864 2062 1363
3 1363 2062 715
3 1544 2267 581
3 1253 2111 2109
3 2110 2132 791
3 1378 2298 1723
3 1564 2299 752
3 643 2267 1544
3 1191 1176 1398
3 1359 1148 1395
3 902 2225 2222
3 1899 1651 864
3 512 1944 1995
3 1487 1962 1907
3 1907 1962 768
3 1170 1932 1489
3 1489 1932 1272
3 1610 1977 1328
3 835 1977 1610
3 1908 2020 1328
3 969 2247 1486
3 512 1746 2179
3 2179 1746 521
3 1539 1698 1089
3 2129 1589 1118
3 347 2177 1505
3 479 2175 1201
3 1288 2311 747
3 1421 2277 974
3 1908 1977 962
3 803 1713 1474
3 1393 2255 760
3 2156 1820 371
3 1873 2328 338
3 2283 2309 618
3 1481 1482 2284
3 831 2309 2283
3 2284 1482 1271
3 2174 2272 1357
3 1361 2273 2176
3 1262 2276 1296
3 1296 2276 1401
3 1474 1713 952
3 968 2255 1393
3 1317 1807 1649
3 47 2113 1831
3 2112 2071 40
3 1111 2041 1676
3 1201 2175 609
3 861 2311 1288
3 402 1581 1012
3 1505 2324 977
3 1078 851 2128
3 2128 851 1059
3 560 2324 1505
3 2058 2232 1540
3 1542 1864 1631
3 1512 2325 1066
3 1505 2177 560
3 486 1820 2156
3 873 2328 1873
3 954 1266 2216
3 2186 1896 604
3 2216 1266 833
3 1958 2295 1051
3 406 2295 1958
3 2108 2016 1053
3 813 2016 2108
3 1328 1977 1908
3 1105 1726 1220
3 1871 2326 2156
3 1874 2157 1873
3 1095 2159 1644
3 1732 2158 1240
3 842 1698 1539
3 597 2277 1421
3 695 1916 1261
3 1261 1916 855
3 1424 1520 771
3 1902 1743 1745
3 1484 2263 847
3 2156 2326 486
3 1873 2157 873
3 698 1920 1483
3 1483 1920 840
3 772 1651 1899
3 593 2323 2174
3 2176 1696 443
3 766 1520 1424
3 1483 2160 970
3 768 1962 1860
3 2186 1932 1170
3 733 2329 1920
3 1763 1960 406
3 1219 1960 1763
3 2223 2045 1553
3 2334 1612 1608
3 1611 1609 2335
3 737 1612 2334
3 2335 1609 1276
3 495 2325 1512
3 860 2034 2212
3 2260 1221 596
3 2212 2034 830
3 2123 1663 1174
3 557 1663 2123
3 2168 2130 898
3 587 2130 2168
3 1920 2329 840
CELL_DATA 4298
SCALARS Von_Mises float 1
LOOKUP_TABLE default
269356.38200848893 416544425.1970602 413252464.679954 189737482.39456505 193350899.81873488 136001.98450296366 192420.65172341658 161245.97536100692 211627973.29498887 211596767.69934273 39919973.59202593 77996019.41606727 48521.49009170071 103335024.75752546 87050235.86841251 116827770.8904705 116816257.94252379 299375.3279297038 30469997.417472813 244179.0444038164 325686110.3936931 299518481.5246498 384342529.6519208 383844446.7706916 135478484.15043038 127486849.52269785 102376712.3605609 108689131.34921293 171757316.8671048 296655576.7823535 291171568.72877634 373889342.4050319 375291645.80552655 48052521.25381001 8109213.8435957385 231514.47721062417 296656906.67908216 247623971.4934523 247558640.75118947 70244.03308770966 221011.50775947003 168519.86217448136 161236.87515415865 371638679.3196804 370983047.12903666 6810340.766278757 26938774.766877603 21088347.564457595 77604488.82647495 77591399.89312458 5504521.865835271 250107214.30377787 271482992.19458777 45516424.58965405 12617723.212815259 97406255.13719468 270765492.22618175 270666933.77182573 61253663.81195252 110316330.44230622 110305657.09157404 51287021.347517684 95263424.21502447 95260589.24083658 214173116.1681386 214203724.7551876 275839212.5305173 275915505.11315674 206426362.63368022 133110692.5639878 173583442.45667458 135106529.5138931 135095545.00959265 177897453.20826685 177889228.89833042 185607266.43595204 185693916.61574206 339927368.89102614 335978676.5262556 19387528.755179252 53794570.9154214 67256147.59198536 201056287.92090127 201034237.1076655 129842161.86719027 135225808.26667634 48346406.273835525 54661943.333496265 54656715.267611966 201305325.07407755 201295586.8129856 396950117.54308933 320993335.042837 321121894.61286986 173384171.38074064 173368920.67565396 51449069.48776596 407761854.6773011 401398885.1595189 69357.70100959769 53670.87476100134 40217.80201333228 210599636.74410245 166911.99669078676 256765521.13874692 14423613.43491167 115233053.33142614 115224943.88792716 67441761.42571756 59846265.621962 280263394.1818885 199745.48295404355 308454973.662215 302565047.585949 642658284.9317632 632849486.8013549 50843987.48931022 88753097.05068512 88727759.75021495 279755821.05545175 49653963.59508505 103509399.1687467 109886118.01188162 48895475.873204105 9527546.663094893 27718485.69979879 27719794.657575525 79891981.95112337 72017365.59629224 84827641.38464901 77102464.06901704 151688774.9076385 27212344.645469576 27213811.394867893 64132418.058624774 171301048.61405024 278499.3040308803 209705817.18334392 296593697.3706308 438821675.2611096 439115894.4625989 336715336.35213876 338840841.01661015 47739373.27721025 26150108.20938893 26151569.6379133 16317768.708349094 160970905.7277445 70010137.68313983 219386627.65508094 219368878.9283397 480498200.51381135 481086838.5297281 340249.6038536035 1277635.5693447057 3735949.2576979105 165598363.50706875 165586877.0050178 19517758.824466877 8747014.756645199 439603944.0043691 438754692.8856589 21047653.83828072 14611645.919765823 16476487.67745682 23181998.53897048 20947.958364237904 26014.86836512109 252371319.90898526 260464398.4082335 584687977.5023552 580705288.9617957 219294229.73916295 219289124.07983822 108245507.5149976 79098367.03857814 343151468.15173364 331923178.7112227 240631820.14342442 70610869.19837424 122073330.16218872 41246887.43550889 228616446.4973025 95006166.28249611 95004430.96182789 1905664.0363006073 201078361.99618903 201083848.76755908 319917683.94417274 19510629.006140944 19509840.772118174 247232.4550143567 192551876.66211006 272895.2304753731 407198.3905750312 305481.30140391755 11649611.946396092 389661259.8403357 144422969.03220242 9906761.370912438 9608562.184622187 321580847.18521523 320685330.93898636 70260.56926490112 90653.85470972626 245492337.6673869 245493301.08473232 40249415.668701984 230370977.69373944 230380431.60017833 128460342.61773682 139851980.98635748 119081039.93358062 130201052.37585667 130167264.62667005 482931511.21542156 483290078.1176871 70984.92544287561 71471.39456172456 126791545.61066279 126791799.45535865 447758369.8565896 448484200.38294095 603130876.5983434 604725915.9527136 387421507.97801626 25038991.315873343 25047039.498350147 171244030.31774822 169457845.35584697 224317049.02873364 224219011.66493455 219250153.47628155 25814332.527965132 14507580.88005559 30720442.10454621 12645459.299781252 195607.63446024788 280433513.1506827 279784538.799274 1497735.7942562327 2119244.260607778 44811535.90034705 235933825.31197825 235916746.50258464 228928782.1013131 228910375.27135724 252570319.89351743 252553131.52102166 7791423.630998002 6799817.038924948 270749462.7478609 263006448.64307526 339823848.8277935 339153335.5206142 172468355.13607782 7620644.938830218 20747196.945103183 168364692.18529892 110357290.64515926 35404369.47412218 82187.9554581457 198329004.90655765 282922315.7212039 282909737.8540881 172643213.99106243 373128868.3206461 374315235.292726 65141.373521208276 75937.83130422374 4184227.171107761 117398.68897882351 371279046.6706515 371343992.89543194 148212454.58954278 148209130.38758832 85444468.6946107 40004685.1743023 421866.87500979454 3805753.0936506204 30141862.194626242 29667202.40005791 151463482.06366575 72081.18870177194 57892.180066276196 41603.28489969727 26673850.828403488 100324048.08280472 159672209.97421676 159682330.4111849 50666975.68973057 37502105.93978573 173260303.8704 173347163.99505192 126664053.81549294 316440740.4126076 313174854.9631121 376190664.10377496 374384433.8294085 157605285.40029216 14890875.50219437 149649344.5684296 224327.52930738052 100613274.7507853 8603912.903231446 164165402.0292355 184607.16062422024 297930792.56985384 271418719.82918197 184037.45674633788 36249432.30288789 36258683.19479894 368102.5739841876 107127.72673134624 405690.0556633853 329572.11818061356 190688.6975162236 5916420.704603561 33917160.48867253 1695634.3112562983 247227.11356271442 350088.82363751956 280720.09248485224 227359783.57351506 227380294.69632438 199027937.45836106 530930.6505441847 28502109.176063094 329936882.79385704 107466088.87711132 102600949.49230643 76779189.28929943 349276225.69395417 348224222.015899 11178278.358247565 11179256.599844553 12052642.475266408 23403859.616096333 220034885.4888471 220050972.60899565 14438891.840713266 9674309.878157733 9675936.242595881 243669035.9075104 107044489.18600185 107037407.31323192 218729.4362306449 170434.86813885692 131797.07511021916 58599602.94708704 8703886.272439959 254431041.11730853 254417148.49590832 375159877.2587614 372486249.60255367 20749831.402615543 20636440.988913108 37189899.122047655 37196572.85206607 19873.79484995125 34229.38024396947 17424.221845194115 50612152.87904369 55949734.848715976 549081233.0976642 542466363.8313935 87891681.47359796 29942183.877534427 30331980.976005714 107222719.64234397 220373.0663282204 76138.4209353739 422023110.63183916 267696529.42865902 262648595.88506642 349135224.16587424 13420813.708543649 11579188.70247778 210848409.7638895 209626248.65294263 160742015.5230755 160737187.52213347 27749812.706824046 27749719.78652504 326209120.0185218 248256.0720737939 396271595.64255923 326195.6580875956 128787909.55643319 9791119.744059408 881669.6881058863 45186419.99400736 45184272.13274416 342943476.9082448 28711704.750930987 28711073.975190908 121401508.30034803 118498833.58404908 363323.4803152943 189119801.96099794 147669252.9677449 261388629.02220726 258897533.90847066 291866395.37832516 187793.377216828 57318.34170328675 76362.61982387964 72645.60955176552 75523.35404487434 88060647.23535833 83709522.85010803 166424.5190072137 207282.80989456907 92752.52278255322 216346.39524088943 83535.94946336522 263719.9474924491 278964939.46858925 275427464.37237 118913874.00898299 233480.6891870663 146337.2644102801 179926.9550595141 197699306.8816606 64278.365062306184 63837.6668616693 293876095.3058991 2210208.272270206 113881277.30419137 25973780.402583838 25973047.398514595 211709948.1843293 298880562.5332844 351158201.0351461 298102394.7529275 351383752.8639702 168002791.5224249 121565987.0223536 142876.52924308 188946342.62494346 101510239.36642192 101466642.96194449 233116834.33365494 231400613.02607465 76533.66044883397 74806.54933126092 9759530.850351168 25984789.029701382 120856513.77607615 21593655.803656947 216303744.05697358 61611.742534245896 37999.11106431858 11072673.44799255 18953141.566607762 18466195.915254936 172959671.78667012 172944705.52970287 13583549.041673748 138519915.12176028 133747576.68989769 177479317.96055475 171872477.94075236 7017891.978465127 4961613.038532886 4960335.706848993 70775064.93685088 10566130.771019118 174600.08529973542 151746.2155935214 21409.955669128445 167862817.57505897 230574361.16302064 38011698.91396862 27848393.258511413 32583353.24780613 43062250.90304249 214823894.2417424 214817343.4047268 78038564.35450533 322682241.2321537 440664505.10538906 440396887.0362697 201212002.3897607 201447767.56885764 216920682.40204698 211919237.07128778 14356297.883047102 190526341.243524 27724957.752267584 27722939.944845825 416475.93050718063 48613113.355840854 48614754.3666163 80442774.27463435 80441787.66563706 287140388.00469494 282215755.16422206 76040526.01535408 23038225.23940774 1569799.1642455803 32809755.591298174 10955171.565540768 337288008.87836975 337274141.1765414 365708780.1936765 57201841.06349434 57199589.822213724 218736096.9745073 218718341.2225892 78376595.9025465 273766524.88776773 273749301.73988134 116301677.93189372 188236.21715632355 165805.1759341547 17916.29789124659 277136584.9621145 277123074.1030338 16254893.171003118 6440456.823368965 224577525.75726146 224543704.84558755 83905142.37632565 49007068.93482224 49012123.012850866 342140272.83753294 340926878.51335865 15681873.121699274 48402226.45946889 48402438.666169 6982486.266534845 6981808.231985358 143068361.68161875 72738406.09706627 12193607.022216618 8528540.657763034 37985244.29976185 11798019.354622168 3753246.9110586825 223000449.13745973 219535178.50105554 46369812.78763179 38080551.16962897 38087435.6563409 21168743.356755637 20052375.588878796 298564856.2303022 298553680.2164276 17274.585072817215 7213.693481631445 14467.586439740207 11986021.023936622 263661174.3655191 263644564.77792662 216821346.38948438 222212964.37208575 280813318.6239507 280797706.5522861 86161702.67181306 22336990.158893604 16195529.676947273 115867716.48853616 113957080.97207335 46464432.16054989 46470067.07894923 59214868.86165694 59209032.12271428 27006490.55241077 34804082.92453222 34809094.411945865 280760.6496869234 7126015.51834361 7124805.1774925 417308229.18188184 417832257.0384089 60734934.50927171 77848145.12986259 1555703.5567008287 12045282.809762154 54738078.513523936 54741561.04739268 221380.3320203434 172057.4019522567 138266.94628247118 408750739.4381998 5975214.315791034 13751900.339383174 115411478.40755986 39154533.58404292 34260132.09228785 159183586.53037453 20811707.374250297 26643653.42413324 48522966.868424095 48529155.595798366 199887466.10529366 194835004.08473238 120125168.21583465 120130080.07150961 348723239.3547685 274017541.96086425 26574602.232826848 364163679.6901318 362378507.8506267 4062229.705686911 29821.90889826558 24746.278962180488 91940214.50211701 434594250.198 549186102.2878852 553938842.580585 239374.48716784373 119701571.09580706 42488741.15764394 124510471.67787834 161499497.2059969 49748746.70221195 49753964.103830695 77728062.0468777 34479941.766265824 40885935.570142455 46188305.52897888 36220880.45128181 173089443.95409822 61123354.3744221 199912968.78763327 5616193.498611156 7559565.1188565055 103836696.89289178 5093095.197046578 253111538.8303409 253071793.2613922 99112709.96201962 99921366.68350321 39992142.810016125 287598938.6617218 10458273.575105451 42402936.514584735 2767625.9750715527 131528947.37104863 364643.75903096393 243675912.27651176 239184822.6603326 69838715.69495028 239666636.3959579 239700241.50373235 44695437.74267739 50029725.00699082 59850150.17129699 75617721.31823768 30195294.86454541 30194249.28776366 71970800.29197893 73526537.93134937 127484.6051283039 98460189.96713668 105486108.06179307 21684318.430164725 64563325.44639045 1297987.190906653 3403712.0970128467 10505581.407353552 10507298.901829086 23643751.726031587 54601752.21069727 1932225.5119760933 417229135.60669464 419258614.1611066 50682729.17889967 72010061.66635872 93834840.68229464 185841.50609374017 80890225.85205428 287317740.1544192 290962388.8501969 911710.2243973402 507434553.50250965 507547100.7217536 100422958.62594748 335644947.1223805 75063766.41545564 79366774.31368843 131026681.73807159 104988513.04378678 3647075.2880451526 84185488.0086842 46033762.909186535 46030985.90946417 957823.6395904609 417907477.9596987 156421598.28732133 135495.8012882377 550388492.6218723 555355847.2115983 52123.36108020258 54898.59189609266 1272229.5760726556 65479.60182813649 144760.6804373859 31153244.12411116 32140407.644451465 38622522.58845794 37484706.86900972 74525167.78299643 7826679.837254979 210437545.6132832 166776344.98081562 164122150.8175434 228578294.98191264 103225186.86383139 198360.0371737821 4124846.5333597814 364675663.861336 366150611.86478233 159929.44701911142 88125.0090534913 149525348.67242727 22105611.720379263 575016201.0489898 567921106.8509877 303065218.18756217 301618724.59889364 251762336.87936944 249012862.47109085 20091780.528982338 31687632.384853154 89495984.92026407 500156186.0970295 504668386.52925915 6713224.060928774 4033709.3661506413 25287682.677636907 100443891.72703527 169659777.07722062 59540959.71003008 46297304.25605348 3183225.1128268195 107459.1082186055 29433966.881335456 29436472.62384786 207697563.94438776 207724751.01255038 239040270.21623638 239019415.48068887 64338329.80623248 68390749.73887639 103502139.41288836 108259903.12702708 306851.59171270055 89332426.97060996 84623838.29781678 106450582.43708384 182162877.97399417 182146967.67939618 35829382.07461223 41159347.55544153 149921.99291008245 167793071.25198007 163908805.23934662 73432624.21677646 80388102.36739124 3778205.2328661312 237709641.9110318 237748283.2478311 104419576.48815577 261013.01653145402 252026.67773600837 449533915.00338686 448532925.7129377 25847437.204707384 47029807.90036704 596082.2596541207 174158.60637244707 154481.71590351666 120642.197983073 91016822.41464148 87378657.95685773 15491.323934175805 113824860.50647944 108940585.23681727 76113596.29701512 54311291.13404766 58410416.10516961 71390358.39092045 25769683.47346297 25766234.204611834 332258267.3847286 337400597.58069336 17363083.181563858 182654365.8195058 187873711.93300456 6974755.008018408 28478.410066595043 27849.918303847036 17772.932120047437 189643.95897993597 34411.327770639844 201435.32393036495 117912590.92102747 113619696.77423623 19851.70301595375 148008.00601859778 163228.26859915498 270673726.281879 132518933.59375563 132509375.88140735 27543667.499784287 54368083.67671982 59633586.49908967 157730980.29601592 206760333.854805 213061342.0043308 171438920.2556677 176334560.36624286 86096395.40442945 7917947.4768585265 171443204.3082759 280881196.1735302 277356293.77250594 77118949.57658575 65081543.20280085 332998033.4353423 221524.19987114408 54491090.70917054 54487184.46380847 71593741.00865911 71600249.99678811 101538091.10391738 86564510.19840516 170360204.53596473 170346704.77605015 5184370.72249853 150486885.07660535 150472294.51635617 7193851.568530587 35036314.84881506 35035385.774325274 34314.795990941966 37733.79360564694 12698385.05004083 25305682.425578307 25303678.320245765 112607452.0993225 107897401.46424335 11834057.715258073 26148.332326752792 160006.08233127173 177746.54147778943 6284269.085389225 61243473.734917544 10394001.817413557 141823.87874348313 464588.9452490288 18505204.426283956 18508112.34380385 203618309.1484473 288497384.4867478 286786519.57007486 12972926.138146395 185107966.9125481 179091538.0819438 239220288.45085555 239181396.79070166 65426664.09304369 6337199.0719126845 9737573.151707424 39120094.18708486 39126049.107985504 85331274.2357627 187606.98008188774 7969007.756218894 52464813.33980513 62866428.88658561 1886251.571857804 38488436.5534 38494604.950761184 253022064.42320174 251931561.0802215 153962785.08072978 9034446.510939667 89732017.86272508 89732873.82272486 86293.82423940394 66762004.78952166 71781159.25140984 301406255.45391303 296985325.97627616 26262277.644029167 26265240.4398695 23290876.836188044 23292680.458878662 164633662.1571542 218901646.5131048 219888.78869332068 238739.43770729916 52990552.15769147 58394497.70405904 61714623.40213609 118810.29388631514 10333436.225986868 10338268.754436329 403636980.39122164 400432076.9166499 8230908.015922053 347082615.55303925 83066182.18549836 50966547.558303215 55977088.07478937 56145860.15240803 56150318.26190641 22191940.563905187 22189507.269488342 12177321.353952209 1469052.849896089 59367745.092782274 87215216.82833229 87222849.45798033 67148189.31686385 70810410.85985777 335106.9584135232 55617108.47825959 55439149.438809805 510286090.7054034 513659249.28745943 85281869.92762409 85259707.36019625 134137648.6900366 95712105.07713507 295698.3287739229 53026835.61483588 41030565.51052085 41037326.52368325 18569799.908207107 28373.75042518159 44420.223513883015 58871.04905848063 51029.43005279913 22381425.601218548 105302470.89432882 110246279.43244661 53590561.285444066 145450283.5884993 145398700.84654555 152639057.4701766 984250.34008392 50939758.83375634 11562648.015141396 35167.836145865585 51840.8538287036 25854.135837247755 49546407.05223374 156646815.35322487 96885943.55773026 92206929.8639161 364735056.937775 426669867.2685777 357390809.2188407 427024588.412152 20383418.838448435 106211953.91864908 54094868.17705552 256861526.97073928 256843857.2644424 50728873.21225732 216143332.78731567 214198454.11213526 308838498.50971895 174586.12407948304 133860450.1439403 127317298.7620826 500865807.9721766 143189707.68017069 98491585.95238985 311075398.5770715 311055864.6802403 476299906.14938784 120711275.4354897 414105164.36796635 414692852.36746234 472634.296237151 73476596.27708748 73478486.08591379 88866498.00241478 95280451.84672059 50515783.47422479 23304.146066851274 8323.31723667476 3708.512968875514 7618251.9451190615 45679475.907111086 911715.9267483958 3748571.053055726 28928407.66635066 236495801.54321718 95324107.60586548 100475326.61582409 4165463.1980173565 203955.3403338731 66131421.07110576 71014028.16382974 72181089.6649372 67247393.75739588 267507424.75095987 267488326.17804515 71108800.76206133 4084482.4202595763 110980701.4796764 47961.144131899004 4184.945668129103 25647.784885391466 196638.7721484671 39023.145891217275 225231.83305290906 6546899.777239208 89859181.66366747 90028553.41727303 91695059.70522588 86719311.34715615 149753526.76820037 156319114.91933697 159606785.52957052 164052453.66291347 35815945.38916922 512205039.5150242 515698445.7233199 128491808.01707764 155623685.71511805 128847040.77584654 314130536.0844505 2459858.576886902 45948765.779601365 45945055.01374237 312443834.0478946 308837600.1829409 515068436.56653565 515246998.0643764 36751430.51668105 26974681.97600634 3065686.14598618 612851149.6676985 612844272.9830964 118369757.49318907 292169.6352799167 45508258.03216794 118765.52547874587 58660092.013169825 3013858.552576429 66434212.994480245 31462574.205323707 102775018.34968746 41182720.40427791 41189373.94670747 356735803.41433585 76662482.75738223 56164494.0767803 221187567.29621628 216302480.97766554 70803027.47231716 147677268.6613938 66097733.20366321 61662265.13861764 23256182.21136933 59355930.71371112 299243.50084977935 295569224.9513166 125154270.40185316 135932524.31947538 321293.286106895 31458.049189205925 62798.03609527824 12631729.210335024 226673709.27389768 221779635.00561318 114121077.43074088 125451.86142484985 143688.31498448053 77141.33254047504 254597.73051852328 247412.6175993976 165507.33001731412 223345805.81381357 218964780.09213245 214387372.43618634 231161.677913701 183163.8869036579 87627.85252450868 21460440.533877555 27201911.565487437 243546922.6958566 248086543.2637505 175246481.28467134 504592511.9599837 436646894.5419547 6702687.082079549 31607548.68175622 175045.5007407123 11742805.350426368 117328182.82663275 98593737.39023544 130004344.67274226 27462955.069216955 194074317.35394374 187957339.54605648 37157041.497156225 265011019.41683376 289363128.0874896 300684298.75368726 201428309.61904225 201888100.06801248 116879905.96211907 116836537.21047768 89540595.7035476 5012737.892720891 5013668.741685983 15466032.938497702 164411137.80553114 160677456.53773293 164146.60220116316 170911.80071775446 104591.99524590214 95066711.07214168 449852497.4913865 197961.01555145188 150756060.61883762 76108448.94210373 64606432.484448425 22918758.08305779 169645.95231790582 143336.32936649313 33880.87190493075 15175163.546285419 14570151.295123823 20974225.654908344 20817383.31406492 153838.30041748227 41245.322640788756 60026.3145265267 71908169.51166916 74147030.4133943 2707552.2221956486 201586882.9660991 202075003.0811975 164395360.2854013 495665364.14117485 497085205.6045397 208883910.60172847 208861392.518473 232949.21880921008 542158075.6675338 542219403.413329 310228704.2711189 49076330.77650013 62671312.034548186 33884634.65344759 270317997.05248517 270298968.88290584 1163557.544526418 12682032.21429616 87999068.48733926 84436132.78420192 134943652.93927577 15916272.211023273 31647392.708967373 31650692.00646483 182458.16812202753 150947.6907054251 46739.477162002826 66051460.782058574 66047147.3149112 46844427.925822325 46889527.54288162 89719473.58088492 84861985.09392351 95744483.69310926 65865822.37603721 47898463.5136685 1948043.8667082635 116844.123551786 209049776.05905107 208657057.95633075 119170182.92831779 3178659.445460192 3484552.575828825 3927432.5969989873 49916450.25908889 5459206.3904525535 327534446.8572481 323987463.5763565 142454.10864489572 173290.6464768117 242073.77605287064 12757255.54539005 149538075.02725115 166755064.03842035 365848258.5486092 367555444.3139409 738581.4031068804 113218.43704967866 102711.26147419547 143967.14204450577 173933183.1429705 497433.6307400477 29352.002945065782 102298.99237377498 111909.22777527565 71946.33903343657 79842.79380513904 71126.4669731715 60015.16302072481 17049438.427954804 3825524.2202518727 46554933.31371255 504507110.067742 431954788.2626839 6565080.919931167 187079789.79101416 187055982.65399632 214125643.28268865 91655872.41424774 363751785.6473153 364294778.6404427 40378301.137486026 40374862.669583306 148368.42778780157 64546553.62276812 76347550.96416812 458955467.39691275 475507725.3490965 264973828.02430552 8476652.428142 342740.76009598887 1830206.1175353685 250743087.1386631 250724340.7676488 361295847.53944415 114670838.24532908 213944775.04748365 173873308.29208288 173851471.1266623 274639461.6221136 274704580.81311953 179438128.28813845 184357174.09188986 30635721.38055909 59312.11894398561 92778601.9159081 217291389.94618618 82895710.68041535 2988036.694734859 27033.88903888062 32289.824420535137 539106912.2674414 539120418.4556075 376474221.5786587 101266.13100150813 16832363.65233139 231757542.65646905 220664157.68584734 47553369.6798396 47553273.37829403 132219200.64924029 127381580.58368087 74193056.86226663 301109920.40190625 6931334.58513137 109572031.70187995 112044595.57470079 40084331.10900302 29060.436821891075 23101.590978630586 27892.669764852148 141711.0993537838 35049.08119665358 150872.86693965743 214442338.67916596 175886615.2345603 197669818.23344058 218237911.96063745 218275327.73994562 37718842.8403812 211096774.86772466 211106255.86362207 29658949.17037195 29662556.82116734 242998652.0621595 375970430.8593178 235211.69167539064 17354902.765997425 172154935.38328528 164314593.57954663 59479408.97513493 59476006.22427921 69214982.29768682 136991614.17748842 137004415.11763757 34124567.39297837 15891353.02309769 27194940.285879754 10609850.312055327 471227771.3758732 525205863.946392 523906086.4684332 8668848.274816114 40016585.68757795 8245509.432054825 47217851.72744829 106525094.4205546 8218056.87007173 451305124.77232563 386937356.73955894 65148220.3344787 65115662.707120545 274476.5994672474 481112610.0356452 74975.10638301757 64613.43598126221 76192.26575866921 72109187.57775384 24295263.785046175 9542684.052654715 289102.414182666 129376.1890915199 356494.26173656667 53879302.84793652 10124733.106129628 168287.68998202516 13072568.02362123 68575152.64405446 265096312.5360365 265076856.83807656 235238037.1950609 235459549.78347814 42345981.36662704 4500829.731465188 15763.214461760104 37938.10709625252 36491.356815429346 311710594.084566 310636993.74505067 62639127.45866242 90404966.15324053 481462434.6734318 481500845.0605242 7007705.91239084 58626149.94228302 61196076.51997283 445996586.16116023 128366584.8550927 4293267.215677855 188374823.48545447 194182382.62667528 73808018.86362948 73767959.63981356 143100.1649472181 305269887.92371 305239124.4990854 8768093.346265916 21675022.723279934 21676509.45146606 101099276.38256663 57308997.47199617 123826650.9689069 128833826.39293045 307103880.8541948 300626461.97197485 184301.58922395448 41759846.388285264 29675977.1630484 137917774.02952194 176615.0295635038 418769293.44543004 370144894.88836473 370154211.82054466 166624.41916569 224631265.39446476 229708584.77575955 49882586.45890241 119105.4171386415 666945.8216564346 11849495.872032898 11849256.846540513 102392.35804553812 65202.77665227186 91608.29782052964 163157795.73914173 159077515.2175039 179951.49702651147 96534803.30923063 77755034.94872797 77751637.6357365 372766308.81611925 372754431.46815175 106976617.81674266 299318401.29037327 86490542.12227513 54247589.69487066 6657235.742138469 257019247.72458267 46052745.025144204 45440352.93579287 25966684.49013726 25969400.71375137 436690973.6461134 236363214.7518363 236343370.7685616 305856359.73141944 245661415.77590236 245646035.74593672 6128950.304345519 145436755.8845019 226632043.98966092 430939247.28982526 291772.2320254686 17917155.989838302 44071378.16901588 185967782.463625 20299.351483959523 30047.293739167082 35517.10000988531 44541303.00452529 44538937.69718397 493707800.4043293 488586867.3397568 437683806.696078 256617990.1097517 256573909.22060356 208726786.320928 209208831.22012112 238701644.4159627 242764206.55209762 22077169.43224686 10318950.850339802 147029.0314025721 145268.50037225042 196485.19525407988 290784936.4493325 290776095.9922147 39994003.985131025 39998950.644967146 109302606.23726209 109328628.72482033 11198134.185901977 7254.580395076102 49215586.99207466 70885197.04112948 27300677.51646496 27380774.68353648 50717.7543744225 77293.35196391265 44743.08366194817 26135010.4399646 31773012.853145268 216846541.10503197 447502949.2979688 213408347.73159122 213375402.15326777 133965730.66801582 137461744.0980769 7453479.723903142 296710013.53300226 296321340.3114352 108613589.37537959 20620279.31037362 101345.32580700712 11591.024423536985 73567065.70977749 190459583.10675994 13523154.617507113 59394379.36817824 100576470.30094711 100571027.80683286 30792494.68122084 18437864.89601702 105358965.56479797 109029383.70157447 69109185.89032646 32350943.26313002 38004416.81004645 39189775.17137372 96218.82862971027 79287139.57370001 79294534.55857313 23837261.772853922 50502656.94623044 39833439.3404749 314854479.9253282 311501044.6371562 1541682.5204212437 102307486.7649435 97859329.14076114 10657267.662502198 23907.927469808725 29758.315872334486 22187.830116864377 164362664.73790732 526643388.4420784 526396401.9101121 385779268.66398084 331753977.1722462 387289311.51700157 334990570.1082411 85835380.60377371 211421275.90652308 11067447.521378325 55491212.39094833 151084141.99978662 6807752.217792005 2990825.5785651268 3725650.4944800204 34916222.77085236 34913953.18494336 207062454.8708506 191882818.89620882 9727689.32648514 201278.9501981415 172926.07576568873 37576.582755077085 62325710.194915354 62329876.56139795 55555.54806763645 52731.61762838833 30589.565899652138 209065298.3884451 209184903.29470596 54279561.880064175 54275483.50841282 68992464.07095978 263837996.22516108 869537.5968743087 2027857.5427379084 119021503.63908373 119040422.88563614 262278391.29753077 401084196.95288366 2385924.153443034 237656381.34566334 237848617.4269048 67634.42876641691 58270.009766390416 42635.13190762386 226942776.60695872 226923407.4959402 162983447.22553903 119710522.17603049 119703378.58388628 19583654.74461521 19580555.361774616 69959243.2320451 75700266.93290533 57448.092791387644 35690.754667571106 21201.09448845063 33664063.5032001 33668573.50026736 84538336.60363145 80043382.81002797 8729.068574461571 23523.785640881866 18985.27276325715 75279667.21875712 52733148.093220234 138700814.460214 118749.51774920075 34061351.588346556 34069549.50006271 216738230.6453692 223699385.5235827 131344597.9376451 131326308.47294214 67005357.849127755 192576.38976902835 11433682.09294822 16510435.794775922 147737.10829813415 545394765.1254084 551637061.1269522 332710555.3262797 16994.52648385827 35378.22274890874 35618.10398809103 343455639.2657312 343479480.1333308 95279974.01656978 8262073.396130467 89035463.17233993 98788661.86200398 37812876.66094844 31588207.829045624 40069093.83156791 45153929.0494022 638947.0275458994 213610021.34580466 213591624.5389094 22540113.93455648 22539976.216866948 4377882.618576124 477975502.8866778 145745284.69133288 463224752.2222764 91096904.90097748 109402830.3455191 24619085.884078477 8146245.004191877 124545413.27047314 131682628.95617108 2455301.8301872155 6742958.938476376 327358152.25909215 211438362.22841564 106160126.54817827 420480184.3878868 135588916.2498242 316206362.085776 313951338.59315044 155193.81564610443 258238253.81741318 258221950.52598706 30502945.841653295 42871577.25832045 13243593.635839306 27537949.784805227 211227404.1676118 40402655.19845646 47748245.43582744 113952.76640510671 100973.90620296788 74445.5295476635 478322261.42016655 470435791.5738545 191347056.1514308 239972.2278118197 205379.03085073523 54564.14909296492 2785029.5605024667 21052.1737749651 20993.57989979709 7747.957966284823 120487455.76074336 69006379.46662223 69001858.70988908 477561589.62551165 478693023.5140011 91823.71646269178 56344624.19040575 52466491.02175099 217539432.6755364 217621456.71149188 319914671.2684571 312956067.056918 158154360.00860214 158155799.8541727 41363525.198791824 80705567.1883207 106867027.32726261 15042699.716992151 7095144.449413087 10508605.62444147 126725222.90290298 19252.100472817638 222279.55885345506 199839.96178097418 503173632.26318157 23520244.434273064 346325559.6407062 276077812.6792573 13961819.69267927 187698191.32406765 314391983.3397571 8679821.164235983 8890438.824438622 16314370.370400667 56480870.06731147 217410783.20858875 6535715.624807289 127223865.35571478 31875027.95951023 249121895.43866783 228527310.00706708 150020712.74838486 221247498.37542552 221226181.57733554 162964717.77584234 168163931.72854242 109292789.82281701 65510919.47031261 73688537.24328278 6036246.0171154225 364355332.73854613 365254596.1359773 76004.57051285745 65369.0365137336 84615.0657188485 75647463.93219386 416322656.023768 416714518.9992239 143358.37067053685 250759643.20716694 253315875.17761067 172977355.05156863 172963812.32712188 36983761.67251506 131856838.55069552 126991901.03188677 58158916.218867846 102683821.51862848 97636484.77452718 67740970.40338887 80775.15167646258 87981.42910768508 238999909.8639183 238983206.81630832 47194228.908637926 136411740.27918637 19444479.34636416 26142673.23116069 164070844.37665656 10340.187204906266 157313.5699788025 169961.6286237037 283438159.9551874 282295385.95419776 105209084.77449529 110252531.5653947 241935514.34155542 241918291.86219692 27045648.865828373 32886287.819504604 142699780.8905039 54105.64792474982 54005.61459624571 19328275.36363926 250703.05281961113 122182790.79208119 313060834.0214619 93976751.31716043 64784.71700891979 256785189.28140756 251812541.29994208 527910333.3669399 526624941.86188555 128644859.96925113 9858500.206758076 503955441.8607743 503958704.7387469 62803.762887329656 90644.56990287996 548233423.3021983 553002705.8981941 183538.49400586667 58934571.99193631 6138815.487291646 266629143.16117784 5163967.959281859 52381421.9600959 356123186.36262596 211296751.38634124 211913267.2162741 32243897.574577916 126809138.9719132 291527.4953242443 288619402.09966356 32784202.3260848 46946262.917604975 45486943.56012732 5407910.854539331 151625868.40977854 152818929.3991115 2873346.997930198 154710606.83233935 9230555.647848414 61243.78099288229 87962.92583168215 88932.74937182675 7576407.3292932045 69217038.04638791 69210048.87432219 59058.19145413251 88465.29147584584 96425.02361304568 152091.43095593265 629652878.3060074 628769798.1437052 603149556.052688 601017901.2344282 158484977.09115735 158262861.452236 17717527.59829673 17719100.103548076 48998255.39969702 43521184.011331074 33819895.87761874 39191832.05706966 178906168.22165886 57061605.38843931 62387951.347838186 271395874.8308464 271686861.58748513 193381139.40674874 193364704.62917337 43442.93668382172 137306.96188050875 88579.38135578444 432479005.26519674 432635195.1000807 25333850.96697451 63282.57929152724 56351.99732150571 46102.41905124092 34814.7360342314 21210.127373927346 37347.81400216156 79655792.16991699 4381728.890950536 95779584.79434751 43057037.85701701 43284912.40705385 70784035.88646007 265191.6494025004 109571673.98051661 109543345.7823954 192258609.8677961 272505313.470564 8400505.445743576 44568.75276798889 18456.1129503591 211291.33607020666 30686.921473146976 38771.04117648186 230130.2007469676 86843.3780760692 22393.975791469216 106018.03001407566 32033787.861678727 32029114.189423513 45448960.65527656 440907805.1815488 108003219.05474438 92263.60036927198 62589.711430135496 92036.34380353424 79687.1629168781 24604915.39942571 270247568.9104824 270350707.8497581 12106512.153096378 77283763.56726697 66747322.729300104 304405993.68137217 46471628.64811132 46470568.81187147 7620823.902145349 241592.55693993863 80576.24501200793 144359.7271737683 101718.79138112217 302276208.6794 313144755.9904368 312487756.6800406 52039466.8207126 170182674.73009777 19439.319069525336 25119.187799901472 9987.549864867855 56318378.3114832 207344750.45854577 115922969.56505683 115901827.39265935 161746068.66966996 162352797.84305674 141850.39629490834 4449364.628519564 421905910.21169263 443470918.3102575 16628206.746240873 16625666.482287347 168345958.67962128 171409759.23844704 64598.83148904567 104197.59593832973 90333.22948710872 65085753.27627441 65054972.92511303 325775305.09282655 325829659.5022217 310250449.5194942 310301886.86816764 335657690.09857893 363325620.23090786 53360857.08219109 58157021.95890204 769346211.1396842 769329116.0933747 36439.65638208098 40796.31802085626 221619711.07388273 221583616.86236727 746029.9679318873 571246748.1977785 569254178.9717404 55545855.21217502 60494070.15123163 41815093.699737675 3784340.2385440697 4410502.657194721 10417472.905799229 66155.3225246782 52271.05333536791 18233406.992384117 272253480.81705076 272203614.01483274 7891448.619005012 154224967.07533574 155103833.70733124 129069191.63387835 129057132.23708278 258883085.87819192 258940110.75322053 228706571.89790636 234163576.6172736 103340535.12639087 15952593.18864561 15947237.799471289 83707338.8195482 16152692.004857393 143821.73107142388 40325108.98713757 265236.18220111006 124287444.66518122 170829112.9957229 27496.348735646166 23604.24676953849 33772.78258151212 79317353.35469975 866417.298714701 1390554.9854476834 59315.76447647271 79797.13890070717 85074.46300572596 22702418.7194507 16772418.459865551 170621310.08169696 175326208.53131574 103899455.06105208 12047660.612823525 4453996.412131263 25890914.41414791 25889887.11268745 84126144.34866412 113607440.44027975 25898542.71781805 12230675.198263314 93111.74439461803 66595.09579382227 100334.94447304317 162679142.41573825 637174201.7716428 634278036.6019257 31242052.299573082 31246503.20895716 512973.7150766872 844017.3115228714 86063.39608700728 228886047.57972056 17457554.528918643 352091895.3651975 364014644.06531864 364031013.9853855 48871973.59783296 146803145.44983876 147314198.25116584 13261991.4456987 19880397.11272316 96354528.06331503 96349178.76130374 10608.447746834901 30977.2659987271 25385.45297555934 32259942.79768419 26496388.16755759 211447393.85957226 215494216.36336288 319256621.39931154 319269195.8546926 184770815.20970142 189260235.17415693 159314533.5006014 159308301.5530953 96864312.92663437 40126119.66356297 1688018.2393247278 227541570.17966145 481690495.6921325 483068003.44755185 34632972.94788391 27049251.32561669 32848599.780285005 135463058.51920313 656491761.7956657 659473511.9019028 251536692.83582142 244748829.1826899 254307337.32453477 215936622.5062099 7210833.845749023 185272691.98585972 185247356.35619953 2398055.643392593 302866788.7277459 84358013.93868814 79391504.92789376 256430956.11771986 252674845.99615964 227766.42734733698 273689.95536273497 78274.55127975495 394947.9584364956 273872601.3920466 66436350.91062938 66436963.61131748 31755678.978748836 31758979.343001727 201789491.73173243 66769.91242674101 76366.5697039314 64824.12229273873 74978.27184428237 255137381.588097 60155101.11993089 60160521.844176844 632803178.4563184 634430157.1561215 6262513.36059289 169033.27701256852 145259.53972796007 42879.42211359164 179663222.5034478 99341267.42617305 278657984.92197746 272266719.3305799 204874285.21461168 150059378.6319345 8817168.04366773 6448743.042537459 102806392.17634314 142653970.67464113 315004758.34162873 56303532.21583688 422065826.8418114 185255.24124606478 61554535.763022766 20582605.671718825 3655017.150169379 160483450.59056118 160049543.0642627 142499027.3892301 9650019.610504443 7711231.382408622 42687421.607896075 16035093.63370413 16031302.659281977 81777080.90834309 47129745.17335549 4251819.403904422 166406915.93142223 144386.95871026517 134434.93323535332 32420.28143000713 59596571.5023602 46339039.222482935 45618101.67205727 40768067.34052481 40524157.54271677 99774.02389977801 45445.642483070755 95111.34887604375 123590.40112611813 556160851.3731974 549559704.2150954 76039294.09318507 87699792.72983643 295329.55536615447 249919.89387703905 80807.43871507687 479091206.2361464 469913754.8031944 181293454.39610183 181286166.1996252 31776910.472534698 31774417.10269703 9996.217620909272 22003.315603220046 30904.25849512712 84776.49439682114 171471149.24813986 2686720.438529029 215185.70349668982 133954690.92719093 128824949.59569153 11365054.798706586 161440029.41278714 8805762.14218808 81307223.7797954 105330096.04363409 105321614.29305185 243705293.16911355 8175121.791753826 26840956.5060912 32446725.018659472 275735558.0316318 53267429.733085 53268960.277512506 9098016.354224922 138732925.48361108 138757796.34369385 80289370.42298542 72843244.45726924 447882237.4893309 447732249.276151 295909571.7383195 147605936.9594093 147618925.09303036 183331243.6205093 573273.3463199143 115614780.33930045 55117317.711023726 253219808.33399165 496522206.74835265 496721447.78901964 709873.9813322538 160527991.71365237 160531679.23000446 234811.89238214408 6144478.7779245265 51278144.8867326 498214818.68903416 498184573.0375531 600702712.6331285 600335589.3517425 5389859.687348556 154594721.23163918 192339760.1301305 1443178.4085971352 3266234.570175538 236813585.0685477 236817816.29145443 395342711.8249354 255207256.81857958 255220345.8879951 2959291.364636067 97681089.99330163 97688578.17510428 126460692.77807128 126446978.22706181 1787203.2279883528 390224093.7610851 391032306.90874153 137250261.06550163 650127.6116056066 535067983.27604777 533788785.08568996 214961627.6319067 214950262.5642019 40345059.915192015 45588722.814135574 470069.176879766 1121627.7345024582 129237000.1186207 129223397.37369198 327700808.38347495 260834538.01696143 332778609.70752406 72446216.5466879 324113.8662643483 1127896.0601134074 441957.8654730839 193194954.00151497 58904989.42738937 57379990.83513467 33220219.793810666 33224142.750971556 221369470.10131708 221349885.36614764 139946636.51995164 145039853.3175471 473535188.081471 473570065.4846404 10095100.05134286 386701446.23265994 317740946.73454267 272510350.25000024 61167667.02813388 61172837.46738186 26034716.813444972 26036635.244187344 2547265.800272433 403022392.5536805 403383122.9797338 16801242.635424852 199278.71098405472 218571.2671879756 9371.964741668622 17959295.430790998 23063142.139294934 319714847.6219219 317842528.5055759 56817007.77819836 38446904.327883475 28447318.33076047 43827307.518970735 34138502.47880401 44701808.39901434 44697172.42304953 39573180.460667945 39572324.868250795 246665826.01070964 246643152.21670893 189951144.2627171 65389666.21439169 65387686.182987265 122444059.52368869 122431357.5138945 28813124.717791513 34346591.65884722 22661533.272445533 28989637.60546582 112276.68040665255 61178829.55169186 11655348.191101529 14369207.301406315 113442149.24376453 113450928.83473758 857080.0349508362 41459.53496099403 70590.85961605063 44732.99767638066 34195774.36563065 5924454.959663517 40423.511746559896 24901.095157947333 50179.91332264842 116841043.44192083 116843143.37666625 75263.66972624433 121673.04989499744 140050.02284976648 956727575.0807737 957084038.5544137 4484027.153396251 54330182.89947485 110716901.45760077 105977456.59639287 89408.89390598964 166675.85772263916 214785.45807722432 153315289.71891814 152716973.09821546 105015323.7467618 107998388.3627191 562121269.1139628 562780144.8030316 2628094.0318006403 48602595.69967234 67590754.36073406 72074789.89949876 56304514.93534195 145320701.99964088 81435132.86726627 164259042.89299402 108053478.54355657 101636152.01163507 17824775.007022303 5520042.985766962 4350413.848399915 9521.939451047287 187739.49612678177 199093.013852984 191819800.30884448 96758628.05409057 24314017.44552581 80407367.44490716 80412794.09456314 187199132.5304011 187196527.37419236 113074765.7554905 113070149.72681166 44825948.68158177 44822718.81675472 29304742.955687113 5397488.341917949 5398020.179773765 236912764.27707115 236901458.1178497 76487143.65911701 105307341.23843078 9516555.732879577 94609094.90758833 967978.1938428191 123452100.21159732 123456838.40266566 382575975.63867044 229662.80597230903 200823.76037709956 34026.19992718085 37083879.689599715 9426577.048553227 15238849.547926933 15238014.555812964 222339021.03833726 218282380.63925877 128898877.80147554 128855835.03791022 18556034.844737254 136894172.38977325 136902237.96882468 157862.39875945466 88062014.16730623 88069079.02193101 221401847.6225706 208260454.8549445 71144674.20863244 66140047.285403155 96403289.01354173 226118625.51620722 120975805.29118574 120970662.47186288 111277575.21021186 138379755.98665944 143800842.55932778 46428312.81449858 429569019.4318759 38946341.78249239 38945238.18613777 61288493.637059435 61284262.56849689 22078521.784132946 22076655.874978002 272192794.6155315 434819682.9582178 32214897.457940053 32211536.97241134 7940821.020466244 21415599.901358914 21413230.724547062 11686559.598400628 178617755.76313522 178602109.90931538 18416679.79518782 190273.43272492161 152926457.42879447 299918586.5528877 422935588.84523267 422104678.9301203 9211796.387317548 285546.4001592322 43516614.76627614 36792486.591670245 146722563.0245983 9760168.223261632 116733.24444048638 95393.68893810142 70728.16876792029 278267812.05708873 684559198.6284734 684669210.9539855 153469682.72516492 158333793.7530416 37745935.92070955 32267272.433883306 197867980.02075025 197870730.6832733 55619107.372268625 378113714.6172931 380521178.4908606 1309126.4641172702 196244544.92101485 196245313.56350693 111201.76216368626 60486878.563404806 69755.58588125036 46479.1758479086 81379.10970846588 579436095.1513864 584585208.7233508 49485167.678499825 54757524.8290074 66415594.360138446 221179829.73664564 217013683.81868616 302647667.72645503 306192215.17280036 391940726.8866181 57558531.81665341 57645848.62530374 6965024.812309666 5147225.881620423 90567247.44290885 90511720.48970447 16692317.79813757 16694151.503045147 156446005.61440524 9357072.869999718 156186199.1390496 50122.85444421882 79490.08613818532 73447.5225574781 7131406.64319914 28101369.17923208 80345.88405207754 79153.2714152317 62015.144938398465 18673250.08182532 68867866.97427028 74765061.43812169 8135858.802453314 12608619.931139978 214461.32535773164 185205.89513893405 44554.82500863586 51185.699061929714 30752.29717745699 61049.07355170572 110413162.06197728 266994.2030601953 223433.30065617705 73470.89672365076 546424364.1524416 548043617.3874912 238717518.9861573 33549659.590818115 61046.78556967138 85163.86140494247 21935481.22133675 26156106.993573077 10739603.850206017 168667091.76258785 174152365.10949597 10770440.273488455 11318669.248716442 36804132.31022536 74025626.50966193 171198053.12255403 172868792.54944634 193786545.91026613 193771368.04767865 194957715.99815366 83780652.7209117 216840055.13516676 216824036.69913864 7141833.402987739 142903892.35098794 11780833.87618841 27238809.41689321 27240458.28032744 110924.70070160748 251782897.22191808 20649494.156624977 288024797.0558787 269633264.38591504 207285804.7848141 207266411.2174595 14893964.389325766 14900030.478464875 18612267.298011784 19457272.96497133 25194971.743955933 24420026.88183467 230245169.22406217 58845.83202561916 62372.50393984802 3399603.1918322477 680938727.7292124 683587079.3811853 60109018.15530606 60104520.88882233 243986895.24779165 159651036.91802508 159634151.07074583 17992574.955955286 14218585.53824785 66959.82376062914 64973.04569002662 29616.997942001435 176978966.65630448 218680.61076938713 188619.4265678349 40248.163152819194 364427040.4444113 140027666.6980055 27298076.67918256 42691531.6697196 37161244.8632201 449362.2648811355 612923343.8306158 612235710.419502 126649594.83109383 153867427.33286583 115508324.2750987 120217136.31904513 27422246.494361367 22914147.30506653 494844135.79346174 498918144.33017516 493902959.0069742 497217137.679889 232970.1302490733 391723.3132479852 197015335.90845805 60068144.24401674 60029799.05210968 72469.710471628 73851.7653250106 151224.86109833082 228454.05718506704 302293.45660924085 100241990.89791918 100232213.37622343 26434765.946800377 193122210.76937568 193117491.78412 185062048.8634256 178077618.40208015 27496985.2515616 153032688.2957673 153049806.4973662 1797988.4574077008 260144682.76405215 255821900.82941788 73359.44313839512 157207665.45108572 152217955.15379333 176812003.17974105 172486010.58677715 52401946.09018704 238693327.75158313 238675762.91678774 115639374.28789103 331342.3181667479 661935990.2033685 661443555.2548294 86141.8034303272 135941.63177040775 181806.50108212317 213781936.51394755 215917136.18270662 215919718.2158632 50877406.256695144 56098934.39999695 417190948.43196934 417160663.0168905 91100170.61192445 89675200.38507324 68528.47997969721 44978.637738371304 335117229.5754219 335094742.44194186 155043241.30131197 102047764.81204835 102041293.49060553 22197432.885173712 25294.46941024076 26968.898827207202 4421383.597950116 229318666.4452592 229308133.14048356 16446284.23920273 10254755.530783253 11783809.17833136 17798825.001546707 171978448.61971354 171982861.61189425 75500.09719118054 113535.39473802592 71204.91810093902 295535032.2267653 198070442.74005917 99573533.49590999 93937298.02771026 338468.9836272609 425856.92936435615 104787647.38380523 6870147.545711192 6867161.040126045 344408890.800413 783363096.0281835 782876381.0065145 351383.8956834393 104089248.33052115 73345141.1304349 20419258.582380865 39790799.24488091 39822084.33820267 177482.78567338348 272531.7503261925 345451.75254322286 145193.83829272172 519512.3664337659 47778982.71081199 47777524.627971925 340009708.8661013 79544941.8265229 79426516.01413403 74784734.12796158 74788907.53491148 87293.8689524081 150998.9411199161 105651.11513690813 547123784.8450722 544264513.6961884 553630904.6264497 553297257.3224365 23726989.349680074 157388679.89552358 256927676.0563667 282086007.1945689 186460.4882674025 789811.9148439323 38039997.52318953 135083.70476765788 29195.403045964405 153733.2696905341 37446966.64326491 33330305.637316924 198839200.99424443 198821393.6471599 111322.67073896223 104835.01557803695 29486.849694787965 42985111.139671974 280707688.0192546 45903310.51370574 45908119.20534814 16580478.248770155 11818672.797987154 22507099.008001182 18128840.600843925 409615.646768443 135667.19914650664 36037867.859004095 41383840.7268941 7622767.263838385 243641652.25532773 243610296.75171837 44290458.073517166 49521472.92813304 38797704.708121866 44252809.43120613 394022552.82517177 326880576.92072767 149382003.1134876 232361429.08882865 99318.16281670188 62812.88344597529 68601.40070196417 40558023.47516335 36800928.6108105 522012.7336618295 46102676.17969573 46145061.11787209 51289212.09722337 51353085.36086033 98369759.95161806 92966861.38130994 6858687.105017348 190037533.39996606 190045896.33406967 30037.774642394983 123004.3713785745 131715.15820930354 44667418.15006477 44662511.16889772 159194338.35143366 88226693.07812218 88234049.23459114 714643.6103615172 350443764.2072335 295713028.4523752 20595.558049308813 22926.662207657915 19323.160950422793 571660.1554489593 446170.6804095069 350388.1467102913 247827.76656676215 22062772.640799914 18514265.104417887 18516952.74230801 14352619.453378467 20277054.45371378 192960126.08742204 5357746.847971299 95194904.28484328 56426.50439542839 225124320.52093047 333522936.17128336 204287776.73307377 5605520.907977556 9790889.619549831 35214057.233085945 76441635.05729774 71214883.36074995 95320537.95084152 89319853.48062038 3540786.4356905785 27533803.166990783 14410643.135524437 14410283.837334149 16092006.723475205 96296632.02822517 424756536.7004153 5642480.975955268 108973004.33927676 174951774.85103324 174940066.43343794 132812.50850009907 154875.93609344738 24370.162842660626 407039.60155652405 139871.7243400849 149362.58515245057 42558.90847172282 386875.4151222607 31356.777365426286 35247.825406249605 41016.79638753005 793932.5891951659 221624826.40366018 290216.54952576966 5704421.995503548 68266561.86730061 54892519.778589025 372290500.66722804 2493785.9983971254 49088319.48782111 49083002.602281764 47467.52709990638 705236245.4381337 704387825.289155 2883733.5026778732 76056890.73819447 125223358.2149726 337522.66353736864 3197910.0769645246 44707239.51016088 44712222.71167413 94798211.55748396 94790751.759756 33657291.120372474 33661197.25524242 173325671.12272608 173359206.63613695 370644304.92283285 370694271.02731127 176297841.3435365 170562968.3614358 128293056.62541725 264433854.39266244 49784562.51442117 49780719.29585666 251761041.9007683 214870175.22102568 214852291.90943623 122342.48023343824 56633.807092596144 96811.5307116514 34878.21279486558 226920.03655400066 187573.6401434421 63552299.432724915 42474195.379774615 42502148.30604044 131938.76655337698 15458793.58873716 317755163.8427101 317711799.49662036 92969796.39753488 34067578.716893785 72608.47646111698 77005.4499934895 51464.403112578235 198935764.78338704 198916171.98069447 74719558.66393371 132859.1909503735 53610.67696903281 101971.2523532897 39184.067064025265 163009352.7233028 162990813.0896293 10613315.537979927 178257675.136348 18846055.193269394 24192342.65667131 139720415.73674795 127933290.20115426 360361148.5212582 112540626.15849338 307514198.8357476 307529977.1284753 22447798.323144186 22449966.08218571 363764967.5103254 37760995.8104794 37756434.45812131 149501810.9125875 149497243.18635118 12491889.28785106 40967702.11205133 376746785.77831644 412591573.95412314 377214380.7467201 413913750.6301173 420800465.9772163 412776468.698441 1860712.7314051257 280421111.07212406 280548775.71566767 183702.65696672004 161069.51691962048 172933516.200929 172928632.738383 38756.778044333885 47338.879748076215 51297.89006072074 114653.5265293608 49700.546538409086 104038.07983202713 95143260.34783982 38417069.98017906 3384844.456027434 144036.39776236116 59673.88488048543 149927.20189721772 13494412.903404737 13494369.58796751 51247.30398411635 58290.631682662504 57020.73202827749 46837593.30452065 7471567.554197243 219919799.92839256 291246778.58981895 304806522.9694754 132833639.69522141 138010187.97662234 193328.7649049168 5120560.68613617 216727.01163988348 264183095.51063198 144594.94251244355 44584439.554012604 125202429.89343934 30518175.48501106 30520399.66980097 399282793.1841961 43473824.87769556 131625485.36812584 276682904.3393211 142972.03411024075 74045.92014332255 66678.7598602164 33623.08913315995 63021305.043930694 35789665.9167881 35760324.49560425 1575484.1368513834 258017692.21114698 258169478.71065098 35638348.28269567 35633099.7814968 344775810.58827704 221257449.94109032 220840709.45607787 62709579.16628224 4802179.873467044 13348563.298025195 10507832.541917033 106468915.12750846 97256372.30681749 12224041.812977886 593345674.5054002 591672475.6579851 50257455.8495992 47046817.66690054 76779894.60887837 76774980.32458727 545068447.9707447 212498888.5281841 160773025.1622383 160769832.89307785 5949684.516252916 314232048.34846663 146269356.70877114 146281228.15538824 8832599.489615956 221108171.14411232 41833386.53176716 47365642.63986684 20115747.897110656 25761857.142014682 16184745.201808253 345064894.360886 350271074.76243985 226946868.02409226 228092813.55449948 477950657.4419833 473819021.7755607 323011348.15193945 327545086.78133357 234687.64688250388 3582179.71462327 4534720.500481516 5371343.937946309 51061574.12508424 51053971.40139344 3276958.9801004417 15660320.873726137 39657136.17485482 39655344.53938549 3150124.249635137 163949737.84182063 159982803.73129588 16109680.882022815 8967801.50547297 14669142.397909662 170557140.7658505 170530013.47892338 107450947.53785196 102587482.37443462 507898966.75924 36220746.39989627 23964838.18615054 1936373.5361033436 523761809.7751899 524143579.5914584 233877629.43076238 233959504.00000295 61088750.509123035 61093388.331822 93331749.61041972 85292973.55621196 85270923.95227064 36247.65130652935 110259.6115574868 96629.5331776954 65388.22229914715 410871402.68313265 413257196.9175271 412709070.8151848 410417264.94361174 155634691.02257514 7478168.627928926 293980.1277202144 3183945.3021933697 145866978.6278096 862032.1107886918 201105621.14405778 196170292.0498907 253022.67823198056 9190695.944233518 7104685.44023224 8792356.562031128 352135.7969546723 4831126.092667684 265188500.86497796 265228945.56923848 164841.27157208158 106566.22455259504 9613660.784502598 13525455.171523249 40914067.42156637 40919361.48381783 72844321.1566273 72848769.68656772 571684.7769177072 50736904.77199509 243784281.57476422 243773045.78334376 116157.77775096623 49822.489742881764 163255.3985518927 191955.38356930093 9553638.688591786 244691033.74237287 244726972.94912466 61742696.746760294 61748055.15413224 225510887.6710981 225519010.58129418 4649074.50561353 386030.24267575087 4166039.183254749 264774915.31832033 261216812.24815583 282910852.2881888 279187913.7065088 23458930.021599367 29310514.931182764 9545249.87343201 119898.93969818692 1553742.9869109967 46351689.41715903 2156728.014422307 427777949.0072956 427757011.5920968 468829154.6821614 500084398.89821506 9244827.198574338 50151632.2212333 28723235.080213554 27232113.683737252 75598.81996993152 48760.096459026674 104670.32903443422 160015888.03556675 162169380.98647633 38100518.928521454 38104615.20228567 74595358.82092953 146867856.97992408 151797206.33705267 60838.836213862094 13693803.42878684 94157709.75309122 94151018.78833139 454688.02689830295 116581787.93598227 84355770.66150446 79152930.81692788 43888627.22388671 6655495.665382259 29462.589502835293 140645.85584700882 159336.2320196227 5524755.804709957 11739731.759916974 4347937.362367699 72564.23394604679 37984.750306906426 98093.34073591234 14826029.706785323 13476792.22430446 6339378.042878564 7380553.124097505 83767380.721262 63366006.45533173 6601470.018396087 420669133.5241718 12266961.076279666 15701989.999878103 4112095.127222311 106270510.62758426 106261688.61645062 77346.43453163304 59784.54949223572 6449399.258388043 3899239.488632949 138376905.1068208 964525.0512835748 53943932.20498109 53937965.804581605 80162.39609304466 76127.90219868155 40593026.23744666 35203196.35908489 32113.962747514528 99942562.10654631 47635993.71576911 45570867.25217986 162886783.63194028 163183771.89262944 1334278.250107468 278200880.1136385 38873.85586880325 39918.09793123194 19408.644423852107 19922768.420659587 351634247.6289928 351365088.16484624 248851215.7362712 74062128.19400766 74056761.21208037 7943663.163962578 64673297.67206584 173597015.33078283 173580091.55364433 93423.66383091165 171710.59886581326 221468.83386573094 332704691.175593 334867551.3921019 14225701.407154603 12977521.74730893 55894489.41856375 63032547.97354692 2406817.203135154 179581391.65146667 173427228.6214455 155791211.13748014 435212.09865070466 284068061.78390175 151081143.38158378 151057451.90881932 1947018.7945333675 256840762.12218177 59122042.67060607 59127140.997514956 176179175.81438404 170358181.89005077 55488547.857518345 55241633.97177111 157579349.95838544 152669367.95095727 162199184.476324 157162886.7435885 4123793.3141712444 6750375.5737364115 9571018.865531076 376809.07192096027 209742500.6001961 214701060.73014697 217576649.60300404 222542720.92583293 17818671.39676532 239040.35066297825 201338348.32180563 195668777.05191565 219474488.78227308 214598886.5298742 182135865.56325823 431413321.9804809 431446393.06028014 16565735.636824604 61191135.59151058 248064412.8961306 248100667.1472022 64981592.92320157 57068876.14203571 57074784.305660315 30079922.970312778 30074379.7756799 58205606.55110902 59117580.37388713 53822857.43296288 52376638.01543996 102165455.67950267 105077497.00412269 511080880.58311534 220409346.71908852 23225471.049429517 216835008.24222764 60098305.78246419 60104067.22768095 272315805.27114487 268543521.94391775 288847592.00263435 285011160.874812 585774686.5731014 578843222.2857205 10270172.09041271 241321295.8631353 241311300.86050293 230814404.98147404 185823.99438179794 206848.7844857725 7065.596293604866 7010747.533737333 207651361.70297936 15698831.817969395 129267673.83374965 129134697.80183236 25004879.94247679 30843270.552465104 2077995.3692524352 1736486.6189759565 15327994.5061617 13160514.259876788 3090984.748687288 246837975.70224512 246827641.6100778 383851428.4143123 327252090.82230663 65988032.39927452 8047268.665028678 338961.8707508444 61333540.531089716 61328743.41606126 435757321.09863067 142610602.41290098 149260401.45426172 69572147.13692035 222724471.49193162 225481668.78627083 182072251.34387538 182096670.96163523 15145393.9575825 72274507.33508267 72205060.44664282 94403144.02785887 94399123.09918435 45568834.674594305 45582343.79660611 51445477.95543176 13207026.585663505 115356956.64535676 114919530.74935406 756857.3795416486 35081020.99501629 35075412.7361381 160202.17704004346 178474.97799136562 4807.1217685523925 7350615.929951574 244401.8692323127 18888747.84102897 18891976.407449655 468016149.0318089 6479577.84543556 501688731.4981982 165881.02498894426 329194136.33753 7905496.886059329 45210543.45488597 653510.4218223915 126893038.79499175 124032669.9317573 107251896.66356763 91362196.15875618 91363546.43426871 104671605.11770901 386611794.238687 423728525.0455202 119994.2369214314 83926.5072030797 108622.78427826775 52796.23581583642 3389968.13959989 4923111.540085785 12954123.024304263 8516128.183688633 25472574.52533224 1553052.7543456596 18654603.024702575 18651337.527903978 74674825.77865191 134689016.63983628 15880654.577652074 15874670.816795161 32157170.21614002 32154697.886112507 1088295.4317965722 348335837.28511065 351857621.26388484 436677310.9091707 67172380.87841906 67169314.89839563 7083515.6219888255 10547161.93419482 32697355.547370896 172208072.79704106 5174535.739366398 11179176.19574856 121764169.81375757 121773655.82380983 74098043.44544174 219092678.54383335 262040016.4499869 336328372.23302436 338204776.4877186 3305384.9988810504 474011.4791840347 113996.00600295904 83922797.36061126 72273.74491636327 72858.25059305344 75231.16200908532 65534.63561788267 41759.34789845402 95474.15568924202 184413.79263008363 122824.80242647362 128721.20993215265 27719645.43345032 27723063.25475519 425832761.470003 139241408.71138713 139248834.86803994 19839736.769995414 134059715.61238986 134616775.17532676 142673248.8280438 229080372.3757077 229056960.1056548 88654670.55570883 133552990.03072263 133292279.15036885 40471137.44523853 4639855.056970468 7867335.65374827 199609.3731655454 154734661.7415665 14469364.675400607 74258860.90279828 153466373.6761612 168606099.485365 199234929.118413 500454534.3001954 241608138.53774005 136203970.83822456 136186602.47492474 504981107.62839085 151336560.3422577 151326938.91757593 149288.45362875733 202547.22316150545 149886.45230616728 155712460.1668859 446585130.75918347 442216226.5162209 19448489.8847496 19447777.910244383 266790.70265053026 88662.31410970213 81238.00696119403 54199.696903725686 116276513.2857611 116251977.38348925 2410887.6496404535 80575.83678316971 9952858.184098052 126715435.74399403 92935830.00315532 14598448.463777695 125851206.99991357 125979377.79483365 414420.57653869345 152903074.69881725 152884639.6177299 5281890.388330091 352567422.4383048 354232244.9466296 2426400.4822229287 386608766.79487693 19269409.257203184 219411410.29977182 13166354.70035998 98161933.56797339 428816679.2216105 348693349.03597647 348737683.07347286 9622783.931582578 43576.81263883802 109372.05656758528 138092.13580503277 27374977.39666378 27379991.92858466 58325.48200049866 41230.67434530055 61110.56241655043 165443.09798831545 202644.73413454444 4072893.6595914126 5042207.432924361 1958204.7159278067 121940882.44198066 126641838.80216688 124451493.45599832 129474801.82723737 4352535.775004757 48837365.99190147 173690263.59746838 180908856.06237665 137582273.5095464 21749016.72805689 154001667.896789 185237912.66706368 251196582.378941 176377158.03042877 183726972.89920393 214931460.41957417 80499745.47251832 34396450.02579286 193079.8147633805 172029.20337330393 20065.559833030846 137357.5707581093 4803299.313597676 272873.78937887045 573525678.7143091 194875.03818014535 98112594.31930912 1626212.0142787693 111480030.02084185 275843215.9647227 278452517.8283912 13481584.815700717 19118568.12391471 8997682.177520331 113835188.99933386 64769.33371079526 79285.70286899415 26040071.225665394 26044223.324526824 68195.87248991511 76693.9180234998 20106007.888438284 594169.8839925386 2633189.3332228456 1915873.639254658 332152693.14288056 82746.48099861076 80117.17145699088 59054.31025982613 21095606.292380318 174931063.66587067 174912168.95078528 117076469.8840136 117048227.70169355 232869684.30866554 232930379.48922995 135165881.1841858 135152300.95123976 123558900.04087618 123553602.0361997 42134103.29523075 42138326.44363647 392599.12751404685 397489.2799871278 148660408.16355154 148644656.88246602 265929871.2950449 264077373.0913831 17948271.725331206 479407588.1566712 477818168.686138 225566685.43784392 303830240.75388753 300139312.4396207 202270639.2963226 202242818.30536273 34768.34521776211 72648.91719722994 48769.95286060076 123186729.31413418 123193723.15705988 19686159.886502385 122572.33306650113 96774.5560919476 515977563.5883894 503790037.6520893 364619345.9950094 363449378.4395433 348291349.8835451 42714218.7700615 39266635.984027706 387336932.28942996 453835602.978167 129673931.08261389 101877914.30043167 104697047.47158685 120758688.19144908 115972791.62824018 265048727.43259078 41025.75951276407 72089.21658213173 182682152.88018686 182687303.30371827 33055.53479118209 37703.145992649705 37130.41771238495 431064543.87863827 431077127.45347756 221583145.1018899 221664091.64854553 69861.18821244253 60793.15911461394 572364712.4398999 569542856.967085 469932785.036414 469979371.14229006 18196689.775812995 19054176.191084225 128163442.69269343 127593085.34683411 3539185.279582745 177052009.11555958 155154513.62286583 97254.52154239835 179697026.85072514 179707104.05118254 5146155.769657307 16583533.892781382 281418143.1763973 281374512.6938158 39804740.75817968 3849874.3464758797 160247.46691886848 117285658.79144844 123102604.66375256 130243377.05128872 130232476.50111061 105292079.77172808 103710692.90423658 10042815.582984207 23190776.97324732 23188839.644848507 426584078.7244492 438917142.09800875 40594474.672686 30851753.57555924 30861659.805131216 423302903.68975276 634870427.4730527 633490482.0863696 49068419.64345057 53569982.88641341 195167.16381510475 138596.83844124223 130851.91166548572 95545.57860408451 69972068.43214539 386609089.26299083 457783534.4999888 451185935.8436984 343265994.3577757 433905853.4869303 22962406.556443073 22964793.457263976 8587741.776612252 143714302.44906268 143724338.26981807 20674925.393521875 20671890.74778752 527961.5628304251 106244980.23447311 106235391.11979789 767625.0454106331 21509191.26198796 27012269.35290483 27910841.737111557 27907887.96070707 8123237.159958916 383456102.20851874 111184715.20589212 111174071.28165282 11238275.314837769 41801.549454319764 89001822.23121463 88992329.47976252 4440973.264937748 643425135.0059929 645463975.0313491 20205575.154251568 20203719.63242694 289881690.5150776 285373018.23395526 30735730.101856727 162993579.1196121 4567153.655161427 5965331.4311705455 61429956.06942958 61389908.81658382 8910097.159397565 69512035.4874481 64480776.4105168 364097.0375354764 302507.04102104605 114818.82688747511 236132248.0201562 239916433.6275587 409750356.5941956 342401084.6844162 3826368.1181272804 389361.9735906167 178741.39989630654 710296.0110805432 82730036.2780044 82847816.22383527 39703.41346007132 32225.9484638067 17772.899813806544 10975581.388003033 317727.1261609891 410817280.4511574 7664227.296126636 86543039.84431651 83950390.44130766 299487.2611792647 874043.3506094799 109642429.92785102 49270.876327183025 56514.561912451056 41491002.51659477 41061020.18009538 78181221.72934271 78038973.74758895 394779952.04764974 21836.281212605234 34150.31747132625 19352.71408498489 35725.748057560035 50478.07425620685 7371064.455353127 418588704.77129006 5251143.862262846 5950564.223305407 413895086.0651835 461132.15379955684 298991911.3900214 298238687.5800197 80400934.76945227 80403145.32252234 16824.776546806548 17741.916374199725 14459.76635824121 78204693.37771061 72528488.9431042 116640.45079653627 28406536.16247797 2361429.23354986 31090780.892476585 347438443.13270736 294885808.32887936 224076891.5619752 224087870.88455743 349178543.9811072 64279620.63543187 222811702.9309477 21507.82390174507 41243.811054154576 39324.107590645326 408994399.63831955 406788140.9332445 213854.63159526425 150954930.50097495 150936679.71810985 272240174.28948253 272319055.76533896 4980228.999994692 88014728.9347926 89420603.01688513 4709988.914879993 213764006.89461014 218780245.81003103 158050083.11300385 158038357.97498652 48044463.42416533 310388.807226718 5745049.632260258 6808314.818299502 383903440.345215 105905071.48951842 100601004.98541379 37133.487598570355 29848.737867779855 356776665.8576634 357048949.9183059 77008590.37439649 77003581.64081159 208543551.9285973 213045939.18444094 76832036.27949543 10210038.663417561 261500087.09595013 261492684.88021293 8529471.859880678 10002855.465164673 466671259.54122263 60528739.18115303 6987078.616655409 10423081.167005947 11544078.275297504 4003913.38688018 148824888.66252813 148833420.65263367 156057740.3356803 883943.3751573405 25546315.96981076 25539711.76956968 342274651.776932 56743568.0318479 136133837.93370816 141098621.5436534 172373086.37072304 330579200.9874277 327020692.9553567 57151628.16487995 57156986.50596593 40190.9651910828 113330411.41801746 157637581.283141 358724861.42855966 48713.09617357331 59980.42457442276 111797.41910086408 128013.9949384202 210181.8018712301 22354.672107031456 51586.081265088425 200559.21409312086 14910916.348706432 78351691.18762538 78357502.479751 4472639.905114087 180991980.33449814 185913669.2720702 255562064.65216753 250642396.53346428 231820932.5179906 231810043.75289887 81909.43514793243 60523.01706450095 77990.63483823552 64107.82143041791 27291029.227077782 222561954.9374832 14654985.498731744 14653901.949949816 624578863.3349898 624509314.9003208 72005172.52800496 72171785.69747025 110869635.81131816 278591576.788698 121573892.65645875 116474706.45206226 52027278.069112554 57333132.897335574 3569085.7726063654 3569855.1616064883 20612978.765521914 127884650.66081071 127873859.92723754 329617814.9545691 329689113.2893381 217466624.43107137 158672230.08734375 10701412.845906038 282448.4978078465 89687597.51800175 89692779.88297108 1591554.0411019074 9724158.285120098 267804958.18146345 230694298.50880444 230683227.3329172 11433287.629479403 101383.96433830353 92837.97848217949 67276.19265952673 6963492.197601116 262364892.97745302 129818316.29399976 129827597.45954429 9759540.664298022 200057593.8990616 200053539.19815072 27288.149496424772 61189.11305407549 63691.88144069312 50609.04037292893 327636056.70126855 330340762.9034587 7257247.46952056 502543433.3904321 285932611.92438155 293240545.1741573 225820.09640450715 196142.10118374965 44733.17837547967 98628034.83974697 145986125.64036804 248879451.8930576 245661777.2608633 63046643.79544693 63026644.600819305 294322.1945520286 60751020.60700025 397717437.24963903 396991522.29600525 268555383.1627489 268545875.3366235 321625887.99686587 84397.88425359852 23995685.186647154 90695367.98252785 68214021.55061495 722154.8352819735 253133947.46585992 96682914.71476507 96674442.21418217 270815776.0587721 270766658.07789546 7975729.26070855 55215671.90479226 7586300.895933577 153469.73978794878 32191092.82673749 63930918.70259741 220032.19351977526 133975.83382544323 205538001.8763372 205509484.2625547 119282368.28536177 69126886.43512942 132644332.31584091 131608397.70634884 151650687.2477499 151633980.1881423 200152415.7134528 200125502.98253137 192531704.17443243 438217972.17941064 175011536.10541645 174989632.0129337 144699589.36690584 144685935.8723262 6870151.867123524 240970613.13694856 240934192.18638435 298262.1491513889 216611503.0244405 216586872.7731028 102449577.74431261 101596894.30327569 52098580.98957331 300891700.99699336 191003.10546139767 278204302.22919387 172996702.06944132 172973794.02181512 537521791.82441 536328947.4847968 411740924.9967451 166068.83975818128 138530.0575649067 562507673.9716017 563298151.4825912 163537660.53790423 190222630.32010576 8759182.26165791 79583496.85100497 69332.00955733584 83535.40086608703 209754256.6901721 139748326.97594228 139738562.74601272 294295743.9051356 251339052.97038785 27428366.100667667 27605857.89771684 132075316.40112688 51476.46318160639 49429.072218383524 7374175.640114384 187457969.18521705 13309174.515937947 3024036.9782222304 10126469.223751174 93874476.93617383 98713648.61829163 343250798.24519503 343292373.3623769 229113258.77791327 321229038.81665766 289519811.9588161 142215387.05915815 92450916.16140322 88500395.54511963 295301.6490802164 55516945.45986351 60276068.10400023 75534785.00732844 75540638.9548594 480920897.83668125 477077263.23922616 271538.7074788487 33734081.69720796 384535980.18839973 442743501.23736405 385668494.36925083 441915182.7481323 14072721.473000133 154423160.60892496 63652527.111946836 63646999.10887885 400685763.16513276 10580453.720697053 133060.48995845832 6968063.948773754 135838934.62682 135826247.10174677 23392322.325870067 521384095.90143657 462046792.90324 148324026.3468218 361947457.4627217 310722339.31772435 326260.57588950376 122808533.86996265 122820691.78691702 32696.050210858066 52907.89040060939 468964500.22798663 9188592.80724633 72904039.9103792 228921.8560674159 6649708.986075928 119742522.52705897 132987051.37129037 270550818.1114524 219351.34929806952 263279.78254377865 74508.54101627058 18227746.958745472 148457829.4267886 147701031.9389715 523246374.02245027 465984794.71541226 4726670.590501309 140636782.5041548 140638701.8676615 7262735.646404456 417066711.72501004 109783.63126805663 71670506.60221983 2153434.443046488 159904276.02261454 87591439.63752504 422697295.59904915 466433661.252679 478735904.44304913 215117396.59549513 753868.8011326245 73875446.38003981 67523687.13593872 259110476.35352552 5627054.586215357 404646798.7954149 360102203.1397931 354654936.362296 167520800.08196154 256765379.3519874 139737677.9770459 139726675.91982594 132461162.44324766 132477509.15241371 121138955.16764852 121153494.09447837 166303949.97802612 166287285.01414773 274625583.0427651 10001814.262038482 155154271.0168587 155139559.26343024 151210223.77152908 151198972.84506527 47153435.21923084 240013065.5735842 239997104.23367712 179624343.09543186 179610260.6957202 258432.99476120653 216863730.05269045 216851197.4646452 163976873.1067178 163979764.93502423 90067865.64655112 90089715.06416506 326442.8076070761 14987652.424936468 164539973.32521582 95545632.719397 95551722.24477969 21433238.111585118 181616237.55158955 271636358.6316336 5389064.803504377 403168968.144284 358420252.47433877 362403247.1989173 167650289.31627604 112086777.6489292 112092933.8016334 92102730.72783312 92110077.2359905 119894655.99389961 303459227.0584721 109938274.83460961 109927447.06156579 349072899.5999177 229221189.65568796 229192935.57597625 326224664.12250644 326205413.1382347 160667062.40123925 160660804.95821214 41876823.94445577 41789395.291063756 116468289.28922 133649527.44908899 133638478.99781093 125834261.69581345 73091159.08247799 22033.901315872878 31548.595249649276 294107.44531764416 311177778.03599095 311156836.7210855 250523343.55194783 221550411.91250238 221530300.41542363 17730302.290614106 39982375.11119921 39986428.87708053 63634771.765660994 63631123.17256709 10015116.126224384 262837468.67427948 262787377.00094214 41165806.70682577 41170156.98496627 8063661.329663878 39158536.815372914 3469195.619456422 72467336.82057282 39042988.17690807 140794038.26300463 191773643.2814269 137862900.54250807 360238870.95532465 356453670.671856 78324293.56840442 13941921.409569366 189695633.5503472 652051.434199428 167520260.21020305 23679563.67167113 96931819.76346588 96926657.61840083 121721522.96158206 198345743.04684666 198372984.82570025 433248524.63371295 114664065.63200946 73830536.15895396 73825053.87059061 110852690.2809922 428523876.27871346 91237846.13834824 292473.3341538977 1003765.4006288032 160856719.0067232 161004342.96589974 303806530.92050076 255463398.16755435 202699102.65955198 202702219.3825737 5066927.6165090995 221905882.88105324 119914001.38962159 122424627.29723474 19074499.56866417 464148898.309887 103498870.1106842 80426306.16478436 80420715.38117953 224991885.9770093 137572893.6676074 171335008.74076396 209138568.93395236 282057140.6319664 72748491.68711609 85252710.67848516 97931207.11842443 97937083.19676536 5206614.591917564 63731969.035517104 33249126.83023709 357609.72570609173 468008794.41797787 366087234.418402 79108645.26247627 84087336.5047673 423460272.2787533 423691702.2371041 99848890.96869446 126508353.25225154 190244955.43017024 190238977.47251633 478038150.3091036 476651597.71547145 33805078.28842049 139588777.37133357 66170192.492674306 91329134.3331148 161763962.53024477 27803712.569501694 262307908.922884 260403261.90279377 262185381.0770748 261285197.04490018 281856823.6652944 263720465.13762763 7964977.624809014 20720790.640489154 25986218.313212246 38855.55412865345 94696.43166122274 121132.15937183524 55069970.98966244 36208043.78813407 92638.24252981048 140125.67989201294 188572.914921999 76300732.44867636 15536711.845272422 127277053.17828643 306840507.30624765 248313243.64002714 4752045.516017904 19744341.07485056 66538017.04626071 45110698.63401494 92160863.91038722 92164629.36725517 6164147.265544683 462464.44608581834 1516118.530072513 129116602.10308383 129129737.53120132 206035398.90847877 204834813.8536032 391427719.70559317 417836203.9088596 90190120.44503158 90195444.01991498 456924126.7290276 380840757.9598655 68595978.98914713 68593413.38182248 60553516.82360593 60549043.62663128 134317031.28953123 134305589.9252537 45281398.22294603 45286482.10586449 215598207.9018307 181313161.35657537 78650851.1518711 78657836.42229734 97135535.47554183 97127851.64924659 4606762.909428077 171979401.8103605 171965979.2335623 348893628.9573784 372193840.3069432 45524784.29843033 69580301.06606759 69576115.64361225 1480618.3602236605 211508027.67677587 211494143.87768558 47261819.36323282 118927921.67916393 118918971.73867719 213086756.96571213 227440901.96381655 82312366.67544805 88614948.98891196 218336239.89810333 185450506.5336115 62065660.222174175 76734888.64405654 76731032.68040621 217538.15679525392 285549251.47747624 320645433.6907478 291658704.79773575 321783616.6696946 15010876.053699369 213352796.95690814 33390.85203229598 29793.38692229084 304734707.15645313 22879.020106967662 99046.96139942226 117919.24189247556 7802215.805805105 8446585.265338022 62238506.35089677 147716652.7673028 147723431.89572495 255956793.83893567 254873846.42660296 115465458.33113606 20044.392982333644 100321.91929934244 119882.67891773408 5833597.352365255 70649429.20397456 468891638.6694454 421538937.58829796 421099946.6396776 483843882.6131684 168679793.88355967 167509083.06159326 135824652.56968364 282946256.99559623 70265265.0253516 75843365.00889812 137891472.3088843 4735382.316812243 264306.96783017984 145228169.65371692 145240589.53058216 94914926.02362633 166365399.37963998 253931722.89861622 253926871.43452084 80536.19262460442 29902.04185952396 214590301.4409154 210212316.0646556 213656246.1334605 208891794.5891119 161659782.02191323 161649548.60491645 18654628.69882764 33155776.72072978 507530187.7498206 507507857.6140357 8310199.862186165 125943446.5236895 125928719.21782614 101830613.42756675 182444217.47928694 182457388.40667865 50824906.92506094 253896.11442876636 246840183.80964562 232278552.40452856 169291.03578122222 258845092.2658327 258794018.37083286 3268861.3097644695 269181.60695860663 104040.3292941996 71738.56677770877 3770161.5496233795 365496968.92225784 5196378.611721986 128136185.80977839 189429525.47335118 149105933.32769576 146942949.49471742 137103899.7190353 276863537.6624293 91571.12454489473 73141.75607358101 64266443.13409559 64260708.74855498 163300394.28660244 123957189.06553227 26414783.203448974 11951688.21539506 303678437.84456134 14193420.074264048 220396313.2965255 67798.03273271782 66405.43266921547 143631430.7062146 86106661.07486902 3362206.028279772 110091097.7443065 110084525.66453655 360035384.9464332 26227275.578711007 423507881.046244 424660725.52623814 151015172.81963283 192041141.89766145 250830477.98031035 9802043.182835896 232881621.40839913 234476280.7998625 223978952.66284305 220690554.59875214 3090116.8818692346 2513145.0178002496 340875768.61495584 2042715.1067862231 87612915.6968596 147843088.4016908 1038630.2054103119 406282.41725128796 136653749.9383218