# vtk DataFile Version 2.0
Really cool data
ASCII
DATASET POLYDATA
POINTS 2103 float
10.0 25.0 0
9.749999999999998 2.5 0
15.25 2.5 0
15.0 12.5 0
20.0 12.5 0
19.75 2.5 0
25.25 2.5 0
25.0 20.0 0
13.625 5.0 0
12.5 6.125 0
11.375 5.0 0
12.5 3.875 0
23.625 5.0 0
22.5 6.125 0
21.375 5.0 0
22.5 3.875 0
13.625 21.5 0
12.5 22.625 0
11.375 21.5 0
12.5 20.375 0
23.625 17.5 0
22.5 18.625 0
21.375 17.5 0
22.5 16.375 0
12.5 15.5 0
20.0 15.5 0
20.0 14.5 0
12.5 14.5 0
9.995967741929068 24.63709677361624 0
9.99193548384352 24.27419354591668 0
9.987903225752747 23.91129031774724 0
9.983870967693909 23.54838709245178 0
9.979838709643776 23.1854838679398 0
9.975806451588815 22.82258064299319 0
9.971774193518987 22.45967741670884 0
9.967741935433088 22.0967741889779 0
9.963709677331826 21.73387095986437 0
9.959677419249761 21.37096773247854 0
9.955645161201263 21.00806450811359 0
9.951612903119845 20.64516128078604 0
9.94758064504518 20.28225805406609 0
9.943548386962053 19.9193548265848 0
9.93951612887461 19.55645159871496 0
9.935483870792845 19.19354837135627 0
9.93145161272193 18.83064514497369 0
9.927419354633525 18.46774191701725 0
9.92338709656502 18.10483869085204 0
9.91935483848279 17.74193546345097 0
9.915322580408823 17.37903223679417 0
9.911290322326463 17.01612900938176 0
9.907258064267786 16.65322578410088 0
9.903225806182238 16.29032255640144 0
9.899193548092457 15.92741932832128 0
9.89516129001441 15.56451610129687 0
9.89112903193036 15.20161287373247 0
9.887096773848848 14.83870964639635 0
9.88306451577868 14.47580642008116 0
9.879032257707456 14.11290319367111 0
9.874999999632388 13.7499999669152 0
9.87096774157541 13.38709674178694 0
9.866935483520326 13.02419351682927 0
9.862903225484896 12.66129029364055 0
9.858870967443991 12.29838706995923 0
9.854838709394688 11.93548384552203 0
9.85080645134599 11.57258062113923 0
9.84677419328547 11.2096773956924 0
9.842741935225352 10.84677417028196 0
9.838709677185804 10.48387094672252 0
9.834677419124317 10.12096772118856 0
9.830645161077069 9.758064496936328 0
9.82661290301319 9.39516127118734 0
9.82258064496042 9.032258046437814 0
9.818548386911868 8.669354822068383 0
9.814516128856654 8.30645159709885 0
9.810483870799494 7.943548371954425 0
9.806451612739686 7.580645146572026 0
9.802419354698465 7.217741922862086 0
9.798387096668439 6.85483870015975 0
9.794354838615694 6.491935475412687 0
9.790322580551589 6.129032249643185 0
9.786290322498939 5.766129024904508 0
9.78225806445883 5.4032258012946 0
9.778225806418291 5.040322577646533 0
9.774193548368817 4.677419353193986 0
9.770161290304422 4.314516127397968 0
9.766129032236005 3.951612901240819 0
9.762096774198463 3.588709677861742 0
9.758064516136995 3.225806452329888 0
9.75403225807409 2.862903226668307 0
10.11666666610577 2.5 0
10.48333333385953 2.5 0
10.85000000105818 2.5 0
11.21666666867316 2.5 0
11.58333333336224 2.5 0
11.95000000131839 2.5 0
12.31666666820478 2.5 0
12.68333333056934 2.5 0
13.0499999971377 2.5 0
13.41666666013254 2.5 0
13.78333332331241 2.5 0
14.14999998971309 2.5 0
14.51666665948202 2.5 0
14.88333332845008 2.499999999999999 0
15.24107142855263 2.857142857894746 0
15.23214285711795 3.214285715281784 0
15.22321428568154 3.571428572738167 0
15.21428571423432 3.928571430627341 0
15.20535714279942 4.285714288023047 0
15.19642857135995 4.642857145602022 0
15.18749999993289 5.000000002684433 0
15.17857142846358 5.357142861456524 0
15.16964285700679 5.714285719728339 0
15.16071428553705 6.071428578518076 0
15.15178571407274 6.428571437090492 0
15.14285714259704 6.785714296118296 0
15.13392857114501 7.142857154199406 0
15.12499999971972 7.500000011211233 0
15.11607142832301 7.857142867079478 0
15.1071428569088 8.21428572364799 0
15.09821428549156 8.571428580337546 0
15.0892857140937 8.928571436252073 0
15.08035714273443 9.285714290622575 0
15.07142857134667 9.642857146133258 0
15.06249999994795 10.000000002082 0
15.05357142854956 10.35714285801773 0
15.04464285713485 10.71428571460605 0
15.03571428570876 11.07142857164946 0
15.0267857143025 11.42857142790003 0
15.01785714286502 11.78571428539929 0
15.00892857142013 12.14285714319497 0
15.3571428591223 12.5 0
15.71428571719138 12.5 0
16.07142857423201 12.5 0
16.42857142974857 12.5 0
16.7857142846084 12.5 0
17.14285714112862 12.5 0
17.49999999772317 12.5 0
17.85714285297952 12.5 0
18.21428571083795 12.5 0
18.57142855939082 12.5 0
18.92857141386655 12.5 0
19.28571427430228 12.5 0
19.64285713574168 12.5 0
19.99107142854329 12.14285714173175 0
19.98214285710808 11.7857142843235 0
19.9732142856822 11.42857142728799 0
19.96428571423453 11.07142856938133 0
19.95535714282337 10.71428571293464 0
19.94642857136245 10.35714285449797 0
19.93749999989375 9.999999995749876 0
19.92857142839276 9.642857135710214 0
19.91964285692271 9.285714276908246 0
19.91071428546458 8.928571418583031 0
19.90178571404575 8.571428561829856 0
19.89285714258144 8.214285703257598 0
19.88392857110147 7.857142844058753 0
19.87499999962442 7.499999984976929 0
19.86607142823917 7.142857129566706 0
19.85714285687816 6.785714275126081 0
19.84821428547457 6.428571418982778 0
19.83928571407323 6.071428562929247 0
19.83035714264225 5.714285705690037 0
19.82142857123506 5.357142849402467 0
19.81249999981376 4.999999992550225 0
19.8035714284025 4.642857136099819 0
19.79464285702924 4.285714281169751 0
19.7857142856151 3.928571424604182 0
19.77678571422344 3.571428568937625 0
19.76785714281399 3.214285712559351 0
19.75892857141964 2.857142856785682 0
20.11666666646139 2.5 0
20.48333333599902 2.5 0
20.85000000037297 2.5 0
21.2166666666204 2.5 0
21.58333333661485 2.5 0
21.94999999805711 2.5 0
22.31666666291099 2.5 0
22.6833333246655 2.5 0
23.04999999031157 2.5 0
23.41666665336712 2.5 0
23.7833333158213 2.5 0
24.14999998189816 2.5 0
24.51666665379502 2.5 0
24.8833333260793 2.5 0
25.24479166666316 2.864583333578429 0
25.23958333332243 3.229166667430228 0
25.23437499998316 3.59375000117879 0
25.22916666664224 3.958333335042977 0
25.22395833329952 4.322916669033526 0
25.21874999995567 4.687500003103358 0
25.21354166662136 5.052083336505047 0
25.20833333328796 5.416666669842317 0
25.20312499994325 5.78125000397244 0
25.19791666660968 6.145833337322924 0
25.19270833326647 6.510416671347334 0
25.18749999992573 6.875000005198308 0
25.18229166657996 7.239583339402762 0
25.17708333322847 7.604166674006945 0
25.17187499988757 7.968750007869894 0
25.16666666654491 8.333333341856315 0
25.16145833320392 8.697916675725455 0
25.15624999986355 9.062500009551652 0
25.1510416665306 9.42708334285754 0
25.14583333317543 9.791666677719402 0
25.1406249998306 10.15625001185779 0
25.13541666647126 10.52083334701201 0
25.13020833313536 10.88541668052437 0
25.12499999979433 11.25000001439681 0
25.11979166647349 11.61458334685533 0
25.11458333315809 11.97916667893395 0
25.10937499982347 12.34375001235711 0
25.10416666650693 12.70833334451501 0
25.09895833318476 13.07291667706603 0
25.09374999985275 13.4375000103075 0
25.08854166652795 13.80208334304352 0
25.08333333324327 14.16666667297151 0
25.07812499994489 14.53125000385754 0
25.07291666664035 14.89583333517551 0
25.06770833336538 15.2604166644238 0
25.06250000006882 15.62499999518263 0
25.0572916667336 15.98958332864792 0
25.05208333341046 16.35416666126748 0
25.04687500010878 16.71874999238476 0
25.04166666678705 17.08333332490666 0
25.0364583334479 17.44791665864697 0
25.03125000011321 17.81249999207509 0
25.02604166678298 18.17708332519102 0
25.02083333345432 18.54166665819793 0
25.01562500008643 18.90624999395011 0
25.0104166667187 19.27083332969072 0
25.0052083333458 19.63541666579472 0
24.65909090697006 20.11363636434331 0
24.31818181387862 20.22727272870713 0
23.97727272112545 20.34090909295818 0
23.63636362933978 20.45454545688674 0
23.29545454074166 20.56818181975278 0
22.95454545175678 20.68181818274774 0
22.61363635870555 20.79545454709815 0
22.27272726938004 20.90909091020665 0
21.93181817642107 21.02272727452631 0
21.59090908415283 21.13636363861572 0
21.24999999070893 21.25000000309703 0
20.909090898365 21.36363636721167 0
20.5681818062032 21.4772727312656 0
20.22727271532826 21.59090909489058 0
19.88636362288735 21.70454545903755 0
19.54545453222531 21.81818182259157 0
19.20454544067146 21.93181818644285 0
18.86363634917439 22.0454545502752 0
18.52272726008306 22.15909091330565 0
18.18181816691119 22.27272727769627 0
17.84090907624678 22.38636364125107 0
17.49999998161302 22.500000006129 0
17.15909089129634 22.61363636956789 0
16.81818180107666 22.72727273297446 0
16.47727271035784 22.84090909654739 0
16.13636362113641 22.9545454596212 0
15.79545453028867 23.06818182323711 0
15.4545454400335 23.18181818665549 0
15.11363634812483 23.29545455062506 0
14.77272725866684 23.40909091377772 0
14.43181816866006 23.52272727711332 0
14.09090907805834 23.63636364064723 0
13.74999998745307 23.75000000418231 0
13.40909089754563 23.86363636748479 0
13.06818180839043 23.97727273053652 0
12.72727271853859 24.09090909382047 0
12.38636362812021 24.20454545729326 0
12.04545453791708 24.31818182069431 0
11.70454544876188 24.43181818374604 0
11.36363635991656 24.54545454669448 0
11.02272727049761 24.65909090983413 0
10.68181818161208 24.77272727279597 0
10.34090909059876 24.88636363646708 0
13.53936447392977 5.430518861761812 0
13.29549512714208 5.795495130527656 0
12.93051886163336 6.039364473982978 0
12.06948113743464 6.039364473596931 0
11.70450486924562 5.795495126915347 0
11.46063552506678 5.430518859339278 0
11.46063552603309 4.569481138327832 0
11.7045048727207 4.204504869609567 0
12.0694811382365 3.960635526070925 0
12.93051886277896 3.960635526491545 0
13.2954951309342 4.204504873264463 0
13.53936447498188 4.569481140778189 0
23.53936447355998 5.430518862654571 0
23.29549512629944 5.795495131370292 0
22.93051885878755 6.039364475161753 0
22.06948113763989 6.039364473681951 0
21.70450486886492 5.795495126534648 0
21.46063552518245 5.430518859618539 0
21.46063552641138 4.569481137414567 0
21.70450487359473 4.20450486873554 0
22.06948114105052 3.96063552490532 0
22.930518862583 3.960635526410373 0
23.29549513128127 4.204504873611536 0
23.5393644748571 4.56948114047696 0
13.53936447365637 21.93051886242186 0
13.29549512687994 22.29549513078979 0
12.93051886148198 22.53936447404568 0
12.06948113686453 22.53936447336078 0
11.70450486830503 22.29549512597476 0
11.46063552461264 21.93051885824288 0
11.46063552634363 21.06948113757814 0
11.70450487312006 20.70450486921021 0
12.06948113851802 20.46063552595432 0
12.93051886313547 20.46063552663922 0
13.29549513169497 20.70450487402524 0
13.53936447538736 21.06948114175712 0
23.53936447334172 17.9305188631815 0
23.29549512485563 18.2954951328141 0
22.93051885758087 18.53936447566158 0
22.0694811368185 18.53936447334172 0
21.7045048671859 18.29549512485563 0
21.46063552433842 17.93051885758087 0
21.46063552665828 17.0694811368185 0
21.70450487514437 16.7045048671859 0
22.06948114241913 16.46063552433842 0
22.9305188631815 16.46063552665828 0
23.2954951328141 16.70450487514437 0
23.53936447566158 17.06948114241913 0
13.0357142863834 15.5 0
13.57142857334916 15.5 0
14.10714285783675 15.5 0
14.64285714470339 15.5 0
15.17857143070267 15.5 0
15.71428571720997 15.5 0
16.25000000702564 15.5 0
16.78571428904744 15.5 0
17.32142857412979 15.5 0
17.8571428511085 15.5 0
18.39285713616606 15.5 0
18.92857142211578 15.5 0
19.46428571101452 15.5 0
20.0 14.99999999601014 0
19.46428571160309 14.5 0
18.92857142040583 14.5 0
18.39285713577575 14.5 0
17.85714284336419 14.5 0
17.32142855637984 14.5 0
16.7857142655791 14.5 0
16.2499999775787 14.5 0
15.71428569556309 14.5 0
15.17857141150299 14.5 0
14.64285712475407 14.5 0
14.10714284117721 14.5 0
13.57142856006613 14.5 0
13.03571428124737 14.5 0
12.5 14.99999999867727 0
13.70971086976105 12.32114670976116 0
22.55629248234584 9.055040273218244 0
21.66025449861103 13.69206431630549 0
16.61259674190739 20.25756280112897 0
22.42640132594885 10.15355201307941 0
16.54312626397946 19.06119702883889 0
14.8260415641385 16.61831178475674 0
14.15655374782425 8.237759115314905 0
12.97576909488291 6.912429500969646 0
15.53573485247198 22.0128672812075 0
24.16303867222599 14.09110630894956 0
13.77704576506348 9.074448471853586 0
22.49802002013724 13.20296615823807 0
14.31427067481748 12.6486299903353 0
20.73227526575638 5.84951632698079 0
18.69225613391547 13.58883999504677 0
20.48860686170719 19.23088351469212 0
23.04001570972998 19.60902197443239 0
20.82221846384678 13.51021743996914 0
23.71321627591708 15.13737921419558 0
18.11320002583387 17.48643839866881 0
11.16188060059865 11.69538950150953 0
12.46791851769568 9.055573444163496 0
23.80275486568344 13.19911061869153 0
21.02752599043799 10.90799956880539 0
17.3385430378064 17.33673311275467 0
10.72008852361164 10.94401598209899 0
22.07949547279402 2.975459546059317 0
13.35961940574459 10.48673442839068 0
10.6298785126952 20.08511672245269 0
12.45361468515905 7.986027930532837 0
22.44684339373995 12.13730726892433 0
13.04000349545147 9.096563144376605 0
10.75710855900603 22.60975337445097 0
23.84416248719594 9.066506959218948 0
16.65975393662677 22.08135591605646 0
20.91831516772683 19.68676371174432 0
13.40200422026587 8.846009620685912 0
24.4991997289919 9.250993343612851 0
18.44020598157929 21.18908931514645 0
23.19816937675688 8.52832513941069 0
24.443754126796 11.76996625529168 0
15.39225246579514 19.31912519778793 0
10.78472237569468 13.84810745375961 0
17.27567018741553 19.7659981271649 0
23.36123434741297 15.35188973047986 0
19.84488814481221 21.00373116803731 0
24.35530909997562 7.452935715550375 0
13.10657334022576 8.526779059049643 0
19.82142856787083 13.47873311965029 0
10.37471676653715 23.69621320922125 0
14.17727499510956 13.28828676479146 0
21.50866865072297 20.33518145699428 0
12.76661029418527 13.14167898119072 0
10.48070103375724 11.5221643865743 0
16.85962837588966 16.82729729826236 0
10.53966438127565 15.02042817350865 0
20.95284574714971 20.70707628790622 0
24.33227551501618 15.03290220378676 0
23.03178560681019 11.1392817982668 0
10.03356011767221 3.823260231254618 0
24.03270074382245 6.723589111072357 0
14.87257620632683 21.99629723272356 0
11.67755848645901 13.60402678371133 0
12.17088046972922 18.77254274307493 0
11.10307852772139 9.270380073803553 0
11.15062106259993 23.35199772655345 0
17.86259393705473 16.58862251768908 0
10.97080962964802 6.645812163907436 0
20.71685045643616 9.44902812923326 0
14.13379036170286 9.909210397862505 0
12.62094102382322 16.71238144177461 0
11.73231688837308 8.563174991284894 0
11.56414621851453 15.33527920313223 0
15.79796558393893 18.32040275851779 0
10.75625051092967 5.806247474521497 0
21.13042603202123 15.70860666196351 0
20.53832311561699 7.254458736309523 0
11.82021207308834 14.02697695357935 0
19.25648359091016 13.11688099570717 0
10.77670539609176 8.29933551020255 0
21.03257058858987 16.4214475996822 0
22.75876188372267 13.68261237068301 0
20.36920588810982 16.63070762205894 0
17.93768826361357 19.53477432348375 0
24.65758171113815 3.94258879170569 0
24.52914501476952 5.17414339845629 0
13.47584112760443 18.17425255266447 0
21.15174389267944 7.25796778509142 0
20.69547200859379 10.23449464183961 0
22.80584968279737 7.07678582568056 0
22.54094239992938 8.003921219862942 0
10.86351596970658 3.576238936109843 0
10.41520590480313 10.47188839351337 0
15.98925066617864 21.96283594682457 0
20.79711777245097 17.16127566324144 0
24.26015401841649 9.850634567845633 0
10.6949829233646 20.81837562899198 0
10.64380785032422 16.31968589227312 0
13.29498706195031 12.00818995702656 0
18.63037313396984 19.91901196498744 0
16.94083767258138 18.01770536939284 0
21.53561052257327 19.15491339797489 0
21.6570712304191 14.68763770974978 0
23.56349434608069 10.29058359438095 0
19.02186408770157 20.21573433125172 0
10.48620601500988 17.91840321216094 0
18.32018601482499 13.89351043184342 0
11.88074359468044 9.51881687267941 0
20.26937182510598 13.08212439082133 0
10.73960476087412 18.62625350888621 0
21.50584632988219 11.64164795446686 0
10.33640503338247 3.938230415609783 0
17.68817853665754 21.58391432464259 0
12.32055448014052 17.88279409302719 0
19.23955969887395 19.23212425039256 0
21.8772478022242 10.46854233626786 0
10.44140902532029 5.790794531474157 0
23.28242135354154 13.90008714938345 0
20.55272175181118 17.8021920944633 0
20.90919549700983 14.37276718263132 0
13.33995245857603 18.70249657729951 0
11.56212228973404 3.32258551772367 0
17.77482493224609 20.45043823669263 0
17.88283261615297 13.34754481112354 0
20.05942766912441 19.67465544540057 0
14.68877921662883 17.82275546437965 0
11.01032569730333 10.46633366803554 0
21.57529046136787 10.95043841919107 0
14.32041924730278 5.871738166023999 0
23.36922299600726 14.70436384240582 0
11.03536303547396 17.89020282311024 0
21.06306512325617 18.65411076544003 0
14.52960269947794 20.16357716416046 0
16.94042471482459 21.38945602295801 0
20.31263192248218 18.62962749344047 0
19.71045544137908 16.88516900212096 0
21.05062542358162 8.676892815254352 0
13.88015251004917 17.19971241765657 0
13.28238354307105 23.18398982768622 0
23.91438953083323 19.20413811466076 0
17.96218129778768 19.06252057128087 0
19.30582495195257 20.5311112640032 0
11.45963657318801 7.689514756992057 0
14.35242599496772 18.76252987778319 0
19.69432133635175 17.69511608612038 0
23.492359657531 11.94960883120904 0
15.65514680944578 17.39081568225729 0
11.14810615599957 14.6592216055326 0
15.65733595693236 20.96158686385859 0
12.9785721716488 19.09405523207031 0
22.09269495716298 11.12114864913588 0
15.7662269774045 20.2292081103606 0
23.92626213709373 14.59289956541596 0
23.54892879658831 7.795399197988836 0
18.40708598627729 16.18394492947957 0
16.92262010011319 13.56471727958779 0
13.65641891741682 22.64541571649344 0
20.84010896037828 11.72559402788031 0
21.39736348801237 12.34755576422158 0
13.16374918007155 23.58849898548426 0
11.29874277107909 16.7094423093579 0
11.5241208337971 13.23561753468095 0
22.01372920357415 8.00625423432705 0
12.19808901205295 7.070920912471055 0
11.54127232243177 10.50348778014724 0
14.18734606706337 22.59290725878365 0
12.4374876274564 11.89988808355495 0
24.19316797101433 8.1912752167153 0
13.71753202960466 9.60341867921849 0
16.38087513991184 20.89119996560592 0
11.81135002739655 11.20773905107446 0
14.66106132769294 19.40850545406096 0
11.40657104099247 8.220691242538237 0
21.34268915427434 9.890764745955313 0
14.45868435224875 21.13500943222787 0
13.43374529551672 7.657081650649921 0
15.27858140272232 13.50869607090013 0
22.04984377276507 19.74882935955144 0
12.98959702775698 7.989569933476017 0
10.66120735642292 7.493973437910039 0
20.29228479634597 20.51526461831715 0
20.9873331137273 6.675870271282593 0
21.56382537663688 7.654160817420335 0
22.52487306508581 14.19885007275848 0
24.63562561621763 11.06068008245704 0
24.22945659673591 12.45758915430025 0
14.01890664687643 11.27030099578094 0
11.71041602942788 12.36115454266771 0
13.198489642212 9.621452015952393 0
24.1341747986285 3.576744225032852 0
14.33871901948861 11.91144447693173 0
23.90685818507522 15.71929672637332 0
11.36776764248041 19.04067710588036 0
23.43654609455821 3.322293793366188 0
14.32043185836834 10.6434865868198 0
24.07028863378452 11.54870702446461 0
12.45079616968923 10.04793755307178 0
13.88709362264397 23.12291350774958 0
24.14728630560373 11.14155838505482 0
24.12917331516223 4.852601787764821 0
23.16824244683938 9.586064576988544 0
10.94582903560704 20.06784080978254 0
14.11628014966491 8.794079172656946 0
16.39859446878649 21.54725498546431 0
18.86105569995932 18.24723047307085 0
12.55517772767965 10.94809618940858 0
20.33259718012484 7.599068523964851 0
11.30302623555636 9.897014506865506 0
23.65852532833041 19.78930845911667 0
14.03496289028635 6.671707326877348 0
21.79098864735331 12.9833673009919 0
13.20517545251522 13.75661553000226 0
12.31191689462422 8.554417933496755 0
18.61359161767029 18.88783750244603 0
10.60502028807043 4.529715305284959 0
20.78688846308663 7.946449602410564 0
23.41146645186857 6.478949360578937 0
21.88450003950044 8.517389265918942 0
24.21604843899769 5.865846090568016 0
13.22957950969007 11.50400094634078 0
10.93943205659147 5.370980506596522 0
22.79190243704286 13.38386663921755 0
12.01264135304846 6.563827450272018 0
21.89082632397038 9.24221539639942 0
24.20909640992611 16.52445285887123 0
21.91394781316153 15.6918198910514 0
18.41882086151895 13.03595853369303 0
10.99119945524459 15.73381191440695 0
11.81488724531145 16.06402194228621 0
14.2645272449109 13.69694757578349 0
15.14571854999257 19.99638552022512 0
10.55788375277192 23.36053515892799 0
10.69655228955519 10.04233372160931 0
17.60878726565473 18.3474756891926 0
14.5210084192588 8.73568146878144 0
11.64069718635587 22.98284669009698 0
12.84343446444407 19.77343836142996 0
10.40288192652765 6.961609140412251 0
20.62110714023191 4.472292193275993 0
20.84549396106115 3.568702224859964 0
14.15450603926653 3.568702224404962 0
13.69473510998097 11.74598225058963 0
23.67178223110752 12.49678829047026 0
13.43395011337979 3.278037376273439 0
13.7021990352775 19.08037856788638 0
20.51819299408727 8.78273041140687 0
22.78625228656327 15.85318026865727 0
21.03333333349664 3.035133612346153 0
14.81167657781581 22.72351183852601 0
14.65168765570946 3.920175998954506 0
20.55129023673718 12.21791495539618 0
10.54742669523683 13.15407237564694 0
21.99593658072424 6.902903251624776 0
12.95234532609252 6.471966227213915 0
18.91121500420434 17.86940010790407 0
23.96666664885977 3.038365099400719 0
12.11688126615286 13.40640348699232 0
10.53473187739441 3.67172695182332 0
23.43262205729894 11.25817850606765 0
10.4044238267819 12.09201273376349 0
22.97199050597446 7.607527049163763 0
15.40034178939218 21.56932540957724 0
21.26424834370053 10.42950708793847 0
11.54245486097789 23.56222502074437 0
12.14684644780924 19.51318698431222 0
10.17254398027339 14.25523347940487 0
22.20523536401155 7.463877302840743 0
13.31587954490395 20.2833997089668 0
14.41523644810939 9.305060486495725 0
20.51191079729821 8.505281856436955 0
10.08010105368231 3.230942091727754 0
13.7646704774855 13.44529027165321 0
11.10314169325165 24.24074316287639 0
14.99764352428411 17.21368290442116 0
23.28286462898539 10.63175880121441 0
15.92458234542145 18.99781787518159 0
24.58429699950576 3.054858126209112 0
13.50015013542127 13.0258209752098 0
23.1748490835655 12.71206331370101 0
24.2338944803187 18.34809580569728 0
14.56907646513502 10.19838523748943 0
10.38414498841563 3.12196465984293 0
24.50457457452149 15.81763226700363 0
12.77855580634669 18.42354177401328 0
18.77100773777519 19.22403961181956 0
19.36451672357088 15.86366657056046 0
13.66631018409633 20.71973258752907 0
24.59833209771521 6.377262273882747 0
13.9343642712958 7.773157116761577 0
13.89615238889532 22.29887838975564 0
13.09817220996315 17.41702393380597 0
24.38675452961879 4.536211869475729 0
24.40208333613446 13.50085656144665 0
12.7930829479774 7.462815440506693 0
14.67975601887382 9.720711855095058 0
10.78482705340404 12.56286104557591 0
14.85807572220223 23.07006711485506 0
10.49635419246199 20.62369534194439 0
11.59909218412326 18.19333762375052 0
11.55198105245956 8.894767396603196 0
18.85741532791346 16.72046873567971 0
12.77982719713073 10.50498726301942 0
11.18701551976953 5.987608682512395 0
13.40941110313256 16.45335197649771 0
22.51989603425341 15.33561621163269 0
16.49638185079219 18.46154432898558 0
14.5845293099741 7.890217790533034 0
10.51104788003126 14.38110270347307 0
11.53422836435686 7.099976082298044 0
19.50706306782334 18.54164653875241 0
10.29857601681131 19.03434340716437 0
16.63570674202671 13.08314474365567 0
23.74646508224611 9.627952448327251 0
23.77405441765507 5.778234573492451 0
14.56716536323682 21.58792612199237 0
17.44118656123113 13.88736142901908 0
23.35390513470568 15.98584775086032 0
12.63720951845852 23.40339090650435 0
16.06777742031181 13.36145487723836 0
14.1378632427988 18.1407687963278 0
24.3135657490111 2.841045043074708 0
15.99653872645865 16.48732008229463 0
12.34700263717849 12.46431594442729 0
20.94209099714018 5.455147523051065 0
19.44695454768023 19.808261404025 0
13.23978832686606 19.50987206641793 0
12.49999999938706 3.175277778064581 0
19.98746006212321 18.0935669278125 0
22.49999999378819 3.175277778105255 0
24.49648729400831 10.47748160474421 0
10.89416556719778 8.90355791346609 0
14.72931008670317 16.13781054184086 0
21.29017425400402 9.320250628014177 0
24.60078380553708 6.943567956709655 0
23.19591286202812 11.54683750837081 0
21.57045475535722 15.39411907126886 0
21.96964914036124 14.22451322134451 0
24.55705936765001 16.27198511087757 0
21.21243079695776 13.06975859844998 0
11.98925178487673 23.57039548868614 0
14.43768224791399 5.159283857030885 0
10.29589852967919 16.10035156532864 0
15.63053339762166 13.84371960905264 0
23.03724373504666 14.30155050755879 0
11.28147255597962 22.6149676394506 0
12.07729122832043 12.12539174503962 0
13.96463070543764 20.52136505722287 0
22.01394044876743 12.41102145904615 0
21.7691001135144 20.62977484783493 0
21.06915679681041 4.122089617204472 0
13.01720749683682 12.46677179300082 0
11.6571586984631 17.5173074563853 0
14.37889286066862 4.472292201003081 0
23.95746585638771 10.31645542389608 0
22.62303477250453 20.16343728321699 0
20.56222023319329 5.159322124511005 0
20.92650874431992 21.08030759979125 0
13.85641035946628 13.93768963590858 0
16.87265298876714 19.58435503615036 0
22.61730103159489 8.50791888310648 0
23.24087485693264 13.00971258586092 0
23.98923565788164 12.02576537270427 0
18.90381069233399 17.47265537401934 0
11.96099082810259 16.96208870288569 0
19.29449405298009 13.84501939549191 0
13.61342717929101 19.86455205663889 0
20.23193937741432 4.325241842446269 0
17.9185731342113 19.90634906805654 0
24.63036471102318 13.97799526083039 0
15.33983520543155 17.91134490608045 0
14.31677075275868 7.429852360490517 0
23.12407358840165 13.29182173094253 0
23.37925962307663 19.47908085959881 0
23.07887072667783 9.070524543943538 0
10.68328471006913 17.13204235983062 0
10.2709630417835 8.482853978651415 0
20.92360165825136 9.808220220839164 0
24.63109532018196 8.689906204975328 0
13.90837635218042 10.87234084027005 0
20.40324669785717 9.83680519224315 0
23.53776990072185 15.71152327059722 0
11.41312139424556 11.37108978895141 0
10.65238554073834 19.28025368297963 0
20.53023904851583 20.96517474850551 0
21.56604988403377 3.278037374617337 0
21.49716003322336 19.752089494365 0
20.73457066947213 15.11671705567057 0
24.92260197824758 3.223970942361803 0
10.14665808660685 6.668468566727489 0
18.77331462822335 21.56940699284286 0
11.85200113396053 19.12901108237871 0
22.14797035222311 3.593167295185677 0
10.7100784797795 24.01207972109386 0
24.21890093697239 14.39837121394611 0
13.48316938749354 11.03917040442008 0
20.73264489244736 12.73509738413918 0
16.12450445576827 22.37041834157423 0
11.03333333486568 3.03934378987764 0
20.30956054526845 13.91962715139431 0
10.74855465883455 3.225182334832875 0
10.72922547111335 21.99671707049471 0
13.43679604059655 8.125965109579436 0
20.65823680120955 18.85126898996134 0
23.85618973714377 7.329225086813755 0
24.64630695964625 17.47494433200255 0
14.11247626184687 4.838514242201463 0
14.45779516433926 8.148999451653987 0
17.25728557806938 20.23892073262052 0
20.88751244939761 4.838538221284916 0
19.74255993813125 12.98022230778809 0
22.5809871355573 11.07738557877747 0
22.06367976143366 10.76818839908677 0
23.92056036279742 6.101055820349326 0
20.24488060170248 17.29550463258182 0
10.49718999551477 8.985451610454197 0
20.43695146232887 15.90861790174226 0
13.0048702595789 17.95874950724362 0
10.35392584507572 7.985676170270034 0
20.39483440992637 11.61665067907727 0
24.77400211600926 14.27707228627742 0
18.26551295721034 19.74874538696253 0
19.15311878811157 21.20605401285361 0
14.75564021587851 13.03308573110297 0
24.77277978450406 11.42486447524734 0
12.38725554662271 23.69176583742486 0
20.84443275530028 20.32585304916763 0
22.5196987823617 19.31639740015783 0
22.92696827922707 9.982566731359348 0
15.45068624914344 22.45835257189591 0
24.30993930262765 17.21090798222493 0
13.94108077542846 4.464449038699182 0
14.01167966005784 7.115976262826595 0
13.47685195664868 23.49873772828138 0
11.22490892108241 16.28669249789079 0
10.49916250256411 15.73617296458943 0
10.47659994556591 5.163692352524196 0
23.98002966916573 10.72447392361547 0
18.25673368958308 17.03771370425174 0
24.69564179351603 9.620626941857052 0
16.42766408484412 13.4770035311385 0
17.98003853053654 12.97708970127019 0
24.73009237798006 4.789529946448682 0
22.97473329896924 8.122745424629915 0
23.36193755365485 18.67438099981665 0
24.07093144734713 19.89718586218458 0
11.91916853485062 9.058464963008188 0
14.11243172759429 19.43904885385438 0
12.23683582910023 3.161878922137963 0
12.18270202382813 10.95914583600688 0
20.39173190711114 3.144792019206092 0
14.87178200470317 2.86930917222729 0
12.8666666638535 2.732506710871565 0
10.79150411727157 15.35910745081811 0
19.77782794212669 20.33320478705584 0
14.60826809118415 3.14479202021774 0
22.14190411172352 11.45506011338575 0
22.27477001273702 9.794727400902957 0
17.74612680629862 16.03638443621192 0
20.47427482587548 10.70401863591464 0
16.98485933128396 14.05935473742564 0
22.39607788837888 8.77296964810121 0
16.45871841573896 16.05942155470617 0
10.3193981707834 16.84162086117522 0
17.11825116427934 20.67655490899537 0
13.52813968029278 11.41360896036678 0
19.84883154273186 19.05955799945876 0
13.08339080827347 12.87115084679414 0
12.41864303666316 7.672458911297426 0
22.07422519291003 20.38196972830765 0
23.5157873131285 7.158649594773193 0
19.03480748210349 16.1184044885957 0
14.69645947395039 5.536002320052718 0
22.88535149948558 10.50998023977037 0
20.01775814702263 16.51137054965719 0
14.49593605763728 23.07414397572162 0
24.17331940574087 9.049081753327496 0
17.41605556968934 17.88436511090106 0
18.58055518269303 20.60449642880557 0
20.41991945491802 9.013210222030153 0
17.22708617989414 16.21139773215611 0
21.34854187377093 14.18662263400332 0
10.34742432543351 12.77398511085385 0
12.15326320510048 10.56385619012691 0
24.4679903416415 3.677455618583519 0
14.35223688117995 17.20529245282337 0
22.50587660730929 11.46521186246525 0
19.58784277301699 16.31327983065269 0
21.73288323468057 3.707161475455939 0
20.3123929572971 8.14692720244086 0
23.78727841949403 13.74728204991475 0
11.47679286155765 19.67821599947706 0
12.44244928792075 17.35054622055642 0
15.04527096577815 18.60473767047715 0
10.22121578602882 13.55436279178196 0
15.02437557713621 20.63719105904601 0
11.35633496977981 23.91932200027496 0
23.52690899580544 8.776764398535116 0
20.53261911172619 11.21974813765299 0
22.29644070455256 8.320285388237044 0
10.26305180181887 15.38749662950632 0
22.64089737722109 19.72466500859548 0
11.06702249784673 4.129390637947434 0
21.12909971427564 20.06177638591664 0
15.56584280435399 16.84174397273959 0
24.39977366149158 19.56843352344371 0
15.44642857395631 15.7874411038381 0
17.66450544116838 12.80367323301743 0
23.16924806912044 6.87528869680774 0
10.81542930825345 11.67112674084074 0
10.1664525158714 8.790818948991902 0
10.32032039786078 18.27690147837973 0
21.20935926536986 6.034433303655548 0
10.26245283994509 4.778387984087023 0
12.58625632514578 23.07527378889201 0
11.62807192796551 18.65737186409628 0
21.95148158397785 9.837339604188603 0
10.89713978424548 12.89999423777007 0
14.19277865131863 21.96861803262659 0
23.57181141830664 10.90443598176563 0
24.30587859071458 10.16560124912863 0
10.40442886040568 9.561846648379007 0
18.35436270965247 19.4064325335692 0
24.63308955490411 14.88948376142106 0
10.38494326724668 6.355798882633946 0
11.38915706104775 2.907956500140395 0
10.30418472736548 24.05059028049589 0
14.72076123805285 9.080737362878383 0
16.86223328391533 17.51921905969852 0
15.82247322858842 21.36203669757094 0
14.5665220386507 6.556877320225137 0
13.84594810089519 18.57622396685265 0
21.45707858806447 7.352189491863188 0
18.95849901619131 19.56963914153082 0
15.41444064992255 20.16382281279717 0
16.04622645547841 20.5595875436335 0
21.3843898718537 8.198779474061283 0
23.79393630770274 18.26927136634902 0
13.53876317295023 10.00150198502702 0
11.84335579534314 11.80063934690876 0
23.42842890739299 9.133438979148393 0
20.40069693059731 6.535147060040672 0
20.29621591806794 9.512039262285871 0
21.78362941782352 19.47374871336684 0
20.96151773916552 12.11158669583363 0
14.06478696556132 20.07301533069808 0
11.61306051847894 6.483839265930379 0
11.32405766633571 13.73318181399103 0
21.76662680430676 11.91284733503352 0
17.20373978297985 18.89350815930491 0
14.06663502700491 5.458409343613842 0
24.73601396232726 13.25769251170674 0
24.4943117869385 12.97031972238928 0
13.92603633047408 5.132928992785897 0
17.25435582680421 21.97092419594598 0
23.69143941077344 18.60668471060338 0
21.47088815964035 18.69522275843354 0
10.74196077830209 17.64633571472893 0
11.29532034246228 10.99807958918024 0
14.28828194877072 17.6595828385256 0
21.37638147899965 2.886594278674028 0
23.31146410992121 19.07881273207649 0
21.24810442619043 11.10045459008438 0
16.26246640385408 18.77787919472189 0
15.48492996535895 20.47908621512203 0
13.52730759793896 13.72523978989774 0
23.10423128414889 15.01135789638938 0
16.4073739602793 17.4276002685565 0
13.4307128576523 9.344155027825611 0
11.18563196962949 17.45106350127999 0
13.79030903282828 6.032075823812853 0
13.69236329128019 8.51908899015816 0
14.48889428697514 21.98817442325591 0
20.34831234306512 3.920175994539343 0
21.69520491709396 10.13093449004896 0
10.99845619720696 22.28895606613809 0
13.69161190188011 3.641397661771158 0
16.27837531243956 19.68299247604267 0
22.84268673204474 3.593743725326967 0
11.71595696760422 23.91034074654963 0
13.74491016737126 7.44538085755272 0
21.55471108833402 6.426204362425333 0
10.19673421271721 19.72967366489369 0
14.17423343251552 16.77839061973419 0
23.76021202180649 8.510483043731968 0
13.38638961822823 6.464068036613996 0
23.06098627697773 3.010714525199557 0
11.92507006938785 8.091982109017604 0
24.18956421761118 8.759722975249762 0
13.07597000425155 16.87225713991226 0
22.5718551482993 9.559971699823334 0
23.61495621689586 14.18360290637567 0
10.29204170690005 21.9448613552382 0
24.47452209170304 18.94141391394393 0
10.12019816254456 7.745433765327492 0
22.89651517235923 10.84362610342082 0
20.52255107091133 18.23014102703338 0
10.23369169650167 3.531416225228051 0
24.05606229527335 15.31704242639553 0
18.26503054910596 20.71806086471092 0
13.34149944810092 19.14614997685698 0
16.13379743089855 17.9323398409164 0
22.85221409662531 12.97732373920442 0
21.07298258503734 13.88277985974727 0
19.13305419555966 19.87901623640174 0
12.65817466166452 9.545980190607635 0
14.24846032364847 20.34545471699502 0
12.50326410390993 19.49476570657792 0
22.38316751739506 10.66092911320017 0
10.71733856749413 12.04619765393691 0
20.40799809283781 6.107319560434776 0
21.51900386943714 12.71199995917065 0
17.30436358211539 16.76505197105973 0
13.96666665651275 3.035133613919421 0
20.73488911440891 3.229916382154071 0
16.70175054903787 20.61138316526814 0
16.5885578179675 17.0922377760356 0
13.62361851475458 2.886594279355751 0
11.84310340665405 6.860756673718059 0
10.82707512643855 20.46419388009649 0
10.1788482624443 9.229349422127143 0
22.35244347136855 14.49414553711188 0
19.92038056346043 21.37273715300666 0
14.30995575168194 11.44481815511991 0
12.02353650433742 7.597339602766899 0
23.5130770364708 13.54597006336427 0
18.62296328084195 19.5793106771211 0
10.16043518393513 10.70934314118448 0
13.57221962484148 7.116745181728398 0
15.06209935265533 19.08911412476627 0
11.03683416445949 22.82069185848489 0
24.79134776050607 6.070718654007202 0
22.85193012201372 18.98457012076177 0
22.76800562729579 14.75883867036225 0
11.48913194809591 23.22099137243157 0
14.07988396458653 20.93212647004886 0
23.27373306101232 20.06650580481233 0
11.84754323221944 14.67303992238512 0
10.36934339777674 11.09909605145767 0
18.77536704770797 21.32059169494372 0
16.32797692407281 22.12362440471409 0
22.9513477459942 11.91673934354754 0
13.79240427286836 8.787970543023835 0
14.5285027694965 11.23743131901201 0
23.02128403624764 20.31959366881065 0
22.08453586589211 13.26540323152791 0
24.89253926374452 7.423275701090072 0
10.11305382441413 13.92339220624358 0
20.8775168620543 10.56712109095903 0
22.99028303328499 6.575451149791602 0
16.93670079856154 18.43777317484053 0
12.21800633293337 22.9370636704818 0
17.33001732802833 13.04151634454833 0
12.80723302674377 10.78164570444798 0
16.97822806274931 12.82737609262383 0
19.76413307907151 13.99477520334214 0
10.22998860690199 17.16834033771109 0
18.21630370412879 20.28457287439905 0
10.22689435632304 5.579759411290175 0
22.6050165855011 12.67115291010921 0
10.46703696457471 20.34711933601855 0
11.77480543478161 10.80452418585136 0
17.83542864540762 21.03672380829137 0
21.30838809788196 3.641397659637208 0
23.98534817279162 16.93350870772511 0
12.77364515110824 11.87848161442067 0
23.53932830624538 12.87996675955585 0
10.9587985806095 21.19358910884862 0
19.05437273153667 18.74179148060028 0
11.90999736921376 10.06538832838374 0
14.26511088226671 3.229916377953777 0
23.7956459027333 11.80563989199802 0
24.05013780255777 7.877282474213191 0
11.196513542935 8.656671688436596 0
21.45181626441682 11.31886842155725 0
22.42431252086317 6.641757769275414 0
14.1751753038537 16.26201293095813 0
24.45511247205843 17.81610889276814 0
21.30264516211071 18.27691625728863 0
15.87010515957755 22.66859414886904 0
10.18280730478453 5.99285214946009 0
24.221167165721 7.123526562878516 0
12.71384940653979 8.282435133223116 0
24.83193226709401 6.681513878032916 0
10.58120928197908 21.37962754176286 0
23.71502820088009 15.4474262736083 0
15.53571428815681 13.03710047931926 0
19.48414454171337 18.90443416711297 0
10.17049353443381 15.74319131780851 0
14.05001666336147 11.66245450560047 0
15.2364553380359 12.78407908875192 0
14.09952175840662 9.55797142849747 0
15.11976451465121 13.95433327328494 0
22.04920008866898 11.78200036017942 0
14.97133496998296 21.58791932455727 0
24.53482410471818 14.49591556543985 0
16.08438792368013 17.05764508453883 0
23.67457698191064 11.44663303122631 0
21.14102312242094 14.81321580970842 0
10.45062023554725 22.30612113816352 0
12.87324552728188 13.61605567436141 0
13.0763047694337 3.273808805098586 0
12.2668283009327 12.97204929657298 0
24.3480748737172 10.85386302234085 0
20.96204197548779 18.09391665997487 0
17.72463460024693 17.57244270533868 0
23.9313066119458 4.126706862923232 0
21.69888602609505 8.0043804079491 0
23.51079439652744 8.173622599290363 0
13.85376476192003 10.39686302840145 0
13.11872119883563 10.95990537131366 0
13.93084320512877 4.122089619654254 0
12.00900980151714 18.28760648982716 0
12.84872288330814 10.04503659558412 0
18.29228126452373 13.42822630108508 0
20.26368442141751 19.94205662242392 0
21.04566199507879 3.816330610739569 0
12.79004987777257 23.72296702447731 0
12.09584549367201 16.53905446595853 0
13.37670122513115 12.59762574836391 0
12.25959702162988 11.45328153712619 0
24.84712855775571 10.40613914821584 0
12.74744622324486 16.00177497168288 0
16.87381412825831 19.16506886007005 0
24.78464463666785 10.75087315544391 0
24.65453321322823 7.921666256592975 0
15.80920757347176 19.59074933092295 0
18.24001201567426 21.69949755730542 0
15.33679885564879 16.15152512729457 0
19.9665430721011 20.61091108166869 0
11.46660089164648 11.9879430908057 0
10.28620804197249 24.5987578265248 0
21.0279685648941 10.15597069616991 0
11.19810950067748 12.23480738943861 0
22.07868476369837 15.28844428314469 0
19.44866586170689 13.50850364703452 0
11.89677828974361 12.86862594622887 0
24.78533131785057 12.56579168664678 0
18.78678212776951 20.97602084759614 0
10.11663305190416 8.203451034186099 0
12.55381444765153 13.89064429847129 0
23.66939805488323 20.14346291426475 0
11.28292369275776 10.30649073532825 0
14.62732033547733 13.83981321877223 0
10.4777289330299 23.00168804985312 0
10.14480122352382 10.27025118652985 0
15.52011837602715 18.83971641761438 0
15.98503690487725 12.98481561064212 0
23.67510688324203 10.60076338368944 0
17.60687529661265 20.12038314934765 0
11.3038834738075 3.648456246602949 0
20.69253345593739 2.845157835516751 0
12.92043395316627 22.90343871396547 0
20.1282179955612 2.869309172393915 0
16.49296359414716 13.94217055840121 0
23.94080498615006 12.33684154739648 0
18.85901134090765 12.98198391448822 0
10.93761668439743 7.993085805842627 0
10.46850932486217 19.83634602162367 0
18.25808435716941 18.41906045435133 0
14.10989780242226 21.39891057428158 0
10.1224275539986 2.868391128140417 0
14.8300316973299 8.742081468611573 0
12.60938578247344 12.25536579696178 0
14.74893932960442 9.429468411858185 0
16.28969651817228 13.15363324570295 0
19.99675231006448 16.04638562130038 0
13.80180068156885 16.37536713337119 0
13.25159615784806 13.36408898304986 0
22.85470503586624 11.47955471517835 0
12.86804120368141 20.11944089995619 0
23.6915364878424 16.36806473404009 0
11.19153220562882 18.43281706802512 0
16.53472973318477 17.82314014287559 0
14.11393658029534 12.30312364495053 0
14.30577160398809 15.87310420571022 0
21.25907192188698 16.10816537420829 0
10.49631083215768 9.28566650368807 0
23.1925387918204 7.909145311637556 0
14.65156901428312 7.076280053076339 0
24.80362238325365 8.93422942042092 0
11.93877522666357 3.011183822041044 0
12.31966254519787 16.97583195212247 0
10.90334068995104 19.01341424005339 0
14.60454103961128 13.3702671767983 0
11.21707714448828 23.66283595084078 0
11.13540424641688 14.15884614013592 0
11.2955073228008 12.77055284507341 0
13.75898506832868 11.11646540221711 0
12.48826153225205 10.64595700423518 0
24.5974614404847 12.22076233447102 0
12.26249441797595 16.01234378118928 0
10.28077492474607 14.68775150253575 0
24.24824192332725 19.23379223330351 0
21.12622689597794 11.46936392963493 0
24.37967626116005 11.3882543132849 0
19.2118739016339 16.59120037091662 0
11.19160899382233 20.63413794599275 0
18.58546758875389 21.81995914675241 0
11.64993315093178 22.61937572174039 0
13.76864927864381 17.7994486079644 0
24.67846919180054 10.12525762202128 0
24.76459183239234 5.519004955778951 0
20.31219885006126 5.508613179274368 0
12.2573655158418 8.225793054777181 0
21.53098813597774 8.861735455166308 0
13.89444255200283 21.77913475994905 0
13.71745797255936 15.98893947970999 0
18.26151322577115 18.78177269126593 0
21.79308409609309 11.29358463542106 0
17.29684979545143 22.29260581486334 0
21.81807273692392 20.06950922827776 0
13.20139445987931 2.878830016346781 0
24.21239461570414 15.67505876912626 0
11.51417722578052 14.89877755736721 0
12.92050452255213 2.975459547714695 0
10.92337584128177 9.822989010355665 0
20.48915000462117 19.6381725112205 0
12.30976526580636 9.667166699494395 0
24.54435283106444 15.33044307454478 0
15.17613260388898 22.85286710175673 0
24.72290690683753 17.15334679026505 0
22.76427890158258 14.39319562375104 0
11.12954346528445 15.16904225254588 0
10.28132520656052 22.6396800378016 0
22.12081931302952 14.85800463121964 0
22.53859180330161 10.44160527563465 0
10.67906103980555 2.847447399295421 0
14.30746653756733 2.845157836368811 0
19.45759269612753 12.80466508567799 0
21.79860553590882 2.878830014963216 0
14.6737739611409 12.6753621272281 0
15.02044802175866 22.42660949289094 0
12.99534447043886 8.80272223936268 0
24.80877121553792 14.62655393775024 0
13.18704882797493 19.88717058222977 0
22.30303342962672 12.46362836390127 0
22.37195763477144 18.94921107266335 0
10.45628968091449 24.35917460850037 0
24.73418353361891 17.99753989657455 0
22.51011542635316 12.93408234881115 0
17.65159581673937 19.72744749240987 0
10.24676034025806 21.54925193737179 0
24.27502092412487 14.72240763298629 0
10.96530158415774 7.221879380485846 0
14.88395582586453 5.831595750074535 0
10.41747709842861 13.94446159944477 0
14.32494090409082 8.461257981772075 0
14.38239236752327 19.07582265274446 0
22.2128887970222 13.67496440098816 0
16.79617051339349 20.98953705304287 0
10.85535049119585 23.60947469567773 0
10.78775476262858 9.500159254428034 0
20.02708947005417 12.81429336422577 0
12.76901351249393 11.34726202808779 0
21.37375359675498 12.07623702369215 0
13.84796856391209 10.09050193225786 0
23.78506909345107 3.324592689528041 0
11.13019977004656 21.91526966338916 0
16.99800473574431 17.14303052386661 0
12.59454068225912 6.632169507729246 0
12.51242219006913 13.46359507504033 0
24.91538694483598 11.06467667286588 0
20.12209431310596 5.864877189766039 0
15.03845299687084 21.1734011940318 0
18.49955243008361 17.73266955301071 0
13.41163687863574 8.421954150571194 0
11.49325532194631 24.21715943127795 0
11.0294217278509 4.508423424156055 0
16.93972536303246 20.00903224792235 0
22.09409462524921 6.454129998630112 0
20.71345503802505 10.91749913080128 0
21.81291501424947 7.30977456851873 0
21.21938163950715 8.986970619293352 0
20.96345475395886 19.13008183428715 0
10.34408421412402 9.90761461919123 0
20.07711913751494 6.585503209198222 0
24.02507118262546 5.472945959399677 0
10.24093640501603 7.363507520030289 0
15.67356730307717 13.4478454613355 0
10.74164556976801 3.93937826647455 0
21.11225840707483 15.28616537961343 0
13.86251720712353 9.808528666441338 0
17.11963504026178 21.054538250242 0
10.91292390128273 13.29199936414441 0
21.56305975734707 16.16496831951693 0
14.42895565047205 9.949751356504917 0
24.5614413316169 16.86974055048635 0
14.71600219696569 4.758603173871361 0
20.28399272558699 4.758605156250296 0
13.91467084427119 11.99370127534517 0
10.86549508398778 23.05672932193503 0
11.0020144021608 11.26306330830459 0
24.48732939571391 6.09545249535375 0
11.17794540971505 6.364504705940669 0
16.44984308988811 16.65330346121905 0
11.62054164547141 20.25676548400569 0
24.75123286873634 8.335587806510926 0
17.39628891266277 21.23430779901191 0
24.81616859404533 11.85119839745851 0
20.4580732378904 15.47159510421649 0
22.09758329782374 8.935150820316473 0
14.43482092411699 20.62386131589867 0
14.6642733338961 6.139479300251306 0
11.02592681758527 13.64630999396576 0
11.86862617168129 23.20657032666007 0
10.60496059870948 7.189164253156434 0
24.61046637417286 19.25076507759351 0
24.42342324594572 19.91969316691505 0
20.28122051964506 21.21029733064553 0
21.95937272654758 9.556696586708966 0
12.53182131804399 11.59918107342547 0
10.26560763190992 19.37135434467924 0
13.04471670156506 11.22900325089337 0
12.54574197673615 19.117079226326 0
23.05943493582729 14.59711159137386 0
15.23065841258209 22.16414749408276 0
23.34635158279975 14.3646690099225 0
12.70576900786285 8.666431816665842 0
22.09363600631325 12.10950420498988 0
12.10573820026082 13.77555453049213 0
14.85704006470113 7.748576705088949 0
12.17609999410987 11.70986167390881 0
16.530672558629 22.43944343159308 0
22.81313645246576 7.883951865185269 0
14.72088882975259 8.393988494808436 0
11.2134128557145 15.49029170557734 0
20.40615795507644 14.24498569385869 0
15.51622329345071 19.81636039213466 0
19.58063241783961 21.37134755905276 0
19.29231730147301 17.99823469189762 0
18.25982908833022 21.97749778483964 0
21.68919378206741 12.33153412737915 0
24.15865551572087 12.88162838546856 0
20.60957642915514 8.213638831058246 0
23.42638261511918 15.00094984201937 0
14.21447729866617 10.2864281602869 0
23.86267073498491 14.0295856041368 0
24.42111716782777 13.80711098885632 0
14.24235242481186 11.00406826546706 0
10.1827770673786 22.99890768674181 0
21.05891761378107 4.464452460369238 0
11.98925766448404 11.46797941478928 0
17.40188270873219 15.87262396833149 0
23.71959809966793 16.05724650683631 0
22.25814322862703 9.424762829650568 0
10.55045481388358 4.192201614018093 0
19.29315883775084 19.55740622685758 0
10.85733759763887 23.34468422577355 0
21.37946101264465 14.5385909894883 0
10.8727498945762 14.97745514745274 0
11.6595465819133 12.65980657886028 0
24.59872570084345 5.807824550997996 0
24.89818791273654 7.767129364130943 0
22.03892502248787 19.05215254188932 0
14.77100314578742 10.46846881673724 0
22.51420744782544 13.86675704179213 0
16.60714285717842 12.74275571314091 0
12.24767482425593 20.18747178236035 0
22.48889874463172 13.51859207089504 0
23.69422514119253 3.648939688246536 0
20.22405539984071 18.94323246753413 0
23.99718996725402 19.51262409441036 0
20.88361832823976 11.18863956016822 0
21.52364604015785 6.981246418874371 0
17.76122356905839 17.13155145600986 0
14.59309094214412 12.3041376116698 0
10.83014806757458 4.904372608923147 0
16.86397124660367 16.41779979831324 0
15.80654116432958 22.26982972631894 0
24.72397579216056 18.72216733223105 0
24.06155430743093 9.36989313644975 0
15.19583711177238 20.3868104892852 0
24.79267653602788 3.551126252066446 0
13.79328610257394 5.747184109560029 0
21.91041381545592 16.09842868432733 0
13.85576401261682 12.72618474613326 0
20.66926111974854 21.21232885163196 0
13.64809883084406 7.896700869085992 0
13.07481409121516 7.691839354080937 0
24.75870311990992 15.56742154718617 0
14.54520260099715 22.33694442370187 0
11.85192452211845 17.86702131327708 0
12.85202964575022 3.593167296015464 0
16.65243516465316 21.6618462111132 0
22.74970847698096 6.780352911640644 0
24.75126606345702 13.67773129571855 0
21.17059771529862 11.7979923777683 0
14.92524567082572 20.24944324551891 0
23.20175695295409 12.26085517787599 0
21.5502104520007 9.509587166827576 0
18.03571428190872 12.69818993561667 0
14.84295398771276 6.415101570515268 0
10.45597848834905 19.56587391124031 0
10.65811013469575 11.25103842782933 0
20.89230587486665 16.03639073929007 0
16.14825151058404 19.2574540268491 0
22.60646360032536 10.74200873588268 0
12.15674141493703 3.594216042785172 0
14.04090259196735 6.061772857592672 0
23.43175664740211 9.918022161609535 0
21.14207554833774 7.677127320642915 0
18.61331814895218 18.54265328419583 0
24.20376733664899 13.22033824315858 0
10.58153947302605 6.65314818845837 0
11.15689186203587 19.72468649195439 0
10.30713744868462 17.55089551574152 0
17.86413903902963 21.99168306361701 0
13.26711676596513 3.70716147813983 0
24.21931110867312 6.344623905026526 0
13.60160962679994 3.976752815394628 0
21.37896738933606 20.68518772246496 0
12.92416486751241 16.42286838079113 0
11.69692639097388 11.50230464803991 0
20.88930730578556 8.345327241009151 0
23.83996324760195 4.787302008840688 0
14.68123698605677 11.58320936792729 0
10.25034753546634 20.09600199188303 0
24.88701770469226 13.98153329664765 0
20.16858782086144 8.433533362986166 0
14.65478422453437 18.31235642301285 0
24.35147458561191 7.828849200255322 0
24.85984220179892 9.860373565106983 0
14.79583913465703 3.523362746960897 0
21.55100832027414 10.52816236228871 0
20.05096508945371 3.806348631367518 0
20.20416086364303 3.523362743998858 0
15.5863246665234 16.45235318775526 0
14.91231920531925 3.218037468031275 0
11.55964531181167 17.12318933314517 0
14.4668839459873 3.586204157401752 0
21.64028098810461 13.29774466330904 0
22.92440854094357 8.411370743477148 0
22.22676490239139 12.88449215928219 0
23.05405772462302 13.63153790365898 0
14.75588353073585 21.30916323402062 0
11.13213334935829 8.320819058497683 0
21.03356274859295 2.744945431308187 0
11.45282990541961 8.498335143619087 0
13.96643724215524 2.744945432042892 0
23.64918961112903 18.98249029696526 0
15.9790881438425 14.1141224759043 0
24.2544015962248 3.223446585424221 0
21.13758187910673 12.66581317623833 0
22.8436725748714 14.008677363341 0
11.45735879158205 9.507948601314846 0
20.49350620857123 9.257198669572835 0
22.88716114644687 9.693036407875118 0
11.13911362801204 19.38797952377838 0
12.5529207545599 10.33019889403804 0
10.01973663159387 4.083221264818675 0
16.27463613480194 12.81046845641222 0
21.28761106916977 13.53669002371772 0
22.34908128169012 15.98059552530737 0
13.45721972607926 17.02023745347945 0
23.66298632854897 19.35302164926612 0
21.18430710704648 6.322127138246563 0
13.48871794177753 7.378570677196527 0
24.75207801450141 18.99625061363593 0
20.22912127465615 18.3251214123619 0
14.25329813355125 6.324908106070144 0
11.49090178660021 10.799315598031 0
16.70089891502755 18.77489176812443 0
24.78114948449424 4.347600472771994 0
21.78493675656102 10.73850789600803 0
20.74480693626458 6.307591060553255 0
10.24967095864109 23.33087786761938 0
20.09649262503687 6.259594492882732 0
14.9527936978782 4.559408301949938 0
19.10245866402616 12.7752704020793 0
11.24326045886456 23.00131709810298 0
24.04251359778587 17.89868513028795 0
10.2655823241406 16.49020405465916 0
20.75456770841204 3.941310624349307 0
10.16733701054666 12.45493403916313 0
22.27647910926658 7.811492877873365 0
16.58387419457703 19.87284872606368 0
19.44747555006415 20.20404434975787 0
15.980157648802 19.8634729344482 0
24.80684688712968 15.1403123935111 0
10.21019056522823 4.338599416170883 0
14.64972908391086 10.858837183664 0
23.11634385103801 19.30966739319802 0
21.38108563892217 8.566049265712183 0
11.43663654439287 16.09914276706007 0
20.23157095766387 6.93318881731523 0
11.98985263687565 19.97725038301567 0
11.23390563223404 20.31648266941649 0
20.53311605287989 3.586204154767927 0
19.21876705647126 17.08155218334285 0
23.923697052489 8.771541538242543 0
15.20233577361421 21.87153830237831 0
20.85844212711998 7.12644010932568 0
23.67518934772644 14.80641171476241 0
21.85745743750523 10.97720796320573 0
20.08768079426696 3.218037465006472 0
22.32925894233567 19.62538624095225 0
15.42421042987706 21.19418404612097 0
11.95949568788586 7.286831976511403 0
20.74289340571629 8.683081228384395 0
20.81304559242539 14.74342459068713 0
14.96418145313539 4.06698109808031 0
10.56384523176098 12.43070634248294 0
14.76805989682639 4.325241564805173 0
20.04720570909654 4.559408526184978 0
20.52211326979388 4.181671784067038 0
24.15671584247324 16.08481047509137 0
10.78857807305068 6.268090725086817 0
11.80666735765588 7.787424049335849 0
23.61063849399837 2.907753072512206 0
14.03348103226849 7.4989297929791 0
22.40827400221077 7.080641611029064 0
18.75175322035325 14.05967700327839 0
12.22083537804246 14.13691488947559 0
20.76769906358383 9.024032682956213 0
24.77369304249437 17.71794454702817 0
24.60792477704724 2.770651901801358 0
24.13215254453821 13.76399329412743 0
12.16465229219924 7.888253773228642 0
14.66877083428162 7.478391185900675 0
23.94982840340247 3.836753184740943 0
21.77120030048135 19.7879157115663 0
21.02488274492612 9.265696345788342 0
17.62185442269146 18.77703089593872 0
12.59330685629634 7.077097665128069 0
24.64970996809152 18.35403602695116 0
10.9187152312769 16.81223954138808 0
21.40480327782362 13.85660014635742 0
14.33150001821525 18.42184906055389 0
13.39610874320257 14.08512287109745 0
24.8963282959809 8.577755801795934 0
12.49129759309875 23.95644086792479 0
13.20399667938065 7.295075018855069 0
18.67332796922496 20.29018523166572 0
10.46391261848295 8.258325705217779 0
20.31092660824845 10.14260040944738 0
23.79651120861966 6.431955359203663 0
24.37766576417465 11.1110889507844 0
22.74360652792128 12.28692101474084 0
19.4329314210684 20.92946520554167 0
10.1342802928478 11.36822626169526 0
19.63697932052879 19.45455902459934 0
22.1142056860003 8.638006298665797 0
23.26386547664855 10.95204147991484 0
11.84445612469874 6.285422896131169 0
24.04054441395062 9.72184689170295 0
11.44478809738039 15.76433695849586 0
22.75900796277276 6.407560870997884 0
14.4418763772438 12.99321558752245 0
23.3995621421443 20.31232280963 0
20.72964427135657 16.75396565205338 0
10.79467121778644 18.19730952614283 0
17.51917220184378 19.3097327939965 0
24.39568739229753 5.50268379626952 0
20.03581844316639 4.066981132818202 0
13.8065604515234 8.165216931747254 0
22.7606402856099 10.1948379642108 0
23.27066425339006 3.719948794558013 0
10.5695159250957 8.650683654693019 0
17.94297726530507 20.72894159223967 0
24.88458393707243 12.19213382197348 0
22.57541964534613 7.674743489899389 0
10.21021655113287 11.77986979971558 0
20.29310780987407 11.96943489133754 0
17.32486255848763 18.54174509726726 0
20.22399249308469 8.729743490965559 0
16.9617686862284 21.83353614670829 0
21.94905763036698 12.70890542485395 0
24.00477329604461 14.92487348790798 0
11.38159579033551 3.996747883706278 0
22.37476015175747 20.50047971476505 0
24.25447818292928 3.940976225063587 0
20.40109934780529 12.54745738364628 0
21.36652030423649 7.903261673924124 0
10.48164692463598 6.064180536449992 0
15.54938479658643 22.84596276648286 0
21.55677506885058 9.148486362151488 0
23.71840280938856 9.339511734291094 0
15.72084228342845 17.84951024703216 0
24.7047661199013 19.78857644312772 0
18.51061141470915 17.37758943696305 0
17.00817413063507 22.22712141579544 0
10.39156472202555 2.771077864166251 0
20.3072996214111 18.0015409530594 0
15.06669018020125 13.16690575952689 0
11.94436217482226 15.62521664939788 0
19.27401834941304 21.57205509341139 0
10.79481106121107 24.40876313502014 0
10.30210019420102 20.82274099264935 0
20.38595467653121 13.47690837899175 0
22.08420772058658 10.17196955849343 0
21.66573002686064 8.347007992609266 0
11.45930361897249 14.01340077662666 0
10.55944602992823 5.510933085649031 0
20.46739308079868 14.6709983147382 0
10.99016210067484 10.14424213422558 0
11.69595318812808 8.291999738123524 0
23.58475832520515 13.89918067859591 0
20.02820645596774 5.530656437570472 0
11.05382110857759 7.642862621312699 0
12.29093504916083 23.30140263812216 0
12.19563828587205 9.305128402249421 0
18.0470129203567 21.38262333672601 0
11.68088262464707 7.462328310524104 0
13.95433800594876 3.81633061199298 0
13.47969673617858 9.730139548411877 0
11.52663840659693 14.35967206190503 0
10.52562185748392 11.8222742629662 0
14.81383588972869 6.831921972887081 0
11.72880206293937 3.719789383357031 0
14.60645982361522 2.769046001409782 0
13.73181250510446 20.24309607542271 0
23.71383990446881 16.65160585854488 0
14.85447748919137 5.170357476445327 0
20.11808782652043 5.161545356855984 0
22.76286274787545 3.161479225072895 0
13.8074981514001 11.46678153871487 0
21.39839037580261 3.976752812134533 0
21.26391402396389 18.96708917816641 0
24.02996521880621 18.56483302403268 0
11.59848749789577 16.40816595716683 0
21.9269506087159 13.54660824999141 0
20.6540252559741 13.13860126229651 0
12.63383126787987 9.8208385583732 0
23.31927403953813 7.533285501809744 0
14.3775672031455 7.152123934679159 0
16.23429330060772 20.13460919843904 0
12.28002747234374 6.403215716890029 0
13.21330176786423 6.174066394219456 0
10.04784012978848 11.02596931559235 0
13.66167864265465 4.267455497558143 0
11.23110973761302 8.97240375009689 0
21.26739806661763 20.96897706016583 0
22.65903812392831 7.330589665113566 0
16.58265031375048 21.29566169866385 0
14.15162608697634 23.28720644890483 0
19.19675204216208 14.20165132600404 0
12.43136552163005 19.93700122047141 0
14.18310934545453 22.93701212902558 0
24.12775698036399 11.84085372173791 0
16.82195184104612 22.44915856980227 0
17.53286961464155 21.86819835813903 0
23.79646070728466 9.974859967429468 0
20.63161565670445 6.860416392200666 0
23.12702945406955 9.866570669960678 0
10.70083207416296 16.0043741637989 0
20.9386518881914 17.5821222250818 0
17.51777073255419 20.81114252281752 0
24.87627605227438 2.868468516403224 0
21.53176002798046 15.81719065111193 0
10.88278144905149 21.60673829674783 0
15.11671229127733 17.58824020763786 0
14.473603681854 22.72424367025476 0
13.58090682273974 12.0180560642375 0
17.56262814690851 22.1513470868784 0
11.57000552300728 11.03638033400214 0
24.3822486743415 18.62270325688155 0
14.35121140676947 6.866240657866787 0
13.33840536905379 6.846063330898315 0
17.92664436131571 13.71789376977202 0
24.35983889967455 9.592038545713953 0
21.30290110130679 10.74948929164904 0
14.47788665576965 4.1816717598188 0
23.96872425194041 4.508326649664188 0
11.04539439480616 16.08021141177413 0
20.7557352834669 7.535940479985424 0
11.45991950093708 11.66677157024219 0
20.39354017238022 2.769045998513183 0
20.60844037619469 5.504962850402464 0
13.21487838166121 10.20032075716678 0
10.8204730892224 19.69919829531186 0
14.1190801848007 9.1849044427251 0
11.0335549678831 2.753110421542086 0
24.45801530741767 13.22948177556112 0
10.75493135304976 14.67947625485845 0
17.29504652380786 21.64312311961113 0
22.47319618414088 2.846949957384049 0
17.99415079884663 18.02312544835903 0
19.00464017710215 21.48747694306946 0
23.8470590373495 8.097950938638558 0
11.04715520722161 3.837661984814956 0
20.16871253625386 7.285914638426647 0
12.68265349557817 12.68867297781311 0
23.46089982119092 9.519384691340111 0
21.40430925051658 16.5003882736851 0
10.03694126269211 9.934656810223206 0
24.91015691024597 5.13639164233718 0
13.24583308239172 7.928291330682329 0
10.08416659311262 5.137001776731632 0
19.02693717009599 13.42771758319301 0
14.6803800977071 16.95733996481124 0
13.82877851910555 9.35297961002405 0
25.01523723642454 4.866921546991791 0
10.62634659355905 16.69632779061898 0
22.83366219893004 9.297788680011678 0
23.10239754304715 3.283458392806536 0
15.82701356608024 15.99115157941267 0
12.0121919225107 15.11024161457088 0
24.97302165521046 4.582763286568504 0
14.25447167138552 21.72033077019305 0
15.20451653053945 16.52983869299152 0
10.75143760568352 9.198066297094584 0
24.03413504924108 17.5071289871924 0
13.37381862062503 12.28277080647711 0
14.24543229094957 3.941310622513134 0
20.82698318696761 4.231569677357905 0
11.92609680040846 9.286781927913378 0
17.43923646948598 13.44883056049564 0
20.35288704345894 15.13099229549655 0
16.0452656573074 13.69771941884508 0
13.32937145084975 22.70119333482694 0
11.44664770428871 17.84177275209984 0
12.61039416710566 18.74150745639145 0
14.41126339184879 4.807173368526697 0
20.43714350014472 12.85948942092914 0
21.4682891490322 20.02266629850615 0
21.09172774180899 16.84685520154346 0
13.50175990622495 6.099438102758738 0
12.34368205632171 7.325946638718606 0
12.52679931710427 2.846989721203013 0
23.1410354656938 10.19267434806734 0
14.71544605176519 11.96683273997339 0
11.33072971270556 6.730879832901197 0
16.92592187926529 20.35869077118707 0
20.16500745819399 17.67466317124932 0
21.13030831109945 9.548199669444708 0
13.16127540886793 8.224386116172843 0
23.63546423393929 6.790841603489999 0
23.47774718690322 8.473932106109698 0
20.29354026867919 10.96129451102345 0
11.68745945242675 9.82123339872724 0
24.75891443158467 19.49259848188518 0
21.14479387033063 17.23043273925989 0
23.21365263034409 8.835599320478138 0
21.24067833742515 19.43157437459667 0
11.10330516188355 5.101947709545723 0
13.61640471780733 23.25204875771894 0
24.06421408508459 18.87603296685148 0
22.98942960721391 19.9412862253989 0
11.25901977034175 13.09730763761191 0
20.15824433053501 7.885289429743986 0
21.17344702877682 6.940049756532479 0
19.62289800421973 20.62212986422918 0
10.90687347138077 12.29226156496792 0
13.20098086563425 9.888111550992178 0
10.09913741306002 12.11213749762469 0
13.64306591563543 10.70546054643908 0
18.72924852975076 16.36105834520205 0
22.85283387046226 8.803591025992148 0
21.79346500113247 6.251185194057456 0
10.30700640994485 18.69232070860753 0
21.16952625641598 8.388399751607384 0
23.67068791709073 4.281377796595784 0
15.95114632339069 18.6732612262137 0
21.07285862897437 5.125436664923895 0
21.6768822043394 14.02779450880445 0
10.15495277785772 13.12235165279852 0
20.96404133102559 6.058491436393941 0
13.729120320015 16.73729212563404 0
14.36943524706566 19.7699117402986 0
22.45748596991091 14.96137236660798 0
24.25602630199648 12.10323834526166 0
21.10937506001026 8.064391228645366 0
15.03989725899882 18.09306944992603 0
18.64188372590658 15.88580781804514 0
19.12938536306865 20.83025214625029 0
15.73762400079826 21.71800403352164 0
11.69240120623661 9.24844858326053 0
23.33761268656787 19.76449361252559 0
20.78472878843513 19.40162964970934 0
19.90895411856575 18.58731108772951 0
17.69043979337604 21.30127562349356 0
12.96421323790892 9.419082206443216 0
23.85136016465792 17.24613356787193 0
14.39651735319506 9.62369372465746 0
13.23326563263983 15.98922685960424 0
15.99222934776767 20.97550137492897 0
13.01072070301027 12.12282724530352 0
12.82782941136552 11.06406676462476 0
22.27287042091683 20.03061093766665 0
11.21452410244658 3.324220620796088 0
13.68926155418393 6.766966545213958 0
14.21102007345862 7.909416330125859 0
14.97126574233059 5.530643255582289 0
24.3992075620109 6.686579480485107 0
12.11938309458916 23.97952853133827 0
20.24186126406797 20.83193967398775 0
22.64549334000243 9.888649177353704 0
22.89081292235268 15.44565315934114 0
13.50194063805986 17.43626721208798 0
21.39643937435206 10.18415605459505 0
23.61854911542909 3.997869456303003 0
19.62550189735254 18.1920791885829 0
10.72476884759465 10.33029116315922 0
20.08256624353249 13.68337971295991 0
12.18351260466905 10.22924009488289 0
12.68435937693243 17.65698161661578 0
10.07825657390349 7.013233170038373 0
21.22130643979002 3.307734529071424 0
13.77869355785147 3.307734532692267 0
13.81510280835041 6.344287398598686 0
21.16280285135693 20.42301498048995 0
10.25404249199766 21.19485976165128 0
15.05321514983483 15.85985006245244 0
14.1257573769051 12.94366173487857 0
17.94471192522879 18.57724264536743 0
24.84559334019919 9.33388700067082 0
20.10470919721515 14.09832104667461 0
10.49049105735683 10.75202615210557 0
10.543555285289 4.844042062704831 0
15.09234598863477 19.57985676622712 0
11.58495133596153 10.14215563848825 0
23.852261838751 7.025166391805564 0
19.79189501976149 19.93080962020913 0
11.85157616705597 10.39504008970409 0
22.62475227698193 11.85697811604162 0
14.82004369857214 20.88834207044964 0
23.04709599346478 7.29769131698812 0
12.02350917636927 17.38095395325494 0
11.58622608217566 7.995125743485795 0
23.1829381816701 9.298113092989169 0
24.92244742503829 6.357148962918624 0
23.2333333218394 2.782006038309028 0
11.32863608295739 4.281709590749434 0
14.94651193905131 12.83188654132198 0
11.76666666734029 2.781887846481766 0
24.47267607093992 16.61524770942145 0
22.16431400675488 19.38666602258159 0
13.95485586699679 19.73620301413932 0
11.27310531031812 10.65410610097403 0
21.18009554560231 17.85325478928389 0
12.36594499898991 12.17079957560346 0
22.49046573930028 3.466418050158506 0
13.83321229403813 23.43145510626209 0
20.61150636395825 9.70347628915086 0
15.73275251244495 19.24936306682417 0
12.21161019265284 8.894689364363266 0
10.61521629988108 13.54030630128382 0
24.75469089637475 16.58577902904045 0
17.52966251752657 16.40814741375434 0
18.39253131773136 19.07252058207632 0
15.29756466734333 20.81636928824621 0
11.1726883972634 5.640133430026963 0
13.14145083479983 18.36250100142983 0
24.97635829825331 4.097884696037783 0
12.42296025617732 18.36344153426313 0
14.9210063334742 13.58164599823798 0
14.38443289613748 14.10862703736997 0
23.55956435061714 6.152672354704835 0
12.73041270864597 9.219043278931945 0
24.5806181859064 7.261950656770281 0
20.12707115234772 19.30074571992258 0
20.21923032127555 10.5170700074564 0
20.92815252023848 12.99115727536549 0
10.06282029054934 6.307478511628312 0
15.3940016503427 18.31898202796827 0
22.2865417140741 15.57916071209354 0
20.57249116824859 20.61295764004598 0
20.81293038310309 12.43620957203436 0
10.61234275205209 8.002747999124288 0
10.78498473452797 14.16254804630426 0
18.65857373018018 13.26715461474811 0
12.94985462142208 14.07971117841397 0
11.9938524866727 12.55053295996182 0
11.3413292597116 19.97841253698279 0
17.85714285031339 14.06498105623528 0
11.54283269943297 19.34935430236639 0
23.81276917767837 11.17066447536575 0
10.17234338272396 15.02719976513591 0
24.96574420337469 3.830681972487443 0
11.82727922948365 13.19635236604452 0
19.21633357347456 18.36023234675314 0
18.94076215526323 20.53759752693755 0
15.09776070958542 16.88926631318549 0
17.25323052255058 18.25293756705956 0
11.04082193953708 23.88008922848307 0
21.92851168230561 7.708323368154886 0
23.92115431853932 14.3018915915892 0
22.84284019086028 19.37459810956573 0
12.91457909848547 10.3137371797981 0
14.39540961967173 5.508903753275949 0
14.83240072832269 8.03566446366548 0
14.78723491394827 19.86127998174852 0
23.14463880190985 15.74324514489335 0
13.29094359705782 11.23642512489269 0
14.94903490997423 3.806348635617459 0
12.9697850876954 18.66482040824088 0
24.84375641336161 12.91501078846477 0
22.24993740260469 14.02694946981258 0
14.7468177140258 20.51248297101474 0
21.46370288746694 14.94358066810111 0
18.42702522253194 16.61192507369241 0
20.46304184643392 20.27136172056317 0
24.88981515852364 7.063162565422386 0
12.72010600260966 7.811138255011762 0
20.63953503745275 16.34888903249951 0
13.85066908370331 21.18910117670561 0
24.10208909866678 7.569928245379196 0
19.28461600358961 17.60213522935067 0
17.87914426679971 20.19043583212396 0
20.66036206594445 9.954084257580652 0
10.08988630890921 9.603296457898848 0
14.73644058349469 18.8019765658275 0
14.17301672947649 4.231569499564401 0
11.28726791263359 13.4347405213509 0
20.23169875804969 11.25953866488461 0
21.51998458405784 13.01027479312503 0
14.40118172905756 9.021921582641426 0
23.98382366652582 13.49273306903362 0
11.02461311462874 10.83187421793737 0
12.50945779287113 3.466473574781912 0
24.39707608347736 8.50190413166451 0
13.07358109319905 10.56686163408631 0
11.9963271117913 9.808488378693163 0
22.105590240299 7.189299183503327 0
11.12573613413495 9.593003613960107 0
12.92533437749537 9.730218403810891 0
21.21233062396498 5.775816822468158 0
10.1744458837472 22.28093478981755 0
14.03884666604609 10.62385126293429 0
24.7455599201591 15.98481119897388 0
16.01823360352986 17.54269832623217 0
24.42914689705827 4.873939811134508 0
20.24731376459196 12.27553287442235 0
18.16819835816299 15.88095699871856 0
12.7637425305856 17.1397322063996 0
11.12090934995826 18.76800025139251 0
13.36989470277003 17.75714836275329 0
13.65913979259326 19.46510969332273 0
20.58870813710245 4.807189423830552 0
23.03732437382632 16.106769717823 0
13.58104009355988 10.3093323187591 0
24.5137870248386 3.380310809540843 0
10.62667974253868 9.7610813037935 0
20.58772942298599 11.91513848302874 0
20.65812037546974 13.86818609539012 0
17.32312159415956 12.73451313403792 0
22.19123545390954 10.46338846407607 0
18.47597629380986 21.49501605970979 0
21.98803766772656 8.287925458471877 0
21.80746568752892 14.9961259268239 0
11.77848443663324 19.59404849211548 0
11.68060303884386 3.043871936186545 0
11.02789777426335 20.87151956445902 0
11.37086701118043 22.27743051248931 0
16.98486978038805 15.92140301316601 0
21.6673583446327 9.800424296729505 0
22.71830757258903 16.15689676498683 0
20.71310336313467 11.45492753765172 0
23.36296145554952 16.36313173377984 0
23.85411952206211 12.72938616831747 0
18.72201513288693 17.0651420690846 0
14.77037745386319 9.986246982031709 0
22.07161194767369 20.68389013571214 0
13.98417092896452 8.469145852934464 0
10.18342607649815 17.91919449450175 0
16.23083215771354 22.66559654792402 0
14.22884215847449 22.28004326570233 0
13.39981477944999 11.74772514722082 0
20.42618511523425 5.788438801191655 0
18.34680298274955 12.73860940463285 0
18.07197097889408 16.26010205732538 0
10.21291380784836 20.46535890478857 0
24.44824274552511 14.18310694379568 0
24.51821093742736 8.168454987287891 0
18.9601934817248 21.76694412876439 0
22.76521505540507 15.09647559014191 0
11.41091091285502 12.43326033831834 0
14.05727537165744 18.97219314933392 0
20.17835569426042 9.112504620091123 0
18.15133548912345 21.02439666512935 0
23.96536249818689 2.751870928294398 0
11.92089645841166 14.35622562459728 0
13.32682717508779 10.75939144513918 0
22.71745215419439 20.49215667932772 0
21.47651443685216 6.100396883915506 0
12.64836681222467 18.07265664924478 0
11.57704200468003 12.97137715141665 0
11.40718586312253 9.178789681015804 0
10.90889053881884 8.589208243466022 0
18.14349331818304 13.19720483679296 0
11.50539648838158 6.183374135485992 0
24.28109234913181 16.82428099783166 0
20.68539452604377 19.98579108526057 0
22.2846314447232 9.122774120903966 0
24.43703522141228 12.66807838554231 0
21.85133228613491 11.61702807969732 0
16.16634596228235 18.33373902971843 0
16.21356725744519 21.28518900694944 0
11.12505372347794 17.04978605817676 0
12.93566306089802 11.58978131381871 0
23.63853279373492 12.19826838550435 0
11.33032493248127 7.352818882260101 0
24.44824608259621 8.901691631520404 0
16.39514843738865 20.49086853481511 0
10.74961440382723 10.62938017291265 0
15.54729106964363 12.70388526457018 0
24.93734938515312 5.793241314010535 0
17.14035729806923 19.42349960981645 0
11.98265405630758 8.411666672787243 0
21.81008745286593 18.77313495977879 0
17.62719652757652 13.16531412460333 0
22.69054908208752 8.243059508706226 0
12.12967962886476 2.754274413649455 0
22.87030676582919 2.753792146529396 0
22.35416847385343 10.91852610449261 0
13.86804089978577 13.09428451635918 0
20.12278996359436 16.94799144767466 0
24.83044451468572 16.88675367232736 0
13.61233818562223 22.95516728484735 0
17.98055057307532 21.71552985885753 0
21.81773069386854 8.852563988787592 0
14.80167876746369 11.24136967670849 0
22.13333333048408 2.732506709532913 0
23.39561233358616 12.5116530142361 0
11.76623598850685 12.06933445913926 0
14.871735725554 7.261810945113653 0
12.47749882546277 9.33369460129975 0
24.0480151867741 8.466690099391975 0
23.46398958191209 13.18590807574524 0
18.48803586906119 20.90937824850887 0
10.96373196270336 16.48387368216289 0
10.78894509927806 6.943435578651044 0
15.46941692715029 14.20007541605943 0
20.27896044074642 16.26655277741654 0
11.90338857450136 22.85267165898638 0
24.43384091918006 18.1029839344036 0
17.02472951684879 13.18061332193845 0
23.23184592815954 11.84267780866311 0
12.90097650285146 7.193678347868721 0
24.44279088613446 4.199681451282199 0
21.64497437147735 8.620755507721999 0
16.10047868462363 21.63350339148055 0
23.14082407645685 6.297148496259988 0
22.88904195100408 12.60161930152023 0
22.36021468889657 11.74207072742025 0
20.71265295278428 18.50156306222836 0
12.4724253708051 16.34399465781016 0
10.42433110199399 7.711492193146816 0
21.73807648192472 6.655574708555816 0
20.56995532208166 17.42980268664112 0
11.23429492519474 18.11510535723176 0
22.50886544719333 9.306505757737884 0
12.18116501654061 14.65653835146228 0
20.51548412520951 10.43306095712341 0
20.79409761394235 15.58801547374939 0
20.10881961967805 20.27321728289848 0
12.89240463030606 19.43004728772549 0
10.55822669443037 21.08183860678082 0
22.56651684778672 15.6388411754064 0
19.58095531830198 17.23632162629648 0
12.46027286799365 11.22944874493006 0
10.73385261571839 22.30038691231182 0
11.25771619785244 7.969921076177513 0
23.47644366739114 11.64849690035475 0
24.90622268991709 8.06451603917745 0
14.47625955408787 16.52227924317703 0
18.51356627503536 18.14423456115533 0
11.93578049561034 8.754706157520054 0
14.99393205009433 4.816477768254406 0
24.18037715158867 4.276235177230365 0
24.6221103768672 7.609301149064994 0
14.59210350013711 5.777543857935701 0
24.18869741308192 10.50949609062776 0
10.07574663535146 12.84039937989217 0
23.109652496067 18.82284851761688 0
19.98737684255637 13.24678589355972 0
10.54640364986041 21.69543924032308 0
24.53647174445008 9.861728346209663 0
10.46508249592016 10.2044758168006 0
10.89431906203534 14.41013096788723 0
21.35123888654851 6.6616838353203 0
20.69111315932341 6.594756196019296 0
10.62813261801617 12.76432382246594 0
20.15537516212594 9.821731428390692 0
11.09898338218854 12.49920255715049 0
10.0187584546502 4.572017293227615 0
21.67588206960048 14.37249471516907 0
13.90374308784937 22.75871571444254 0
21.79251667351783 20.35410881535365 0
11.89639742387381 3.284737102440563 0
11.69533190145116 16.75776488914048 0
12.18507287515453 9.967579894736476 0
18.98278990765585 13.77889090669481 0
11.0733465907063 11.98350393045009 0
14.30271072554269 6.600067512934022 0
23.64218943317706 14.49230643841192 0
21.12512931855205 12.39049491114202 0
13.80637382083659 4.73257831434097 0
21.19362617898208 4.732578306004842 0
21.92369522738985 3.27380880358407 0
23.83600841781021 7.690905240995397 0
12.75160798333916 8.9306116848414 0
12.95095309715567 23.28134680427829 0
21.93653988138187 14.58620792380772 0
18.74999998662869 12.70553152832627 0
24.29760147627185 17.58155506489519 0
20.48007665730271 7.890071282153023 0
9.978568545964585 4.856622533547262 0
19.90714007564638 17.33073044354983 0
13.10740171101781 11.80850103735518 0
19.56912833195176 13.22992974077928 0
16.55001573310092 19.43731935900245 0
23.61164603455513 7.475645502938848 0
12.48976451923495 8.820344848706151 0
14.79822114766624 14.166067462545 0
20.00606794978493 4.816477758433061 0
10.81349424539016 4.2747957247597 0
20.47226563654931 17.03654128404189 0
14.68733899330801 17.40781563876648 0
14.41028376577514 7.683512974436315 0
21.20543668727567 19.766928153214 0
13.80707543748556 18.17267348095233 0
17.47182895054089 20.48949587358888 0
21.6191040979104 20.87052997499904 0
24.07210071735081 10.00587962000055 0
22.3351262571213 11.20746646165139 0
23.90554285752428 5.124429572669555 0
15.81552397910576 13.20780410713381 0
10.60197058559217 18.92379303722102 0
23.94477486485295 16.33232920803709 0
11.14846731889147 4.794659802056715 0
10.01841831892142 8.487532190030292 0
15.31213973648934 17.17468055939271 0
14.45049935485297 18.04173699744076 0
14.50494357037356 10.49112119699947 0
10.76455026164309 17.91306281903573 0
12.21975961388759 19.20318115158209 0
21.06628833388832 13.33280695657041 0
13.58078524940997 22.36625501228794 0
14.84530569865663 10.20204877927162 0
19.73214285550728 15.75123910180339 0
12.25361813044244 6.767997987701413 0
15.89285714571178 12.69824675477974 0
21.96252334278912 13.85575401092796 0
21.33832103728004 4.26745617917167 0
11.46798830009725 20.5232453444372 0
11.81513981463853 24.18603480796416 0
10.73449098370709 7.778183593143614 0
24.94599666160883 9.606723015737888 0
16.37141886770226 21.82381249682832 0
11.16904345753168 6.996238422579752 0
11.64745178865377 19.90274818541176 0
10.52622087299966 3.39986831665 0
24.23562777657288 5.166790720949061 0
15.71469079867861 20.66368392226719 0
23.31947997430803 3.043309463439361 0
12.12781681816588 11.25540145079833 0
23.21306526532013 8.269856887425895 0
21.73970440092437 16.38902445039662 0
22.23069517418947 3.213229651108127 0
12.76930130777081 3.213233785990171 0
16.58078641756541 18.15594052597473 0
POLYGONS 3864 15456
3 727 419 1675
3 350 1326 1069
3 517 1015 1113
3 328 329 812
3 571 786 1317
3 118 119 1275
3 604 935 1608
3 497 720 1601
3 983 971 1172
3 407 776 1751
3 735 910 1180
3 967 594 1162
3 1122 460 1501
3 673 1052 1813
3 734 407 707
3 576 686 1084
3 454 704 1098
3 364 674 1867
3 1 89 88
3 704 454 1592
3 735 1180 2040
3 1162 594 1051
3 578 785 803
3 508 1144 1337
3 900 479 1324
3 763 569 1359
3 260 261 825
3 537 1289 973
3 1326 350 1124
3 183 6 184
3 1268 563 1032
3 425 653 1457
3 541 1316 1124
3 441 849 1425
3 2 103 102
3 5 170 169
3 1253 880 1410
3 1763 1065 1996
3 1144 461 1337
3 1052 1086 1813
3 527 693 1042
3 88 89 1111
3 80 81 1008
3 776 407 1807
3 364 1867 1707
3 1086 1052 1820
3 536 1140 1935
3 306 1246 1436
3 1122 649 865
3 816 1491 1037
3 653 425 1792
3 971 983 1710
3 1007 828 949
3 891 960 1415
3 569 763 664
3 575 1562 2070
3 849 513 1425
3 183 184 1598
3 1007 949 1509
3 49 50 813
3 530 1194 1549
3 556 799 1139
3 25 766 1116
3 766 25 1250
3 1242 908 732
3 1324 479 1349
3 371 1242 732
3 799 833 1139
3 948 369 1518
3 80 1008 1030
3 785 578 1595
3 867 646 2025
3 341 342 1104
3 340 666 1815
3 457 338 1815
3 506 1104 790
3 495 678 1742
3 1080 538 1917
3 387 361 918
3 232 233 795
3 827 451 878
3 102 103 801
3 169 170 1103
3 1275 119 1112
3 1491 465 1037
3 1022 518 1629
3 357 1505 1732
3 761 409 1119
3 1289 993 973
3 837 486 1146
3 836 761 1119
3 306 305 1246
3 1282 698 1517
3 1672 896 968
3 354 1176 1887
3 304 1147 2086
3 346 347 708
3 399 1005 1085
3 522 1198 1852
3 24 322 1072
3 382 387 918
3 473 1007 1509
3 610 959 1452
3 747 444 990
3 1553 659 1448
3 795 233 1091
3 1122 865 1876
3 1165 1162 1051
3 1180 377 2040
3 444 747 1319
3 1137 867 2025
3 27 1090 1812
3 691 900 903
3 674 706 1704
3 658 1196 1810
3 961 1282 1517
3 407 734 1807
3 690 614 1255
3 45 46 861
3 1210 9 604
3 156 557 1690
3 536 1283 1900
3 144 145 769
3 1169 633 1163
3 47 48 1356
3 381 1488 1186
3 695 383 925
3 1105 536 1900
3 628 622 1118
3 1246 305 2086
3 682 1078 1650
3 301 17 1001
3 375 827 878
3 1505 639 1732
3 438 1351 1615
3 1104 506 810
3 879 612 1447
3 13 1025 1220
3 398 1268 1032
3 575 1014 1562
3 977 67 1095
3 1049 383 1174
3 1052 607 1820
3 1675 419 1472
3 1528 424 1805
3 479 1253 1410
3 1255 614 984
3 395 369 1035
3 475 1065 1763
3 1279 772 1489
3 430 1107 1386
3 979 522 1852
3 1371 397 2011
3 499 879 1447
3 1031 397 1847
3 481 919 1661
3 390 1698 1382
3 1452 959 1693
3 693 527 1229
3 365 457 1064
3 666 506 1657
3 743 400 1201
3 1488 1009 1186
3 590 964 1748
3 1020 591 1749
3 1421 20 1652
3 975 373 1858
3 547 1063 1399
3 960 364 1415
3 633 688 1456
3 397 1371 1847
3 833 799 1011
3 497 854 1046
3 1107 430 1809
3 278 653 1792
3 408 948 1518
3 457 365 1462
3 756 691 903
3 706 759 1704
3 1202 871 1127
3 1165 1669 802
3 1626 377 1963
3 893 736 1684
3 659 968 1448
3 383 1094 1174
3 1644 551 1397
3 720 497 1528
3 310 20 1421
3 1169 408 873
3 328 812 1646
3 582 1094 1241
3 396 1279 1489
3 301 1001 1975
3 754 1031 1847
3 486 837 824
3 891 1226 1417
3 400 582 1201
3 1196 393 1810
3 1020 805 1380
3 800 964 1438
3 518 1022 1371
3 506 662 1977
3 840 975 1858
3 1227 569 664
3 1083 1080 1917
3 1159 501 806
3 506 666 810
3 1007 718 771
3 1119 991 1765
3 1159 806 1936
3 425 571 1792
3 603 1025 1461
3 560 782 1731
3 871 1225 1851
3 782 978 1731
3 491 872 434
3 832 602 1706
3 905 311 887
3 557 427 1615
3 363 1326 1124
3 986 559 1091
3 1679 147 1802
3 549 546 1817
3 1210 358 1474
3 991 1488 1765
3 760 142 1203
3 574 1251 1934
3 805 1373 1380
3 1376 800 1438
3 788 370 1315
3 945 625 1493
3 714 1768 1379
3 452 893 1684
3 442 750 1730
3 960 891 1417
3 546 1047 1817
3 725 919 907
3 1018 465 635
3 341 1104 810
3 408 1169 948
3 690 775 1735
3 311 905 794
3 854 497 2073
3 1295 574 1934
3 653 278 1931
3 369 395 1285
3 356 682 1650
3 779 1170 1182
3 890 724 1683
3 823 625 945
3 1090 27 1463
3 1034 1017 1600
3 861 46 1905
3 1283 902 1353
3 929 846 614
3 1140 1087 1935
3 434 872 771
3 1078 682 1753
3 1392 540 1207
3 200 1130 1480
3 1060 745 1834
3 1188 743 1537
3 488 835 909
3 1353 902 1623
3 1228 588 1256
3 694 468 1267
3 47 1356 1905
3 1316 363 1124
3 618 1561 637
3 784 511 1971
3 1170 599 1182
3 645 122 1902
3 896 573 968
3 1626 1954 1565
3 538 1080 1965
3 1698 390 1683
3 43 44 661
3 1147 304 1893
3 812 672 1646
3 1953 1669 798
3 964 598 1748
3 963 1020 1749
3 1118 622 915
3 1032 563 1154
3 847 890 1683
3 525 665 1110
3 168 169 1445
3 103 104 1378
3 1326 628 1069
3 662 506 790
3 688 575 1456
3 127 128 1366
3 23 318 1403
3 854 672 1046
3 1238 703 1453
3 589 1239 717
3 308 618 637
3 438 1615 1442
3 929 690 1735
3 743 1188 876
3 1488 381 1765
3 720 1528 1805
3 678 1720 1742
3 17 1102 864
3 1094 383 1241
3 708 347 1479
3 1140 391 1249
3 358 604 1608
3 678 495 1674
3 618 307 1120
3 704 787 1098
3 1185 618 1120
3 898 461 1936
3 338 457 1462
3 1768 702 1379
3 564 1018 635
3 858 820 1767
3 718 1007 1849
3 666 340 810
3 129 3 1316
3 919 702 1661
3 655 1084 1710
3 264 265 510
3 210 1087 1510
3 865 543 1876
3 1043 898 1936
3 74 944 1089
3 680 1151 1071
3 169 1103 1445
3 801 103 1378
3 1253 112 1342
3 184 185 738
3 461 1144 1024
3 51 52 692
3 1627 827 1055
3 1598 184 738
3 919 481 907
3 745 1060 1923
3 87 88 621
3 460 1122 1876
3 384 890 847
3 685 991 1119
3 1143 855 1312
3 1144 508 1898
3 1669 1165 2101
3 377 1626 2100
3 750 748 1730
3 799 521 1011
3 88 1111 621
3 584 827 1627
3 851 705 1729
3 243 1259 1327
3 17 300 1102
3 221 688 1870
3 24 1535 1647
3 820 1574 1767
3 471 437 881
3 527 1036 1229
3 155 156 1690
3 640 516 2028
3 918 539 1722
3 482 1224 753
3 450 1007 771
3 899 1073 1412
3 245 246 1279
3 606 1392 1207
3 1084 1175 1710
3 1283 373 1900
3 1005 715 1085
3 500 1264 1662
3 24 1072 1141
3 502 885 2095
3 417 788 1315
3 1074 535 1053
3 690 929 614
3 511 784 1570
3 680 1074 1053
3 727 524 1082
3 904 1531 1516
3 75 76 1228
3 382 918 1722
3 455 450 954
3 1078 1646 1377
3 256 257 1029
3 595 471 881
3 1036 527 1534
3 1094 582 1416
3 393 1196 1787
3 1715 1088 1822
3 947 86 621
3 127 1366 1962
3 1027 1421 2046
3 908 1242 1859
3 383 695 980
3 1242 376 1859
3 622 401 580
3 1399 1063 1829
3 508 894 1884
3 1431 993 1289
3 545 1431 1289
3 1531 385 1516
3 258 259 1170
3 863 786 1638
3 1150 488 909
3 186 1323 738
3 650 422 2008
3 672 812 1245
3 557 156 1631
3 530 1228 1256
3 948 1169 1163
3 686 576 1599
3 897 413 1542
3 1173 498 1164
3 1954 936 1565
3 918 361 1641
3 519 918 1641
3 207 208 774
3 885 520 1726
3 142 4 1203
3 1142 56 616
3 1136 393 1254
3 1088 828 1822
3 1651 1202 1127
3 15 294 742
3 283 11 1333
3 1194 530 1256
3 787 549 1817
3 869 787 1817
3 1376 167 1445
3 105 1373 1378
3 822 691 1563
3 1315 375 962
3 1234 602 867
3 200 201 1130
3 998 809 1994
3 1696 1059 1869
3 1339 1941 1964
3 1012 1248 1597
3 1058 504 1629
3 305 304 2086
3 29 1188 1081
3 1113 1015 1727
3 507 640 2028
3 894 601 1884
3 702 919 1379
3 706 1153 1564
3 295 15 928
3 1188 272 1081
3 370 788 1530
3 809 998 1221
3 1131 1953 798
3 1403 318 1325
3 11 282 1348
3 436 792 1636
3 1142 658 1624
3 551 1644 1770
3 1339 496 1941
3 1129 1469 1575
3 1888 389 989
3 1280 495 1742
3 1025 13 1497
3 1214 612 1044
3 1511 617 1583
3 1122 1501 1991
3 243 244 1259
3 55 56 1142
3 450 883 954
3 858 567 1677
3 1025 603 1220
3 715 1005 1586
3 599 1331 1182
3 846 929 1217
3 9 1210 1577
3 1170 259 647
3 1224 482 1568
3 1314 603 1222
3 633 1169 1330
3 53 54 850
3 358 1210 604
3 817 628 1118
3 809 1679 1802
3 173 174 910
3 98 99 967
3 619 1041 1621
3 1242 859 1344
3 565 863 1430
3 427 557 1631
3 1558 115 1966
3 468 941 1267
3 1129 1607 1558
3 796 650 2008
3 179 180 1459
3 1540 354 1887
3 92 93 875
3 865 649 1062
3 373 1016 1900
3 398 1032 1676
3 1359 569 1243
3 737 1231 1995
3 991 1339 1488
3 454 1350 1592
3 113 114 1342
3 585 1275 1112
3 497 1601 2073
3 885 502 1576
3 894 508 1337
3 855 795 1312
3 443 977 1095
3 1491 816 1801
3 1069 628 817
3 339 340 1815
3 338 339 1815
3 871 1202 1883
3 1851 1225 1635
3 366 1224 1719
3 1629 504 2041
3 1562 1121 2070
3 15 742 1782
3 1333 11 1860
3 517 696 1272
3 122 645 1114
3 114 1558 1342
3 475 1491 1801
3 486 1439 1146
3 729 1696 1869
3 914 502 2095
3 792 642 1413
3 406 1142 1624
3 1607 880 1558
3 559 986 1718
3 537 729 1289
3 422 650 1388
3 709 394 1219
3 426 686 1599
3 256 1029 1906
3 692 52 1038
3 812 329 1895
3 924 1374 1740
3 1152 191 1947
3 831 470 953
3 617 1461 1583
3 769 145 1855
3 888 1555 1232
3 498 1173 1300
3 602 1234 1787
3 452 1304 893
3 1151 204 1071
3 941 468 1547
3 1151 680 870
3 415 1202 1651
3 1501 481 1991
3 207 774 1212
3 691 1238 1563
3 1239 706 1564
3 1000 899 1412
3 553 585 1857
3 1350 454 1670
3 842 464 1768
3 1140 536 1711
3 204 1151 1372
3 1670 823 1506
3 376 988 1758
3 939 654 1404
3 1961 568 1492
3 533 1351 882
3 500 1662 1836
3 391 1140 1711
3 1351 438 882
3 1034 1600 2017
3 1402 689 1381
3 1248 463 1625
3 1469 721 1575
3 897 1136 1254
3 1421 1652 2046
3 1910 791 1341
3 741 615 1891
3 1251 1961 1492
3 741 543 865
3 1224 366 753
3 210 211 1087
3 951 424 1528
3 696 889 1272
3 86 87 621
3 1087 1140 1510
3 491 1502 1473
3 534 1394 1172
3 659 1672 968
3 1540 866 807
3 218 1330 1429
3 786 571 1543
3 1394 694 1172
3 836 1119 1765
3 414 865 1062
3 644 818 1668
3 708 622 580
3 79 80 1030
3 316 1666 1634
3 354 1540 807
3 833 1745 1399
3 448 1595 1614
3 988 404 1490
3 167 168 1445
3 104 105 1378
3 1295 940 807
3 423 1173 1164
3 1366 541 973
3 758 394 1099
3 988 376 1344
3 404 988 1344
3 1496 423 1535
3 919 725 1939
3 185 186 738
3 424 951 1937
3 468 694 1394
3 157 158 1435
3 729 537 1138
3 260 825 647
3 1816 741 1891
3 924 466 1374
3 649 1122 1991
3 788 417 1841
3 999 567 858
3 833 1011 1764
3 413 428 1542
3 220 221 1870
3 272 1188 1537
3 1094 1416 1290
3 583 1225 1883
3 1168 458 1551
3 1139 833 1399
3 1331 412 1182
3 1464 1223 1472
3 1008 81 1638
3 612 1214 1447
3 219 220 1870
3 1225 871 1883
3 543 1398 1133
3 851 1729 1446
3 571 425 1543
3 1106 429 1639
3 579 1496 1535
3 191 1152 1636
3 142 760 1179
3 1474 644 1668
3 270 271 623
3 1330 219 1870
3 1324 920 1667
3 779 359 1319
3 30 31 400
3 825 261 1585
3 1007 473 1849
3 1196 658 616
3 196 197 996
3 862 1867 1925
3 612 879 1716
3 1502 899 1473
3 821 333 636
3 1054 469 1596
3 607 1052 1211
3 1188 29 876
3 654 1708 1404
3 1657 474 1609
3 1196 844 1787
3 944 768 1089
3 58 59 844
3 1720 678 1409
3 1005 336 1586
3 1971 448 1614
3 706 674 1618
3 1242 371 859
3 112 113 1342
3 1646 1078 856
3 492 455 1427
3 900 691 1830
3 743 623 1537
3 650 1023 1388
3 1379 919 1939
3 463 1248 1721
3 372 1551 1786
3 1015 517 1261
3 520 885 1944
3 1017 1034 1998
3 986 1688 1718
3 1468 937 1458
3 962 375 1209
3 317 316 1634
3 879 499 1726
3 1867 290 1925
3 776 853 1751
3 1350 1670 1594
3 799 556 2001
3 1263 1060 1834
3 275 1324 1667
3 464 842 1746
3 1065 475 1167
3 1202 415 1865
3 751 1049 942
3 602 832 2023
3 860 726 1508
3 1229 669 1659
3 1275 585 1197
3 1225 583 2019
3 125 126 1431
3 595 797 1878
3 26 336 1005
3 235 994 1499
3 797 595 1918
3 1551 796 1786
3 1621 1041 1641
3 1459 606 1207
3 765 860 1508
3 9 276 604
3 173 910 1387
3 967 99 1389
3 1760 392 1278
3 1106 1639 1811
3 748 875 1730
3 1720 660 1742
3 400 743 876
3 470 831 1299
3 1167 475 1801
3 859 404 1344
3 346 708 1797
3 813 725 1006
3 1597 1248 1233
3 1689 1137 1927
3 666 1657 1609
3 853 776 1933
3 804 1763 1996
3 1100 442 1730
3 814 1200 965
3 577 1910 2045
3 1459 180 1921
3 540 1310 1207
3 92 875 1622
3 447 1017 1998
3 1463 1993 1922
3 403 1052 1632
3 787 704 2013
3 461 898 1205
3 569 1227 1503
3 420 1286 1206
3 53 850 1038
3 578 1496 1614
3 775 668 1067
3 916 395 1738
3 559 795 1091
3 1286 1059 1206
3 414 741 865
3 1361 402 699
3 1013 590 1748
3 591 926 1749
3 381 1269 1985
3 789 388 1756
3 928 15 1782
3 1206 888 1232
3 289 13 1220
3 388 789 1610
3 1252 525 985
3 1366 993 1962
3 686 426 1231
3 1518 503 1193
3 369 948 1035
3 1176 958 1887
3 11 1348 1860
3 389 1088 989
3 953 470 1885
3 641 939 1404
3 778 1670 1506
3 588 1228 1747
3 1106 577 2045
3 1036 1946 2083
3 1248 1012 1721
3 894 1205 2037
3 1217 929 2087
3 424 1096 1805
3 237 238 1520
3 740 1888 989
3 66 67 977
3 279 278 1792
3 1436 615 1587
3 799 2001 2097
3 349 24 1647
3 1398 733 1133
3 689 1393 961
3 693 1229 1659
3 813 50 1422
3 1250 737 1995
3 725 813 1643
3 874 1457 1354
3 49 813 1006
3 797 522 1709
3 150 151 892
3 991 685 1978
3 674 364 1618
3 562 1118 915
3 918 519 1555
3 58 844 997
3 835 488 933
3 122 123 1902
3 479 900 1830
3 723 911 1405
3 539 918 1555
3 577 791 1910
3 1063 547 1573
3 861 456 1501
3 921 387 1216
3 555 1018 1352
3 863 1638 2048
3 386 853 1933
3 825 599 647
3 1381 689 1856
3 1259 734 1327
3 1505 921 1216
3 1052 403 1211
3 1340 1260 1896
3 1768 714 1132
3 1688 367 1718
3 412 665 1044
3 1029 779 1319
3 456 1356 907
3 889 1080 1616
3 1383 362 995
3 235 236 994
3 148 149 1485
3 1363 889 1616
3 1251 574 1961
3 814 965 1673
3 1059 1696 1881
3 43 661 1262
3 522 797 1198
3 541 1039 973
3 1253 479 2012
3 697 1252 985
3 558 1092 1545
3 1166 558 1545
3 549 787 1053
3 460 861 1501
3 250 251 1357
3 1173 423 1276
3 530 1549 2088
3 1205 509 2037
3 786 1008 1638
3 568 1961 1981
3 1520 238 1903
3 112 1253 1195
3 456 861 1905
3 1097 1036 2083
3 544 1459 1207
3 419 727 1784
3 1011 515 1764
3 774 535 1212
3 685 409 609
3 304 18 1017
3 998 613 1611
3 832 1706 2014
3 620 1364 1449
3 374 998 1611
3 1152 436 1636
3 1304 313 1187
3 1223 683 1472
3 1431 545 2075
3 114 115 1558
3 875 472 1730
3 218 219 1330
3 1584 484 1334
3 1356 456 1905
3 503 744 1193
3 1339 629 1984
3 911 1390 1405
3 470 1277 1885
3 512 1689 1927
3 254 255 1273
3 452 1684 1568
3 361 553 1621
3 935 604 1578
3 689 961 1856
3 120 121 877
3 484 1248 1625
3 1457 418 1354
3 1279 246 1536
3 1485 149 2024
3 61 1424 2014
3 1496 1434 1614
3 394 758 1219
3 701 1069 817
3 1022 1629 2041
3 287 286 664
3 916 1738 1916
3 1684 1224 1568
3 1009 1383 1186
3 752 1505 1216
3 695 586 1420
3 368 1402 953
3 1356 725 907
3 839 154 1690
3 469 1054 946
3 286 1227 664
3 287 664 1798
3 476 1601 1713
3 279 571 1685
3 191 192 1947
3 535 774 1145
3 1364 487 1449
3 1104 342 1391
3 1100 472 1559
3 544 1310 1507
3 930 639 1328
3 1421 630 887
3 524 727 1675
3 635 872 1790
3 967 963 1749
3 598 910 1748
3 427 1435 1593
3 780 1237 1171
3 1636 792 1642
3 1305 1431 2075
3 1435 891 1593
3 370 1215 1627
3 510 265 1067
3 1264 500 1997
3 1395 458 1680
3 1464 829 596
3 1052 673 1632
3 880 1253 1342
3 785 850 803
3 772 1279 1536
3 558 1395 1680
3 828 1007 1483
3 940 1644 1397
3 553 361 992
3 264 510 783
3 995 362 1309
3 821 837 1146
3 578 803 1276
3 387 398 1216
3 438 1314 882
3 532 1415 1406
3 803 1173 1276
3 308 307 618
3 713 1439 1848
3 1316 541 1671
3 392 979 1096
3 370 1627 1055
3 561 1383 995
3 1099 394 1191
3 688 221 1788
3 387 382 1183
3 1698 710 1382
3 144 769 1513
3 383 1049 2002
3 718 434 771
3 1215 370 1530
3 898 1043 1269
3 1646 672 1377
3 820 858 1677
3 1084 686 1890
3 701 1727 1653
3 366 1167 1801
3 373 1283 1353
3 526 930 1328
3 1371 1022 1847
3 861 460 1700
3 498 1556 1164
3 1032 380 1844
3 872 491 1790
3 902 1283 1935
3 924 866 1540
3 409 685 1119
3 1555 519 1232
3 1211 1090 1270
3 1449 1464 596
3 1283 536 1935
3 937 1769 1458
3 1431 126 1962
3 563 1268 2054
3 1410 560 1750
3 525 1110 985
3 691 756 1663
3 759 706 1879
3 466 924 1540
3 899 1502 1948
3 898 1269 1282
3 1134 401 1498
3 291 674 1704
3 1435 158 1226
3 900 274 903
3 529 1032 1844
3 1464 487 1223
3 1072 322 1725
3 1130 728 1480
3 693 1391 1973
3 1129 1558 1966
3 1228 76 1747
3 672 854 1377
3 1029 747 1906
3 398 387 1183
3 1175 1890 2044
3 1013 735 838
3 594 926 1358
3 557 1615 2047
3 881 437 2062
3 1247 728 1861
3 1175 971 1710
3 226 227 1475
3 1203 1522 1664
3 1304 452 1950
3 788 1841 1901
3 1069 701 1653
3 1310 540 1470
3 1739 641 1404
3 1463 27 1993
3 1134 773 1534
3 1018 564 1352
3 376 1242 1344
3 848 769 1855
3 561 995 1381
3 21 312 982
3 1340 574 1260
3 1339 991 1978
3 403 817 1118
3 1421 1027 1976
3 409 761 945
3 979 843 1096
3 986 1091 1499
3 496 1339 1978
3 1725 654 1362
3 1647 423 1164
3 1237 780 1932
3 1018 555 1821
3 640 298 1156
3 688 633 1870
3 387 921 992
3 1621 553 1857
3 1316 3 1181
3 814 758 2063
3 1269 698 1282
3 359 444 1319
3 725 1356 1006
3 830 962 1318
3 394 709 1948
3 940 1295 1992
3 774 208 1249
3 661 44 1700
3 1348 282 1559
3 1351 566 1615
3 642 550 1613
3 1669 677 798
3 679 1626 1565
3 1110 665 1649
3 742 294 838
3 283 1333 1358
3 287 1798 1983
3 1626 679 2100
3 677 1669 2101
3 63 64 1512
3 1007 450 1483
3 212 213 901
3 774 391 1145
3 1629 518 1968
3 1314 438 1691
3 1096 424 1703
3 1535 423 1647
3 987 1647 1164
3 850 406 803
3 364 960 1909
3 661 733 1262
3 1913 360 1288
3 691 822 1830
3 295 928 1507
3 400 31 1416
3 571 279 1792
3 1049 751 2002
3 1488 1339 1984
3 28 273 0
3 1227 286 2067
3 955 1168 1967
3 1370 476 1713
3 439 998 1994
3 455 492 1822
3 1485 730 1850
3 696 517 1781
3 599 825 1602
3 1153 706 1618
3 439 1485 1850
3 545 1289 1869
3 761 836 2066
3 734 707 1327
3 270 623 1217
3 1350 663 1592
3 758 814 1673
3 594 967 1749
3 910 735 1748
3 1157 324 1125
3 894 1337 1205
3 1073 899 1948
3 146 147 1679
3 1054 482 1986
3 1295 807 1260
3 1644 351 1698
3 465 1018 1037
3 1289 729 1869
3 442 1100 1630
3 1015 1261 1940
3 630 1421 1976
3 541 1366 1671
3 885 1726 2095
3 927 1076 1346
3 340 341 810
3 4 1522 1203
3 75 1228 944
3 1074 680 1071
3 1732 1460 2060
3 692 785 1595
3 1186 1383 1517
3 733 661 2069
3 391 546 1145
3 1427 455 954
3 1841 651 1901
3 129 1316 1671
3 658 1142 616
3 70 71 970
3 1168 955 1573
3 599 1170 647
3 547 1168 1573
3 392 1076 1278
3 586 695 1149
3 703 756 781
3 759 589 1291
3 692 448 1422
3 703 1238 1663
3 756 703 1663
3 1239 589 1879
3 589 759 1879
3 1522 601 1808
3 1072 1725 1362
3 118 1275 1831
3 785 692 1038
3 1356 48 1006
3 724 1644 1698
3 1023 650 1581
3 132 1401 2083
3 335 26 1544
3 1134 1534 1796
3 581 1760 1278
3 609 1047 2004
3 361 387 992
3 337 338 1462
3 670 1150 909
3 407 1361 1582
3 348 27 1812
3 1269 1043 1985
3 1317 565 1218
3 1313 374 912
3 1570 1068 2031
3 1238 1453 1418
3 717 1239 1454
3 776 1807 1842
3 1238 691 1663
3 706 1239 1879
3 157 1435 1631
3 857 137 1341
3 685 609 2004
3 579 1068 1570
3 1556 987 1164
3 45 861 1700
3 380 1032 1154
3 1199 995 1309
3 994 986 1499
3 1247 1861 1914
3 910 598 1387
3 963 967 1389
3 849 710 811
3 498 1136 1556
3 1144 1313 912
3 975 468 1384
3 733 1398 1620
3 21 982 1187
3 61 62 1424
3 1001 17 864
3 323 324 1157
3 1361 407 1751
3 1113 701 1632
3 769 848 1898
3 1008 786 1543
3 1337 461 1205
3 839 620 1369
3 154 839 1369
3 1031 754 1762
3 607 1211 1270
3 585 553 1197
3 1275 1197 757
3 731 395 1035
3 1268 398 1183
3 957 1264 1997
3 436 1152 1503
3 1048 470 1299
3 868 640 1156
3 494 1370 1852
3 245 1279 972
3 818 974 1668
3 844 1196 997
3 1386 1107 2003
3 875 748 1622
3 1474 514 2082
3 606 1459 1921
3 605 555 2007
3 508 769 1898
3 962 405 1318
3 970 71 860
3 730 1485 2024
3 978 782 930
3 86 947 410
3 1279 396 972
3 772 1088 1715
3 787 869 1098
3 1248 484 1233
3 814 1597 1233
3 665 412 922
3 1330 1169 1429
3 448 692 1595
3 601 894 1808
3 1323 186 1819
3 761 1955 1347
3 1476 725 1643
3 1535 24 1141
3 573 896 1494
3 1587 615 957
3 1018 660 1037
3 1640 933 2006
3 668 775 1550
3 848 1679 1221
3 402 1361 1751
3 1366 128 1671
3 673 1113 1632
3 510 1067 2043
3 934 1058 1629
3 1370 843 1852
3 333 334 636
3 1551 458 1656
3 1670 778 1594
3 134 135 1004
3 304 1017 1893
3 779 1029 1525
3 1424 832 2014
3 125 1431 1305
3 1593 532 1442
3 1314 1222 882
3 555 1280 1821
3 1406 1415 1707
3 490 1143 1312
3 993 1431 1962
3 588 739 1354
3 978 1482 1608
3 1033 684 1734
3 296 295 1507
3 650 796 1717
3 284 283 1358
3 294 293 838
3 223 224 1171
3 511 1476 1971
3 1370 494 1478
3 1108 1620 379
3 1273 255 1906
3 782 560 1607
3 282 281 1559
3 739 874 1354
3 167 1376 1375
3 1373 105 1835
3 367 851 1828
3 1394 534 1306
3 394 1502 1191
3 193 981 1947
3 212 901 1837
3 867 1137 1689
3 1032 529 1676
3 150 892 2024
3 1273 747 990
3 746 1522 1808
3 611 1511 1583
3 482 1054 1028
3 414 1264 2077
3 51 692 1422
3 1427 804 1692
3 224 755 1171
3 998 374 1221
3 1310 544 1207
3 734 1736 1807
3 1082 524 1740
3 28 29 1081
3 507 1660 2079
3 722 975 1384
3 510 489 783
3 1552 389 1888
3 1435 427 1631
3 1068 714 2031
3 384 1321 1527
3 1077 1552 1888
3 1014 780 1723
3 1700 460 2069
3 668 1550 864
3 996 197 1303
3 1321 663 1527
3 769 508 1884
3 820 754 2053
3 1215 605 2007
3 566 1351 1712
3 2016 1539 1744
3 1391 343 1973
3 459 1539 2016
3 504 1058 1128
3 714 1068 1132
3 550 642 1872
3 998 439 1082
3 1442 532 1691
3 1210 1474 2082
3 472 1100 1730
3 468 975 1547
3 765 970 860
3 1313 1144 1898
3 638 1033 1734
3 574 1295 1260
3 1711 536 1105
3 196 996 1843
3 348 1812 1479
3 593 1016 1964
3 584 1627 1755
3 754 820 1762
3 288 287 1983
3 1273 385 1590
3 652 1399 1829
3 1627 1109 1755
3 1321 384 826
3 821 1146 1697
3 1482 358 1608
3 1520 819 1729
3 385 1273 990
3 710 849 1952
3 665 525 1385
3 1107 1549 2003
3 391 774 1249
3 775 690 1550
3 1736 531 1807
3 974 1448 1668
3 1357 251 1604
3 1393 509 961
3 613 998 1082
3 3 130 1040
3 835 933 1640
3 925 751 1208
3 205 206 1074
3 494 881 1478
3 674 291 1867
3 471 595 950
3 842 1768 1132
3 1848 1439 2000
3 274 900 1324
3 1410 1750 1349
3 850 785 1038
3 1350 551 1633
3 1082 439 1850
3 500 471 950
3 1890 453 2044
3 1941 593 1964
3 272 273 1081
3 575 688 1776
3 450 455 1483
3 333 821 1714
3 1016 629 1964
3 747 1029 1319
3 663 1350 1633
3 619 1114 1724
3 362 952 572
3 90 91 1177
3 1170 779 1525
3 926 591 1554
3 590 1013 1066
3 1017 18 1600
3 727 1082 1850
3 1067 668 2043
3 705 1520 1729
3 465 883 635
3 1331 599 1602
3 724 890 1770
3 872 635 976
3 440 1461 1335
3 1317 786 1759
3 181 182 671
3 1660 299 2079
3 725 1476 1939
3 351 811 1698
3 551 1350 1594
3 849 441 1952
3 1732 639 1460
3 1972 418 2091
3 359 779 1266
3 1791 1214 1766
3 1539 459 1572
3 1280 555 605
3 877 121 1114
3 1158 491 1755
3 393 1136 1810
3 619 877 1114
3 1679 809 1221
3 681 765 1508
3 620 839 1284
3 1615 427 1442
3 1215 713 605
3 777 1777 1187
3 384 847 1440
3 77 78 739
3 817 403 1632
3 1040 1036 1534
3 483 895 1709
3 388 1321 826
3 1228 530 1988
3 681 415 1651
3 1549 493 2003
3 730 892 1784
3 975 840 1547
3 525 1252 1766
3 1601 720 1713
3 491 1473 1755
3 1046 917 1871
3 741 414 2077
3 582 400 1416
3 420 1041 1724
3 201 202 1756
3 901 213 1336
3 1321 388 1610
3 2001 1070 2097
3 385 1531 1590
3 841 1398 1816
3 803 406 1300
3 484 1516 1334
3 637 985 1846
3 1092 515 1779
3 497 1046 1871
3 975 722 1969
3 892 419 1784
3 541 1124 1240
3 477 1092 1779
3 313 1304 1950
3 974 1468 1458
3 1398 543 1816
3 100 101 1178
3 171 172 1101
3 396 1489 1692
3 1146 651 1697
3 564 635 1790
3 296 1507 1741
3 1422 448 1643
3 38 39 1538
3 1130 201 1756
3 623 846 1217
3 892 730 2024
3 920 1324 1349
3 712 1711 1105
3 891 1435 1226
3 1490 65 1579
3 495 1280 1848
3 136 137 857
3 132 133 1401
3 1150 670 2062
3 1767 611 1583
3 982 777 1187
3 1955 958 1347
3 1353 643 1858
3 521 732 1605
3 275 274 1324
3 437 1150 2062
3 732 908 1605
3 542 1456 1294
3 1021 712 1941
3 291 290 1867
3 737 1048 1231
3 751 925 2002
3 1867 862 1707
3 1512 64 1490
3 1114 645 1724
3 1068 579 1141
3 1054 1596 1780
3 851 777 1828
3 603 1314 1989
3 1777 1304 1187
3 811 710 1698
3 698 1186 1517
3 471 500 1836
3 478 1159 1024
3 1133 460 1876
3 1461 1025 1335
3 421 939 1875
3 1541 1057 1889
3 1559 281 1519
3 352 1402 1381
3 643 1467 1858
3 837 821 636
3 826 384 1440
3 675 1427 954
3 819 1161 1729
3 951 917 1123
3 675 1491 1763
3 1937 951 2102
3 1173 803 1300
3 489 510 2043
3 521 799 2097
3 538 696 1813
3 546 549 1145
3 194 195 1033
3 1696 729 1138
3 1116 837 2081
3 925 383 2002
3 745 1696 1138
3 1124 350 1240
3 1393 746 1808
3 1489 772 1715
3 1491 475 1763
3 489 1102 1660
3 906 314 1950
3 1787 1234 1254
3 565 1317 1759
3 192 193 1947
3 593 1105 1900
3 1469 1129 1966
3 516 1331 1602
3 773 1134 1498
3 408 1518 1193
3 416 1241 1420
3 417 1315 962
3 735 1013 1748
3 926 594 1749
3 1502 434 1191
3 881 494 1918
3 1096 843 1805
3 313 21 1187
3 579 1535 1141
3 1619 378 1862
3 415 1395 1865
3 1068 421 1132
3 1364 566 1712
3 807 866 1260
3 1383 1009 1190
3 822 1563 1733
3 350 1069 1653
3 684 1031 1734
3 1549 1107 2088
3 444 359 1716
3 476 1370 2074
3 1878 676 950
3 938 826 1440
3 917 951 1871
3 1121 1562 1899
3 663 1321 1495
3 705 851 1688
3 1057 513 1889
3 890 384 1527
3 1002 1657 1977
3 1269 381 1186
3 232 795 1258
3 878 917 966
3 429 1106 1419
3 786 863 1759
3 1281 1357 1960
3 571 1317 1685
3 1564 1153 1548
3 1017 447 1893
3 1101 598 964
3 963 1178 1020
3 845 1791 1766
3 716 676 1878
3 154 155 1690
3 16 1110 1156
3 533 1222 1826
3 576 1325 1599
3 1047 609 1817
3 1236 420 1724
3 363 1316 1181
3 943 1687 1606
3 939 641 1875
3 632 947 621
3 250 1357 1281
3 792 436 1872
3 878 966 1209
3 1168 547 2032
3 795 855 1258
3 1194 1972 2091
3 278 277 1494
3 883 450 976
3 1550 1001 864
3 609 869 1817
3 863 565 1759
3 362 1383 1190
3 642 792 1872
3 1931 278 1494
3 360 1467 1288
3 409 945 1493
3 780 1014 1932
3 893 1304 1777
3 1619 1862 1829
3 689 1402 2078
3 959 610 1557
3 30 400 876
3 698 1269 1186
3 993 1366 973
3 347 348 1479
3 1453 107 1418
3 165 717 1454
3 1325 1235 1599
3 696 673 1813
3 1696 378 1881
3 633 1456 1163
3 1077 1281 1960
3 1033 195 1843
3 629 1339 1964
3 1475 227 1320
3 615 741 2077
3 623 271 1537
3 71 72 860
3 1039 541 1240
3 1831 1275 757
3 458 1168 1863
3 1657 506 1977
3 1177 748 750
3 660 1018 1821
3 1136 498 2020
3 1046 672 1245
3 1058 934 1678
3 892 151 1919
3 213 214 1336
3 1346 1076 1785
3 1222 617 1826
3 901 902 1837
3 1364 620 1284
3 1482 526 1329
3 606 671 1392
3 1572 1803 2078
3 1133 733 2069
3 1047 546 1021
3 847 934 1440
3 949 828 1970
3 454 625 1670
3 1039 537 973
3 843 1370 1713
3 1168 1551 1967
3 273 28 1081
3 1079 396 1692
3 883 465 1297
3 208 209 1249
3 709 1219 1426
3 612 359 1441
3 923 717 1504
3 1453 600 1451
3 64 65 1490
3 816 1037 1720
3 881 670 1478
3 1259 244 972
3 625 823 1670
3 889 696 1965
3 661 1700 2069
3 406 850 1818
3 1326 363 1754
3 1746 842 1875
3 742 838 2040
3 1358 1333 1051
3 747 1273 1906
3 561 961 1517
3 1601 624 2073
3 1259 396 1736
3 844 59 1706
3 458 1395 1717
3 534 971 1838
3 535 1145 1487
3 543 1133 1876
3 435 1323 1819
3 543 741 1816
3 947 462 410
3 368 1539 1572
3 552 1620 1355
3 152 153 1515
3 851 367 1688
3 713 1215 1530
3 284 1358 1360
3 838 293 1567
3 1726 499 2095
3 335 1544 1658
3 567 999 1983
3 109 110 1563
3 162 163 1564
3 1410 880 2035
3 965 520 1944
3 988 1490 1579
3 1351 533 1523
3 1606 1687 1569
3 1620 1108 1343
3 947 632 2093
3 314 313 1950
3 1395 558 1865
3 732 521 1363
3 1161 528 1729
3 452 906 1950
3 1348 1559 2030
3 566 1364 1284
3 7 231 1529
3 654 939 1362
3 1294 1121 1899
3 230 7 1529
3 644 1482 1329
3 738 1323 1882
3 1088 772 989
3 156 157 1631
3 887 630 1569
3 795 559 1312
3 248 1148 1915
3 707 407 1582
3 496 1021 1941
3 800 1376 1445
3 1373 805 1378
3 1005 399 1744
3 1026 1157 1125
3 1464 419 1396
3 623 743 1825
3 829 1464 1396
3 226 1475 1189
3 837 1116 824
3 359 612 1716
3 657 1831 757
3 546 391 1589
3 765 681 1651
3 696 538 1965
3 627 738 1882
3 1433 1155 1223
3 1562 320 1899
3 311 310 887
3 939 421 1362
3 1029 257 1525
3 35 36 942
3 217 873 1184
3 1031 411 1734
3 643 901 1336
3 875 93 1775
3 667 1294 1899
3 853 402 1751
3 1507 928 1645
3 554 1584 1334
3 1340 524 1675
3 179 1459 1772
3 910 174 1180
3 98 967 1162
3 1198 494 1852
3 511 1379 1939
3 1841 417 1911
3 800 1101 964
3 1178 805 1020
3 487 1433 1223
3 1615 566 2047
3 846 623 1825
3 26 1005 1757
3 595 881 1918
3 1264 414 1662
3 837 636 2081
3 1439 713 1901
3 567 1798 1486
3 591 1020 1380
3 964 590 1438
3 782 721 1460
3 1563 1238 2009
3 1239 1564 2056
3 487 1364 1701
3 1727 449 1653
3 641 1746 1875
3 462 947 608
3 469 1674 1990
3 215 216 770
3 1323 435 834
3 1574 504 1128
3 1494 277 1577
3 121 122 1114
3 1627 1215 2007
3 683 1340 1675
3 428 413 1270
3 952 722 572
3 120 877 1112
3 1401 1097 2083
3 701 817 1632
3 42 43 1262
3 1150 437 1877
3 1014 575 1932
3 437 471 1793
3 1620 552 379
3 1073 709 2052
3 513 849 1889
3 632 1177 750
3 152 1515 1919
3 124 125 1305
3 492 1427 1692
3 1037 660 1720
3 1456 542 1163
3 371 732 1616
3 1137 1301 1927
3 791 857 1341
3 891 1415 2022
3 780 1652 1723
3 1413 435 1794
3 300 299 1660
3 1102 489 2043
3 813 1422 1643
3 1600 751 2017
3 404 1512 1490
3 1260 866 1896
3 986 994 1688
3 912 478 1024
3 625 454 1098
3 1063 1866 1694
3 671 627 1392
3 618 716 1561
3 961 509 1282
3 701 1113 1727
3 838 735 2040
3 594 1358 1051
3 199 1247 2005
3 697 985 637
3 600 1373 1835
3 1376 923 1375
3 877 585 1112
3 265 266 1067
3 717 165 1504
3 107 1453 1451
3 73 74 1089
3 564 1158 1352
3 1142 406 1818
3 664 763 1798
3 1436 1246 2092
3 1136 897 1542
3 869 625 1098
3 859 371 2034
3 246 247 1536
3 971 687 1838
3 1247 199 1480
3 263 264 783
3 411 1031 1762
3 462 1430 1400
3 1331 516 1907
3 1687 943 1143
3 988 977 1758
3 716 618 1185
3 323 1157 1725
3 1413 188 1648
3 355 1073 2052
3 1075 1371 2011
3 611 1574 1128
3 1395 415 1928
3 1383 561 1517
3 722 711 1969
3 1684 386 1719
3 1011 521 1605
3 952 362 1190
3 10 279 1685
3 981 193 1771
3 298 640 2079
3 488 1150 1739
3 1544 26 1277
3 721 782 1575
3 573 1494 1577
3 1843 996 1800
3 971 534 1172
3 515 1011 1411
3 885 1576 1944
3 582 1241 1298
3 463 1357 1591
3 906 482 1028
3 1198 797 1918
3 258 1170 1525
3 248 249 1148
3 959 859 2034
3 1261 1204 1940
3 371 1080 2034
3 923 1376 1438
3 1373 600 1380
3 1381 995 1571
3 586 1255 984
3 1625 463 1591
3 1102 300 1660
3 479 1830 2012
3 412 1331 922
3 1469 116 1271
3 1128 1058 2098
3 1809 768 1988
3 1814 552 1355
3 355 1346 913
3 716 895 1561
3 673 696 1781
3 274 8 903
3 1798 763 1486
3 14 291 1704
3 867 602 2023
3 84 1430 2026
3 1674 764 1990
3 310 1421 887
3 850 54 1818
3 1600 18 1208
3 396 1259 972
3 1559 472 2030
3 1398 841 1355
3 402 853 1665
3 368 1572 2078
3 50 51 1422
3 1561 697 637
3 577 1106 1811
3 1016 593 1900
3 629 1016 711
3 1830 822 2012
3 946 1054 1986
3 1346 626 913
3 48 49 1006
3 1729 528 1446
3 396 1079 1736
3 631 1286 1236
3 565 1430 1296
3 1549 1194 1942
3 982 911 1432
3 1439 486 2000
3 188 1413 1794
3 970 871 1851
3 1286 420 1236
3 1402 368 2078
3 70 970 1851
3 544 1507 1645
3 429 1179 2051
3 952 629 711
3 917 1046 966
3 719 1913 1288
3 1182 412 1266
3 251 252 1604
3 873 217 1429
3 914 1791 1322
3 314 906 1028
3 239 699 1903
3 290 289 1699
3 435 1413 1980
3 751 1600 1208
3 74 75 944
3 345 346 1797
3 1026 933 1117
3 322 323 1725
3 656 1937 2102
3 1016 373 1969
3 1178 963 1389
3 598 1101 1387
3 1202 1166 1883
3 651 1439 1901
3 1166 583 1883
3 418 1457 1244
3 77 739 1747
3 331 808 1293
3 309 637 1846
3 1624 658 2020
3 1507 1310 1741
3 405 962 1209
3 1809 1988 2088
3 1158 1109 1352
3 904 1516 1625
3 748 1177 1622
3 18 303 1208
3 459 1203 1664
3 628 1326 1956
3 1403 597 1897
3 671 606 1921
3 1053 787 2013
3 602 844 1706
3 1430 84 1400
3 345 1797 2055
3 1619 888 1881
3 676 716 1185
3 190 191 1636
3 378 1619 1881
3 44 45 1700
3 1080 1083 2034
3 1457 874 1524
3 81 82 1638
3 804 1079 1692
3 535 1074 1212
3 79 1030 1804
3 1224 1684 1719
3 1140 1249 1510
3 962 830 1789
3 143 144 1513
3 399 2016 1744
3 1457 653 1244
3 419 892 1396
3 682 325 1753
3 942 1049 1868
3 1539 368 1885
3 1430 462 1296
3 1791 914 2095
3 116 1469 1966
3 1179 760 2051
3 1231 1048 1840
3 792 1413 1648
3 770 216 1184
3 722 952 711
3 1088 389 1970
3 276 275 1578
3 1231 426 1995
3 403 1118 1050
3 948 542 1035
3 1315 370 1055
3 487 1464 1449
3 1074 206 1212
3 512 413 1854
3 315 1028 1780
3 1791 845 1322
3 1073 355 1412
3 1100 1559 1519
3 1090 1463 1270
3 587 1587 957
3 423 1496 1276
3 1065 1933 1842
3 816 1720 1311
3 1076 927 1428
3 670 881 2062
3 490 1687 1143
3 1925 290 1699
3 447 969 1893
3 892 1919 1396
3 1028 1054 1780
3 649 1661 1332
3 739 78 1804
3 828 1088 1970
3 934 847 1678
3 1110 16 1846
3 641 767 1746
3 767 641 1877
3 818 380 1468
3 933 1708 1117
3 128 129 1671
3 1252 483 1839
3 1516 484 1625
3 499 1791 2095
3 244 245 972
3 847 390 1678
3 1062 649 1332
3 1175 1084 1890
3 638 981 1771
3 413 607 1270
3 1413 642 1980
3 576 1403 1325
3 38 1538 1752
3 587 1185 1120
3 560 1410 2035
3 306 1436 1308
3 55 1142 1818
3 312 311 794
3 1177 91 1622
3 753 366 1311
3 375 1315 1055
3 520 1200 1584
3 819 1520 1903
3 592 1039 1240
3 395 916 1285
3 684 1033 1843
3 23 1403 1897
3 431 1666 1500
3 775 1067 1481
3 1415 532 2022
3 1661 702 1332
3 181 671 1921
3 440 858 1767
3 1430 863 2026
3 390 847 1683
3 832 1452 2023
3 1036 1097 2068
3 746 1393 1803
3 288 1983 1497
3 1515 829 1919
3 1169 873 1429
3 1045 873 1193
3 1374 613 1740
3 615 1436 1891
3 968 514 1448
3 502 914 884
3 470 1048 1450
3 1439 651 1146
3 393 1787 1254
3 626 1096 1703
3 1949 563 2008
3 1301 538 1813
3 275 1667 1578
3 658 1810 2020
3 739 588 1747
3 1340 683 1526
3 100 1178 1389
3 1101 172 1387
3 895 716 1778
3 327 328 1646
3 563 1786 2008
3 1461 617 1864
3 695 925 1894
3 951 1123 2102
3 574 1340 1526
3 1245 812 1318
3 728 1247 1480
3 791 577 1930
3 662 1004 1977
3 492 1489 1715
3 974 818 1468
3 1845 431 1500
3 365 1064 1811
3 241 242 707
3 425 1457 1524
3 166 167 1375
3 105 106 1835
3 1709 895 1778
3 413 897 1854
3 329 330 1895
3 330 331 1293
3 1508 726 1484
3 253 1531 1160
3 1031 684 1800
3 1004 135 1886
3 682 356 2006
3 85 86 410
3 502 1278 1428
3 134 1004 1307
3 176 177 1626
3 95 96 1669
3 1942 1194 2091
3 522 979 1760
3 644 1474 1979
3 755 780 1171
3 483 1252 956
3 734 1259 1736
3 709 1426 2052
3 874 739 1804
3 1403 576 1806
3 979 392 1760
3 401 1754 1498
3 634 767 1793
3 186 187 1819
3 59 60 1706
3 286 12 2067
3 1763 804 1427
3 397 1031 1800
3 380 818 1844
3 353 1576 1426
3 823 1176 1506
3 1252 697 956
3 1200 520 965
3 896 1244 1931
3 1538 39 1912
3 430 1508 1484
3 443 1743 1945
3 895 697 1561
3 844 602 1787
3 1148 740 1915
3 342 343 1391
3 1459 544 2096
3 1639 365 1811
3 815 1138 1566
3 1866 539 1694
3 1402 352 1477
3 969 1147 1893
3 472 875 1892
3 945 761 1347
3 1634 431 1126
3 485 753 1311
3 873 408 1193
3 1000 451 1824
3 1042 693 1973
3 1512 404 1557
3 1469 657 2060
3 1065 1167 1933
3 815 745 1138
3 1026 682 2006
3 419 1464 1472
3 957 615 2077
3 726 860 2072
3 1030 874 1804
3 204 205 1071
3 853 386 2061
3 724 1698 1683
3 1812 1090 1050
3 1076 392 1785
3 1461 440 1583
3 29 30 876
3 1511 441 1425
3 479 1410 1349
3 1460 721 2060
3 1048 737 1450
3 1357 463 1960
3 451 827 1824
3 873 1045 1184
3 559 723 1405
3 1064 577 1811
3 63 1512 1695
3 1687 490 1390
3 271 272 1537
3 660 1821 1742
3 401 622 1956
3 1278 1076 1428
3 1937 913 1703
3 1393 1808 2037
3 858 440 1335
3 749 1539 1885
3 877 619 1857
3 1415 364 1707
3 777 851 1446
3 1080 371 1616
3 680 1053 2013
3 1393 689 1803
3 527 1042 1796
3 2064 240 1582
3 610 1512 1557
3 832 1424 1452
3 1040 130 1946
3 733 1620 1343
3 942 36 1192
3 1244 653 1931
3 514 1474 1668
3 952 1009 1984
3 1592 663 1495
3 699 239 2064
3 148 1485 1802
3 629 952 1984
3 614 846 1135
3 267 268 1735
3 895 483 956
3 585 877 1857
3 806 1043 1936
3 597 1403 1999
3 824 1116 1974
3 1456 575 2070
3 570 815 1908
3 1512 610 1695
3 259 260 647
3 1758 443 1945
3 203 204 1372
3 767 437 1793
3 860 72 2072
3 1241 416 1298
3 657 1469 1271
3 933 488 1708
3 33 34 1174
3 697 895 956
3 493 1549 1942
3 415 681 1581
3 969 1010 379
3 1462 2033 1586
3 1423 923 1438
3 600 1654 1380
3 1086 1301 1813
3 412 1441 1266
3 1531 253 1590
3 1474 358 1979
3 943 1257 1143
3 1109 1627 2007
3 1502 491 434
3 899 1000 1514
3 1222 533 882
3 476 909 2059
3 791 474 1951
3 1257 855 1143
3 717 923 1455
3 600 1453 1612
3 603 1461 1864
3 815 592 1908
3 996 1303 2011
3 656 913 1937
3 1264 957 2077
3 675 1763 1427
3 464 1332 1768
3 681 1508 1929
3 464 1062 1332
3 1744 749 1757
3 825 1585 1588
3 254 1273 1590
3 325 682 1125
3 994 705 1688
3 205 1074 1071
3 523 1386 2003
3 767 634 1926
3 484 1200 1233
3 1576 927 1426
3 721 1469 2060
3 227 228 1320
3 953 1402 1477
3 669 1097 1115
3 1553 493 1942
3 552 969 379
3 818 644 1844
3 526 1482 1407
3 107 108 1418
3 164 165 1454
3 1496 578 1276
3 1005 1744 1757
3 999 858 1335
3 1933 776 1842
3 681 1023 1581
3 595 1878 950
3 1821 1280 1742
3 1079 531 1736
3 1103 170 1617
3 102 801 1560
3 1765 381 1985
3 1677 411 1762
3 1157 654 1725
3 930 782 1460
3 587 676 1185
3 617 1511 1425
3 263 783 1783
3 777 982 1828
3 221 222 1788
3 1550 690 1255
3 1197 357 757
3 1149 695 1894
3 686 1231 1840
3 1023 1386 1388
3 1219 758 1673
3 1462 365 2033
3 576 1084 1806
3 1294 1456 2070
3 684 1843 1800
3 432 1394 1306
3 229 1257 1408
3 1128 793 1274
3 56 57 616
3 1211 403 1050
3 89 90 1532
3 1812 562 1479
3 170 171 1617
3 101 102 1560
3 827 584 1824
3 1080 889 1965
3 1534 527 1796
3 1618 364 1909
3 182 183 1466
3 216 217 1184
3 879 1938 1982
3 1111 89 1532
3 509 1393 2037
3 1062 464 1795
3 325 326 1753
3 811 351 1934
3 1983 999 1497
3 356 1640 2006
3 905 1687 1390
3 33 1174 1290
3 1797 1093 2055
3 909 835 2059
3 1240 350 1603
3 441 1511 1274
3 1277 26 1757
3 1735 268 2087
3 1357 1604 1591
3 388 1130 1756
3 183 1598 1466
3 1092 558 1761
3 1361 699 2064
3 981 638 1243
3 1766 1252 1839
3 639 1505 1328
3 160 161 1213
3 1201 416 1135
3 421 1875 1132
3 1235 1634 1126
3 373 975 1969
3 1087 211 1837
3 622 628 1956
3 590 1423 1438
3 1654 591 1380
3 1241 383 980
3 862 1406 1707
3 416 614 1135
3 353 1219 1673
3 1426 927 2052
3 1563 110 1733
3 162 1564 1548
3 437 767 1877
3 233 234 1091
3 109 1563 2009
3 1564 163 2056
3 140 141 1419
3 731 542 1294
3 514 968 2082
3 252 253 1160
3 1536 247 1915
3 2033 715 1586
3 320 319 1899
3 1009 952 1190
3 1358 926 1360
3 1013 838 1567
3 562 1812 1050
3 928 1782 1565
3 1386 523 1388
3 1014 321 1562
3 1860 1348 798
3 1021 546 1589
3 1251 811 1934
3 238 239 1903
3 482 906 1568
3 1359 638 1734
3 620 1515 1369
3 35 942 1868
3 1522 4 1873
3 302 301 1149
3 392 1096 1785
3 485 946 1986
3 1000 656 2102
3 321 1014 1723
3 42 1262 932
3 965 353 1673
3 460 1133 2069
3 589 717 1455
3 1453 703 1612
3 516 640 1907
3 627 1598 738
3 1943 938 1861
3 25 335 1658
3 611 1128 1274
3 489 1660 1959
3 1644 724 1770
3 902 1087 1837
3 1750 920 1349
3 934 1629 1968
3 682 1026 1125
3 1544 737 1658
3 480 916 1265
3 1861 518 1914
3 478 1611 1374
3 522 1760 1832
3 1961 1155 1981
3 1286 545 1869
3 315 314 1028
3 1769 523 2003
3 1111 632 621
3 1179 429 1419
3 67 68 1095
3 1200 484 1584
3 361 1621 1641
3 646 1452 1693
3 1196 616 997
3 531 1079 1996
3 705 994 1924
3 160 1213 1417
3 1511 611 1274
3 920 1750 1667
3 676 587 1997
3 1030 1008 467
3 1177 632 1532
3 405 1245 1318
3 614 416 984
3 1720 485 1311
3 1745 833 1764
3 1096 626 1785
3 831 953 1477
3 474 791 1930
3 1019 1745 1764
3 755 224 1465
3 1467 360 1287
3 782 1607 1575
3 1434 784 1614
3 1338 581 1322
3 1220 603 1989
3 140 1419 2045
3 1113 673 1781
3 1101 800 1617
3 805 1178 1560
3 1993 987 1922
3 807 940 1737
3 1067 266 1481
3 1624 498 1300
3 676 500 950
3 198 199 2005
3 1097 669 2068
3 1672 418 1244
3 840 1467 1287
3 784 1971 1614
3 627 671 1466
3 968 573 2082
3 1075 2005 1914
3 319 1880 1899
3 451 1000 2102
3 1042 1093 1796
3 670 909 2074
3 153 154 1369
3 1919 829 1396
3 1059 1286 1869
3 277 9 1577
3 699 819 1903
3 354 807 1737
3 1489 492 1692
3 1406 862 1925
3 116 117 1271
3 1666 431 1634
3 515 1761 1764
3 1750 935 1667
3 141 142 1179
3 896 1672 1244
3 327 1646 856
3 626 1346 1785
3 1359 411 1486
3 1761 1019 1764
3 1482 978 1407
3 240 241 1582
3 500 676 1997
3 871 970 1127
3 40 41 1367
3 849 811 1492
3 911 982 2015
3 2005 1247 1914
3 1103 800 1445
3 805 801 1378
3 253 254 1590
3 970 765 1127
3 493 1769 2003
3 358 1482 1979
3 1250 25 1658
3 558 1680 1761
3 513 1057 1826
3 228 229 1408
3 36 37 1192
3 617 1222 1864
3 418 1672 2091
3 1558 880 1342
3 13 288 1497
3 411 1359 1734
3 931 1406 1925
3 1895 330 1293
3 793 1128 2098
3 386 1167 1719
3 199 200 1480
3 528 893 1777
3 1220 1989 1699
3 1041 519 1641
3 1502 394 1948
3 1079 804 1996
3 145 146 1855
3 194 1033 1771
3 600 1835 1451
3 1375 923 1504
3 870 680 2013
3 1001 1550 1255
3 677 1860 798
3 1153 1618 1909
3 1782 679 1565
3 1161 1665 1471
3 302 1149 1894
3 668 864 2043
3 855 1257 1681
3 581 884 1322
3 1491 675 1297
3 1044 612 1441
3 225 226 1189
3 723 559 1718
3 1057 533 1826
3 526 1328 1637
3 1041 420 1232
3 542 948 1163
3 874 1030 1524
3 519 1041 1232
3 1660 507 1959
3 76 77 1747
3 667 731 1294
3 1023 681 1929
3 1321 1610 1495
3 54 55 1818
3 37 38 1752
3 656 1000 1412
3 368 953 1885
3 509 1205 1282
3 712 1021 1589
3 1205 898 1282
3 1610 446 1495
3 1004 662 1307
3 797 1709 1778
3 753 485 1986
3 935 1731 1608
3 147 148 1802
3 1828 982 1432
3 412 1044 1441
3 1482 644 1979
3 485 1720 1409
3 1002 1004 1886
3 466 1540 1887
3 261 262 1585
3 665 922 1649
3 190 1636 1642
3 1084 655 1806
3 1485 439 1994
3 763 1359 1486
3 640 868 1907
3 1638 82 2048
3 916 983 1265
3 174 175 1180
3 97 98 1162
3 224 225 1465
3 1085 715 1639
3 1597 814 2063
3 1722 955 1799
3 625 869 1493
3 1159 478 1444
3 781 285 1580
3 292 1291 2085
3 178 179 1772
3 699 402 2029
3 93 94 1775
3 1009 1488 1984
3 1476 511 1939
3 841 1816 1891
3 470 1544 1277
3 262 263 1783
3 193 194 1771
3 1087 902 1935
3 1592 1495 2065
3 413 512 1820
3 1329 529 1844
3 906 452 1568
3 1204 1263 1940
3 1263 570 1940
3 257 258 1525
3 501 1159 1444
3 707 242 1327
3 524 1340 1896
3 613 1082 1740
3 1174 1094 1290
3 1130 388 1943
3 1167 366 1719
3 911 794 1390
3 743 1201 1825
3 1452 646 2023
3 217 218 1429
3 808 417 1789
3 929 1735 2087
3 1574 820 2053
3 1257 229 1681
3 367 723 1718
3 464 1926 1795
3 990 444 2090
3 1012 1597 1509
3 1709 522 1832
3 517 1113 1781
3 819 699 2029
3 794 905 1390
3 630 1475 1606
3 1745 547 1399
3 455 1822 1483
3 1515 153 1369
3 389 1552 1920
3 640 507 2079
3 1520 705 1924
3 513 1826 1425
3 1230 462 608
3 1041 619 1724
3 728 1130 1943
3 285 781 2038
3 1291 292 2039
3 115 116 1966
3 1313 848 1221
3 669 790 1659
3 1234 867 1689
3 299 298 2079
3 1716 879 1982
3 601 1522 1873
3 1274 793 1952
3 1192 37 1752
3 1036 1040 1946
3 465 1491 1297
3 870 446 2018
3 1013 1567 1066
3 1360 926 1554
3 633 1330 1870
3 1222 603 1864
3 1433 886 1541
3 1151 870 2018
3 1501 456 2076
3 921 1505 1904
3 1161 402 1665
3 95 1669 1953
3 1626 177 1954
3 515 1092 1761
3 904 1625 1591
3 1798 567 1983
3 922 1331 1907
3 176 1626 1963
3 1669 96 802
3 395 731 1833
3 1100 1519 1630
3 456 907 2076
3 111 112 1195
3 417 808 1911
3 1505 357 1904
3 1815 666 1609
3 1040 1534 1774
3 1204 2001 1728
3 1312 559 1405
3 864 1102 2043
3 1042 344 2055
3 477 1779 1859
3 78 79 1804
3 188 189 1648
3 762 466 1887
3 1033 638 1771
3 762 958 1955
3 1807 531 1842
3 836 806 2066
3 1200 814 1233
3 324 325 1125
3 1046 1245 966
3 683 1675 1472
3 477 1859 1945
3 90 1177 1532
3 607 413 1820
3 878 451 1123
3 501 762 1955
3 1138 537 1566
3 830 808 1789
3 646 867 2023
3 1822 828 1483
3 1531 904 1160
3 1585 262 1783
3 1496 579 1434
3 1875 842 1132
3 1741 1310 1470
3 537 1039 1566
3 644 1329 1844
3 478 1374 1414
3 1218 280 2071
3 643 1336 1288
3 83 84 2026
3 800 1103 1617
3 801 805 1560
3 1099 473 2063
3 1328 752 1637
3 1159 461 1024
3 119 120 1112
3 1714 505 1874
3 671 182 1466
3 1219 353 1426
3 1336 719 1288
3 1391 693 1659
3 1530 788 1901
3 704 870 2013
3 728 1943 1861
3 1116 766 1974
3 1567 700 1066
3 1061 1360 1554
3 1338 483 1832
3 1570 784 1434
3 1039 592 1566
3 444 1716 1982
3 1277 749 1885
3 1826 617 1425
3 924 524 1896
3 581 1338 1832
3 808 331 1874
3 231 232 1258
3 1475 630 1976
3 1938 554 1982
3 442 1230 608
3 855 1529 1258
3 592 1240 1603
3 1519 852 1630
3 731 667 1833
3 1825 1201 1135
3 461 1159 1936
3 1576 353 1944
3 332 1714 1874
3 1597 473 1509
3 1336 214 1368
3 4 143 1873
3 22 1596 1682
3 435 1521 834
3 866 924 1896
3 901 643 1623
3 902 901 1623
3 337 1462 1586
3 321 320 1562
3 1213 960 1417
3 1665 736 1471
3 517 1272 1261
3 1272 1070 1261
3 969 552 1437
3 146 1679 1855
3 19 1587 1120
3 1056 1741 1470
3 1178 101 1560
3 171 1101 1617
3 269 270 1217
3 994 236 1924
3 344 345 2055
3 1156 1110 1649
3 632 1111 1532
3 1552 463 1721
3 1534 773 1774
3 916 480 1285
3 917 878 1123
3 1598 627 1466
3 758 1099 2063
3 211 212 1837
3 31 32 1416
3 410 462 1400
3 616 57 997
3 1904 553 992
3 520 1584 1938
3 868 922 1907
3 298 16 1156
3 1989 931 1699
3 641 1739 1877
3 719 1336 1368
3 558 1166 1865
3 1199 1309 1306
3 1161 819 2029
3 982 312 2015
3 1587 587 1120
3 1332 702 1768
3 1552 1077 1960
3 374 1611 912
3 1513 769 1884
3 746 1572 1664
3 849 1492 1889
3 435 1819 1794
3 1091 234 1499
3 843 979 1852
3 239 240 2064
3 280 1218 1773
3 723 367 1432
3 3 1040 1774
3 1010 1367 379
3 879 1726 1938
3 1361 2064 1582
3 495 1848 2000
3 117 118 1831
3 414 1062 1795
3 1249 209 1510
3 827 375 1055
3 1257 943 1408
3 1596 445 1682
3 944 1228 1988
3 312 794 2015
3 921 1904 992
3 297 1613 1365
3 1544 470 1450
3 820 1677 1762
3 195 196 1843
3 1611 478 912
3 1680 1019 1761
3 524 924 1740
3 1521 540 834
3 1674 495 2049
3 1167 386 1933
3 443 1095 2019
3 1095 1225 2019
3 40 1367 1912
3 1367 1108 379
3 1463 428 1270
3 561 1381 1856
3 808 830 1293
3 402 1161 2029
3 1447 1214 1791
3 560 1731 1750
3 481 1501 2076
3 1272 889 1292
3 421 1068 1987
3 737 1544 1450
3 69 70 1851
3 662 790 1115
3 463 1552 1960
3 444 1982 2090
3 779 1182 1266
3 907 481 2076
3 1367 41 932
3 1424 62 1695
3 297 296 1702
3 815 570 1834
3 123 124 2080
3 491 1158 1790
3 1572 746 1803
3 229 230 1681
3 1613 297 1702
3 1139 652 1003
3 1012 1552 1721
3 556 1139 1003
3 158 159 1226
3 1034 1192 1752
3 1214 1044 1385
3 1654 600 1612
3 923 1423 1455
3 983 916 1916
3 62 63 1695
3 635 883 976
3 889 1363 1292
3 1754 401 1956
3 750 442 2093
3 486 1957 2049
3 1181 773 1498
3 236 237 1924
3 638 1359 1243
3 1596 469 1990
3 281 280 1773
3 143 1513 1873
3 1639 715 2033
3 922 868 1649
3 1195 822 1733
3 1093 1042 2055
3 1619 1063 1694
3 385 990 2090
3 540 1392 1882
3 610 1424 1695
3 237 1520 1924
3 1225 1095 1635
3 1706 60 2014
3 1760 581 1832
3 958 762 1887
3 1095 68 1635
3 1045 770 1184
3 905 887 1569
3 332 333 1714
3 1388 523 1546
3 1149 301 1975
3 448 1971 1643
3 427 1593 1442
3 1775 94 1953
3 178 1772 1954
3 1596 22 1780
3 1180 175 1963
3 97 1162 802
3 197 198 1303
3 474 1064 1609
3 1529 855 1681
3 548 1585 1783
3 1585 548 1588
3 1424 610 1452
3 493 1553 1458
3 438 1442 1691
3 445 1596 1990
3 1467 840 1858
3 309 308 637
3 1044 665 1385
3 1263 1204 1728
3 1572 459 1664
3 826 938 1943
3 1551 372 1967
3 1529 231 1258
3 1556 1136 1542
3 331 332 1874
3 946 485 1409
3 619 1621 1857
3 985 1110 1846
3 790 1104 1659
3 1552 1012 1920
3 334 25 2081
3 1364 1712 1701
3 22 315 1780
3 441 1274 1952
3 1419 1106 2045
3 579 1570 1434
3 652 1139 1399
3 16 309 1846
3 307 19 1120
3 1801 816 1311
3 401 1134 580
3 1538 1912 648
3 373 1353 1858
3 1556 428 1922
3 1118 562 1050
3 187 188 1794
3 374 1313 1221
3 1367 1010 1912
3 1513 601 1873
3 1657 1002 1951
3 974 1553 1448
3 1553 974 1458
3 1971 1476 1643
3 84 85 1400
3 1604 252 1160
3 1522 746 1664
3 1147 969 1437
3 545 1286 2075
3 1492 568 1889
3 745 815 1834
3 1303 1075 2011
3 20 321 1723
3 977 443 1758
3 1505 752 1328
3 869 609 1493
3 505 1841 1911
3 1894 925 1208
3 1731 935 1750
3 659 1553 1942
3 592 815 1566
3 1027 755 1465
3 857 791 1951
3 303 302 1894
3 1433 1541 1981
3 1766 1214 1385
3 722 1384 572
3 280 10 2071
3 1712 886 1701
3 1738 655 1916
3 111 1195 1733
3 1957 764 2049
3 46 47 1905
3 382 1722 1799
3 1662 634 1836
3 652 1862 1003
3 1862 1060 1003
3 987 1556 1922
3 1097 1401 1115
3 1602 825 1588
3 1108 1367 932
3 1508 430 1929
3 416 1201 1298
3 69 1851 1635
3 141 1179 1419
3 1574 611 1767
3 1805 843 1713
3 1326 1754 1956
3 138 139 1910
3 1661 649 1991
3 247 248 1915
3 1895 830 1318
3 1286 631 2075
3 151 152 1919
3 91 92 1622
3 39 40 1912
3 1475 1320 1606
3 639 930 1460
3 269 1217 2087
3 1538 447 1998
3 416 1420 984
3 180 181 1921
3 911 723 1432
3 135 136 1886
3 1800 996 2011
3 1416 32 1290
3 1666 316 1682
3 525 1766 1385
3 812 1895 1318
3 588 1354 1972
3 133 134 1307
3 99 100 1389
3 172 173 1387
3 468 1394 1384
3 1503 1227 2094
3 1739 1150 1877
3 469 946 1533
3 442 608 2093
3 1267 480 1265
3 995 1199 1571
3 1148 249 1281
3 790 669 1115
3 1189 1475 1976
3 773 1181 1774
3 249 250 1281
3 796 1551 1656
3 316 22 1682
3 1204 1261 2001
3 1261 1070 2001
3 267 1735 1481
3 1666 445 1500
3 1004 1002 1977
3 1880 667 1899
3 645 1902 1236
3 834 540 1882
3 904 1604 1160
3 1902 631 1236
3 726 1089 1484
3 1206 1059 1881
3 12 297 1365
3 483 1338 1839
3 888 1206 1881
3 1633 551 1770
3 932 1262 1343
3 1384 432 572
3 1201 582 1298
3 1174 34 1868
3 52 53 1038
3 1394 432 1384
3 890 1633 1770
3 352 1381 1571
3 1090 1211 1050
3 1390 490 1405
3 25 1116 2081
3 293 292 2085
3 285 284 1580
3 130 131 1946
3 1131 1775 1953
3 466 762 1414
3 528 1161 1471
3 377 1180 1963
3 1162 1165 802
3 977 988 1579
3 1772 936 1954
3 971 1175 2044
3 1089 768 1484
3 165 166 1504
3 106 107 1451
3 66 977 1579
3 762 501 1444
3 719 770 1913
3 659 1942 2091
3 483 1709 1832
3 1797 708 580
3 94 95 1953
3 126 127 1962
3 450 771 976
3 343 344 1973
3 694 1267 1265
3 942 1192 2017
3 177 178 1954
3 27 349 1993
3 1799 955 1967
3 740 1148 1888
3 319 23 1897
3 859 959 1557
3 1226 159 1417
3 428 1556 1542
3 609 409 1493
3 397 1800 2011
3 1148 1077 1888
3 933 1026 2006
3 41 42 932
3 344 1042 1973
3 482 753 1986
3 504 1574 2053
3 1738 395 1833
3 909 476 2074
3 1068 1141 1987
3 445 1666 1682
3 824 433 1957
3 1693 959 2034
3 751 942 2017
3 1662 414 1795
3 630 1606 1569
3 96 97 802
3 175 176 1963
3 770 1045 1913
3 1677 567 1486
3 893 528 1471
3 492 1715 1822
3 1433 487 1701
3 764 1674 2049
3 289 1220 1699
3 712 1105 1941
3 1746 767 1926
3 336 337 1586
3 927 1576 1428
3 511 1570 2031
3 1019 1680 1863
3 1680 458 1863
3 1539 749 1744
3 736 893 1471
3 604 276 1578
3 1245 405 966
3 1057 886 1523
3 486 824 1957
3 2001 556 1728
3 242 243 1327
3 1722 539 1866
3 766 1345 1845
3 428 1463 1922
3 583 1166 1545
3 1652 780 2046
3 1788 222 1958
3 1083 1693 2034
3 1436 1587 1308
3 1576 502 1428
3 955 1722 1866
3 1213 161 1548
3 1077 1148 1281
3 643 1353 1623
3 1092 477 1545
3 1777 777 1446
3 1714 821 1697
3 1679 848 1855
3 1989 1314 2021
3 1696 745 1923
3 1256 588 1972
3 1593 891 2022
3 679 1782 2100
3 1860 677 2101
3 1516 385 1334
3 1587 19 1308
3 303 1894 1208
3 474 1657 1951
3 622 708 915
3 255 256 1906
3 1604 904 1591
3 206 207 1212
3 577 1064 1930
3 601 1513 1884
3 1043 806 1985
3 363 1181 1498
3 1712 1351 1523
3 1064 457 1609
3 8 285 2038
3 292 14 2039
3 1970 389 1920
3 1121 1294 2070
3 1010 969 648
3 645 1236 1724
3 516 1602 1588
3 447 1538 648
3 1362 421 1987
3 961 561 1856
3 1833 667 1880
3 1229 1036 2068
3 433 1845 1500
3 477 1743 1545
3 404 859 1557
3 806 836 1985
3 760 1203 2016
3 505 1714 1697
3 978 930 1407
3 1743 583 1545
3 966 405 1209
3 771 872 976
3 931 1989 2021
3 1134 1093 580
3 1420 586 984
3 1536 1915 1628
3 687 1705 2084
3 1752 1538 1998
3 765 1651 1127
3 1607 1129 1575
3 436 1503 2094
3 60 61 2014
3 1704 759 2039
3 1012 1509 1920
3 930 526 1407
3 326 327 856
3 756 903 2038
3 149 150 2024
3 65 66 1579
3 1203 459 2016
3 1735 775 1481
3 1061 781 1580
3 1291 700 2085
3 234 235 1499
3 1218 852 1773
3 422 1388 1546
3 1049 1174 1868
3 1509 949 1920
3 886 1712 1523
3 597 1738 1833
3 433 824 1974
3 378 1696 1923
3 1838 1199 1306
3 209 210 1510
3 766 1250 1995
3 1280 605 1848
3 1397 778 1737
3 737 1250 1658
3 1045 744 1913
3 597 1833 1880
3 19 306 1308
3 417 962 1789
3 704 1592 2065
3 481 1661 1991
3 68 69 1635
3 406 1624 1300
3 214 215 1368
3 159 160 1417
3 1782 742 2100
3 1333 1860 2101
3 755 1027 2046
3 654 1157 1117
3 744 360 1913
3 464 1746 1926
3 532 1593 2022
3 1234 1689 1854
3 1072 1362 1987
3 124 1305 2080
3 202 203 2089
3 533 1057 1523
3 1056 1613 1702
3 351 1644 1992
3 949 1970 1920
3 1473 584 1755
3 72 73 2072
3 1000 1824 1514
3 1305 631 2080
3 1727 1015 2050
3 969 447 648
3 938 1440 1968
3 110 111 1733
3 161 162 1548
3 1866 1063 1573
3 1644 940 1992
3 1218 565 2057
3 431 1345 1126
3 1647 987 1993
3 943 1320 1408
3 695 1420 980
3 570 1263 1834
3 1345 431 1845
3 82 83 2048
3 318 317 2099
3 584 1473 1514
3 523 1769 1546
3 642 1613 2010
3 136 857 1886
3 1440 934 1968
3 32 33 1290
3 189 190 1642
3 108 109 2009
3 163 164 2056
3 1141 1072 1987
3 222 223 1958
3 880 1607 2035
3 772 1536 1628
3 886 1057 1541
3 1732 657 757
3 449 1727 2050
3 1448 514 1668
3 1689 512 1854
3 1230 852 2057
3 440 1767 1583
3 268 269 2087
3 1910 139 2045
3 1455 1423 1655
3 1654 1612 1853
3 499 1447 1791
3 1610 789 2018
3 446 1610 2018
3 1386 1023 1929
3 1401 133 1307
3 669 1229 2068
3 845 1766 1839
3 1731 978 1608
3 542 731 1035
3 34 35 1868
3 1237 1788 1958
3 57 58 997
3 446 870 2065
3 357 1732 757
3 870 704 2065
3 138 1910 1341
3 1153 1213 1548
3 1814 841 2092
3 139 140 2045
3 462 1230 1296
3 266 267 1481
3 780 755 2046
3 1070 1272 1292
3 574 1526 1961
3 1652 20 1723
3 430 1386 1929
3 1420 1241 980
3 1064 474 1930
3 532 1406 2021
3 1001 1255 1975
3 473 1597 2063
3 868 1156 1649
3 583 1743 2019
3 1467 643 1288
3 951 1528 1871
3 1437 1246 2086
3 14 1704 2039
3 848 1313 1898
3 1056 1521 2010
3 1309 432 1306
3 1607 560 2035
3 1779 908 1859
3 1194 1256 1972
3 903 8 2038
3 391 1711 1589
3 1859 376 1945
3 1157 1026 1117
3 1521 435 1980
3 1284 839 2047
3 355 913 1412
3 1946 131 2083
3 1620 1398 1355
3 1166 1202 1865
3 1526 1155 1961
3 1301 1137 1917
3 137 138 1341
3 131 132 2083
3 2042 372 2054
3 631 1305 2075
3 1363 521 1292
3 605 713 1848
3 852 1218 2057
3 1711 712 1589
3 1008 1543 467
3 1320 943 1606
3 694 1265 1172
3 1423 590 1066
3 591 1654 1554
3 1246 1814 2092
3 2016 399 2051
3 388 826 1943
3 1334 385 2090
3 766 1845 1974
3 1838 687 2084
3 1613 1056 2010
3 1584 554 1938
3 1708 488 1404
3 1503 1152 1302
3 566 1284 2047
3 829 1515 596
3 1528 497 1871
3 429 1085 1639
3 822 1195 2012
3 1595 578 1614
3 1779 515 1411
3 937 1468 1154
3 1814 1246 1437
3 1611 613 1374
3 366 1801 1311
3 1144 912 1024
3 1197 553 1904
3 1099 718 1849
3 1468 380 1154
3 1262 733 1343
3 382 1799 2042
3 1515 620 596
3 1526 683 1223
3 1317 1218 2071
3 498 1624 2020
3 411 1677 1486
3 760 2016 2051
3 634 1793 1836
3 913 656 1412
3 296 1741 1702
3 1793 471 1836
3 1265 983 1172
3 768 944 1988
3 538 1301 1917
3 1543 425 467
3 1403 1806 1999
3 349 1647 1993
3 1726 520 1938
3 713 1530 1901
3 230 1529 1681
3 688 1788 1776
3 353 965 1944
3 1902 123 2080
3 1603 350 1653
3 549 1053 1487
3 1053 535 1487
3 357 1197 1904
3 1155 1526 1223
3 2036 941 1827
3 1613 550 1365
3 1519 281 1773
3 241 707 1582
3 1799 372 2042
3 1862 652 1829
3 703 781 1853
3 1291 589 1655
3 449 1603 1653
3 823 945 1347
3 1745 1019 2032
3 1473 899 1514
3 375 878 1209
3 1230 442 1630
3 1908 592 1603
3 1808 894 2037
3 1060 1263 1728
3 433 1500 2058
3 938 1968 1861
3 1743 477 1945
3 700 1423 1066
3 1654 1061 1554
3 540 1521 1470
3 1441 359 1266
3 890 1527 1633
3 1527 663 1633
3 1674 469 1533
3 569 1503 1302
3 494 1198 1918
3 369 1285 1443
3 678 1674 1533
3 568 1541 1889
3 1047 1021 2004
3 896 1931 1494
3 1783 783 1686
3 1278 502 884
3 1145 549 1487
3 1872 436 2094
3 1665 853 2061
3 449 1908 1603
3 1027 1189 1976
3 720 1805 1713
3 488 1739 1404
3 1968 518 1861
3 1021 496 2004
3 1002 857 1951
3 768 1809 1484
3 555 1352 2007
3 1352 1109 2007
3 1320 228 1408
3 1809 430 1484
3 830 1895 1293
3 1401 662 1115
3 1176 823 1347
3 1183 382 2042
3 1754 363 1498
3 783 489 1686
3 434 718 1191
3 940 1397 1737
3 1109 1158 1755
3 1737 778 1506
3 793 1382 1952
3 1354 418 1972
3 789 1372 2018
3 1835 106 1451
3 166 1375 1504
3 1372 1151 2018
3 1862 378 1923
3 1061 1654 1853
3 1423 700 1655
3 709 1073 1948
3 1181 3 1774
3 736 1665 2061
3 1093 1797 580
3 399 1085 2051
3 781 1061 1853
3 700 1291 1655
3 732 1363 1616
3 563 1949 1154
3 1189 1027 1465
3 587 957 1997
3 1803 689 2078
3 1495 446 2065
3 215 770 1368
3 608 947 2093
3 1691 532 2021
3 811 1251 1492
3 1672 659 2091
3 1845 433 1974
3 360 744 1827
3 1786 563 2054
3 852 1230 1630
3 857 1002 1886
3 836 1765 1985
3 711 1016 1969
3 1957 433 2058
3 662 1401 1307
3 372 1799 1967
3 1521 1056 1470
3 1346 355 2052
3 781 756 2038
3 759 1291 2039
3 1916 655 1710
3 422 1949 2008
3 770 719 1368
3 1323 834 1882
3 1717 1395 1928
3 936 1772 2096
3 1684 736 2061
3 386 1684 2061
3 1949 937 1154
3 367 1828 1432
3 1775 1131 1892
3 548 1783 1686
3 586 1149 1975
3 727 1850 1784
3 1831 657 1271
3 960 1213 1909
3 550 1872 2094
3 1708 654 1117
3 632 750 2093
3 1802 1485 1994
3 1104 1391 1659
3 806 501 2066
3 809 1802 1994
3 650 1717 1928
3 531 1996 1842
3 888 1619 1694
3 744 503 1827
3 1819 187 1794
3 1392 627 1882
3 1297 675 954
3 1824 584 1514
3 415 1581 1928
3 1329 526 1637
3 420 1206 1232
3 749 1277 1757
3 1338 845 1839
3 1917 1137 2025
3 789 1756 2089
3 846 1825 1135
3 85 410 1400
3 1756 202 2089
3 1518 369 1443
3 1299 453 1840
3 1521 1980 2010
3 1581 650 1928
3 1912 1010 648
3 1990 764 2058
3 503 2036 1827
3 1717 796 1656
3 1743 443 2019
3 1497 999 1335
3 1105 593 1941
3 376 1758 1945
3 1379 511 2031
3 1060 1862 1923
3 1158 564 1790
3 1085 429 2051
3 1769 493 1458
3 73 1089 2072
3 883 1297 954
3 1025 1497 1335
3 426 1345 1995
3 473 1099 1849
3 1296 1230 2057
3 1155 1433 1981
3 718 1099 1191
3 1176 354 1506
3 1996 1065 1842
3 1786 796 2008
3 1406 931 2021
3 1089 726 2072
3 1034 1752 1998
3 1645 936 2096
3 362 572 1309
3 1075 1303 2005
3 581 1278 884
3 845 1338 1322
3 1769 937 1546
3 547 1745 2032
3 1131 2030 1892
3 458 1717 1656
3 1063 1619 1829
3 1687 905 1569
3 445 1990 2058
3 1678 390 2098
3 1048 1299 1840
3 1268 2042 2054
3 927 1346 2052
3 424 1937 1703
3 657 1732 2060
3 1083 1917 2025
3 1345 766 1995
3 1147 1437 2086
3 1988 530 2088
3 908 1779 1411
3 886 1433 1701
3 1599 1235 1126
3 1003 1060 1728
3 556 1003 1728
3 1058 1678 2098
3 351 1992 1934
3 687 971 2044
3 1192 1034 2017
3 117 1831 1271
3 573 1577 2082
3 1019 1863 2032
3 225 1189 1465
3 1992 1295 1934
3 1397 551 1594
3 655 1738 1999
3 1577 1210 2082
3 223 1171 1958
3 1216 398 1676
3 1978 685 2004
3 794 911 2015
3 1705 352 2084
3 589 1455 1655
3 1612 703 1853
3 1738 597 1999
3 778 1397 1594
3 572 432 1309
3 634 1662 1795
3 620 1449 596
3 955 1866 1573
3 646 1693 2025
3 496 1978 2004
3 1255 586 1975
3 744 1045 1193
3 958 1176 1347
3 1195 1253 2012
3 372 1786 2054
3 839 1690 2047
3 714 1379 2031
3 875 1775 1892
3 1863 1168 2032
3 1477 352 1705
3 931 1925 1699
3 1690 557 2047
3 426 1599 1126
3 528 1777 1446
3 752 1216 1676
3 1772 1459 2096
3 1285 480 1443
3 1880 319 1897
3 1926 634 1795
3 552 1814 1437
3 457 1815 1609
3 1345 426 1126
3 1667 935 1578
3 1601 476 2059
3 835 1640 2059
3 1567 293 2085
3 284 1360 1580
3 1640 624 2059
3 1371 1075 1914
3 480 1267 2036
3 317 1634 2099
3 1093 1134 1796
3 1959 548 1686
3 1303 198 2005
3 841 1814 1355
3 490 1312 1405
3 651 1841 1697
3 1874 505 1911
3 1108 932 1343
3 1292 521 2097
3 1213 1153 1909
3 2000 486 2049
3 1949 422 1546
3 1370 1478 2074
3 516 1588 2028
3 1541 568 1981
3 716 1878 1778
3 1810 1136 2020
3 354 1737 1506
3 808 1874 1911
3 1634 1235 2099
3 1878 797 1778
3 1301 1086 1927
3 1171 1237 1958
3 1478 670 2074
3 840 1287 1547
3 1479 562 915
3 981 1302 1947
3 624 1601 2059
3 1325 318 2099
3 1302 1152 1947
3 937 1949 1546
3 1372 789 2089
3 203 1372 2089
3 1086 1820 1927
3 1788 1237 1776
3 1287 941 1547
3 831 1477 1705
3 1841 505 1697
3 1235 1325 2099
3 453 1890 1840
3 390 1382 2098
3 913 626 1703
3 708 1479 915
3 529 1329 1637
3 534 1838 1306
3 1890 686 1840
3 548 1959 2028
3 1820 512 1927
3 1107 1809 2088
3 503 1518 1443
3 1443 480 2036
3 854 2073 1823
3 1982 554 2090
3 1199 1838 2084
3 1123 451 2102
3 1382 793 2098
3 941 1287 1827
3 1267 941 2036
3 752 1676 1637
3 518 1371 1914
3 1500 445 2058
3 1268 1183 2042
3 1374 466 1414
3 1254 1234 1854
3 1555 888 1694
3 1676 529 1637
3 539 1555 1694
3 1382 710 1952
3 83 2026 2048
3 1314 1691 2021
3 1605 908 1411
3 1078 1753 856
3 1891 1436 2092
3 1648 189 1642
3 1693 1083 2025
3 2030 1131 798
3 1237 1932 1776
3 764 1957 2058
3 1444 478 1414
3 2073 624 1823
3 936 1645 1565
3 1299 831 2027
3 981 1243 1302
3 1959 507 2028
3 1915 740 1628
3 570 1908 2050
3 983 1916 1710
3 1588 548 2028
3 1753 326 856
3 897 1254 1854
3 1070 1292 2097
3 636 334 2081
3 1165 1051 2101
3 2040 377 2100
3 989 772 1628
3 1360 1061 1580
3 700 1567 2085
3 1908 449 2050
3 1932 575 1776
3 841 1891 2092
3 1011 1605 1411
3 503 1443 2036
3 2026 863 2048
3 453 1299 2027
3 631 1902 2080
3 550 2067 1365
3 852 1519 1773
3 1806 655 1999
3 570 2050 1940
3 2030 472 1892
3 597 1880 1897
3 854 1650 1377
3 1741 1056 1702
3 544 1645 2096
3 365 1639 2033
3 1705 687 2027
3 1022 2041 1847
3 792 1648 1642
3 2050 1015 1940
3 1650 854 1823
3 762 1444 1414
3 2067 550 2094
3 1227 2067 2094
3 1348 2030 798
3 884 914 1322
3 1243 569 1302
3 495 2000 2049
3 1980 642 2010
3 501 1955 2066
3 1645 928 1565
3 831 1705 2027
3 1418 108 2009
3 164 1454 2056
3 1955 761 2066
3 2041 754 1847
3 1650 1078 1377
3 1850 730 1784
3 624 1640 1823
3 565 1296 2057
3 2041 504 2053
3 1524 1030 467
3 1051 1333 2101
3 742 2040 2100
3 1287 360 1827
3 2067 12 1365
3 489 1959 1686
3 1640 356 1823
3 425 1524 467
3 1571 1199 2084
3 1533 946 1409
3 2027 687 2044
3 740 989 1628
3 1238 1418 2009
3 1454 1239 2056
3 554 1334 2090
3 754 2041 2053
3 1685 1317 2071
3 356 1650 1823
3 678 1533 1409
3 352 1571 2084
3 453 2027 2044
3 10 1685 2071
CELL_DATA 3864
SCALARS Von_Mises float 1
LOOKUP_TABLE default
63470159.99484285 75028377.85500965 71522721.50405194 37521821.371084824 53338666.77028804 70388754.59499112 75143345.13937613 44345384.52848113 19739411.35000002 61017398.273088396 25357383.541879825 25361317.7393417 39467860.079836555 75266769.62104571 86428346.58233683 27917924.70934528 58611984.729458675 76710603.66866048 285032.1652692045 59168901.87925975 12489782.218723916 12532171.667392293 23693137.44916041 68087886.9858349 75483910.13972653 70005894.75180586 30710997.52302071 64089203.22319387 72399484.20656447 279556.9779078088 57090006.87538813 70544098.32306872 66749645.0845297 56142626.18120184 308831.5042911631 309066.1032692507 61800896.715255 46048393.87219569 66514909.66993176 70214671.86713599 21287547.59127006 326540.9812914621 21745199.94113647 73332108.97406565 75425223.92628169 68929576.48779227 64606794.1175338 71649709.99891752 46048353.8589563 30259158.022819933 83443169.6148132 14413133.753533259 60728359.6681141 61254750.53189976 77746414.52285485 28042190.363699898 55973178.74935794 324650.72879435646 60383797.35650482 4767759.219675295 63109389.102556564 62186276.62320809 319752082.3320576 164686732.0951383 60180467.957719855 75286616.75773406 59716297.9113045 61226099.132040024 19105181.78416418 41430035.5518838 12910539.721367441 54900843.10238699 14552634.72819529 22892323.63562663 20982504.172208883 31576698.819883544 60826603.40256697 62078511.90187139 59970551.44966252 27055912.608450882 47580432.09120578 345853.3435759048 346000.2898027917 67799464.84686072 42544712.860158235 61126001.54014081 64238529.728258505 56846092.19827552 63159585.57069107 165292613.09010682 58609701.69888378 87187189.86709087 74751200.27802989 72426207.89389963 55565196.60394894 107808065.61894456 53304250.307293065 175674485.1008187 61570542.87576834 66026241.6286745 59912840.96304134 51528780.73203945 55558113.65560893 44788125.090814814 63296960.66443391 11529684.24445435 47047822.6416473 36767332.9861757 36771939.72265924 39559196.155651525 57102521.11909082 134351998.10373372 65990549.75273904 66787637.12930934 41876200.262453124 87113960.29438536 77625347.96956974 30089131.21003154 36219202.17940722 61431283.3836147 68770532.28181048 60737697.35635609 93444386.05181853 55157751.23750043 16961004.52062355 63670218.892666034 32052311.624129333 58533759.33317159 80448348.72825585 80760760.19064891 36722520.52715683 66384317.686545804 50050907.33639354 62741885.403682046 64579802.80639136 16843708.43495032 41864925.158096135 61085121.10435686 57022092.00170712 49398956.94053065 59684977.498641014 27269364.870378677 76246465.61643827 62120040.29453828 49282089.4017599 65095956.67192729 7069272.274415994 11208393.666184237 50813673.19565592 81743538.94977714 60052718.48553837 61241316.29277988 62829489.51885767 39580404.12245784 63693067.45311104 30627256.779220924 55665762.387038074 56712137.18437567 19881802.670625176 53018935.18290228 33824198.53516838 1977511.5629065263 63614976.6783703 14712641.605175829 14687704.571655905 31508393.142395183 50558535.415623695 59929420.99719809 66739551.64896552 62940320.06846447 63899869.44959434 61183247.36623507 40089585.613156706 60824860.9295781 83957001.31490211 17503160.99920625 31433390.394236613 50657656.49602871 50352054.360605195 60249937.406210594 46932139.871838875 46969804.32884833 24806740.23778114 62262066.9171132 21407492.123371866 55437159.61642875 46405414.958310485 82294819.35722145 54753200.81673166 37026002.72610745 17016813.421491757 79128896.50751257 44134643.41940167 65190484.16614324 165590417.73725688 56125862.750550136 8739697.847282683 42897661.2077562 10674601.148929974 10681405.916620519 62023661.599714726 49138433.2482993 44486308.323836 75868495.50708735 61216647.50668483 59056048.22445545 24553785.91174421 48172357.42930969 60017467.30295299 61336354.51242735 72124355.16826802 57166370.91099884 72940909.80481468 60270450.38718601 69930279.08443493 50186625.75592851 51966362.14654842 70757368.95840879 65999057.57130693 73978060.33037856 21038214.378773388 74055873.5642655 61500319.92101344 57352855.83943982 58688314.45223483 166913190.0261133 55840889.0919717 8787363.506148025 8791316.200283105 63642691.05281277 57525190.25426913 40409965.58883623 40719312.58678463 14771033.922047494 59544194.84150851 60687330.42436325 21549459.422080643 49235062.873166814 21155731.328766733 39666271.66933149 33391675.612997912 93827609.13284479 41651789.43370978 55506178.471901245 79204553.30799264 15840373.942327319 39142724.79824298 30443664.11922063 56268049.24708552 56162506.271637194 151435243.42834622 50426358.357811585 28685313.245798256 57616446.1768823 25473831.669017326 65238408.51825139 46486202.63265946 36808696.91805604 14901223.047952896 64393571.22258245 63679359.26419032 3647838.7645784104 46942840.82448648 61806792.64748317 62249032.671434365 28607563.375762526 24850343.658672143 65216873.73533579 95556470.30493218 10242320.464070892 30022302.756444134 67306811.3756043 71183168.76937665 54681392.56305223 64511178.9989758 56147041.850682795 48709864.830901906 84458157.71640411 36170905.0072111 54609211.52718375 6298061.522083639 6279013.572985819 82883893.33154565 57037959.452807985 57288264.76476719 40284936.019064955 648058.38502158 646711.7867970994 81170517.76386683 30308725.615174834 31115636.456495002 70640419.70726743 59921510.20696119 39686787.04933751 20460120.10813969 20306638.82767259 78697296.71263875 67597882.21770345 37608134.5255124 2042646.0565144697 62979712.05419579 46765247.324294195 40707552.18277141 32980638.50669562 22990953.14756318 63208034.31922121 65948911.124665625 62299514.49631265 59022380.52455331 78394170.38854705 60308134.144623116 80399848.03114457 64429004.86571753 20269727.306214664 36234185.94295979 42606796.66996791 61668270.332214855 55638191.078532435 22836987.47053042 71940499.73760203 35966992.75207135 5930360.529542212 51862013.98500757 68982126.94242659 54043879.252485394 65589148.122125335 63031248.12062513 64108063.47768353 2389969.218843557 2391641.027149742 54473257.003951564 533224.6614363153 62321840.77836844 25838148.110184256 58123971.569554366 2423709.4047704567 30778874.740420014 63206373.85678561 522534.6481356184 46044208.78477798 57352966.66734078 57831296.22874732 11824055.923489537 64193783.68629854 50271351.59311756 50303067.67198237 6365796.715563627 61494050.30391347 2385559.1541073876 49986937.156143256 29438258.13139175 96990785.7492695 56619552.4841917 83006903.51479574 4416855.652635 62825725.03703921 56627797.411979906 23788727.906603727 70358757.20190173 43930619.940728165 59897924.23062682 20384438.27100714 52343224.84805513 46703514.220220864 103175499.10720408 6354639.313002195 23117335.86519456 54820823.994249985 91693312.35202572 55375667.51029858 101292071.21064188 50813678.77769376 63636663.09882388 65360950.649195135 20405886.180587705 12749150.790421233 63588154.32220344 62216566.383767605 59532787.782148264 63993815.23828642 58763955.139211476 48031253.74906038 36207458.40924361 49630287.53584095 57168488.77435251 33493525.976149164 16204822.173207099 47254668.414056025 71886684.17137514 4263064.274991206 66766611.29362192 24962105.358019475 59448578.36113413 21681674.38354746 59221384.28176349 63119280.65311331 60300390.09394938 75754916.72494508 65416572.67588666 64360286.27216996 52363810.52786461 42119152.48765692 24894656.386755355 51789598.54391884 4323567.296421126 57347107.84473094 39526204.65485187 65905757.9468795 62373955.40455926 26328242.93403637 18457359.431303278 48833574.68301008 33642299.73213389 31786273.69953671 61508386.694672614 61671258.65450908 70351872.33487284 48397620.33039026 270393730.2689236 42609383.53196528 45289375.10771753 60228463.20219094 59533395.03575195 45697207.452364475 45531591.19489876 64089143.32002893 60924175.16431749 60074135.20257748 4563480.630948787 4567913.627923113 36192878.806837685 51544431.98858274 52272755.909159064 65741046.50743319 68910594.38597752 62873262.77703498 57386453.087763846 61225466.4496295 58802350.20420349 102546399.63959624 1062832.9378036854 72073012.79078974 43468438.28144032 86572209.55821797 33068051.256190654 36330583.55130615 46074908.59271031 763567.4588076281 74150564.06961797 64892357.71588499 31745578.42293305 25669910.104161195 45869102.367944494 25153753.412546948 40410697.768558905 56037099.81571899 59174570.34710438 66962113.137943484 74856173.44193709 62403967.05434123 58648465.66855244 37526073.01937999 56758697.97087106 40494969.9310498 110750033.95227723 45257977.15122191 52589129.046190575 72356494.25774565 61878177.787378445 77842120.4836901 27678334.38146497 21997882.948020987 58400423.40922474 28343600.50446897 26778994.882736396 64245367.16558463 51984745.086624905 39830512.153815866 64333011.856040634 87720534.77007873 74815914.1555174 32098968.61355942 32084155.19161878 63455489.47982258 58605972.97408846 19582914.536683362 67137414.92689726 64417696.20722573 25610019.184462268 65975828.78627179 57389310.839909 32139638.197118443 55193787.0612265 32054569.96878639 47759473.68428957 55633367.34429026 58586832.210748225 68179386.86949098 30794462.89567505 60034006.67446839 57818176.251637146 57520559.63514279 67366851.22479695 44209104.72567193 46979166.172846645 72422655.53033803 10456394.472457742 59670176.74897506 37656100.97230253 80276390.61806908 23567835.748707715 23567835.748707715 59645939.61883473 60851329.790955745 19619741.490403295 61283935.06649151 43495202.89035868 40106690.15758768 40116115.920703955 67100433.358259656 66961845.30020385 60101146.809290245 36116743.55500898 129547679.06671599 63209279.39503622 47949813.22466393 20082590.71059092 33815600.9539988 62503952.44360628 37285893.875396244 62928044.84664066 58142754.00469549 49392538.9754081 19161012.171408396 44186008.34667106 24846393.954148833 40128675.90737537 57339988.49491892 32368555.104406297 91098305.72131684 54374311.25737816 76059377.56465106 61272940.00261271 29080380.801348466 48585748.64510136 2670755.044552742 65466210.121870555 35532609.71641893 63443157.87700345 59503955.18642785 34464147.686110854 67292486.16794333 25121387.17083558 25003441.0357497 50614713.58570521 65200518.92563804 57489574.20604519 47249204.812162496 61925035.81729669 64869410.98129 55567159.512651004 59112341.599397354 53991194.33886457 56983378.84601731 62784100.6685749 52963625.49694788 65130019.071937725 65887508.18682322 34832287.77278575 99796559.66397937 63510244.63072199 65936521.420707874 43808685.13878214 33588129.68407192 116825180.26258972 66668366.538062766 55943360.08237422 53800567.67911377 27908117.539777625 73179799.32035448 46146730.739773564 66439968.932163514 1192029.148304848 68755567.85653058 50333474.81628334 29647851.56285133 70079566.17329097 55433264.232996404 71172319.47382425 43997436.30849286 28856561.307308417 58462764.18479067 50522073.203494556 57277823.37341929 68930730.75478025 33954998.74118511 51599998.64683069 55477758.191707954 59986923.71490398 10733768.790701283 58361558.87837906 1106045.3011003719 1112203.4461707883 55320796.207672164 23222423.312289108 61967265.60867123 52460434.29667612 58657318.54771854 58184453.480589874 13592854.290298454 22105670.300980903 1211080.1070227937 48445609.10909154 27802644.97052923 65244004.62895412 63686762.64347012 25017323.436923776 64431554.69061563 57301511.52587357 41187640.58704582 69103656.72216633 71210402.52356793 60152110.80143084 56259946.187278256 113294739.32363889 4771424.655278272 17438861.231475372 59622943.80080731 57906507.85336815 60927538.257867634 28986156.140655268 62148518.80588829 25658483.108157784 36933503.77184074 108510006.75251046 60301406.75204887 58697341.64433711 18165114.640341 62347096.831864394 126047553.84726523 16358770.775355464 24701840.65497821 170183185.85671303 55071808.94744724 12183535.240742395 76065043.33231919 91303212.25856458 39517262.12407085 8568636.93434092 16165046.708062742 56470430.761627436 43181108.004472375 65796519.38138705 91669321.06160063 31921269.467582397 45846401.58662054 99893218.00438325 30450380.15946359 79310681.4180706 3315100.2541038217 51652148.15168702 47026604.69505074 45711272.74323549 63464615.70229598 49059370.82228196 35862847.706003815 116521480.61102203 2003540.5904136451 48065771.06146024 59452637.00368 47853670.72411061 35548352.93277508 54699096.735644214 47627793.30744208 10451229.667682042 57871257.745010704 24539670.886618476 58397140.20682984 57351424.05261397 68580923.46870454 44913182.063455135 36687015.79196693 25780463.91513909 58259840.11825575 51599245.44711137 114379052.93128373 41729510.684160255 82315641.45042774 59595965.488743655 56166726.01674598 63252361.49226558 64189828.16758879 81871877.40130141 49299304.22498707 35668352.70936935 58777061.74561918 25772260.37033627 51672978.265498355 62018687.67234517 23157755.146150094 66244046.42750226 59706436.79813126 68933824.7356779 66780907.46032835 146690558.60772407 4856091.453739861 63685926.088632375 57436158.28566597 63506415.64774722 10614656.866302127 60577046.44605776 81430795.93699753 13879213.807523148 13883923.464970853 57815814.0454525 88751469.45940858 10593381.27931919 48200148.17497247 5987717.729585826 80582233.52032289 40839894.8957448 58587758.51414146 50383455.164052695 4218480.650702517 51703031.323616445 57614231.67446639 34176853.26449441 46591166.385753036 59106806.38963613 13247302.699339112 49393553.75955601 137662462.27309 13881821.09823219 13244693.227197578 13867825.301809568 49723533.8783651 73306494.56434204 82563771.7266809 60271355.76656217 71590977.33614984 62991672.13194236 63897871.61281957 28081035.240909677 10332400.111874146 42325647.338791534 21343461.624543265 22209890.688090157 62740429.13270592 55833539.20570903 68221990.53992952 12857467.743072666 12806165.281846076 65327697.96423211 63451644.95817093 41856867.838424064 62482731.73394432 82603995.2394837 62395538.42084639 59649794.928553015 65531522.26812066 6903944.907926639 23134687.77177005 8450671.261653373 55095347.25163382 41850534.93630828 69826451.83564247 104169121.74572402 53345274.143555455 55860230.82305372 61990153.413462766 116959774.05642577 49109597.81150942 56127391.08264581 87057926.54737788 32346040.83693625 49537907.75637996 60121807.54622704 75939880.31076494 59714298.43258473 117586435.81580512 70062170.99886136 62975351.77205005 12931496.738886736 51435919.20692498 107853225.47150882 19738113.63390476 5171131.8969207015 68416113.47602163 8101887.07842219 64542224.26555889 8414427.850405538 69154137.30306384 71467436.07662113 58744038.08121764 62285267.994276434 85270641.51411508 60511939.55948181 46785183.263241254 47840601.67450146 68583854.49721235 60000847.909528844 61289069.43944751 60433838.015070714 97376194.01219118 59259648.866904534 31315321.768215355 59694117.81744812 55053314.93837544 21647349.562076043 50650790.57429621 29213556.155987725 102611103.28683138 99411406.51117352 61501222.13405506 89422220.11248599 57356358.44343571 41660275.87873043 42877785.940447144 28116518.330277737 33800320.22813042 25489178.84907901 61943522.454686075 69498290.57988657 12853046.362861082 74663277.83261892 62738316.73445555 56848817.65028783 50651072.18189234 62219607.283037715 47065986.49786274 66844460.900464475 63435737.469446905 52288256.97357594 84121217.9979541 59001036.05027107 59116180.79635454 61491763.49506614 39103336.04601661 78021903.50732504 20567655.426198203 62840779.24897497 91786025.5416272 33287074.034752194 57274488.03653996 60001715.10081134 43219508.77751353 33288482.335765727 37635282.009167485 4401652.189850863 64800871.85807993 60083392.85190627 66953074.75912052 57381668.75980262 117745487.90555099 59583098.63147101 51198929.8313683 64292431.930484064 61944238.184631445 32658491.192874197 10741324.061056932 60442205.569492 66105509.740975626 65250556.013465345 4379272.75464463 97673589.87454076 51236396.60726191 21290724.832489956 41087202.61946345 59075165.14154008 54406995.87775775 124844315.95153928 59534066.3182414 57867509.87584443 22619955.555599194 63254093.589907564 76918891.16999657 100297519.80163953 69317734.99386783 51928693.86151632 68831627.5099673 88493964.84656462 71112304.33244628 52928009.028309844 4328536.86550901 47984521.70954614 81347810.51131013 60783121.94958352 114377569.58083497 27808547.102117535 21229878.678473484 67661046.43301381 60099432.44105752 14427622.991169373 109591557.61103833 18863190.734798744 68719655.32468803 37402344.788736306 80939750.71253167 81200049.56791422 47952933.529604934 90666241.24392529 21254924.126663532 65740795.89915527 63209392.854422234 13652138.804776208 5602712.69218858 5629946.080978923 62718390.248250805 42765690.28869539 60970424.401467964 48351049.871504165 10049207.784794891 10046807.194271967 66202327.43154024 48983816.20568555 21454768.85229016 66446488.49669003 63390593.341315955 63313738.885800935 32917380.8385282 53728736.47375757 58384160.86703323 66064983.073555805 76694133.43358463 57082706.10103366 22060626.387738697 87885306.40921278 58449097.2091925 53235370.75266991 55342706.30587012 61600457.430222936 19357126.44425981 62923109.77017582 131363098.78412347 16882847.00265163 59742669.062746614 65188486.62339747 74833516.23846245 22552734.144853055 100806642.20688532 96320990.75506145 58046112.95024037 55538097.75316933 55808076.65139672 74653590.85042 46988641.85051829 75496482.16810352 58652242.90477551 55884804.66770385 70558711.91235912 26897901.510646276 51111547.85303071 70386140.88061123 67405349.80563095 37145551.49278735 69926668.43311541 29290401.822579697 75330832.13414149 29653418.789956164 58038537.74439189 63530526.93903269 61764406.505002484 38955682.938962616 36860915.04839985 57196066.97964676 45470084.60628045 63552663.26832466 56129057.42995996 58685789.12978515 61756641.61455889 97141086.58835612 64301483.93252703 60341914.62137416 57592402.34443941 66930588.42665687 57392221.235672735 74664022.08314279 65377170.00449187 36005316.70703692 36099342.94088947 55893349.78445014 51003287.14654697 73328794.01771869 62404090.81644837 83010273.91642703 58731761.910391055 83447378.40968886 57082831.90257724 61915260.51280554 58443442.5897964 64323539.295544416 9185507.565576259 64657154.38913978 59964838.57786581 37397485.64638755 45899559.133435756 58073976.09411457 38367766.46748047 5716065.170411407 5638910.121382691 66572998.14157245 53901922.6217762 63516133.96458736 26013278.137483116 47633714.293663345 182184366.42256168 31936852.007368986 86161824.47517705 76324448.2990459 25823891.047987398 53310111.640692666 98778653.44334179 57406629.14869711 49042172.11289648 59066301.52858423 70993462.5074709 83362470.089263 71083926.80427586 56460388.381071396 58430487.78811471 84974500.48039417 25939346.19694592 57560933.83563742 56005732.297274895 15341492.12287252 57684565.36636883 56134904.85295738 22186094.66548394 41674021.8320091 46104249.905380115 47025781.09948272 54497094.31309136 60789024.93474067 63210074.15672477 67640286.45297484 54397932.27797575 76471871.17124215 33280354.439743944 15773297.702164927 47187176.04074916 49314961.890699826 55112126.740279004 67866782.08256032 43227200.78164027 37093643.52793264 65567441.79975529 45585856.05067751 33548331.77256224 33557035.04714118 46891545.96890088 36381350.095772885 36416886.648511805 83422292.9495978 29885788.015167017 29892881.82282102 57090394.33828646 56180485.093063526 73285405.02974442 64403856.302674316 60535986.01428361 70246060.8495982 51893175.03400809 10355181.27862652 35376009.5581909 32040028.318244636 53369318.881499045 48037752.09302226 54652040.3953936 46298908.271732606 37139909.41469826 12595689.708083313 75150166.99687457 33410272.073277917 58682764.45714246 5750.03694170226 86113663.84327328 58032396.945583686 51306752.48357667 65352156.518955864 63613382.45877872 69439499.06014936 70394504.3186543 30961798.224357527 46522421.79695414 66230852.441787995 63993317.46020293 57754244.853733666 91930844.63872229 16802400.517557744 58563846.67086001 46931982.40416414 4649826.831731074 4627044.682238205 40119060.4143755 81717715.58776055 47242819.0745314 82480984.7598721 26237054.147575736 55302100.12468019 55301345.9255539 37407511.085813776 63867297.84090887 25808575.248712964 68438625.04690991 21761667.486068018 65169756.96147771 43398754.43164994 52220471.14261649 18567895.916474264 153916644.9707218 62557877.59372348 65763695.32306763 65200577.37037744 20779432.4133222 72271864.06775784 47407494.61820605 64431432.09195699 58386154.91333855 87562840.12645139 63398268.81851769 40941110.78545868 62533916.01317437 58784960.49569961 34564462.67728504 59022687.15695679 55934669.0990278 16078740.02464511 45492358.28489983 45564131.96902014 13839673.743661797 34356247.65310532 31448253.96228026 34447306.77592949 31491993.95226585 125282461.21982428 57225695.787506744 67854643.91103457 19395465.62113926 11603587.307966458 55327982.31545675 58545528.63104152 51790501.05582753 95751931.42481922 39268301.3980308 60370362.53989008 58366873.14447126 61695527.471096806 1910940.39686442 51120528.63378338 74426620.02861822 87183746.4883067 64101950.199746415 44840472.78776536 63159761.57340213 26392338.671283383 20172373.88956119 20013551.22919513 59534514.40078827 37870532.622432336 37998600.767176606 65130024.60357456 104682495.38909593 59188917.53955351 25623302.234123036 45898463.26668369 38150325.76846572 55843069.40223675 60788976.39724237 23079157.701522138 62250955.05239803 15886981.17792342 15894106.883041997 55746137.47781826 39638753.75198129 59733672.79488593 37915994.91176922 58744532.97387493 50660509.18499817 54129857.15263705 44428200.78049181 42309278.3893307 76446001.36977366 78036641.24209175 71770935.84357402 40306337.82069396 69588436.30304778 67253561.78119531 68669582.91841573 66103052.50292532 77688227.36184634 64341264.30986665 65279053.24688119 35864858.60101164 58489671.38253787 58091517.87080021 39830769.83750217 71132664.25375274 48607939.814524665 57830452.067623146 91630053.11595905 55835648.76322281 47415788.99110166 60134039.674070396 15609240.777017865 56285150.52329718 15634151.416914705 61205898.70028668 67617042.6910063 43933942.83046462 61777044.13510779 70556752.73471892 67568084.07757522 7654597.965414755 93132379.0182332 68813870.2065138 58803793.93691955 58226952.591263495 54924436.95702942 34012995.43963915 74494154.45162725 6936184.709446457 96515397.37378882 7588936.14318583 56238335.52206546 10041642.158387301 56843696.48928091 71835898.31214826 59331387.75216453 41413769.62032278 43212432.28951526 24770696.2505788 68204434.30477773 57730987.47778639 63950483.22614965 75829768.3610013 33342993.851907544 59561680.43258528 55944034.94399233 132291731.34706725 57780698.77715902 56155358.39670942 70924526.45125273 68063062.59335501 41224353.27474557 53660476.19083106 67018134.3220484 69562479.89747912 65254536.037011184 56131312.47151047 78435773.07414049 20576924.539983943 66229367.677315615 61837292.25398284 65347469.24220415 62656272.1244227 13844791.428893346 57841184.79188756 13678248.630462945 13714738.74461679 57843444.53841851 7522238.3420892665 55495651.44875401 56407082.618241556 48115171.07595956 70308600.0302913 13704227.294480797 58335304.33297467 7582050.203260688 7597817.367905307 52449019.0487048 38929545.91616921 51810247.25964445 39120448.71629137 68395765.81912719 56350496.943710156 57285394.34075122 70723617.57769778 47696246.45673297 140090402.51627368 55141333.27967673 58336098.05438562 57024078.989194594 11803455.161492659 58220001.87650063 45583353.825983144 63996616.33875383 11829323.309070742 76696070.22358935 59232393.785195395 519081.34027614817 38624362.02627525 46013173.236015946 13476305.178570442 69226812.51263608 64807328.59949033 40195320.07612974 58791946.534010574 71893226.59326562 16848340.19239979 44492994.529646024 32506561.088685866 63786313.04919342 58664842.02270557 68631679.5569139 63629540.303284094 63254384.97035465 62761786.41331623 163458729.91888782 6458688.8957214765 165719993.1486023 59276256.61720788 45600477.282305434 31886156.260339387 63249994.88757335 71842149.00395927 58022509.960044995 11889634.107139042 41698963.45331263 61787015.446766794 66051466.532932244 59214353.882062 56355969.55364679 62624029.63287311 62385667.01960335 86846786.37334183 55318234.63464017 53267204.09826146 67343584.96295044 81005425.27115446 54501479.106002286 60889409.437097706 55965980.674692534 60230977.65604379 130537360.32586615 65861894.69987152 42217022.84573375 47723469.29117352 55671481.1313577 44612792.55100547 60843979.7229271 67841220.20158087 37503973.21310298 72465690.75715363 59262510.34086396 67667655.84100597 102848876.78367345 62465752.33029465 65564698.67194683 44456455.12170591 28925468.908155885 67762758.43751885 56960524.60009356 79796624.1392025 59192721.987323076 48598833.86747386 97297167.28522675 78978484.69748774 78622627.72204316 30197639.36332849 57134016.90278086 66130626.81823415 57765032.53503819 44825943.89451756 58411872.92742585 939032.3233678534 68998818.62771678 56018211.85851999 102972376.57961085 57633701.36348915 42981630.54296008 57225234.29104686 65180316.57255249 56257592.37257747 4227863.688678833 36989443.70995242 26089490.60874745 26150112.32874887 56936346.91106189 62730935.44499374 13661969.035637971 20361166.482494075 41743669.91592686 36684873.52016444 56283896.62416315 45117120.14970236 55920676.87026635 32133256.17875482 4315142.368471607 4183931.7221873165 12358166.801111488 55532417.53735308 56263029.708174355 54839069.169054724 64791534.05439402 69788133.72441167 27534935.51843224 45277972.07791867 159882335.6209282 65175307.05681108 67118908.57524732 49039535.14948538 43133695.583950214 67091857.49396796 70725199.79599324 60536458.413202785 66536373.448609576 66497928.571705185 74623806.53883629 24469909.650583394 59076429.11725893 55506288.09778011 85701412.7904201 38100377.02952644 75417775.88766582 60551890.65206464 62888065.23933818 59211788.65785103 61275066.50133571 69101422.3696397 39202321.429443635 61766330.2989153 48415672.45420647 48675378.81520105 43277789.43582117 55973776.35485242 9289832.565906111 63730801.03463228 65526506.85568243 65884217.95858867 61862710.28573529 64128107.917681776 57377855.97428887 67405831.84390642 25503975.872927405 49299111.94987533 93201068.21543823 59421674.81643214 42566106.04992082 49164208.206291474 66512411.65168463 64335402.54341791 59339861.469296575 44595061.4240466 56692591.748279676 59232929.69264171 4029068.1002904694 4026653.233008026 78319808.4692955 103969266.1715401 50594827.68333694 14611731.402736755 418621.72020111495 19279419.281713076 64170353.81038354 19688540.55566788 69213196.90564886 90486554.90801701 60146172.00794313 63102234.72426122 58635521.29285943 75849211.67799707 99055258.00441413 59658741.95036895 54382174.311408855 58707509.814876266 34147490.21535554 55898350.2213529 56556650.08394314 61120536.30823371 115167255.80858415 54765865.2404189 60434605.47505793 14538346.726162598 59560317.18516635 114769594.01491754 18775105.533043146 33798312.30248262 90473529.09556656 57706738.70006717 66848467.62013119 39739207.33545479 44943947.64217012 36484566.079490416 68116170.86861947 22368029.8883622 54921169.589679204 72152292.95757832 53724981.4818068 60574689.228548236 49069104.15100054 57331701.01052284 53210478.48716469 58099368.597194955 14565926.465717161 93437587.02289501 51016735.48093408 167307334.50383124 59201032.14309991 48188000.94812813 30887124.23729528 46346271.12072373 49150777.07374057 46956672.920282826 30641713.19507633 6337386.876832874 62888027.70782881 68371896.37820329 61791129.1236297 56769060.73691052 62776224.49846209 237248289.2533824 26454391.112942193 63359789.15742302 70487209.22222306 127350888.98269457 74415501.27785313 39074484.953978315 21367859.31973815 40710577.40192902 49777894.141129866 31451173.174844347 33434734.07293497 58572368.41813652 65628564.11938605 30011732.83206191 60514905.0087398 40414418.65533915 8512127.752685824 57559572.32736388 11492813.423182363 11464610.430026544 48211483.1622842 59203262.89430558 53239561.13853621 61715417.02353749 14590083.85735772 61366282.836801305 58793966.28689347 47546514.30261219 64192509.487884365 56092425.1481898 65022745.76603381 27234422.9811134 75748615.48333973 64356661.39907413 61239386.459448524 39325549.00315407 51240301.805325925 64046343.51035267 60599261.06810613 42872598.2075704 49381497.67262199 60011686.76829182 25382116.216326475 57309513.39260051 58382680.2640523 50538585.73102594 64403293.51111874 6840166.170517449 45340770.31952826 122713598.51398641 34438702.94847689 75633994.30666684 57045196.365202524 25385553.562950343 65164596.88150399 8179333.76658577 8181346.058779025 52730168.073498495 68440628.21618949 71453178.53845543 65332695.31443567 58867470.06475268 21154257.519586243 59423040.61421069 65095288.21263148 72723431.08171728 13699918.829588685 54875844.26286998 7771083.698388492 73326355.77034357 34300833.33695954 43437789.27761536 58740820.09231869 6600324.3341452 67174153.0150763 83114047.69972739 46384551.84092274 26930350.692537397 58904242.443451956 34706843.16319536 61554132.30506272 35183297.84851908 86262191.10616226 47955791.286057435 56489820.14413634 58128931.611323446 16164659.766055858 61277888.2488771 114974845.53974506 57170363.834016144 4291461.32411191 73475293.02627005 65571538.92476747 66640372.96778925 10687990.864738405 10667614.500617886 26189181.618572906 69958471.01017219 62378836.84337531 20235081.544334564 72228807.6696003 59695521.69975174 57144260.88891283 17989850.46546899 59892981.71291345 6718143.657854539 63462529.22930968 65098533.37176809 67878044.56840959 58380571.47407565 41826676.92451936 8373634.559178953 49675567.763635375 38464114.0042517 38344540.14373157 57839920.401930325 69187326.83341296 73085797.56117003 52208391.31408382 59712750.13691387 67460452.18829536 65698794.80587163 59764844.70815366 8231615.529629184 141533982.8342217 50260525.52752315 59555247.132590115 58424336.07988222 58467674.03646227 56789636.38633287 62727290.53058527 52328565.68919332 58219403.992654994 202813.37091109002 67517152.48904265 46964374.81912285 71703640.46388346 48964156.456422806 30853277.095132727 16494778.234325424 16542367.666123275 58173224.88292279 35277340.21836885 56426273.94983303 94277848.09196378 56862878.65110012 65001160.00020939 44381351.852305315 32331387.074325502 71144969.6580674 51233220.593391 8793347.148586456 8807239.509048633 48741276.057739966 84165051.79794101 42999674.00549478 82953226.76479855 49894072.04622172 57904119.30209718 35855854.49800458 63660039.96579105 50031523.72993163 11134546.990899675 63439839.30110295 11482968.117797423 141387526.4756964 66846411.544845805 71030255.39164107 36388621.3033061 73960555.60203846 14957773.891207457 14896825.077230586 46143475.579169475 35353522.738759056 71275927.38830177 10153783.297932152 9444047.212336563 68868699.04800813 49397414.33708207 58357553.80707794 62594215.59465412 29325456.86838452 53213730.37983143 6516822.642235763 100110618.98542622 58673146.14247888 62090893.88644006 28903603.31125146 35096496.85674214 7432774.0308262305 63863810.07839518 5474811.262001242 54095903.091033 44317910.718683295 8674167.664704755 60427103.55473597 7860330.732852574 77573762.9987579 69563810.9327995 40036458.11080785 19378780.75890823 83267015.99050492 92744988.09082098 58959613.839467034 7430497.368105405 7434941.995182964 171500365.88959998 39774416.907608636 64757307.0240726 7020665.482824746 66952887.166852206 6465409.168900085 205532015.33459172 35507912.8658657 65806033.11983799 61584968.400252126 59668863.80821985 65247346.41604433 5992003.7648149915 59814409.226349175 75546078.45491251 148542638.5764464 61552240.98596284 37167833.46129159 16527354.44557108 68076111.55270183 67601002.58597149 66091396.59083975 32588273.311435264 68605601.48377445 56411423.60771691 7513956.624724026 46645319.61252092 59449891.11995321 32625307.20897512 25706732.08611123 25707127.22531874 59343980.95029685 20361675.769537598 70179748.54732484 5149212.046173591 5140629.559279131 60857490.0844073 64691113.085824005 13701509.332781656 338641237.4640838 61193382.00208899 52415183.18602032 174842878.60941857 89660567.87982368 83947516.459978 12819930.330868155 12844773.98310887 66008701.98369089 23657329.123248633 22524412.49075777 62485884.660650045 72224242.08370633 52891596.08238852 14595857.704076748 55203140.69936606 75750720.62981758 15298653.74837192 58614360.995554425 62438746.65846343 68975544.66923329 62583782.15635304 60017577.83854238 57862989.39374885 53267938.59037156 67753513.44062422 51148319.83230194 80242001.74273887 50423210.29233357 51889707.33446288 33868133.957226984 53229556.02035513 59875178.552298665 48303673.9198808 56508546.13017156 4290603.183070434 69046308.63919115 68964215.31720398 65984802.85927109 38434433.78746125 19367972.99066503 61071231.40887832 62046696.14647609 93721243.87787038 68375749.04701205 36604068.15838603 17115539.759555794 13898840.908485053 13791603.300607147 2333965.537757211 32636736.37403576 57422826.30478731 56099161.46298285 22493070.83658858 58670504.893129766 58355096.78429128 59542408.07255439 4350299.956003664 85552383.44111964 88040937.43742059 74640737.86834441 14208428.880994752 14259831.965183739 64698049.079634644 83892624.43397889 10385807.919089722 10376865.692898294 67188804.80120558 65470574.01822034 8644798.279572167 8673513.36734818 65261551.48519491 50272900.76273833 39403590.3923812 91265367.8867619 87505293.80906582 47712928.768611856 58383778.87385447 59082331.83087262 101297273.11196028 46393267.34684498 64660165.535444684 29059201.483027596 69289490.21855062 16683319.644059336 38491352.597262286 13399212.575793382 58810457.11806326 72044432.59280773 45614065.81609411 10802669.903877677 49109771.19151862 63499766.72851006 59122773.3400919 58205741.51279831 78683807.4131191 51849166.121808946 25724436.354244694 61273120.31847464 58907698.575586975 135963406.339924 50744683.37960882 45858453.25860393 50705753.200179756 231374587.21832865 67451203.2920223 72884499.03081451 63191114.94451675 31367123.42225164 60023914.61405889 50969638.71650698 9409309.38176791 66711820.15921628 42047330.63193163 63861027.174925976 33920545.91617362 90120931.34290329 58346147.3982577 66605887.5110672 60178071.7632855 14818641.706743317 14825184.118500717 76859935.74437824 15537577.065649144 59362689.15674746 22195146.049621657 56794350.22381865 30303974.559858818 68328582.17781726 57141223.10389004 61893987.03872198 68971664.59078704 51254051.43325633 83211417.02248658 71683217.508357 133256046.55423306 80017680.437562 133303349.37076089 52672099.95328814 10500530.309137484 82024074.64496294 63424368.39357554 35236126.34247852 47522056.13375902 92756705.96262673 12173327.68541346 67607295.57171977 46103268.4216078 130766150.93331437 16607233.138931474 85334358.25839931 115750457.62742744 55941949.18877325 53136453.15440356 49358936.72889892 24898489.073759537 49054836.00339982 5519894.086519022 22860294.647289753 81730564.97711149 65137144.069484 27618674.348041814 64432767.31047066 59213962.35221743 114435097.95270954 8614787.211591518 61215503.87076286 64071175.76090926 115362507.32903649 61163085.51819641 12272403.935206085 127871902.12454863 56706359.698046476 40889539.9228305 54546331.23104936 29522666.41117278 73995768.10753565 71013532.83102286 51348687.591586955 70136802.91354957 64039464.74370253 85813963.54390523 15590607.786015406 44104425.25037497 65642023.48135245 36159882.41092607 43210641.6573593 49725307.86385295 46557455.78200048 52495701.51252361 5956053.980553327 5949907.603398238 59418678.43523744 105655056.58527818 59466443.77043533 72900744.3343153 58728588.69685939 55564318.304205835 76374909.76622811 34423988.59723644 18965140.66141437 44396373.62765142 62060630.24321738 50615225.09609535 54279836.22618202 6146202.938587292 79496464.63346058 171890696.92300093 76649025.25207108 65649763.797466084 6246891.347747959 62252376.10045998 49220402.394236505 8452275.802382668 30998550.565358937 61651860.970451154 69952868.66367161 10705159.51970374 61422591.0457761 43777913.86745546 59700204.91222672 59822635.8798191 10159677.448274637 70202917.2189501 65967703.07301724 49353567.34672842 37283734.86189849 68500172.46483523 46555674.30382689 106513712.61698602 149822729.7835748 79809090.59921858 67078022.91119719 36495109.12404106 25856007.501465246 138973098.12497866 15262605.862390637 50798070.69296522 66761414.51197132 153568764.73208535 33749901.8527659 19970790.62038273 66645312.29035508 51884933.92352328 69393796.520652 86882021.97763006 20792518.244799163 93524217.20236677 2244830.9115438787 59339142.27640355 64289795.51252438 67124921.88826755 58367798.52450642 57336855.798832595 50607425.27180043 50602140.6649842 18996519.1052603 87473150.43877918 65507120.74501321 8871343.50553901 46115937.847355396 32381001.24512965 50554699.16504612 53561533.756565414 29574550.100559562 83300997.03398316 57862646.02246515 69315600.1901349 46553328.57913774 42387033.836988494 52178331.64416906 67576428.0012248 57839760.61876418 80314407.15417607 52163747.80838871 53690461.64075165 56134084.80289825 47830845.582666926 72999290.96067971 68526894.3241551 58597835.87575116 42560706.66865847 108404938.30334114 57597491.116037145 44897752.418647975 29294561.19048728 50051237.49945517 74902401.084618 28006776.03713869 20983098.703141283 29368111.138261676 63267258.46984841 70384252.09669872 87077034.58632661 37622612.06198949 131751507.73970842 10093060.489995604 17749802.248849202 56039692.95636679 47606589.76105331 41610615.82406301 64592893.84747995 20899752.697049562 59427738.78320351 39398075.21085975 80853505.04350889 37123868.68858207 70110946.54829341 38675856.523148604 10112725.08391538 62153248.45905476 19476856.130552106 56309120.838063635 54322692.22001962 36574770.43830877 130421826.350783 62947863.63227867 68863355.46022524 56108552.19574947 56048753.672420405 58637115.34103298 68968195.47694223 62603320.408034585 53530335.512830526 91401958.7756756 119520430.1302018 44612184.53292591 50654726.25221859 56969624.491908915 65019087.29412714 84653880.31220803 41229154.371173225 58300408.95467198 58125821.42142569 10386952.385044415 10382064.04827163 79231462.37309684 35099745.09847818 57133381.43216118 59147517.74479364 16009893.277428 46496117.45696297 58102181.45481051 39107972.41718278 63542089.41590111 97409669.55035795 47509406.30794895 71180761.734189 57919905.052360915 109836913.74825943 66520558.87727997 110060257.57082422 68303671.98559833 1784602.815523594 1802561.4858642074 77581283.9058962 50619933.68181965 42081217.66076992 47751596.32099596 60938047.28631271 61660036.256110564 64278919.01141934 73242612.59932716 39760727.05896018 1233781.7978283532 51404849.19597512 59316445.63292577 82444112.33661991 82337093.80213283 66241861.114781715 61833376.46551803 59522718.87959808 40682634.264537916 75213727.2115264 86455555.80519569 49519727.40694819 55589641.39356855 6142205.366387497 59977082.87555764 71996720.94801487 53829666.15905737 1449136.5092977297 50524821.215643555 135885189.7070388 55450704.34708392 63802202.848437965 56642407.12314376 48244666.024375774 55860256.27128634 78231765.2677189 47854518.5250479 81790449.50814737 36488509.17932217 60979507.578759484 59270869.78194649 90251436.63553202 49371894.72412151 86830661.02184476 7815732.02673932 19816455.12763659 82678496.33400132 64284202.93386064 60136000.32620194 86973122.81388333 67560901.37706217 19751538.151649136 56162908.94344677 67476729.69278057 24258070.74013617 40303598.57726205 47806016.86602019 12154110.010094577 57696051.442514144 66852292.013305314 51085707.25484835 63542318.35416414 39275536.54726904 64546574.21513371 61592107.25434062 62147157.88306661 49007713.62026439 66817920.38673534 35284195.916157335 56162833.92552172 102824869.10765968 53808209.897465885 58592209.9760013 2316477.6097651212 55859692.75506854 67392237.30558285 66272934.587273635 56877085.2499905 69067333.45819558 47361273.03232503 57892455.45716562 34792999.200488485 79907062.82257916 55914123.64878563 29897204.37342129 4203375.5323048495 46553224.08181736 76407739.27546641 54758878.72352986 49894380.79028235 109190370.41884093 59502377.63513613 145526673.46439993 65180856.64938497 68119604.24172635 33021307.67709429 61454687.234825976 63027192.6545469 124368293.38944815 28117652.89989085 92328003.0065304 56425984.12728851 53535736.70377735 46025879.52767176 52035614.02702716 24204723.536859415 82899416.08908203 59123387.53551431 59174599.255018495 58847042.50067678 87723789.66616113 72673531.98029712 56934018.25363366 11068744.321619738 54432934.03725978 77893136.24917024 65880251.80032637 62212061.079179585 21218695.68043197 211678221.44754174 51320016.42935477 66467144.411919855 56634568.351568654 39564061.87211954 59199632.04250654 66143054.830080725 52772553.537128955 63025131.633117035 9839464.790521948 65948219.0421268 46926801.012878574 25584851.835396655 80937967.08464037 61717182.194822654 58937443.54819502 54726761.92631728 37494390.09879468 17449543.86270222 17441460.27417057 67520915.81403509 24739378.970520295 58024674.351051755 59967015.55805663 5344025.46559019 52961094.595331304 47391853.16026152 45763448.20985513 63373848.57968601 48092020.22584725 68582386.49067557 4266542.888396806 15262561.776790164 15293552.548759378 60158988.71673109 66573546.25160762 64278937.0909688 47367273.16686082 54893923.188157976 48984210.96348745 45327675.13582135 59504350.78880775 46302639.20446003 209879441.53323686 33683479.08375526 53904919.853558905 36593759.295155674 24857806.292764194 65586724.00859771 59349904.166945934 51057198.21673671 50871142.96512784 51070702.779606715 65974894.09820449 56278126.695928186 96674608.9463253 40968139.50902909 62543432.61518958 63282412.86612776 57298050.59602696 63513107.31147487 965203.8105394761 955238.7211820767 15435536.959507318 211987058.998537 62600244.2851888 61599502.464615926 58437138.544263944 62869871.367989466 59386673.50882648 67219178.02817626 1629392.7145734783 1631957.4597682913 61599165.81087092 71316784.43571518 48469824.65709064 66754338.06387999 64835068.038392395 56557781.4002271 9860169.7674505 65739986.66763338 117234732.79003027 19547459.691348437 65248962.937320784 17984972.520795584 27864758.61404938 59063601.79883555 52105237.99992423 48031732.54858086 15958010.96755476 13403982.371199261 62484733.4523819 44110842.03273435 23224960.210522603 57147215.31285984 47145338.501573 90878544.42963544 1636516.9155618588 81782468.98178379 1676998.556582825 1675984.6027445686 53935236.83082374 64100644.34367256 36059154.61720198 55767675.0065125 1568544.5866201962 81433059.18570396 38471726.86964137 1681037.7488819694 100562338.31962906 49742380.93413384 34867041.65924466 55125355.35885865 72589293.01980355 40786883.21755443 57785274.03848513 20750176.676486343 34435605.927108355 47603132.41050098 69588118.61973976 55351902.68927693 285668253.86600786 33174355.96296756 70616901.60936269 64028054.65634948 1691111.1074195965 59034814.07699516 68855698.12885231 57128332.76406758 59050674.08948467 63540324.46488603 34315426.74504639 4579178.905354624 56115909.32975901 36049659.63359605 46426334.966950685 68301714.02061218 78740454.24622656 23035247.323346823 23010296.711038623 23099881.780149765 82870351.57883109 8538391.244702198 48237888.30523098 48834877.67311946 28732266.339627907 27853367.230157927 53625596.74044456 26752752.50728395 17153970.75450381 17316452.0111547 218647273.3520624 27963086.089649964 59924437.12507295 69179458.39921287 87951231.09532405 83712490.3086681 121875865.43152654 63377032.759849876 18274034.161042895 18370895.344410773 101747930.38406265 24276847.342391677 58390931.98344414 53122613.78041876 24258163.939310644 62232071.86748592 55485757.366735816 83793691.39363806 27870800.703673147 65343309.19174508 68656083.00926372 24031497.430969395 177485166.05283344 36657148.61146386 56171640.45037458 28489407.44130687 49249333.275409065 35351499.87279984 47195159.69521318 48775263.35826562 43818970.8421458 25832527.69431211 25862148.31877126 32011436.915970113 2120949.585163659 61826009.02431858 6203571.12092462 56109843.429806724 16748960.46504315 55711566.962633416 67844135.00500087 82605929.707301 59352849.120991826 40122521.84515207 27132695.51739128 5478173.525785645 62335451.891238235 57669709.16384206 64951592.70096166 57953314.89270912 64275321.33510192 101021693.7379235 59516247.783429764 2046954.3398096918 173864333.4336732 60358368.7914659 49789369.12472986 61846843.03467173 55388704.26508655 44767816.81596374 69038454.8332784 16161568.843691178 47878468.631606236 57219856.38301897 86223607.0585803 58419845.58821949 39814913.798346214 4860925.000941514 43692330.3829234 8344562.69315903 20894307.665793728 60077202.46874166 51970520.8941567 88957226.4349498 75024714.96580744 59299446.40763946 16174367.328324338 47429190.031201415 67524571.63039021 6503433.413462914 58620394.65633862 64067609.58877739 159524966.6385156 72193636.15569974 4678891.317846428 4682002.878102213 63756823.16972918 55143909.23378251 47839224.654484466 31042784.609495178 56976933.524908006 66922313.02086304 30327564.46044481 77733028.07755794 41123130.117362015 4237698.623909836 4955771.1841743 63464926.69493527 62951404.91537777 73642718.21674728 47062761.654722705 29026587.26143326 52888996.53434242 71289114.71395978 67004882.32039129 63461938.64118154 87044130.94840167 63792788.89588047 55050130.518233486 66383150.488720044 86506602.6218737 70824548.2056057 95287154.14263263 59419591.334371045 82245694.08704796 250428405.98686498 77473607.8239349 35187519.36941739 53810237.46002262 73090246.01086068 59309076.12764053 65664958.10614233 106150492.06641243 59089214.32668533 60397680.144144975 40103965.964082256 55284942.11653335 87464340.08908178 64303107.74132967 2068285.1841474397 2069752.6333857481 63259653.426749855 60454545.77672907 59480229.345372416 58662784.15410853 108218439.53761704 58803132.37061555 57089355.45760796 44548973.73027936 10789423.69735789 58113295.60485205 71765470.28472883 61605882.51504165 86680643.0028979 69488851.98451279 83560874.18340598 46679284.33660894 57042678.30696342 41495718.09966563 66449908.51137384 14029444.386829967 76732313.02857357 61909585.944355175 45355806.47704801 56971572.98900201 91288604.81929234 53197307.2323719 8459756.68778734 8434099.084927987 62110362.53737209 40175721.27453111 44054423.251382075 48980740.466025054 44065143.44862819 38622953.23232155 20957836.651903 23815791.37900654 8630796.124426695 58172614.25053411 40054033.63283149 30405699.08592459 27793468.458393496 47614105.8885972 60240514.21091807 60393044.31026002 63604446.92745066 17402052.18445108 55898113.44488956 62518776.49531192 36656138.389956556 61685581.3293635 24681164.578040045 59570292.31728731 60090552.99904171 44635397.02339055 11015319.730531165 45077658.76781333 115978892.76398104 86100752.36649726 60461405.36828771 75469811.72617483 61476931.60562383 60557578.473828875 73225378.73175795 17363343.20983643 72879231.58602767 78951691.34596986 66954149.16655974 34878651.26037849 58117671.9167182 31107900.548279822 66242155.18795872 56003581.48707127 19098937.747806467 28629726.902309302 14691295.079342775 3235836.3353679003 69399548.5463249 80233132.62578543 40789531.364425264 14995015.668771945 3909613.644290759 54844226.25651224 54799020.49276745 15231569.080644228 104241384.01583995 51631533.19652516 58211255.82975746 57573884.219248675 57461366.624061346 27246231.7835586 27333897.932831638 57709619.49340006 49442433.18579601 57588171.276931144 61843503.9586745 19923987.64046562 69895441.30615611 137307999.88031584 8964557.428009296 46231220.39905111 64082639.65152474 60118633.46539102 60582514.47802971 58616254.68744295 26517474.73507946 66205046.28940932 66136860.14644071 47476761.68353139 58330607.65326918 99794528.50768286 58254500.09381867 59322241.699078895 22540461.280682765 62533903.055920355 28431447.96661591 87183741.30688177 7419155.028227029 54217056.446832575 90094494.40561683 57525060.78270383 36370953.35641511 62630695.46899954 15315961.448447153 42212548.92240281 49902630.47970649 39827750.90058861 54652348.598960415 68459629.58274429 70383395.97540714 48531678.12943257 59152383.78213831 16771377.971367707 59690945.48233769 54304594.64232264 68663421.68771613 69904773.11944458 29713338.63228371 36520220.374369785 57763890.60924357 17704179.858035903 65191910.392190814 63109205.71474599 64171586.721481964 64235008.7001182 69832898.17167893 66725926.07118776 28526021.798390124 52480624.553669214 50099422.44608799 42517872.2395189 107897320.5619119 55506725.74738352 25614157.001863487 39720466.74120109 41308183.54129087 61949591.51287056 16439636.253419315 16364533.891683577 81563564.09223986 59145711.37061141 59970195.8830037 63061273.53671007 32148936.502818756 61155173.87420296 39441576.871585995 49233474.76686242 49313214.08811258 59315793.87506079 64104757.18782035 82062921.42516217 33079556.84312805 51304001.65655363 51261230.036607794 27256518.179774683 16913234.932867434 27360989.491756096 35475588.91701202 56973535.880019486 62925488.42247587 25918280.588314034 49820571.562445074 64643011.34548024 36242130.74619501 17491180.053356476 14649316.957272675 59376991.11601287 44896662.01942354 1046244.5875580143 55539005.67448279 57152867.33635378 55769451.70468188 69019065.25166641 59631095.71178037 50463296.666436836 37700528.9200647 42347380.22886728 61584164.62223028 59293694.506305665 2757897.170834155 65795371.07699464 48677397.76982002 56616718.730488725 63305293.5589427 51167056.90501501 54878488.31823988 63785818.05587719 59488103.338737704 7856814.674581296 4991121.764985235 49012762.596467815 16948102.500470765 63833198.13725112 56314620.1392092 57765094.98392993 62976450.72400704 57965188.84561356 990164.8094461655 2675515.881573982 2674240.977990821 55197685.26290651 60930337.59900342 60718640.517203085 70343240.41026941 74822375.2357149 3117789.222468597 49734851.25676682 62647940.0465841 11908055.433157342 76136540.14150475 61729826.12963336 61867714.41341952 165322412.3025885 31571884.693941113 31499427.945874125 66558856.09357025 7846865.85924711 64944478.06607598 36136899.00652864 145836717.55853784 55658516.60571702 57136107.49561492 63853097.18432947 56128221.03827324 17562032.897045337 18180896.849179223 46723124.58306882 24396394.899209008 3531278.928243748 68193928.56165314 30977864.36185133 62876226.72115259 5396935.1955056945 63546937.97648943 48434416.47725067 73319113.61630018 59427220.511497885 68167520.0459746 98843896.66278474 18335445.665425222 17667463.15560785 57021151.67824292 60155303.99888679 62076485.51912275 17630407.62134283 105171485.60508627 47225114.213093266 31628145.019652814 68064254.83472909 65762748.542378865 64574624.275666244 77032735.38506474 78758130.16514497 30966557.65636284 2579731.3342307806 2576136.1971178544 24467283.00287345 29052872.591276314 22735694.56442918 53476636.524776496 2662072.2485880083 65762749.450214915 47725990.17864391 9631314.248594908 43527147.35465539 1968685.6085991438 47751001.59428401 74008259.17485951 16489606.464494748 8712509.323380802 45579988.44945197 62367232.23502143 47657310.51615478 37990764.73658315 116299191.30564718 74100828.95701195 51640517.47879195 65362542.06455471 58852136.09759527 55532483.02664271 49699991.161109544 75632171.62433706 63520616.70999454 41850550.45203552 74163692.50823627 58875398.83339582 78407342.96065648 162344497.1642676 56580122.153397 8884703.447856607 7715804.979878579 56760225.8042946 96354967.58592479 27190946.047985286 59360149.96059366 61335710.232310995 48792385.617274284 45148325.22781975 88879383.08105585 94468594.01506893 71460523.39497834 51118208.44997611 69077978.81847925 49104935.150340654 11032599.917981373 78432489.97896151 62098145.367285706 74447417.11057001 61885986.52366641 64330764.12650633 101593276.02596517 69405522.49036779 62606039.4669394 59959732.68629632 58764303.619714186 58943290.09436802 24574015.70530263 84097236.43211856 34910201.98242449 59491599.059162095 60051653.002907395 40691018.15900122 50338087.50391962 77956864.21295449 91639598.14859673 47707829.17401975 50330252.02117814 42305626.71284106 77613039.05935974 34125999.456147134 64602800.62884625 58183134.34534295 71655095.68786822 61806440.07586477 41317250.79639272 64379456.00224769 45061210.18772773 32530009.46470995 29233019.792950142 46075598.78566328 55240270.060778126 36813545.35234509 65356340.12046708 69001756.30067164 51595437.73433339 138846032.3151215 29131176.20027944 27089533.06763364 61655340.553921096 64484095.33864505 62207721.70818647 59138357.159866795 24121084.32830243 33029562.258267213 25330406.914061725 25326671.23828163 9927262.323453447 55858128.978457585 51485315.24879138 63482996.12968369 70327754.4037322 11613064.525281379 125225214.44750477 64572309.602338254 35641600.54467911 60852940.961674005 50745743.564038344 37291761.99296476 63355256.4154446 64125033.426890045 39544407.62253385 36728357.50686518 34007455.22846306 60621772.2395334 51109421.69434663 11454216.721498255 54863459.245129 35823309.72733239 60140078.26324156 51871159.679691024 61972166.82220407 56226996.7945995 60514705.50879867 66453174.8522721 69173841.41141562 81196467.67425525 58629633.761311814 27916718.49602833 2041830.2609467064 67283734.38163969 45906413.15562468 46011705.93311026 63548957.21778783 49243071.195538335 49205284.64799657 66959119.287096635 58182653.61133763 10086846.775452124 24252294.016563386 26189536.27954716 55698474.65751832 59523468.49812884 68074633.51687823 58801919.06361638 50514827.57987681 93296277.98353052 35885028.62824598 64518027.39761267 164352279.33599702 60605454.38709154 57662379.14217633 7619255.633976726 45678970.24770278 63952602.73006074 23759945.86967663 65131616.97016961 59681814.335819654 18047806.906296007 60667068.78737605 188572720.95810127 61785914.09624656 79794539.00757948 56207170.57609671 165111509.2348743 17378876.935028695 60703148.20790537 123854056.19600204 106438489.51243927 27638578.221716795 64575336.78669728 33740493.88477544 50818076.9696647 57003492.15339439 90363733.53196499 1344500.2816626928 62546171.452291906 41851153.1367752 94663429.28722401 65069220.97171832 58586739.087806076 59993200.51246807 9509810.616033537 1187614.6203515492 62838769.79620359 146952970.97356436 77174632.43851307 64294377.50939749 56265090.783905655 64138276.96115085 63090683.44411487 33490635.24482142 59369967.77124709 61114692.19206978 58099802.28022057 76935292.14479661 38138672.395728454 79064034.03741501 63020688.55150424 64647324.370051324 25146559.746086307 83604828.26853642 9323829.595706105 58173707.708536 48025291.034634165 47539444.93451716 107855741.43721266 62058929.26953786 14703506.315970575 31729775.023542292 115217660.81907997 27473473.065671656 58998314.63568527 54187921.11834184 61572799.91699882 62454820.086458765 46250593.76128203 40800154.38279328 28961936.237937614 46299274.017794594 60127704.10003519 6895937.611793051 60759072.02261268 167764166.9987645 57801765.1772264 51946920.61077904 78408447.068849 149578142.39341503 38980449.54557755 97888658.3535434 42437318.76858527 65696671.53091544 71440051.00971645 17032319.47792345 27870418.09717981 23834173.057443142 64978654.101318136 26232155.57399944 40622129.17076055 6883375.569596033 17172885.26772512 70952423.12426135 83001769.84240466 62797364.94321347 18409178.386100527 89975749.05833413 42372803.04887983 41243698.68281806 63310422.454477064 64252093.74635813 16701311.394516066 16704345.871726282 39123624.94786482 55152023.954686396 53796074.21403863 27643525.737623777 15205025.729780858 14458099.980239738 71002662.19702454 78034591.36880262 28341729.60521242 20118086.869000193 68480557.79053986 85373814.80649127 57506697.07346309 37754188.855055876 65662502.07342043 65305172.473043315 42402266.61113018 108117938.2165605 62080696.69572637 66788409.7442956 66786517.27674667 15418079.51850818 66500298.94819571 65965875.50914051 62264587.40361368 62871860.21432932 107521085.38793468 66004589.356870465 61656768.72160866 56159374.82438815 48480947.28446655 46311720.86637735 6527609.084244143 23270407.575513612 35370594.98116111 38636019.35049696 56992290.84596372 81456987.1872875 101965443.007848 53529728.25150873 298525697.91539836 36430075.948846474 36296782.21560572 65304288.77526903 47500734.432391934 56831442.48983859 25844950.86132809 40796196.97656673 40776683.52898111 59145934.58567603 47588627.634627186 35072630.90908216 61828943.15917625 1395990.2951990243 1415275.8914831725 58880232.57107875 56927105.00884587 61692083.57314743 67089346.76852595 71834523.14507191 48281581.822073445 78906566.11988007 70628704.5571873 48136416.89471428 2918756.751451956 15992589.075845242 22988337.95274585 79071702.58476584 27305521.56355058 58400979.66335233 78317734.48995791 71492389.6383533 57516854.927593455 55734487.12906832 43507009.632804 58444906.11390275 63359541.76259096 76398972.09211682 43209580.52071307 47403755.831694126 17580840.267657585 27974955.11828334 61900928.44775313 52432395.453826286 49809806.18565469 55412740.86051071 60014573.95394887 152048083.5670363 57481815.02453681 33238907.574269548 52893221.42483171 24392859.415488828 79145087.6158774 79232466.48101062 55742221.65265594 76788142.9387108 27783776.280013897 60953089.79841518 61331039.830630735 84200757.73810394 65297915.10431785 60543750.5856659 51862079.84644061 26445907.956713032 48248486.77035951 22632178.204421345 58757512.921210185 58121931.82350055 173123662.69356805 30814226.72339276 68087589.71673493 40791577.49529161 60985578.49724277 154654386.0229595 63236777.46848032 114810432.16187656 58966194.38136005 100003955.29867767 54479177.695041716 59191691.8320129 26113778.682223696 72385016.99536067 58959722.54193485 67330199.41107838 53033648.99860369 59094324.452545464 32579051.00436798 80248052.9128213 59684950.97418586 59232456.783487275 21366343.757077046 89407569.99497604 75542321.10854368 72280818.37328689 62890352.250385486 64223237.73444536 68628303.60168383 43363957.29934204 43354752.234737955 55626283.158403486 71783201.79197812 11308748.85385489 55088810.85364488 67689850.11759306 55314426.05122209 61551028.916386455 69695099.0905984 82129170.90902753 73172879.97477537 63101050.31639255 69826463.3860321 63129916.920893975 36663461.2389044 109337188.5200209 109796341.85827903 63049074.824451834 28528038.71487689 47180261.466700986 65250493.95831631 38061570.162219845 42971151.30792277 54983093.63028491 94091475.0959267 51978429.291581534 34894269.92984619 113379924.65969849 59205622.97306994 57677848.64984987 59365736.751956485 180296895.93789163 89895646.17509563 65511580.9288285 59349395.49640975 45838761.07934741 50971729.91719361 76819140.36929722 45853456.06049461 10609165.334023837 89527773.1399101 63766928.474364154 29706969.2425658 60484965.19795228 66320327.35909869 47421008.62930704 52417823.53897039 72915918.20894715 63461568.819083035 63209639.78200697 34619672.86245648 72947671.54720248 73576360.07929978 59091711.72301797 142455096.40530345 50880025.344419755 39062806.26165731 39127185.95014247 18528922.36037429 37348602.760261014 57505048.61949883 23604835.37248049 57325211.523982644 60671166.23586171 38231936.29673278 151072698.72194728 62129699.27857677 51145595.35952592 73405356.43260796 122934022.58189145 74628241.04365106 55504226.25007269 55979775.614527635 54264368.71054059 72785603.2485736 91880194.93223207 53031331.38440076 59994101.34266303 38258340.26640367 61058396.71673925 35398187.45202652 75850339.74684586 47484562.828269534 24736204.49913456 24772840.40715561 17630962.475861683 47342304.731431186 44146381.55377673 50648315.349706605 70656841.94344364 53348664.56307082 72995995.97667827 67396809.45146509 65988419.51418581 59812434.613813795 37537675.69724351 55138315.83210694 65835892.5069342 50008583.02858174 64906140.77548683 50251121.39712982 67095322.90717083 71217426.2985416 54651915.71645883 60010803.7788436 18917767.30196308 18555703.44723966 59703152.14620446 55232167.21163615 30605494.315429453 57454192.84342411 37275386.08714079 23740911.758265615 12771190.154423537 65279178.01574186 82122478.94942428 3520968.0870517613 126517153.45054518 49509887.99086494 58039579.74104639 31029080.958187886 79183746.3588688 59846051.04512448 23387600.233213305 3604966.2536400342 4042492.48509048 3804255.155193899 62249726.38325539 100435323.89716761 68845015.46708275 85763440.09677626 58464022.98917864 65995352.515302844 71059431.59244032 56087816.33221878 53726424.52357682 30690770.478284243 55658955.26680207 40682504.73301681 139521533.9157855 25847738.01243293 25832221.162298813 44093309.69471522 62943185.40099306 61836500.399739124 58851592.2012529 56225972.97309058 28373273.41356865 58157123.95420656 71285609.26927412 8701522.590604667 21989323.986154877 75785589.89634478 48183331.817952394 61744862.29813788 63763891.953921944 60468843.27952498 115149985.92676876 38148353.30594211 77295629.3678339 187456440.83717665 26578173.04650587 69991635.64172654 24827726.25645962 65342767.78728868 56886984.763094805 16853810.08736082 60038195.28456622 14355851.207514772 59586201.55677778 79626028.10504143 22999792.010348286 51379704.14779113 35060069.421888225 59388094.34415565 57788160.799014665 45993751.7484221 91779372.27389458 77098660.3593094 64711296.82274701 31109254.030508794 48840231.90158176 70629677.53654826 59687087.95923763 65232904.81078404 76744152.92456464 63019442.60364955 59260301.58372262 45400416.04916543 26856447.448598556 65849225.6787237 46877297.45240241 47931248.40442684 63479532.892687164 59198912.61931797 58629752.01356915 60887108.34580346 121216762.19404216 61507203.69730563 57302515.7997451 65940001.60003402 62526522.67474534 77216748.09883098 43107054.46812289 62412519.28562654 48974682.33038112 5787629.50740104 19487574.30279672 21792417.61805244 21754304.835351296 84597757.58757411 164219814.09510073 62289506.482410766 45599251.74878274 135718887.5584235 55183333.03757881 43359596.61869999 44633671.79849577 50794473.96353035 47152210.875896014 65968706.31938293 67383429.79292832 43655665.55786629 91247615.04171842 42688771.025469534 10018409.091621999 59812940.12764964 56578044.59517355 77980673.49927835 59401633.8134219 31806651.37854008 62545108.506189436 63629151.998654164 50498009.78699502 57322391.35302452 50056606.202383675 57810603.0576538 66237209.98059737 60324836.572044306 40005140.18126904 39405358.37898064 76577086.7322335 132788720.94426738 51965414.77237502 50221079.1670105 17728307.078023195 54911691.79999767 14575730.860471433 62118786.27320724 63621333.064336374 51594068.88778983 8438463.15779161 29595412.79022822 41809571.29718522 90243705.53636473 11733057.575509502 62338839.069312 48011502.91148691 67681805.48550838 72153056.19832337 63154477.54693169 63068726.546618074 63652745.78047163 58623830.52860174 24586417.964619905 39679705.98886988 17738855.80490035 97305587.01720409 57949533.10991607 61042090.762788855 30365348.413121175 30399622.20839734 72078675.63074632 56420027.1465766 59216422.744191155 50858668.57805014 48458437.74829609 21722403.393636074 67758500.69547373 103779082.21283191 64042208.47885675 127889748.38053183 60883435.31522493 59266013.647145934 29396217.999762252 29338520.58716154 21907841.36129116 35277847.45292379 57132075.1494427 58430564.13568858 43250797.221899524 55570440.700910546 61593244.759707764 9578376.45507546 53738448.94557627 57457274.60261445 60374698.793454684 81698512.8390074 13763582.981173828 55515860.238460615 63810544.80651169 36247790.49141804 47790557.1959162 69750217.91105808 10950095.393261192 49071203.39771431 51377683.9796014 60869343.33793252 58448004.38458863 65916481.74610002 61873231.81657116 53445708.00804154 57710241.838261075 20914564.270884495 60793052.30802392 45502593.447607175 46126497.794248104 55452456.32927173 58431794.55204288 72405116.77276652 16961989.468864936 47758037.140534356 55153430.69537549 50763685.2045827 55205518.26093324 56169401.40357795 67341749.75623134 63671354.88430492 8659414.733751887 8633575.993007619 64157869.07382352 62164685.32061247 30599464.137308255 30624204.74569903 49869308.88471788 50849948.73239993 34771293.24490522 49723128.09887522 123787875.43848753 41984792.802778654 42056133.608773075 61294086.11620958 56501604.173659824 8059908.752547209 54747421.64438882 119012076.50790593 60275709.298728965 68093172.33353117 14122494.403130852 73483156.95008051 55949860.98581609 70226422.73978126 141865847.0401152 43982529.722582035 56581118.50421048 29057106.367242172 81393516.80737041 61217243.738030225 52206424.474564455 124204848.051168 52851702.60445584 57661361.52786399 29172545.59924617 48700009.23850629 38032163.08030903 38082958.29757172 1725061.634845858 57278111.62576802 65258128.5471349 13148253.1400529 58295450.62323625 25769631.955686163 42866864.90235735 39228744.709199496 57402845.72352535 50033733.28876027 25743206.68365802 19995736.30524596 18356700.31149309 65960417.167678066 68701133.91996656 53737919.82583983 48167816.15545534 46982326.29015943 9065672.257708408 71293497.86324842 15134142.00215588 57997770.32788151 69319137.90401056 57644442.87559496 56899311.17060658 60582222.53705195 30170659.38308653 9010529.033639422 7616134.230289239 50809133.624539256 48240672.46272133 58507615.86644374 60811084.46356606 62440523.46444859 166165583.7639023 58182712.517683774 59052706.874271646 64250759.768431395 12683899.460103918 8848494.555544179 64752853.0265012 7042822.502797125 53593006.88318624 26735726.227248337 58216818.859037146 47401370.652467094 90439373.87193932 29979050.196963962 57510159.768772915 59623047.31171796 58585162.561671816 57629731.10230669 59062223.31025419 27062319.94461535 62322226.12730904 46072057.619790174 137548259.6929975 59959936.04022331 63251581.100239374 42164666.85865943 58346541.803994335 50355286.52953814 50277000.321296066 26541883.204347555 59131269.566835284 51061391.255537465 55046621.69069199 60316257.2705481 57288522.418609925 79423518.24013762 62903490.00824009 38923824.900533706 29041131.13931001 56144045.83247143 64840722.883297466 55545396.82974819 59408429.108284324 58465761.5224354 59167240.37647198 28999479.044833895 58006281.67684182 60431987.584717944 35572682.36179164 98635930.50385539 56616623.81205235 59292797.566922925 57267321.46841973 49672680.27639236 47548277.46802731 65086497.09364486 59426848.44201693 59027254.354059756 75269650.25042468 61888372.222559504 59847751.25174081 59881817.51980966 31362273.89085854 62997305.847782925 63024763.664467074 58056661.995618016 55257935.71414443 43823598.937155575 34385443.84002892 68231993.6202671 59553930.90392727 58702298.38062717 7217452.826420285 55460371.35005392 56044304.10671003 20356398.790442307 57012697.00595854 68661712.22367473 58159795.5954629 57805438.413956635 77288484.84661134 70794417.59368072 32170214.207173374 32186401.19054631 52632754.50138709 55564254.7815984 50034492.733556315 51511695.48226596 66240492.51286909 58700221.833955795 56953864.84598247 59565021.81030893 18704525.452400833 40984645.758846276 55873550.345534176 53832602.99615499 57443329.761908375 67740071.81273146 29949325.093718212 23349266.334330324 58828740.8939046 80419820.32095718 84824362.55564895 66417278.369887926 9681691.920998286 14018689.222731937 60257948.277504176 23391448.36285397 7142192.144873346 85292414.52155839 51964078.77960219 80234725.11291255 27187714.51899694 36974187.33727691 81854581.98397376 47216875.05850675 44954286.648307085 16601893.70828613 16565265.164449897 44452566.169071615 62852744.605186805 13062722.752349053 62989969.110506095 50059960.89595835 26713795.03175885 64579706.94387622 77066067.49259762 30240026.96960893 104751343.16842785 67929223.58560279 50687250.67892009 63038772.635485075 42944586.335290015 126322137.59750898 57718232.99360208 54954571.532090686 35741407.98754512 58141771.91739295 71812237.86305802 37862889.43281854 55365689.49886967 64194959.491745554 72730831.10659352 70261853.04609783 64153847.331046075 54313029.61405413 53193161.31579427 42063699.632676184 79875729.53931962 47695843.63330664 45160652.86218497 97482119.76891077 37421985.303091496 57061612.295328364 64638942.25674607 64896340.523184575 66957805.05739944 61421615.78014372 32372497.106535163 79077293.07921481 77414023.84221396 41880004.90181037 46147833.55027778 56634312.64356127 50782928.28436635 73757539.8879272 58031127.41612016 45113060.55895703 36929827.574654326 35440737.55219986 61346478.31367578 61233908.574220665 25267460.51123919 16258310.850135861 40045434.833895296 41329857.673453934 59700863.25586593 46305694.11773183 55942510.982059486 36334429.604516566 26174664.28795339 58815479.29390957 61903325.621911466 93954165.20335968 57621132.34076922 56119566.75963018 48110209.16036772 61110229.375653684 59375614.55101782 60125545.63763512 55100735.41420516 12513050.531962143 72563244.2215069 60279303.78339233 35389297.22770985 73811072.15834267 12662716.190016462 58073216.25496047 27031256.563374504 58336785.799788944 116057453.8676266 57744542.32912262 42819949.76677037 27107577.526296105 68970181.1679131 51570312.5667917 38457512.158710405 80325713.75481252 67981258.53022315 2463483.631810781 37471164.81391634 34988531.97112431 51117055.37410736 63793836.19449787 148247303.96601123 22859768.994668495 22827041.196192343 75170425.93797974 25556078.392837677 25659980.960343413 69573905.95284477 36241693.02177631 76628697.19709085 60342025.324820966 14416196.174297469 11310327.59437221 59807185.3190445 67173113.3798638 71671928.7430987 25817406.548440747 13142519.35596918 68014174.46817581 9043866.980391555 46572789.207770765 37650345.39736093 25772966.79141673 9084450.473294998 73079255.979636 61384853.294343814 62593294.19012518 11514337.343100097 68690259.2883493 39873939.81239991 56650384.09204941 49927012.01777252 70364823.94803786 38486334.721805036 52701397.846151695 56222092.83642553 94402646.06859119 30634990.99039078 57238687.949028775 38534971.05827376 69909003.40978634 12475864.213852756 12438603.455511918 56998250.05419738 62669530.16999563 37474732.03472113 66099863.62484903 41677776.36149942 30085033.08151317 60983983.75070795 52596541.94728081 38647014.84861437 38630895.91121955 35267775.73068385 73997558.25092924 23172914.162578862 41686947.82573515 54126915.519694544 64849179.13097648 33567728.27589448 51674719.742386065 82372277.39066567 11751011.258550324 11693777.019025391 50180804.61830408 63528452.68270389 72307930.22620639 38970473.75505943 35634697.981640704 75146491.2079345 51396597.50399419 73462777.55379817