# vtk DataFile Version 2.0
Really cool data
ASCII
DATASET POLYDATA
POINTS 2058 float
10.0 25.0 0
9.999999999999998 2.5 0
15.0 2.5 0
15.0 12.5 0
20.0 12.5 0
20.0 2.5 0
25.0 2.5 0
25.0 20.0 0
13.625 5.0 0
12.5 6.125 0
11.375 5.0 0
12.5 3.875 0
23.625 5.0 0
22.5 6.125 0
21.375 5.0 0
22.5 3.875 0
13.625 21.5 0
12.5 22.625 0
11.375 21.5 0
12.5 20.375 0
23.625 17.5 0
22.5 18.625 0
21.375 17.5 0
22.5 16.375 0
12.5 15.5 0
20.0 15.5 0
20.0 14.5 0
12.5 14.5 0
10.0 24.63709677361402 0
10.0 24.27419354592701 0
10.0 23.91129031775874 0
9.999999999999996 23.54838709246676 0
10.0 23.18548386794702 0
10.0 22.82258064299358 0
10.0 22.45967741670554 0
10.0 22.09677418897655 0
10.0 21.73387095986818 0
10.0 21.37096773248194 0
9.999999999999998 21.00806450811888 0
10.0 20.6451612807928 0
10.0 20.28225805407666 0
9.999999999999998 19.9193548266023 0
10.0 19.5564515987474 0
9.999999999999998 19.19354837138494 0
10.0 18.83064514499617 0
10.0 18.46774191704055 0
10.0 18.10483869087001 0
10.0 17.74193546347678 0
10.0 17.37903223681661 0
10.0 17.01612900940379 0
10.0 16.65322578413419 0
10.0 16.29032255642479 0
9.999999999999998 15.92741932834607 0
9.999999999999998 15.56451610131936 0
10.0 15.20161287375545 0
9.999999999999998 14.83870964642377 0
9.999999999999998 14.47580642010495 0
10.0 14.11290319369939 0
10.0 13.74999996694269 0
9.999999999999998 13.38709674181718 0
9.999999999999998 13.02419351686376 0
9.999999999999998 12.66129029367583 0
9.999999999999998 12.29838706999966 0
9.999999999999998 11.93548384555825 0
10.0 11.57258062117281 0
9.999999999999998 11.20967739572134 0
10.0 10.84677417031325 0
9.999999999999998 10.48387094675739 0
10.0 10.12096772123179 0
9.999999999999998 9.75806449698064 0
10.0 9.395161271231192 0
9.999999999999998 9.032258046482013 0
10.0 8.669354822118947 0
10.0 8.306451597138944 0
9.999999999999998 7.94354837200364 0
9.999999999999998 7.580645146620729 0
9.999999999999998 7.217741922905391 0
9.999999999999996 6.854838700199402 0
9.999999999999998 6.491935475456518 0
9.999999999999998 6.129032249693084 0
9.999999999999998 5.766129024955096 0
9.999999999999998 5.403225801332082 0
9.999999999999996 5.040322577682138 0
9.999999999999998 4.677419353225353 0
9.999999999999996 4.314516127429037 0
9.999999999999996 3.951612901263398 0
10.0 3.588709677867029 0
9.999999999999998 3.225806452333023 0
9.999999999999998 2.862903226670315 0
10.35714285661005 2.5 0
10.71428571213589 2.5 0
11.07142857046827 2.5 0
11.42857142735092 2.5 0
11.7857142850142 2.5 0
12.14285714287573 2.5 0
12.49999999995663 2.5 0
12.85714285391503 2.5 0
13.21428571211111 2.5 0
13.57142856468173 2.5 0
13.92857141917294 2.5 0
14.28571427871344 2.5 0
14.64285713891684 2.5 0
15.0 2.857142857852235 0
15.0 3.21428571521503 0
15.0 3.571428572726516 0
15.0 3.928571430603533 0
15.0 4.285714287978719 0
15.0 4.642857145514987 0
15.0 5.000000002580401 0
15.0 5.357142861368146 0
15.0 5.714285719647869 0
15.0 6.071428578485179 0
15.0 6.428571437049889 0
15.0 6.785714296048281 0
15.0 7.142857154135942 0
15.0 7.500000011102228 0
15.0 7.857142866965729 0
15.0 8.214285723560286 0
15.0 8.571428580253976 0
15.0 8.92857143590683 0
15.0 9.285714290295818 0
15.0 9.642857145775196 0
15.0 10.00000000179977 0
15.0 10.35714285775001 0
15.0 10.71428571439413 0
15.0 11.07142857145955 0
15.0 11.42857142775673 0
15.0 11.78571428532397 0
15.0 12.14285714320719 0
15.3571428591223 12.5 0
15.71428571719138 12.5 0
16.07142857423201 12.5 0
16.42857142974857 12.5 0
16.7857142846084 12.5 0
17.14285714112862 12.5 0
17.49999999772317 12.5 0
17.85714285297952 12.5 0
18.21428571083795 12.5 0
18.57142855939082 12.5 0
18.92857141386655 12.5 0
19.28571427430228 12.5 0
19.64285713574168 12.5 0
20.0 12.14285714165368 0
20.0 11.78571428436058 0
20.0 11.42857142737726 0
20.0 11.07142856955135 0
20.0 10.71428571316279 0
20.0 10.35714285484745 0
20.0 9.999999995955926 0
20.0 9.642857135639455 0
20.0 9.285714276871845 0
20.0 8.928571418674213 0
20.0 8.57142856231663 0
20.0 8.214285703660536 0
20.0 7.857142844508807 0
20.0 7.499999985406642 0
20.0 7.142857130003156 0
20.0 6.785714275659092 0
20.0 6.428571419530735 0
20.0 6.071428563699761 0
20.0 5.714285706611115 0
20.0 5.357142850049079 0
20.0 4.999999993527312 0
20.0 4.642857137101577 0
20.0 4.285714282125578 0
20.0 3.928571425551149 0
20.0 3.571428569906041 0
20.0 3.214285713520577 0
20.0 2.857142857692707 0
20.35714285650163 2.5 0
20.71428571178895 2.5 0
21.07142856795603 2.5 0
21.42857142687388 2.5 0
21.78571428441634 2.5 0
22.14285713997626 2.5 0
22.50000000002168 2.5 0
22.85714285703133 2.5 0
23.21428571221953 2.5 0
23.57142856194335 2.5 0
23.9285714186928 2.5 0
24.28571427764782 2.5 0
24.64285713873408 2.5 0
25.0 2.864583333579086 0
25.0 3.229166667418379 0
25.0 3.593750001170938 0
25.0 3.958333335039145 0
25.0 4.322916669051911 0
25.0 4.6875000031225 0
25.0 5.052083336528115 0
25.0 5.416666669875903 0
25.0 5.781250004033231 0
25.0 6.14583333738102 0
25.0 6.510416671422698 0
25.0 6.875000005290905 0
25.0 7.239583339506053 0
25.0 7.604166674125976 0
25.0 7.968750007979722 0
25.0 8.33333334199249 0
25.0 8.697916675860695 0
25.0 9.062500009671076 0
25.0 9.427083343134518 0
25.0 9.791666678332678 0
25.0 10.15625001249001 0
25.0 10.52083334768817 0
25.0 10.8854166811516 0
25.0 11.25000001496198 0
25.0 11.61458334738459 0
25.0 11.97916667946025 0
25.0 12.34375001292369 0
25.0 12.70833334511499 0
25.0 13.07291667765324 0
25.0 13.43750001088538 0
25.0 13.80208334365493 0
25.0 14.16666667353327 0
25.0 14.53125000442354 0
25.0 14.89583333573303 0
25.0 15.26041666500421 0
25.0 15.62499999488256 0
25.0 15.98958332836045 0
25.0 16.35416666104326 0
25.0 16.71874999219373 0
25.0 17.08333332471754 0
25.0 17.44791665847009 0
25.0 17.81249999193352 0
25.0 18.17708332505002 0
25.0 18.54166665810869 0
25.0 18.9062499938851 0
25.0 19.2708333296615 0
25.0 19.63541666578485 0
24.65909090697006 20.11363636434331 0
24.31818181387862 20.22727272870713 0
23.97727272112545 20.34090909295818 0
23.63636362933978 20.45454545688674 0
23.29545454074166 20.56818181975278 0
22.95454545175678 20.68181818274774 0
22.61363635870555 20.79545454709815 0
22.27272726938004 20.90909091020665 0
21.93181817642107 21.02272727452631 0
21.59090908415283 21.13636363861572 0
21.24999999070893 21.25000000309703 0
20.909090898365 21.36363636721167 0
20.5681818062032 21.4772727312656 0
20.22727271532826 21.59090909489058 0
19.88636362288735 21.70454545903755 0
19.54545453222531 21.81818182259157 0
19.20454544067146 21.93181818644285 0
18.86363634917439 22.0454545502752 0
18.52272726008306 22.15909091330565 0
18.18181816691119 22.27272727769627 0
17.84090907624678 22.38636364125107 0
17.49999998161302 22.500000006129 0
17.15909089129634 22.61363636956789 0
16.81818180107666 22.72727273297446 0
16.47727271035784 22.84090909654739 0
16.13636362113641 22.9545454596212 0
15.79545453028867 23.06818182323711 0
15.4545454400335 23.18181818665549 0
15.11363634812483 23.29545455062506 0
14.77272725866684 23.40909091377772 0
14.43181816866006 23.52272727711332 0
14.09090907805834 23.63636364064723 0
13.74999998745307 23.75000000418231 0
13.40909089754563 23.86363636748479 0
13.06818180839043 23.97727273053652 0
12.72727271853859 24.09090909382047 0
12.38636362812021 24.20454545729326 0
12.04545453791708 24.31818182069431 0
11.70454544876188 24.43181818374604 0
11.36363635991656 24.54545454669448 0
11.02272727049761 24.65909090983413 0
10.68181818161208 24.77272727279597 0
10.34090909059876 24.88636363646708 0
13.53936447392977 5.430518861761812 0
13.29549512714208 5.795495130527656 0
12.93051886163336 6.039364473982978 0
12.06948113743464 6.039364473596931 0
11.70450486924562 5.795495126915347 0
11.46063552506678 5.430518859339278 0
11.46063552603309 4.569481138327832 0
11.7045048727207 4.204504869609567 0
12.0694811382365 3.960635526070925 0
12.93051886277896 3.960635526491545 0
13.2954951309342 4.204504873264463 0
13.53936447498188 4.569481140778189 0
23.53936447355998 5.430518862654571 0
23.29549512629944 5.795495131370292 0
22.93051885878755 6.039364475161753 0
22.06948113763989 6.039364473681951 0
21.70450486886492 5.795495126534648 0
21.46063552518245 5.430518859618539 0
21.46063552641138 4.569481137414567 0
21.70450487359473 4.20450486873554 0
22.06948114105052 3.96063552490532 0
22.930518862583 3.960635526410373 0
23.29549513128127 4.204504873611536 0
23.5393644748571 4.56948114047696 0
13.53936447365637 21.93051886242186 0
13.29549512687994 22.29549513078979 0
12.93051886148198 22.53936447404568 0
12.06948113686453 22.53936447336078 0
11.70450486830503 22.29549512597476 0
11.46063552461264 21.93051885824288 0
11.46063552634363 21.06948113757814 0
11.70450487312006 20.70450486921021 0
12.06948113851802 20.46063552595432 0
12.93051886313547 20.46063552663922 0
13.29549513169497 20.70450487402524 0
13.53936447538736 21.06948114175712 0
23.53936447334172 17.9305188631815 0
23.29549512485563 18.2954951328141 0
22.93051885758087 18.53936447566158 0
22.0694811368185 18.53936447334172 0
21.7045048671859 18.29549512485563 0
21.46063552433842 17.93051885758087 0
21.46063552665828 17.0694811368185 0
21.70450487514437 16.7045048671859 0
22.06948114241913 16.46063552433842 0
22.9305188631815 16.46063552665828 0
23.2954951328141 16.70450487514437 0
23.53936447566158 17.06948114241913 0
13.0357142863834 15.5 0
13.57142857334916 15.5 0
14.10714285783675 15.5 0
14.64285714470339 15.5 0
15.17857143070267 15.5 0
15.71428571720997 15.5 0
16.25000000702564 15.5 0
16.78571428904744 15.5 0
17.32142857412979 15.5 0
17.8571428511085 15.5 0
18.39285713616606 15.5 0
18.92857142211578 15.5 0
19.46428571101452 15.5 0
20.0 14.99999999601014 0
19.46428571160309 14.5 0
18.92857142040583 14.5 0
18.39285713577575 14.5 0
17.85714284336419 14.5 0
17.32142855637984 14.5 0
16.7857142655791 14.5 0
16.2499999775787 14.5 0
15.71428569556309 14.5 0
15.17857141150299 14.5 0
14.64285712475407 14.5 0
14.10714284117721 14.5 0
13.57142856006613 14.5 0
13.03571428124737 14.5 0
12.5 14.99999999867727 0
12.40762254693715 17.93037822753539 0
13.40707341941544 11.46128891191827 0
21.08940167895029 8.755957748268912 0
12.51863304315962 8.756259924064066 0
22.99492086694137 19.63908401224638 0
24.42497826839288 3.078015698770627 0
18.90358779145441 17.4722776009605 0
13.43507587457949 9.952421427786476 0
14.51386160517846 6.605416322767153 0
14.3871081351785 18.83107138606645 0
11.20978461821615 15.84905967246402 0
16.57922787943439 19.03671664286905 0
14.87075438792636 21.99862685018166 0
21.43581817990672 9.7749630375467 0
11.69723857424182 19.91246351736736 0
22.7348317544536 9.36672008870684 0
21.47201632940759 7.678571414957748 0
16.61204980942329 20.25788820889344 0
23.92223854092476 11.00561477438078 0
21.11847559080151 15.72551783092103 0
15.45068624914344 22.45835257189591 0
10.19883441683384 23.00180175270616 0
24.27499976722043 15.04461580476131 0
22.38957575691782 3.175989745271154 0
23.74922129836443 8.756638960251237 0
19.69432133635175 17.69511608612038 0
18.69220024875286 13.58837935758354 0
18.63037313396984 19.91901196498744 0
20.68468774386303 7.31780107985651 0
13.75660036272381 11.25127308923338 0
11.89033289591375 9.269229462949383 0
18.11237672116638 17.48321657886933 0
19.44695454768023 19.808261404025 0
23.45591398229024 9.973958345411349 0
10.62256671567176 7.372750682984734 0
14.16949506522512 9.584332792851201 0
20.91831516772683 19.68676371174432 0
21.3800764963797 12.1250926481214 0
13.37245885890666 12.63452093647016 0
17.96205081514359 19.0622187401265 0
23.14519827190075 9.667898371108844 0
14.48198533017657 6.187526680176084 0
19.98746006212321 18.0935669278125 0
20.42151797654142 15.91032310985312 0
10.59971361658499 4.740188816451678 0
15.6010879156 19.71971481014251 0
24.15808311247323 9.452391971031375 0
17.86048013069058 16.58789563767619 0
20.84111851670838 14.34104346763907 0
24.27814099064423 17.27171190142256 0
10.75776359045776 17.19758062311019 0
14.19032153208528 8.129436134823555 0
10.99476938407772 3.506801621882543 0
13.55549874463176 18.17686387102653 0
12.45732571272971 12.2338076079982 0
23.86227394398435 15.71399840159522 0
23.70971384674508 13.21679999246733 0
10.75673422975797 14.65643799581458 0
15.52565162956242 17.39585064329415 0
15.70545883251489 20.94917942956348 0
11.20728445678944 13.95201310290746 0
22.26958274149815 10.95721052916667 0
23.07218214923482 10.77562867139487 0
19.84488814481221 21.00373116803731 0
14.34341792565712 13.72332432556699 0
21.96545756128949 7.497302641870697 0
14.08344906719345 12.15261775593141 0
13.63119684192254 19.87401977871176 0
13.93295478866526 17.96830299775866 0
16.07290378145228 18.04467902648644 0
16.84044603714642 16.42191420080531 0
21.06351720939105 13.47429867920192 0
14.57899615621494 20.18116033133148 0
22.22201165807645 11.5165203536619 0
20.35832946276243 16.61394354365661 0
11.35220073017052 23.94296584271455 0
24.01721994512895 6.692708338356886 0
11.44727906921894 16.83467739676902 0
23.90616634205342 19.24725058019019 0
13.99192949235197 3.511339089149492 0
14.12666830832527 21.46000900740361 0
23.3081259763219 14.73522702363365 0
21.11166538291147 10.82474048023415 0
13.14637419665629 10.7402671000371 0
22.07604596093843 19.75862749430389 0
20.31263192248218 18.62962749344047 0
13.18391942655092 8.375755633743264 0
10.7335079570618 5.963592902698027 0
11.89963146551687 13.59872337686634 0
22.50638313527659 10.40954243114257 0
10.69066383730481 19.39410676410132 0
10.72405962574001 5.299622514047154 0
13.4097907795858 9.358857326525282 0
21.73186245174303 12.17222870024488 0
12.92447397426762 19.75019100589824 0
11.75039686310129 9.646402775364066 0
13.03366497683275 8.91424665017972 0
14.32086409012396 5.245073647860504 0
24.12676587721596 12.52022127969201 0
11.68483366887145 10.25237990676569 0
24.00570450623595 3.507337860921163 0
15.55464562065527 18.56316045649107 0
18.44020598157929 21.18908931514645 0
20.79257454150646 5.892857135155424 0
14.09642577122683 20.03731616491184 0
10.9589349139898 12.30465456650034 0
21.72720933948813 10.49891033870326 0
19.13305419555966 19.87901623640174 0
21.75347008795356 3.238548079746189 0
12.67297479425339 16.71893631084319 0
17.77482493224609 20.45043823669263 0
10.59956143545568 11.12063278734223 0
11.55693792398722 7.511160411203322 0
12.50638275157497 11.24999999960811 0
14.19993799668634 22.28017709504926 0
11.11489136781205 10.02943254601695 0
24.37092135168031 8.947872466036998 0
14.20742545446947 5.89285714906654 0
23.47405083027066 12.9565040289984 0
20.96345475395886 19.13008183428715 0
20.84443275530028 20.32585304916763 0
11.75269650706231 12.84274190526981 0
22.43740789887904 13.19070013236757 0
19.15311878811157 21.20605401285361 0
17.64360828339434 18.32843912477247 0
13.04560911502515 2.875579743586973 0
20.24040813722261 17.26546517070874 0
24.47890723441761 8.393014612131022 0
14.50626654994251 19.28292900641495 0
12.61044043606348 3.175952095580502 0
11.24878639836093 8.78672256057549 0
16.65975393662677 22.08135591605646 0
23.47685129924373 12.01202918102885 0
13.79855150148435 12.43190483292596 0
23.18800497732656 15.37672169778969 0
22.86703197803079 2.98905339119521 0
20.67913591046601 5.245073637724624 0
13.80387590442377 8.854680006511865 0
12.82020940415156 23.31527930449487 0
22.19720936829211 12.6256226769797 0
11.81691399963136 16.04372212148082 0
23.84674066304402 16.21701474399937 0
23.39424826374839 6.49846954382932 0
10.28482545098593 21.55241934617507 0
11.00146706101529 19.09372537739744 0
11.71527982377981 12.04281083902917 0
23.74996503931977 3.014837938460587 0
22.46739702106047 9.797129866983038 0
11.11815320561892 17.90881753550457 0
11.24614984518616 15.38306448753742 0
14.14937583931952 10.48346156273276 0
10.9864320547102 6.694471129396662 0
20.57762121377431 3.077621214105631 0
11.12414361902146 23.32625422039283 0
15.10659570657499 13.24569970573869 0
11.61449752502277 9.987372942304045 0
11.37004239374666 18.8675340114025 0
10.72106155526722 24.00889292680638 0
11.51667135949217 9.111556640037334 0
23.44379667575895 7.511410141354166 0
21.07538113721274 4.71665237302854 0
21.57248466683841 14.63751104408938 0
13.93743596993071 6.676557119562244 0
19.23955969887395 19.23212425039256 0
11.2330651405964 11.44761340637076 0
15.89285714571177 13.5000000019311 0
17.02208545153932 13.5883793562974 0
22.4288384885202 15.2790251225917 0
22.12171430038178 6.887021098535248 0
12.6222465893649 17.34071271981422 0
12.7878799201205 9.5115432796125 0
16.01101212543357 17.579810237154 0
16.90835061760384 17.96434757408602 0
11.86075957456666 8.2595607815362 0
10.59817942011562 20.31496505729546 0
13.49634238852675 16.37445321297538 0
11.02246271480272 19.94241544559389 0
17.25435582680421 21.97092419594598 0
11.6335447176887 14.65438565820515 0
13.94786326766343 17.19420842162103 0
23.08822531581954 9.251421761020904 0
22.43858637123769 8.74117379799471 0
12.50066586976253 10.27238230370854 0
21.78878036978375 9.073974333617679 0
20.73142813120718 9.44820525167861 0
12.20042789766195 3.549636409318616 0
21.03465615955577 9.774250632383994 0
13.7116347688298 9.684245020766223 0
22.43107253298123 11.99022766133909 0
14.25118270954717 13.34681926122099 0
18.85755204746298 16.72036122392041 0
24.70779692918945 18.72559095039809 0
10.8789134135861 9.557320001791938 0
14.20544348996686 21.95706518312632 0
10.58305188473439 16.64119031708149 0
19.30582495195257 20.5311112640032 0
13.06317894979455 19.11344428444103 0
16.37336799012456 20.94501196521598 0
13.53253626004236 22.98109572450555 0
13.5571841468841 7.701049450873983 0
12.5271011718844 7.773514313546465 0
24.21726158949561 16.56531614905781 0
14.17279475067791 22.62287298041839 0
21.06152436608802 6.678169797190676 0
19.8316503322762 13.50566147020552 0
13.13298400127971 11.74170874158666 0
24.26697287209881 5.977834742007976 0
23.22457520596958 13.94201164095256 0
15.98925066617864 21.96283594682457 0
10.85906699675546 8.01757092928715 0
24.16584927810175 11.7454639793488 0
10.8022389244244 13.24741077704539 0
10.85938192669568 16.06500252787001 0
12.87845505185988 6.88695855183118 0
13.74999999192732 3.014686682129866 0
22.47095664821927 7.748926077447299 0
11.82634100659438 11.36163063372402 0
20.29228479634597 20.51526461831715 0
16.86384157538744 16.83828634351954 0
14.23848067488497 7.404720040861801 0
10.88482072385876 10.57976506663638 0
20.80309897818067 11.66020258049204 0
13.40935842307062 13.42096149937564 0
16.94042471482459 21.38945602295801 0
12.65201063325306 13.43433525269097 0
11.33369447764077 16.29974835530917 0
24.43865475634252 12.98412211492687 0
13.89422638018366 13.89623359086198 0
11.18451255684217 20.45748472981828 0
13.12197666913287 17.44321491518487 0
22.49188993405418 14.22125933957474 0
22.51908989765967 19.27296008369916 0
24.14571301331299 7.999318037505162 0
19.50706306782334 18.54164653875241 0
14.87973601848991 18.0376919529164 0
20.78593469004561 10.22284432606825 0
16.28371994953913 19.7010263589127 0
23.55744248933006 11.52232711774768 0
14.48094347216356 21.13687205413287 0
22.91262494047589 7.443305966858003 0
14.81167657781581 22.72351183852601 0
23.11925521915276 8.246237804970583 0
23.55403796118563 7.069230540132003 0
23.93549227008852 11.39832227060032 0
10.6296251737531 8.958751440011778 0
11.54842133036353 15.13296435286784 0
18.58055518269303 20.60449642880557 0
22.74841447704781 15.84003339725519 0
19.25959372417604 13.12407122217768 0
10.57361621274024 23.36693548020692 0
17.98006384517337 12.97713982583745 0
10.25733723250076 9.997880221414878 0
21.88746120980024 15.70990971795313 0
15.94091246259081 20.31108399150333 0
21.30970378161116 8.20700704382835 0
16.35319674381913 17.36246346843148 0
13.98371717056633 11.51560304343321 0
21.53561052257327 19.15491339797489 0
23.02544845088007 13.36008114977387 0
11.84833846782491 23.88799847382943 0
17.68817853665754 21.58391432464259 0
19.58812748344229 16.30740510313578 0
11.62673196118418 9.34825101743897 0
18.26075951545173 18.41999119458507 0
12.12984647033516 6.887051504092708 0
21.71821780692625 13.01416675887091 0
13.84411622948956 12.95610676549036 0
20.79986499368108 12.70287990268133 0
23.09900109020412 12.77611718372196 0
12.2757188547021 11.73547966908159 0
10.86117537411608 8.39963603609607 0
14.10025803819582 11.27319344619133 0
22.92119393967938 12.25045427030628 0
24.28370072364618 5.289182185826467 0
11.25021522891245 3.014765764194216 0
24.32135073582718 7.269201853172968 0
21.01133908921944 3.508070504474679 0
24.70899508319074 8.172171203633596 0
20.73073867568331 4.222779791871874 0
24.46196433516192 3.818188164196975 0
13.68429103859577 10.7183445291194 0
13.26748157116709 3.268217042503168 0
17.20742107412003 16.2126401131389 0
14.48531331938354 3.750000001665025 0
11.70959699890795 3.260312931394497 0
14.47842527697666 22.73048246548556 0
23.44169660719098 8.483299584878475 0
12.78105695356853 12.81596173785206 0
24.50151140239279 9.83896631462945 0
22.93894340599764 10.09873658492399 0
12.22994239351177 19.51445198058662 0
10.5659166584361 17.9246535904441 0
14.03763436694203 10.93752372800179 0
10.65769752098021 11.70515616255768 0
14.86331027326137 19.45406283481595 0
21.16285537886673 14.01223739350063 0
10.5390512124564 3.813923107402931 0
14.43588487701281 12.72922855950762 0
10.77340920581875 4.22236193388864 0
11.33003440634132 8.262246461725288 0
15.2673724736808 20.25707542609019 0
14.34698404958932 11.49334415493493 0
21.99781485523039 11.21756688746463 0
15.26367350658789 18.32899029446182 0
19.58063241783961 21.37134755905276 0
12.93448796935062 10.00716569016277 0
22.98180053733866 14.33275090839941 0
17.20110276105721 18.96582183670945 0
20.54007957872148 8.74660477564242 0
24.0911626675925 14.11849931761382 0
13.42863248720288 10.39834042745379 0
18.77331462822335 21.56940699284286 0
10.45235954088723 22.31523444920621 0
12.40755548802127 16.06125761365769 0
23.6548453213213 19.82948831331398 0
14.67689187726288 13.89316413507319 0
14.85685502956234 16.57832181868085 0
17.27462475847304 19.76837511917052 0
12.07743029602841 16.96004912660891 0
17.00817413063507 22.22712141579544 0
10.74177475167609 22.00582547313288 0
24.22714697486566 4.223211001257044 0
24.31946490746298 13.54033235074676 0
21.10934977663145 7.673392542179991 0
17.28269021038436 13.02203855497644 0
13.54439257923088 12.10988124487062 0
15.08317182032578 21.10754697405689 0
17.30937583371393 17.41013532279486 0
11.18783840903759 12.78595214515256 0
20.21385417082116 6.593903703074993 0
20.46308749252602 8.399192432863728 0
18.86116918170795 18.24724398875485 0
12.12728049535101 9.806458664304305 0
10.56920905904883 10.07250794619021 0
10.5756349227862 3.077927163981109 0
23.91123704912611 12.10856350960977 0
16.78309830555214 19.53689566945978 0
13.75614964169751 19.03524435251745 0
20.70909507074147 8.055044445528996 0
11.27388100905685 17.4720913780497 0
14.66185828667916 2.838141713148937 0
21.06306512325617 18.65411076544003 0
23.59589045982427 12.54973826301023 0
21.62323904153667 6.51994849389809 0
11.81870335006377 10.78857743866362 0
21.49716003322336 19.752089494365 0
11.44205757837659 10.48138486931865 0
24.2142732048875 18.34823747183835 0
12.33506163837085 10.76217628234017 0
14.82280497462692 21.50168796922075 0
22.89425631180308 11.46596904222336 0
21.80279725514547 13.80806195178922 0
10.77152392630799 22.6340505188797 0
12.04326462883179 23.37585623351909 0
23.57519133520783 14.52297601506516 0
11.29686346319316 18.4885582443095 0
18.21629062683596 20.28457340059094 0
20.79711777245097 17.16127566324144 0
20.05942766912441 19.67465544540057 0
13.63338506990111 17.6431016158035 0
13.81537145580969 10.36781683571292 0
22.58898254736363 20.15331129132027 0
14.23235043778099 16.22529946890782 0
14.50815779043445 9.627204250883276 0
11.99095105415442 10.30756037223928 0
24.15979719682971 10.23399174856349 0
13.82396379419607 6.1359565272268 0
23.01950295240332 8.774710353923197 0
14.49804204966988 4.723271571591071 0
17.91840836032156 19.90635569807435 0
14.55690222486757 11.96428571426559 0
20.55272175181118 17.8021920944633 0
10.73923863869017 20.82661289445582 0
23.35234962441276 15.95541172894322 0
24.67619749225428 5.234375003202011 0
21.50866865072297 20.33518145699428 0
24.55402419667801 14.00174266325229 0
12.13310284147304 2.988967655415849 0
24.43256985499747 10.83212556542942 0
17.88283261615297 13.34754481112354 0
11.96156975834362 19.71532296445388 0
11.99327298368257 8.77808352817942 0
17.44164963496835 13.89008620859283 0
19.02186408770157 20.21573433125172 0
24.53037836814871 6.907723376461104 0
21.64327528737842 11.35857225133156 0
15.1314163786989 12.8076348382503 0
16.50887339482073 18.58485950606353 0
19.78286846331567 12.96894924834305 0
13.52737495103493 7.106898309187329 0
14.18010584511534 18.2256898803116 0
15.48380484517162 13.03858531835278 0
13.53106540589031 17.31151446047668 0
15.22513820230463 19.16126699381081 0
21.85297689267219 8.387173580558144 0
23.71537265089115 13.79261715192579 0
14.12862542938839 23.11852760101247 0
22.03894746557181 19.05217200695948 0
22.81763837869518 6.792089459465239 0
12.17871680781892 6.457578480868894 0
13.01833572387923 12.2820553324946 0
22.06508144877032 13.03477753987122 0
21.54421404941291 15.41201654427667 0
15.59014087356658 18.91456903909434 0
22.06385859744327 13.43964305870903 0
21.49157907574408 7.115054882450139 0
18.78678212776951 20.97602084759614 0
21.37258860264732 10.29843679514542 0
24.46827724150721 6.427798517457513 0
18.75169086521105 14.0596511401029 0
20.36737691818917 4.474082754646005 0
10.67208424607409 18.72999690025926 0
10.5775992360868 13.87021974888692 0
19.28571427745271 13.87244897806818 0
18.0470129203567 21.38262333672601 0
20.45297500952229 15.47481609386017 0
23.29010694301465 19.05871461560498 0
15.90990948813324 19.11218963775669 0
16.43897774038125 17.77282161759584 0
24.56959118138735 14.89785280664145 0
10.46518108611127 24.35350018140172 0
24.63029938677215 18.35937499157944 0
20.82659348154772 8.458711366856551 0
15.73153764969544 17.83253017667315 0
21.95617248456121 2.873056872067917 0
14.06063094768159 8.537204718179987 0
14.24831820253715 4.218268514597657 0
20.8306514934183 10.56895044177219 0
16.02138467337288 12.95259548597536 0
20.95284574714971 20.70707628790622 0
11.12953134517655 10.37051494017095 0
11.03899865592513 18.68466124790244 0
18.24001201567426 21.69949755730542 0
23.59842370763462 10.5222785502007 0
13.4582439440724 18.70814782433731 0
23.29061785459016 3.260356923948437 0
11.00959959977127 22.32835810848982 0
12.05766257180066 12.39783143926494 0
11.75618587087934 17.5344456868185 0
21.58880001437799 2.843912756385139 0
24.22227596296336 6.921338330836551 0
11.90200014355531 15.3047372731952 0
15.84630854846786 16.45873808345388 0
22.73486460948164 7.176726866337255 0
10.52718347116985 13.4402125059289 0
21.63875815250676 10.95090754542545 0
18.2650279336474 20.7180609699493 0
14.37134153654599 8.795990361963717 0
22.11903438836035 3.523831637183913 0
13.02095132951951 7.471117741939663 0
10.59353955168454 21.08368328072378 0
17.11825116427934 20.67655490899537 0
20.28122051964506 21.21029733064553 0
21.8262009252167 20.079016277825 0
20.96204197548779 18.09391665997487 0
13.92255638573043 10.00207250762213 0
22.05639073990226 8.722784046927394 0
13.77864353654894 7.413670552746838 0
19.70725647929889 16.87885038297688 0
24.62842323175108 5.571619011475637 0
21.07697310789109 12.42087563316245 0
23.25800405226477 10.33958362611346 0
13.84345321838885 15.95631719914207 0
23.13214320232868 12.0234667840307 0
14.01781168352931 20.98817017685461 0
22.0093156501978 15.33094075734143 0
15.36622516691473 16.13752410706001 0
12.16139110577965 18.73617676348757 0
14.47596453511799 10.02983783398312 0
20.26368442141751 19.94205662242392 0
12.16760350620912 7.806100722870966 0
20.99349265572453 16.41290725605361 0
23.42128558706981 13.59091230585407 0
20.29170198455142 5.213788013520667 0
15.86615074248421 21.38629117626257 0
19.03414059522355 16.11702863278884 0
12.74530541754631 22.92039767061572 0
12.55192826356714 19.10954295709806 0
22.72911815578979 11.05915817563758 0
20.53023904851583 20.96517474850551 0
12.41417037745255 23.71978388792634 0
10.29235897428055 11.80476754605498 0
14.86854237397544 18.53095368249084 0
16.42857142937082 13.87244898555864 0
11.78563773803928 7.206974854498115 0
19.84883154273186 19.05955799945876 0
15.40034178939218 21.56932540957724 0
14.65732572936202 11.26920136248324 0
24.23708275639385 11.44309938860775 0
18.25441814098758 17.03404141793843 0
16.42705122189214 16.06281859684452 0
10.62960117625401 15.37959876350532 0
10.41829012586236 9.754456152019145 0
13.60797857614034 6.773894548958033 0
18.61407719310733 18.88807455233582 0
12.73276769030126 10.92024338668474 0
16.0123292662635 18.57737089181919 0
14.7625395077017 12.97571300204638 0
11.38059035855936 13.30248137522776 0
14.25173083848408 19.61037633587995 0
13.96278750068457 7.752559609205513 0
20.64226959136442 11.15040586082681 0
12.42746702259294 8.11539332991061 0
14.5091149219055 7.740509698997443 0
13.7060487949485 8.335336317184344 0
15.1657412177555 21.42618620219994 0
24.41169415897244 19.57151154964385 0
24.11311269567689 19.49196559856981 0
22.58538362233938 11.40960224993549 0
16.82650487639908 13.02592711084005 0
13.14520409259182 23.01853118856044 0
20.31767936181708 13.1235216908645 0
22.79958778281177 3.549706538868389 0
22.17537919504103 14.94436024754443 0
12.91585648456352 17.94354964041708 0
19.21850432861126 17.08085031331036 0
19.4329314210684 20.92946520554167 0
20.437220145695 7.705769564621643 0
20.45732643727663 9.803053407751122 0
14.42237878623952 3.077621212598812 0
10.88972237424903 12.00638058419652 0
20.32262658378033 3.419911236594207 0
11.42689877614111 7.024150001344546 0
11.74532772675098 16.58979109263534 0
10.5003675313083 12.09898560144165 0
10.59815708750585 10.42301201513916 0
18.26226594278315 18.78191548209846 0
16.58657783558274 21.3021980263427 0
16.530672558629 22.43944343159308 0
23.85994026440983 14.62390081111605 0
15.26088885113853 19.56396717687253 0
22.25680395596363 8.381896971937538 0
11.57855874045017 6.494430964343164 0
10.38729782238949 11.39946358782048 0
12.53659815274557 7.268421464962348 0
18.61541395135045 18.54338245511141 0
13.95757216768885 20.52608142132764 0
23.63071231294053 9.650284247244013 0
23.81784279064435 12.44194607230157 0
18.34684734363695 12.73903449149991 0
17.39628891266277 21.23430779901191 0
13.30515791776189 19.54209395870361 0
19.9665430721011 20.61091108166869 0
17.70881037160745 16.09910586119176 0
24.45834353188596 15.81903964862535 0
22.82321911462829 19.93481065310332 0
12.38963414603689 23.07069714859426 0
20.72822479686391 15.11523658501101 0
24.16336368559739 8.360909810811297 0
12.98747621612054 6.4590118866745 0
10.84562178913897 14.21864386216067 0
14.45717088487709 10.94223949471571 0
22.42584073095635 6.632123385918542 0
19.98883398094256 16.04716506911457 0
23.32952319911381 9.462880336433328 0
20.96719232527569 9.248412812218433 0
20.56885121614064 12.17442523690924 0
13.42103661686384 16.96553288929732 0
14.67228811102706 10.59159912245912 0
10.94825539433453 9.110036924860644 0
11.71688279951104 18.20253401135096 0
15.36544744675887 17.88459247939222 0
21.28302533995931 5.785398958708802 0
16.40424399441789 13.12055315449572 0
21.37896738933606 20.68518772246496 0
23.92258341126603 7.566784701594685 0
22.62795274283597 7.502592614227063 0
13.06352941723346 9.291394389978839 0
22.07161194767369 20.68389013571214 0
21.06314225961275 13.06049446150283 0
10.97377072590001 16.81821199327141 0
24.7043107295779 16.55574215208885 0
14.04247871434284 18.66677699645401 0
20.39119997918016 13.86841539371637 0
11.11351134875118 7.025445390805424 0
12.03853198572903 14.90729826191784 0
18.00365242092202 18.02511367513712 0
24.46218588787917 18.94576290628959 0
23.51859399139896 15.52255097860636 0
10.37894716833836 8.663310877085603 0
13.6928134827916 22.56994313973225 0
11.39165312287817 9.466117093729544 0
12.86471714274186 18.4315845755979 0
20.48860686170719 19.23088351469212 0
21.25868326015858 9.271979676070433 0
22.07422519291003 20.38196972830765 0
13.8007205692382 8.04803775045259 0
12.26621222826281 16.57028851499922 0
20.51997769467355 6.553178492921635 0
10.41504725056446 16.97966493877581 0
19.04198589214346 13.42977594314427 0
11.55211975089172 11.70524915831046 0
17.66790947574095 17.13018512080467 0
18.58546758875389 21.81995914675241 0
23.34814026138828 18.67749555844545 0
23.55409873638819 14.21899692359018 0
22.81726749499983 11.8545229479538 0
11.56724263923541 22.95279887051164 0
21.39332779184892 10.69458436471878 0
21.96571632394563 9.972890622016234 0
11.20365130774243 7.9501264307796 0
11.12355775787566 9.676663255508444 0
18.41916817833627 13.03664624275589 0
12.41297877906648 12.67259097269751 0
11.33165756272922 23.6340819045147 0
17.40208780802876 17.91377482369751 0
17.83542864540762 21.03672380829137 0
22.02570084568504 10.28795727856996 0
20.35612232013304 10.89030217802978 0
14.52124528659579 7.053232204224853 0
24.58806165277645 12.65730709473587 0
19.06155482281131 18.73907420931596 0
23.65898703761241 9.288980639322066 0
22.80714158711558 8.962520408754212 0
11.24971538750668 4.114543528849202 0
21.46318050818181 13.48836632097326 0
22.25587839290254 9.291624617507956 0
10.89774388451822 21.61073897915833 0
10.85453611559642 18.24349170614349 0
10.48145385073686 16.25949678664547 0
21.36475345005972 3.382217351557285 0
20.22636550795894 3.749999997728596 0
10.34646350314618 4.135494412729248 0
20.51468667962016 3.749999997728596 0
14.77363449187012 3.750000001665025 0
22.81208799014867 9.73379338538368 0
10.29327797378626 8.087790004919977 0
21.24999999741497 2.726365507238282 0
24.09019589771441 2.824419341254065 0
11.60714285618254 2.850196077491583 0
21.24999999741497 3.014686679347146 0
11.30066194434475 20.10199735219717 0
14.11778264589268 3.864753450499808 0
20.3502768355247 4.107142853838361 0
14.58131406557783 8.346319689860179 0
12.75756360748437 11.65730514044456 0
11.01237777035337 5.563748059623052 0
14.96930561822901 19.91969944174173 0
24.33266079311609 3.494121693754477 0
23.98720469113206 9.103458750555625 0
10.31540836056092 12.43625352743057 0
24.42696424765406 17.82559877972229 0
14.69569436809913 9.000149888516223 0
16.79617051339349 20.98953705304287 0
15.95266830950692 14.01121204977413 0
24.393371698411 2.764418573112404 0
23.39285713708139 2.85014827279301 0
22.71521989021289 14.78645379210568 0
11.71870185092843 13.92212006988005 0
12.72407618147798 23.7340285953339 0
11.0773838791011 19.50383725158314 0
12.9788473200665 13.44296319313617 0
13.37668172621896 6.519965694591893 0
16.57721834390709 19.91818195618477 0
21.39615218704953 6.771897354050656 0
21.70961609078836 6.890442575334926 0
20.8845085624792 16.05908835831317 0
12.90196737959084 3.191147260178832 0
13.19914933227216 23.37193280746646 0
10.55385707569151 12.68299390065562 0
11.20414119230427 14.45179278444325 0
10.83234037242224 11.34631182711166 0
10.61243349260888 21.38252758157134 0
16.4009177673681 21.54857620912792 0
11.26039405142013 6.095555386349797 0
15.53574600974032 22.01250402543306 0
23.66120644634568 8.228108085661932 0
14.12345202342394 11.80660596388703 0
21.923743823753 11.9304816421256 0
22.48402165101482 9.125536802854427 0
23.94955730905567 7.088768500902367 0
23.04472190818241 15.03646941039388 0
20.30636355486143 5.88860019919083 0
23.99328210198172 17.96365258731171 0
21.14329005220261 14.78511177024235 0
11.22553342228765 11.84465427100717 0
10.49493982110585 15.02506312424056 0
16.12450445576827 22.37041834157423 0
12.83185993068062 12.05146180738137 0
14.87331561765552 16.05487086221828 0
20.54697390353336 10.63881930693865 0
24.71579500877218 10.35113677244682 0
12.27061332113971 10.46162710665605 0
16.32797692407281 22.12362440471409 0
13.98823916421027 5.495742568976979 0
19.70831479847894 14.00448099246215 0
24.66193070573876 4.148236133018734 0
14.27832699985615 22.91674923259624 0
20.37227147035124 10.14799765822466 0
19.77782794212669 20.33320478705584 0
24.66336201724008 3.42858807243582 0
19.98797270625436 16.51317899300893 0
13.51950893561004 12.98640953703632 0
22.83022269721043 18.9226530200908 0
16.69176567978854 20.62053204886077 0
12.46929975708832 18.35890802518642 0
12.67350045865184 8.253855806321647 0
23.85747992716076 19.56737118210283 0
10.37185257721774 5.560370857954346 0
16.86014266801186 17.49577248920052 0
24.46651462099099 14.51045012507467 0
21.2674445623185 7.390107018440244 0
10.6789750141268 6.678976054960312 0
21.47088863094774 18.69522444906971 0
11.54859941949893 7.921079290477111 0
14.44783169424939 8.018826356386471 0
12.05314942174892 14.17709328827753 0
13.11393120950731 11.27211354179378 0
14.29601943744803 16.78130228222383 0
10.38053944455762 17.57678672962465 0
20.78469580052223 19.40164385144951 0
24.51978809026108 12.14435005277898 0
14.66370474069378 13.39586350515599 0
13.52716793946401 3.72901026976477 0
21.24004470559407 19.43184716162186 0
10.60672869124146 2.764332221935829 0
15.06446462364659 16.9953256608841 0
14.63361998138763 17.22760924249963 0
20.92650874431992 21.08030759979125 0
22.57542069014875 8.258962513100123 0
10.45206217708002 13.05252858374695 0
23.73350792134942 18.66379876177116 0
11.59927019918133 11.12518651296811 0
11.95831009278965 11.71378210791541 0
14.49199295480459 18.42722979067647 0
12.07700552083014 7.467543030408947 0
20.37451158668071 9.098135619944351 0
22.54734451619338 12.36545280902777 0
24.39902827777708 4.746313100738755 0
20.4176135204198 12.53300495435128 0
11.60971023474612 15.64585245423415 0
10.26987229294303 13.61627244080303 0
21.33869862448591 11.11995086393544 0
13.36173146292117 20.28257602482886 0
24.54954254087018 16.2556579833253 0
23.65756115088045 15.13136077802721 0
20.33814171371591 2.838141713779316 0
22.62051972837099 12.7808071806797 0
24.14737683466622 14.42081782159507 0
23.74000976648543 6.430888285501885 0
13.4194979247525 8.083129414191704 0
10.52486640851553 6.42818469732666 0
19.21136568687825 16.58944315752659 0
13.52915080240796 9.052672286223569 0
11.58696776348486 14.28996789766738 0
22.28757898055309 10.03814031278289 0
14.5072160280427 9.235457745770615 0
12.54067992354257 9.848667907298186 0
15.1795453783409 22.85106531187844 0
22.17472359465086 9.025116446880993 0
24.64328181246435 13.30824946744233 0
22.15688699766644 9.694425997580032 0
24.50256472104784 11.32208539993746 0
24.18338659629 16.04071671567163 0
22.24720504497751 20.07824047819595 0
20.0459884846152 13.78054441084572 0
13.88920978240989 16.37109069075362 0
24.66606433547084 13.69876682510175 0
17.33976465808784 16.72660038624626 0
24.1261081608482 3.863671285725029 0
12.39920616459705 9.255665759958802 0
13.83808940592186 16.74039719874329 0
10.5101056231118 8.377557873832304 0
21.29508149709513 11.81334356464102 0
11.39157925498771 19.26935409670121 0
14.68248600486211 11.66577797944479 0
19.63697932052879 19.45455902459934 0
22.82869723313937 15.45035619634297 0
18.7718144372109 19.22379843944303 0
12.51719358810109 8.472478238866266 0
20.11829897005256 12.8328747062066 0
21.24431499756432 3.67558564965327 0
12.57990967605967 10.62871357878424 0
15.60939336957565 20.10774232067105 0
11.20746971810661 8.511790858604517 0
15.41227560550501 13.95029924686729 0
11.92154895749671 2.80728948568821 0
22.40276589205435 8.056735857918921 0
20.24529652981177 4.821428565314405 0
14.21552362709613 6.897350850465217 0
20.50195795144976 4.723271563929432 0
23.11831636147097 7.208561502459162 0
13.95826429908005 4.703537065498053 0
10.38905003138935 23.69665938370164 0
11.05434384002465 23.88166459023173 0
18.40534640191515 16.18459337698059 0
19.90895411856575 18.58731108772951 0
22.68578412487313 13.72303284216096 0
19.50169504290306 12.83186553369652 0
24.2390347624055 11.11576849310757 0
24.06346959976597 19.86710107355016 0
11.61302918256916 8.585369181697176 0
18.13750648353316 15.86143648905237 0
18.32017670063122 13.89343365893288 0
14.84058320800498 18.9915515291111 0
24.04824475048192 17.56079241096478 0
12.2395348353993 13.00803626583231 0
19.12938536306865 20.83025214625029 0
10.82170521277901 17.67069480141529 0
10.46412811953292 7.742605889464076 0
10.89213722687481 3.181433144358114 0
23.11066078581275 15.70490938863156 0
12.8470916801318 8.565006956093459 0
19.44747555006415 20.20404434975787 0
20.9386518881914 17.5821222250818 0
23.0794802594114 20.12700722960663 0
14.30438393978872 20.39464435867488 0
22.17967631704535 19.3894633051624 0
11.206794942195 10.92274470888388 0
12.15239795472642 12.01930916910718 0
12.7495669134315 8.018928520536473 0
23.87526293263051 9.9325334196267 0
20.60307288729203 11.87394925173988 0
21.22901027002277 3.972832060567199 0
10.25362853757866 17.92580506065933 0
23.73836423415148 18.3104964206096 0
15.2205270611257 18.74591509407555 0
24.10546823630314 4.997009685183942 0
12.7613125563589 9.140582733378405 0
21.54714972956375 8.665984802778027 0
13.32864942756041 12.32967110110579 0
13.0820780254317 13.88638037895463 0
22.15844766713315 10.6209573865369 0
15.55006735147681 22.8456024085072 0
11.50152143895389 3.678026059803094 0
21.7691001135144 20.62977484783493 0
12.07445015835627 23.67753680403154 0
23.75539548976981 4.12227907479997 0
11.91103408708019 13.14748823725925 0
23.49880221885684 3.678328120172794 0
24.49402676976962 15.3354113086138 0
16.23022975324928 21.31080727886632 0
18.42950277835908 16.61031641839263 0
21.21400597306049 12.76338109935662 0
24.0320194101456 12.95506559834245 0
21.58559317148051 16.23183238661853 0
21.15629326080538 11.34939035793999 0
13.87257588122531 9.333802826570656 0
18.67332610104027 20.29018530683599 0
20.78605111192353 15.59642516126789 0
22.4639488306989 7.267990719324665 0
13.81146414324307 11.71768261070731 0
23.74999999031807 2.726139933343929 0
21.17597284833659 6.135953947955078 0
13.81865264944025 23.32835191060454 0
23.75951654190877 11.76094879280187 0
17.65774804073878 12.80089785230248 0
22.98551341394171 13.6870313359044 0
21.34348382311766 16.55288032613385 0
17.63743443726033 19.74417756948752 0
21.05679687775965 9.456863153072565 0
24.61806211000737 7.800141120918555 0
24.26182117237855 19.23314397542266 0
10.45358263847411 9.238866712321528 0
10.97742184529171 21.18726390185263 0
12.25895556364728 13.43933857982465 0
13.51912700731069 11.79554648546116 0
23.73808739592116 6.091743791971965 0
24.10242134305484 15.37337112614322 0
21.56772883520954 9.430637646638687 0
10.30802620419208 10.6513126202543 0
13.40982502535903 10.76383876763218 0
10.49541801272016 6.8690439289596 0
12.69910295096011 7.494393283653545 0
14.67376705240614 8.673948912046262 0
20.48915000462117 19.6381725112205 0
13.37558198167574 11.06900109757211 0
21.75130425865338 13.3180617304792 0
13.22922477832359 12.05172078548337 0
11.96091412263286 17.88604383845069 0
21.92110043280397 9.51480096143683 0
21.12909971427564 20.06177638591664 0
24.40749909421564 9.549381060182657 0
23.35582223108827 8.824205131473775 0
23.39751907502956 16.2888622621799 0
23.88097572830318 4.388899550005872 0
11.11666026378452 13.09818639828447 0
18.35436270965247 19.4064325335692 0
10.27707523109196 6.301790193357287 0
12.08474630958446 9.487276145259969 0
11.08540501781956 7.618819578354358 0
10.48898158205122 19.74599576920274 0
11.28963931193988 7.320865989298278 0
11.26626284787891 6.420969871983427 0
21.26388106058802 18.96710346792388 0
12.47402944393413 6.956489395085992 0
24.54695203828962 9.2690316537949 0
20.82601521285429 7.683135837305629 0
13.65530746246631 20.70343840877171 0
24.72953513940776 9.979926507595252 0
10.30601294671254 11.01682022094449 0
14.73780021334705 20.62737703509422 0
16.23083215771354 22.66559654792402 0
14.17600547354967 10.18221528773971 0
12.30073409474483 8.939792560422081 0
23.37087185745351 11.01159923016857 0
13.31931356475754 22.68088593152674 0
22.38753746507616 20.48041549816237 0
10.26534297443571 3.110535452781288 0
20.96404272699836 12.028332108822 0
12.8862234576568 17.00965191203155 0
24.7081446912934 18.0025738880864 0
11.05226727513966 9.35984026419166 0
17.25716112224289 20.23920370785929 0
18.15133510786127 21.02439668047022 0
12.24063291552888 7.20354776701403 0
12.5137779992975 6.62381723490475 0
22.23686914592921 15.58057452527364 0
18.29227483760144 13.4282846813149 0
21.14479387033063 17.23043273925989 0
24.53808526911333 16.84111372598169 0
20.89175336861452 3.863099313369499 0
24.63065126440358 5.957742436388994 0
24.34362039695825 13.83720680411618 0
24.68116945594218 11.05868905351903 0
21.83629313261279 12.52668597054925 0
20.57249116824859 20.61295764004598 0
22.64198379759914 2.802687497463006 0
14.75421077333863 10.89285714292684 0
16.82195184104612 22.44915856980227 0
20.89455301653382 3.18040565591998 0
10.27914923951827 7.446119062942641 0
20.46361790853732 14.69015549919948 0
15.49087217122395 13.48832227700053 0
10.25645936708656 13.29696689493943 0
11.69276610291385 23.53075276586426 0
17.86413903902963 21.99168306361701 0
12.0116367485931 8.488342946144371 0
19.29233081120499 17.99823630090762 0
14.73970363067085 9.393270093808553 0
21.94828890002338 14.32205848371622 0
13.06024040979894 8.013748398149632 0
21.46864178804949 20.02307875900643 0
15.3416096456448 19.9136398351036 0
15.52659924146604 16.87469962416382 0
23.67592586812384 6.756983557535999 0
11.70547043230858 3.906694619199432 0
21.94757343706672 10.85953967549739 0
11.86865385347673 3.600396191032664 0
10.87443187353194 23.06231774630459 0
11.7331394718464 18.59643994554808 0
14.55307787129915 5.578832807009082 0
20.44692212660624 5.578832793942161 0
23.65006239189231 3.375224254419383 0
11.17959857159807 12.15226899769802 0
12.37428212327265 9.582228906909938 0
10.4948785883793 23.00908314843782 0
14.7947867693543 6.262574312992465 0
13.04197387200133 16.59705672778999 0
14.080088755313 2.822626584839552 0
15.69314251852219 18.21162810140488 0
20.28666309247934 8.03411227499031 0
20.20475125418964 9.820504911951012 0
19.58095531830198 17.23632162629648 0
11.85576707053191 11.06620108894893 0
14.26740164502571 5.553126543228275 0
24.74178926233865 4.86979166982545 0
11.29579100157308 22.58550353233928 0
15.94903983431696 17.04747129262593 0
14.64619684590681 12.30698140630156 0
22.34902924380925 14.56294818173931 0
14.37500000127008 15.82721709350491 0
23.26011223202877 12.38814179216239 0
24.71718494270645 10.69951203426873 0
13.27896286129952 9.084346510430196 0
11.35515947137376 6.736053459501985 0
10.47604982197339 15.80699287602933 0
15.47609633726813 12.74486929630958 0
20.71884393156494 16.72458475194094 0
20.3798302048476 11.6140561052886 0
21.30264520218787 18.27691640105021 0
18.85355422900524 12.9624903908972 0
11.75929306031099 6.756853399138689 0
13.96780978488616 9.750464303193839 0
12.50998409656517 3.498355076224505 0
10.48502500481094 14.27708300090735 0
22.52105203312571 15.62452592684153 0
13.17754645294334 3.736842422466633 0
11.83841791922841 6.377272159675663 0
10.35660949571055 18.97923966252393 0
21.09181842684412 16.84958371624636 0
24.60412770530853 19.2528686009126 0
12.20410258583946 17.43096823310695 0
12.13907476903466 11.05732998409432 0
20.74875471024749 4.862308003156135 0
21.79399667772982 20.36029337341652 0
10.57104407864295 21.70011935424388 0
20.60311479079605 16.33238621303835 0
14.60907507308581 19.77998261976201 0
11.02208598761206 5.88682875519164 0
13.39461095666663 15.88304315050758 0
24.43085338857964 19.91332095671782 0
21.39468993545323 13.12335475266159 0
20.52477012793939 6.177082924982049 0
20.22633825253055 6.268092283597267 0
11.21251048669134 17.07279804658393 0
13.91438225174124 22.91335393498562 0
18.95849901619131 19.56963914153082 0
14.01822248633887 12.70822986266316 0
11.50401342247361 13.03920078358107 0
12.07943728400558 15.72648471881391 0
20.88614026424372 11.38873467809252 0
20.75400681464975 10.86914509273906 0
14.39616040096539 2.761687451623918 0
14.54181824408208 22.31722522219752 0
15.80654116432958 22.26982972631894 0
21.28876367785987 6.4434920025318 0
10.28444020932743 15.39198753053891 0
17.93489808403416 19.53515190814969 0
15.84171653924444 15.90443623911499 0
23.96255659003641 10.6032402151908 0
20.79604555041385 9.00756992122681 0
10.33737814660367 2.837737589468337 0
18.49967518304738 17.73122704117844 0
14.22783912227094 12.41143007567667 0
12.46889083717509 13.91999935196081 0
12.67221677440449 17.67107007264692 0
23.5208756057209 3.125141847405354 0
22.87124706076142 10.42481767986527 0
20.75009435564467 4.54933730280777 0
12.86905427241827 7.742202677588915 0
22.18245578395618 13.77374215840912 0
19.99601872202462 13.16563923850496 0
20.62186388986067 3.985755489202083 0
14.71692449680142 10.19944068677803 0
14.16866246875711 17.61931512209711 0
11.18726095498996 10.65762098120158 0
21.20543668727567 19.766928153214 0
10.56063029995227 6.162566581176279 0
12.25637419037065 8.37206563423767 0
14.13815362113899 13.02038178498919 0
21.44749768034917 9.004776976680281 0
12.98445577587236 11.51118948914151 0
11.44983403719139 12.33074012511134 0
21.18009554969182 17.85325480395344 0
10.26661025066075 23.33368448930461 0
16.29078791320342 12.76267831950517 0
13.1475838157189 13.03010637688939 0
22.85991976557393 12.54883669062761 0
11.79568443678446 8.988474175759864 0
22.3497069732845 11.25739103397328 0
10.37289123603566 18.29241714961359 0
12.19745834574934 23.95991749848185 0
12.10206003029323 13.8227133244129 0
22.8965571090329 7.870766821717683 0
18.48803586906119 20.90937824850887 0
20.25887154588771 12.26064694480968 0
22.0728441341187 7.923529932587499 0
10.31844281342561 21.94908539118178 0
10.66807324937385 3.48678284234914 0
11.76169380547887 19.43854135359514 0
17.56262814690851 22.1513470868784 0
19.27401834941304 21.57205509341139 0
16.65347696805548 21.66315580300361 0
14.80611473724605 6.964285725092102 0
12.85021495020879 10.32609455676253 0
20.35888130153926 6.952054335648251 0
10.30026174276025 22.63872663074472 0
24.0601784577015 13.80156520359921 0
10.99679493423468 4.643035276093018 0
13.24241421490671 19.90422884845737 0
10.31505853455357 24.0489072711191 0
14.49880917843272 23.10840465005854 0
21.19554774246507 14.43738226960867 0
10.73267079916875 9.280476276951944 0
21.61085673810974 3.769645472339918 0
13.77206685411047 4.129182686604243 0
24.00199597372015 4.640626983489517 0
10.88279911659142 6.294519094569965 0
20.74451566042079 6.893769487393655 0
15.17975716135563 21.80350431451804 0
12.92622316925336 8.234621541224897 0
13.31718591686273 17.86847822080694 0
12.72965649567833 16.33482255817346 0
23.40194856013789 20.1920531511365 0
21.77653274131534 19.47680392804894 0
11.16168240541097 14.95538763063186 0
20.16501330873096 13.40345876734732 0
11.41316553131885 9.778365897564399 0
13.02611631668498 16.08444534042046 0
12.2167426604203 11.42577139991015 0
24.31884893155652 13.23317793357994 0
23.9851609615508 5.578918386704609 0
14.75470346758471 4.821428574047701 0
11.0597209665739 24.2422566041154 0
10.31525365284218 20.07696301171114 0
20.22405539984071 18.94323246753413 0
24.81707397337849 9.244791676402794 0
21.04064285137202 7.97675618562952 0
19.92038056346043 21.37273715300666 0
10.88040117789704 12.59405085157886 0
20.27729645766367 7.382842251748993 0
15.87010515957755 22.66859414886904 0
12.07985556759924 19.13765220096879 0
24.44123679846387 5.027334328955325 0
13.03030151024089 12.59538228613759 0
13.40683365852045 8.779308467731475 0
10.93689776376202 13.63717568907751 0
10.23110466284937 3.777336698972346 0
10.2630868870673 4.860172550854692 0
15.99132837804468 20.71446193966911 0
12.15740426014202 19.99583500626641 0
10.93497540797248 15.33253329703107 0
16.60988671667212 12.76732992074069 0
15.06219392086241 13.6802919440697 0
22.56378620519578 19.70184138690949 0
10.68311523894943 12.35388650530059 0
23.64360764983338 15.93979699098119 0
22.42454828895271 13.58112706164925 0
11.12099475443722 21.92756940032069 0
11.35101937343818 7.699643462867856 0
23.73170798432233 12.76314694812337 0
19.42964346110953 13.5079719393016 0
13.157479114306 9.701886036304412 0
13.7105716023659 12.74343438691719 0
24.62075452051537 11.76308976132571 0
14.2093199408211 6.624484753302786 0
13.79799243019201 19.48805321117831 0
24.74495393304381 17.72729453329807 0
22.31291587501228 15.94430181053668 0
14.70829801507637 5.213788024406144 0
18.91128009349955 17.86913548885612 0
11.23865502555188 22.98970782646632 0
23.38086646679402 7.921824487440963 0
22.19077401050994 7.223133646214859 0
23.9790368497849 16.94497447858909 0
24.6845403297449 8.998383737635708 0
15.62420788652652 20.5142506133813 0
17.51777073255419 20.81114252281752 0
21.30552901051174 10.01511732320546 0
10.58550114958797 9.508658339089964 0
21.01176083448662 5.495742557612687 0
13.71697779231616 5.785377355498041 0
21.77263649055712 19.78910130400081 0
11.95695576719627 14.5121055887085 0
15.0098129446379 17.52701848066562 0
12.78506128806043 13.76374668537799 0
12.86706876037246 3.521844400309224 0
23.19557106276347 19.45029968901157 0
23.88197111518368 13.54117887974788 0
21.6422581767191 11.76492946699376 0
14.17045856107909 6.318614720416534 0
20.86724390294421 6.349254628207296 0
14.1428094382932 9.058028005976997 0
24.37420758070663 14.20540434993739 0
21.04634962005915 7.092289849064762 0
13.6585219707188 8.610055110476035 0
23.54837545865798 19.4174496236557 0
11.63848133586739 22.61865403264251 0
10.21165949562376 19.73767960437416 0
14.64972316324377 4.107142859291119 0
24.80225726600245 13.98437500859404 0
17.1199892318396 17.69600755244473 0
22.83258081507501 20.3659046597693 0
20.12707115234772 19.30074571992258 0
15.58763841494036 19.33047097234063 0
10.91003221559439 2.824346978522291 0
17.11963504026178 21.054538250242 0
10.97279785509508 8.773429933927344 0
18.74999998662868 12.70836442437949 0
14.67588578459526 3.410654724508285 0
10.76703532646204 7.700269602743584 0
24.07101132126805 8.732901307125791 0
14.31959434241554 3.394553013756999 0
14.0387677002605 3.180678643165668 0
20.91065472238235 2.824114214655724 0
20.68637204468801 3.463006455590198 0
23.6811508454546 5.748381048453256 0
13.67342214583612 10.10304405116529 0
24.1086070388112 3.181748846792032 0
20.65823680120955 18.85126898996134 0
10.2556564570875 13.95563521890883 0
17.60930658421192 18.76712966348686 0
12.49502233903184 11.92216156969151 0
22.09803261946618 3.191147258303888 0
10.55728226154358 4.42825138394491 0
17.50272638090112 19.31229350312865 0
10.33202893526082 3.43138536075339 0
13.88618329986735 7.03981277594082 0
18.9601934817248 21.76694412876439 0
23.13151648832155 3.600493831538417 0
11.52231287145623 17.84796437279849 0
13.85702515057705 22.20591731797284 0
16.96627131093164 14.04672706222914 0
10.34646862727048 19.38645578887103 0
12.53096210113662 9.002461382996863 0
11.3608754763393 24.24430572110432 0
13.50117761314275 23.57171469776361 0
17.19644236646268 18.40757927719373 0
24.71616837976033 9.60397881013735 0
19.48414454171337 18.90443416711297 0
15.74372219007852 12.80022769695919 0
18.03571428190872 12.69818993561667 0
20.3072996214111 18.0015409530594 0
23.60883588831828 10.20750438091751 0
22.12857274444396 12.21241515906011 0
17.69043979337604 21.30127562349356 0
20.55494383368724 13.462061057775 0
11.35020992852571 3.375215432389915 0
16.51785712157891 14.23703750502154 0
21.07635674108555 4.296929330214639 0
24.28054668873834 5.658651141458011 0
10.34734999630263 20.82661289445582 0
20.12517444045184 14.09455027589402 0
22.78679596150877 14.0430001072116 0
13.44330660538659 19.19172277456526 0
11.37026678412222 22.28184212570163 0
12.24646167232742 15.24999999933863 0
20.52255107091133 18.23014102703338 0
23.81363115400233 14.04881790727363 0
12.10320414098309 9.14508373148837 0
15.0185975064039 22.40963916810213 0
14.69384125379927 7.354882324778337 0
10.89185081144431 13.91951310075814 0
17.37829572971636 15.87453701774096 0
11.2499999989096 2.726223836598129 0
21.63257294298115 8.034696120045849 0
10.29915232159229 7.094922579758611 0
21.62055620632598 10.11303364588266 0
13.41119997882051 2.843912755281469 0
13.51939639524937 3.12547107138811 0
10.36994509673822 5.943102023890293 0
10.86128208034044 23.60635617266408 0
23.37923554487455 9.154123034413981 0
12.82309249602964 13.14853100828195 0
18.72185569223357 17.06413114163211 0
10.56116028159436 5.023328330661185 0
16.93687348389417 20.00174560265736 0
17.92057795891661 13.71082779404279 0
11.82956430518002 7.664764009475838 0
21.52049161327374 14.16307782069889 0
22.68672388595261 12.1003941044647 0
23.03557608833481 6.451153975361163 0
21.87506165002692 12.80244062525722 0
23.65099179770819 11.20136712053804 0
22.69752888385963 16.13620610821802 0
24.65721855277343 7.443832211991673 0
23.24751353641154 11.71245364475569 0
23.64773493548613 18.99329084721278 0
17.6990804519144 17.5924851042607 0
14.75233446512718 12.64851284536696 0
21.86870605328855 16.03119349286603 0
10.82248261159194 15.05935130476988 0
12.71389957792427 2.837657623894553 0
22.28641289222414 2.837250602188418 0
11.74544428396059 23.22255218714054 0
12.35809403944029 2.802660253908013 0
17.53286961464155 21.86819835813903 0
10.29918697759261 10.28340479065261 0
21.6191040979104 20.87052997499904 0
23.71404023040267 16.63004212201309 0
24.6172017876824 17.49067700265707 0
12.26026748378898 8.644992384330349 0
23.61017177945826 14.84375296235611 0
10.84098852881224 10.21126899697197 0
16.9617686862284 21.83353614670829 0
18.77536704770797 21.32059169494372 0
23.85657476677127 10.26916796323536 0
17.29504652380786 21.64312311961113 0
24.7384449115999 15.14507904912001 0
24.16615730845987 15.67327336742672 0
10.87590442248457 3.863909999168362 0
16.69986220544022 17.13357234000676 0
10.87572463671985 15.6604481288171 0
24.11582619098115 6.300556595074835 0
14.31542547712033 8.466773812152159 0
19.90911691792149 17.3180248187027 0
16.42115565320562 16.76513656716305 0
24.44702941259384 10.12167699261235 0
11.60004857648412 20.37057517901141 0
23.00299560852869 14.62392065096074 0
10.32296514313566 5.221774189507122 0
12.04743678528363 12.7629312557808 0
22.70403663147337 15.10309291127636 0
20.71287880923249 13.11108533293788 0
12.45486499190096 17.005101136234 0
23.0685470402958 11.13697599635999 0
12.21959050957351 10.11938377351103 0
24.72484453997578 7.13074586599252 0
11.38749305774971 10.16339987750164 0
23.81863078577554 15.36405278245396 0
24.06581124123158 13.30484627389415 0
23.83701346345847 8.45726577007063 0
16.93545805990559 19.15880841781758 0
20.30890970307752 9.50056210064048 0
22.51942429517439 10.7601400506215 0
16.96428571286855 12.70836442144615 0
22.01934930565425 6.457218904199529 0
20.56441182554592 10.42045528673142 0
21.41783776868382 13.77598374189758 0
17.46521947136638 13.42129834321541 0
16.66365954905838 13.43589008833901 0
14.36328524078943 20.74900485704665 0
20.3078929928781 11.95294739113421 0
13.64890403908256 3.375067805637936 0
11.05061372912261 22.74224403931017 0
24.70183046331113 19.78708306734465 0
15.41826106235672 21.20948362956662 0
24.219167175395 12.04781711436329 0
20.76267918389896 13.89786429105884 0
20.15358692949445 17.68004394839586 0
13.82707615235443 13.2915793180879 0
11.49702186165289 12.69764963908607 0
14.51796893448069 21.78079223844249 0
21.1070138473419 9.057727692179006 0
10.71759169935599 5.643461937347748 0
10.73573008516876 7.033843111878057 0
20.60703052946918 2.764060039515344 0
22.1899342290316 11.82156168290341 0
24.60074781371255 8.678330627832219 0
24.73524762713329 14.63536541980794 0
23.51399376966216 13.94405406347228 0
20.79831540603164 6.618593101428315 0
24.01450481044632 18.57319257516547 0
23.74829123924366 7.901530387541993 0
21.85489762864255 7.180464742870642 0
16.27035017112672 20.09335394100054 0
18.50775403026203 17.37574435648055 0
16.04821832619792 21.04940244759713 0
18.94076215526323 20.53759752693755 0
14.36101390970969 11.20924428850651 0
13.96878107043553 10.66087922896617 0
23.83268140389142 5.293178842065801 0
14.46865197269893 21.45890771970477 0
11.23416589776589 9.062728376314796 0
24.69854466177807 14.28697086880459 0
24.06011268645308 18.89503594360924 0
10.96767176610711 11.67002325024876 0
13.68759412285646 11.52210270448532 0
10.91325217355713 10.94930027171132 0
10.20999391144388 9.227276938404723 0
24.66286915696262 2.837615174506807 0
23.61346944513933 12.28052323074875 0
16.10614585773816 21.63336384865166 0
15.69068491089686 13.748155024296 0
15.73103083136562 21.72233320445256 0
20.32653764815884 11.25949438028911 0
23.1069466420327 20.38701296182249 0
12.10779129736133 8.164105183786226 0
19.19387782694268 14.20595635901372 0
24.77055873383324 3.782866909465933 0
11.96692699870967 22.97246152923744 0
12.22352382987525 22.80527662030087 0
11.17602738190326 12.48820794307218 0
10.25588097888468 16.76384926950816 0
12.0190370332643 3.243143799206743 0
14.71720187068198 8.019990667376865 0
24.34510879386109 7.69813988399974 0
14.30538217663564 14.09066608861019 0
10.60163842854701 10.79014049700464 0
17.60668463108998 20.12076409181368 0
17.05312230881302 13.25228856569009 0
11.11345928276276 20.85013874808762 0
24.34263794411565 17.53719502369167 0
15.18712802592713 20.74406749817603 0
10.78681572703561 24.42809522496498 0
16.86610691592799 18.75069662756817 0
20.24186126406797 20.83193967398775 0
16.31329574851643 20.49038868252386 0
14.87457689670537 23.07162156146948 0
10.20879097100531 12.11693545777897 0
17.3095162205687 12.70626016574502 0
10.910460248238 16.447440140678 0
22.87980989181461 13.07513570975889 0
12.37896014875771 7.497873750060467 0
10.283524614344 20.46370966743479 0
13.4633230716538 14.07117715211309 0
10.29529947726732 18.66353230656284 0
10.83217633798585 12.91018710941064 0
13.14699527391971 10.47658850063238 0
21.16280285135693 20.42301498048995 0
10.29656472744932 14.6559121171044 0
10.29125378552933 21.19539913128329 0
10.27552547690291 17.24986572938919 0
22.7922070608765 8.524089333682872 0
13.36562342233027 7.419708585454533 0
24.79745870055914 16.89259513996281 0
10.74231130399174 22.3314453684612 0
19.79189501976149 19.93080962020913 0
21.11060473533287 15.29356898964886 0
21.64885320158773 7.411494665630562 0
12.84629773870537 7.227022991532387 0
11.13301489918776 13.38551757013838 0
14.62963120706501 4.473438291549198 0
10.28307302946183 4.503730765163676 0
23.12112275548957 8.986517897380736 0
24.71623065812256 4.512898765275855 0
10.2753531295162 9.479233213008683 0
10.93564796763553 7.345332392677404 0
20.18205554055576 8.392857132988587 0
16.92322025192565 20.35918489545324 0
11.6990722821441 17.13258828372124 0
11.37921170372975 19.7132248059132 0
10.78789690762224 9.827928024600611 0
10.3210337892291 8.9908654489802 0
11.08139895122948 8.225219618518606 0
10.89597613544385 4.994883582445275 0
11.32061579239935 5.766415158562473 0
20.46318981206905 14.26700027323933 0
12.07153520026169 10.67079357936906 0
12.61962512369251 19.4631537852799 0
13.85279390546366 21.28815908197507 0
11.0917924306537 11.16545648139662 0
18.64070596998361 15.88654234394612 0
14.69460152427199 5.890092176094329 0
14.8259129174831 6.606797557744994 0
15.21110826291393 22.13652538602616 0
20.47465514994493 12.85569699974928 0
22.46843182285432 14.94682989311049 0
11.6318225846751 24.11282985975695 0
24.70230207511146 6.304241668660013 0
11.72172115013186 12.50835021168698 0
24.6443815268175 17.14402837008532 0
11.49914744796113 10.79362661889675 0
22.46692580660053 9.488678562231726 0
11.90020552219643 10.01808671220981 0
13.18529069041128 10.1850591956591 0
21.24396197720162 16.14035554207658 0
16.28464225422476 13.50797194154153 0
20.98151232307677 11.11706122229466 0
18.62742389783032 19.58023885749063 0
15.92589133057555 19.51235143125354 0
24.70523070571793 12.37584251314823 0
24.69296766429649 15.98412928178195 0
13.96848351607429 8.286715576436444 0
23.02790441155107 16.08438233285196 0
22.96841256319119 9.472384553023232 0
16.99339282100869 15.92865165475495 0
15.93855919983464 19.90754547558061 0
23.71551272404791 7.312200658924169 0
10.79185535230322 19.7012516182259 0
13.99095192018203 5.097406088556507 0
21.01199173261068 5.015141380156368 0
14.2571825984761 4.884549050833888 0
12.48816427636879 11.52747168666318 0
23.25721809806574 19.80651262904679 0
17.85714285031339 14.06498105623528 0
19.11573182187809 12.78185171291178 0
23.979133570273 5.886567575443859 0
14.45243927209113 13.09032694296511 0
22.88723394713761 19.32973756450398 0
10.28470009278356 6.643385563384895 0
24.73987936032653 12.90508792490726 0
19.21671409631687 18.36009166856747 0
13.86872935117506 21.72012770928785 0
12.56835074045915 19.90504348302078 0
14.23931440638867 9.323874494090015 0
20.18298955488477 7.67857141495776 0
23.15365322130506 7.616034982116849 0
13.73657089140742 20.24579692274123 0
21.9645458575984 14.68376096389197 0
10.84328469641031 20.50918429062456 0
20.98343404191028 7.413832676983056 0
16.28025816831124 19.30647714476294 0
12.75530976836091 12.44187662409355 0
23.27469253083637 6.793857709452756 0
12.95267207082762 18.73964538095898 0
19.28459834472732 17.60207697874635 0
19.62289800421973 20.62212986422918 0
21.92149011581605 11.61022528433141 0
24.69986264735699 15.57227030210705 0
11.33641301170504 11.14576337609191 0
11.42868718540853 13.64233361105677 0
11.60603985012735 6.138133480430633 0
12.07487496729923 18.28508013525985 0
23.3934519399183 6.146203736372975 0
21.78582267331448 7.746917251621517 0
24.67512279687673 6.616225526720598 0
13.41798047340372 6.13934526181743 0
21.58214752035438 6.139206339819102 0
23.75218100412511 20.12266177595391 0
19.37517241613286 15.8816561691257 0
12.4790548842126 10.96042737087833 0
13.21794494645925 7.730334751937981 0
22.63806189412003 10.0686597214456 0
15.02282342391386 14.10840279458252 0
21.3501979027158 7.931026737713713 0
14.91430142975893 20.32986851236027 0
14.74020936447077 9.899867983843878 0
18.26538419008371 19.74876207883031 0
21.53821805960632 15.85990709441927 0
23.28084100942329 13.18125984802334 0
22.48457974617701 3.507435537380273 0
14.80471998281642 11.9665862118299 0
12.43935252523732 23.41555125913998 0
14.12977512348302 19.13196818785481 0
24.20623837576987 9.797400456817574 0
10.28130575912453 16.52903629814552 0
17.29684979545143 22.29260581486334 0
16.80485968928701 18.35481878415245 0
21.48925588745156 3.119841216758939 0
23.07848429987201 2.807286518610733 0
11.33701998079124 18.14910530501275 0
14.20566770491179 9.872753297746698 0
21.54749301493511 8.363273307471228 0
11.16479911374775 3.756021304841994 0
12.92649918377235 20.10981640398717 0
20.7654691130262 12.37190356718526 0
23.64898336064583 10.82908761345242 0
10.18746181655316 7.762096759312182 0
20.47015920029396 17.01218672404348 0
21.7606198144032 9.759088804579264 0
18.47597629380986 21.49501605970979 0
13.14543701723677 7.180054670319683 0
22.37198515700905 18.94922797246626 0
24.27437533266347 9.224263166740027 0
13.71609251984789 6.439911139608252 0
21.22357814557923 8.44965118176644 0
22.54274811736494 11.70174140819894 0
14.35120958494609 12.11486176819687 0
22.72015139805153 13.42403301854231 0
10.29291478460502 24.59424781954277 0
20.24244217544553 8.727939130404156 0
23.2615008697918 11.37291844148671 0
24.36929935239072 10.52864015562151 0
23.28772875524524 14.39331924744922 0
10.26655164229633 12.77706624999342 0
24.76915466329887 12.12123980392737 0
16.25811963939262 18.92352276465428 0
23.38447788378883 10.70107269753439 0
13.09189842911862 23.6757582066353 0
24.38105904183703 18.6220261569978 0
21.77886342799067 15.05176995274821 0
20.28622757038112 10.52366470065336 0
13.29017020134724 6.890243696152131 0
11.47929125313217 3.125122551367553 0
18.72868667264861 16.36067633698542 0
20.4871606063269 4.965900496661124 0
13.49787322319105 23.29642673849564 0
20.73779871187542 9.912580047021805 0
21.06402590412291 10.11490250506851 0
23.38126396656624 9.725690586653403 0
19.62553540352382 18.19206736297273 0
18.25982908833022 21.97749778483964 0
24.73352573376323 3.111968264219548 0
22.4498614229397 6.998183441010436 0
19.29315883775084 19.55740622685758 0
15.79181942082323 13.19038611954403 0
21.81009274562395 18.77315076764407 0
24.77247589869702 11.43229168117327 0
17.64072423634522 13.13902318219911 0
23.94230004486381 15.01009842482562 0
20.81303007240833 8.742210952998672 0
23.38563409785383 15.10264165777243 0
10.69706218832992 20.00191836718866 0
12.71369536856106 15.83665893712002 0
21.40360977479945 4.218275546909989 0
23.86520075815082 17.26278966389661 0
20.80973724682008 14.70222942114653 0
14.32699373889224 10.67404654365574 0
13.74999999192732 2.726365509565015 0
20.26168744936987 3.10383959448875 0
14.73593995918353 3.107030531318669 0
14.66776482848832 16.84004137804975 0
16.45147864442639 18.19625193620547 0
13.81707124774414 12.0091937825693 0
17.94544489802885 18.57591579494224 0
20.71265295278428 18.50156306222836 0
14.78193315596261 7.678571439033993 0
20.35722391046884 15.12706777830166 0
14.24120608099637 7.857875590874317 0
22.01937439445504 9.241405770570417 0
24.42419941399972 18.13226905796225 0
11.45702105011226 23.2808915365703 0
23.89659778458155 9.507711223188322 0
12.76269857577319 8.86147237282645 0
12.798918529907 14.16831946966833 0
17.14328900517726 19.38672852854358 0
22.46027065088016 13.92136298197883 0
11.88099842145231 20.18423042731865 0
22.28876431910723 7.507839233677472 0
13.45095486851042 8.432675136564745 0
20.56995532208166 17.42980268664112 0
13.23113802949646 18.36105404207673 0
20.25291365853014 16.27708874504591 0
13.14384419623253 8.64431015353219 0
20.66926111974854 21.21232885163196 0
20.10881961967805 20.27321728289848 0
17.94297539712038 20.72894166740994 0
15.42762183940425 15.78642498346387 0
24.33180498715159 8.61745255066662 0
13.83385640736552 18.34915631397763 0
23.83600723198035 3.75721313778882 0
24.26681160302449 12.77020983065514 0
20.60757533735905 11.41457872099782 0
14.50781804418621 4.977622173747863 0
13.83271505728966 3.752328936463678 0
14.59323728132248 17.59308852560542 0
10.85836844640852 23.3404659048921 0
24.74353046551842 19.50354264266949 0
21.0826448377893 11.62663534154215 0
10.67053023888288 8.63453723219062 0
10.54329431749643 20.60508706900382 0
24.41002498673119 8.070615778166562 0
23.63753166999807 9.022768088033697 0
18.51544980865433 18.1443479167741 0
10.59255994492978 8.10111586856595 0
21.02153304365459 8.23802446594986 0
12.95772875244265 19.44945591318393 0
21.28360497923834 9.541678039839255 0
13.65638642609741 10.99756560362915 0
12.7964863326271 11.29943391477347 0
14.77918895786331 20.97775939795456 0
22.82256616524137 8.166228186259097 0
22.69528618495376 14.44803723596044 0
21.79026360665334 8.797548595373247 0
11.17395177271855 5.286663774529484 0
17.98055057307532 21.71552985885753 0
18.39291421957949 19.0724879495146 0
23.17455182366814 9.936849153520757 0
19.6103497624341 13.20931942162808 0
20.68539452604377 19.98579108526057 0
24.16500247228827 10.83349867814275 0
12.07341944975763 16.27982356979094 0
23.91810724170383 8.187229404997304 0
22.78425731702059 10.70281328573851 0
11.23140862372029 16.60099086389042 0
13.42849513432527 9.674352452845598 0
13.0095462895322 10.99608667030136 0
11.57398530304138 23.79781515610685 0
22.71616566543833 6.407442037579092 0
21.38301163162646 11.51607634268509 0
10.68225262114203 16.91331359086117 0
14.41959203245132 10.36010017289141 0
22.33005461107812 12.90797688247454 0
23.83108249942359 14.32265912224576 0
11.4925258325586 15.95959565087204 0
24.73900438618405 18.99843685262747 0
18.65989121632927 13.26477847389509 0
11.75967668685461 18.99926178031584 0
17.87905213762339 20.1905328567929 0
14.19602039500646 23.37469958387418 0
11.75120471661484 10.54905379754218 0
23.36567267541035 12.70175340205162 0
11.42871554774927 12.03524694026007 0
16.10053262523917 13.25608659642044 0
15.25562803795218 16.51658002607682 0
24.40126651804484 4.454257196755981 0
18.98120080779684 13.76923604570904 0
20.73259835326633 5.553126531108724 0
22.63365330093933 8.020323891288625 0
20.1118776769131 16.93572587632408 0
11.60762185185746 8.287804875151442 0
24.40430418406515 12.41929131422892 0
17.14526170501856 17.07542354522874 0
18.14358486931601 13.19740389025794 0
12.72391896061722 10.04584035179693 0
14.53676564753373 16.4739769592755 0
14.07424263392116 8.8069548648775 0
19.81823077386098 12.70734850842646 0
24.27270933546618 16.97240431889265 0
18.07165349485074 16.25694232994348 0
16.73097715566893 13.77834308685582 0
11.39344950928291 20.71428389272373 0
21.42989138635549 15.03599566020109 0
23.51030122353464 11.75966740248132 0
12.80642622410126 9.792431152358157 0
10.25270992741471 16.01555497173523 0
12.89213632642555 10.67546098094695 0
14.28624276980216 17.30327541915179 0
24.75362818686975 8.437966749878973 0
21.11146952543213 10.46471621291805 0
12.57599874461485 18.67815532254041 0
23.39170145669653 8.19334602164138 0
10.94102725347425 20.221327540453 0
11.48939957615629 8.885377338306828 0
17.47182895054089 20.48949587358888 0
13.78588888958052 5.255916879823824 0
21.20383863263564 5.255534194514381 0
21.26739806661763 20.96897706016583 0
13.95950779807736 4.394018693131626 0
21.46472448436242 12.46121809054358 0
24.30466801125454 6.647274954804346 0
23.14251799290091 8.543673774309072 0
22.20534884125026 14.10394687915586 0
14.37528433276428 3.985041206513402 0
10.23646615304728 8.420893035019157 0
10.19708729226828 15.74596771483271 0
11.51300209809242 11.38954373985654 0
10.84007779810761 17.93691440837686 0
20.22912127465615 18.3251214123619 0
14.401756165189 11.7550431970835 0
20.46304184643392 20.27136172056317 0
14.41282244307159 17.96293646438629 0
13.59221406871109 13.7415544792835 0
22.51575451955664 8.476530654178811 0
22.98111191735293 3.243250667319962 0
22.70187604533604 3.219825037996773 0
12.2982074022624 3.219649603935524 0
10.19356671428145 14.29435480690216 0
10.19907432356917 15.02081093687092 0
24.23140124718926 14.74005465600778 0
17.52911905862648 16.40656049956328 0
16.37141886770226 21.82381249682832 0
12.49326825563381 23.95450578787792 0
11.85447191521455 8.0045771689161 0
24.43976114788126 6.16743352258926 0
14.25849102581759 4.566180531200249 0
11.1201387633983 4.387355469289673 0
10.19130148733463 22.2782258028411 0
19.73214285550728 15.74520000332486 0
14.81013376896772 5.535714290508004 0
20.1898662300849 5.535714278330059 0
10.66554120669224 19.10282846165463 0
12.52793821016071 13.08646563619657 0
19.00464017710215 21.48747694306946 0
23.28541219388128 3.904993934426904 0
21.55816750710012 12.76498734316826 0
14.03083762824218 13.6059112891965 0
11.64120877990219 13.36143413622376 0
POLYGONS 3776 15104
3 759 966 779
3 1093 437 955
3 437 1170 955
3 1282 406 1064
3 316 315 1183
3 777 468 1718
3 341 342 1123
3 673 481 1168
3 827 777 1066
3 552 1033 1460
3 1453 432 1155
3 487 1263 1543
3 481 386 1168
3 755 454 946
3 316 1183 1589
3 392 1744 1574
3 454 755 1566
3 644 646 970
3 1108 518 1293
3 872 641 868
3 795 1094 1491
3 344 345 575
3 454 793 946
3 1726 817 1925
3 1021 20 1143
3 507 590 1777
3 326 327 838
3 468 777 1264
3 966 703 779
3 406 1483 1064
3 573 871 1964
3 833 1114 1538
3 704 594 794
3 385 1247 1111
3 623 913 1018
3 764 1041 942
3 1218 964 1099
3 704 794 1926
3 341 1123 992
3 713 1159 1834
3 1129 507 1796
3 1023 512 939
3 793 733 1080
3 782 1804 1921
3 195 196 1199
3 338 730 1784
3 1141 336 1784
3 793 454 1285
3 926 721 1149
3 505 1131 1570
3 871 425 1964
3 373 390 1880
3 742 1395 879
3 1352 541 1651
3 814 790 1984
3 1804 930 1921
3 1635 691 1817
3 230 231 1138
3 590 507 1129
3 1000 897 1816
3 881 459 1009
3 1114 511 1538
3 607 266 1757
3 669 627 1034
3 638 1748 1793
3 66 67 1208
3 609 806 1090
3 587 1129 1796
3 432 1453 1102
3 117 118 982
3 760 1519 1079
3 43 44 1327
3 790 1282 1984
3 1131 597 1570
3 458 704 1926
3 641 881 1009
3 440 1185 535
3 1025 556 1031
3 527 1373 707
3 45 46 1389
3 441 385 1488
3 360 1352 1651
3 1094 795 990
3 532 866 1632
3 866 532 1877
3 556 1025 1353
3 47 48 1057
3 392 1407 1744
3 721 926 1455
3 909 582 1483
3 777 827 1264
3 25 391 901
3 792 760 1079
3 589 1392 1471
3 446 683 1646
3 308 20 1021
3 391 25 763
3 830 582 651
3 446 1182 1459
3 561 897 1872
3 886 446 1459
3 1100 1463 836
3 1635 516 1003
3 287 1635 1817
3 897 274 1816
3 582 909 651
3 733 793 650
3 1041 310 942
3 862 930 1043
3 735 359 1866
3 235 1245 1501
3 615 1181 917
3 684 584 1801
3 582 830 1072
3 1165 1076 1442
3 706 817 1726
3 652 471 864
3 739 502 734
3 1461 355 1764
3 518 1108 1166
3 641 872 829
3 653 1461 1764
3 600 750 813
3 618 1110 1944
3 374 1141 1256
3 730 514 1638
3 348 862 1043
3 583 1878 2009
3 557 618 1944
3 683 480 1193
3 405 1024 1719
3 382 1147 1269
3 928 297 1530
3 1323 405 1719
3 24 661 1348
3 775 583 2009
3 790 814 1357
3 531 804 1097
3 1141 374 757
3 514 730 1531
3 1185 383 1321
3 526 923 593
3 299 1689 1496
3 567 851 1908
3 425 871 1739
3 760 792 1445
3 1423 693 1062
3 782 544 1804
3 406 909 1483
3 575 345 1714
3 573 488 871
3 1627 463 1426
3 1258 549 919
3 1099 964 1762
3 1413 456 796
3 1449 638 1793
3 411 652 864
3 558 683 1193
3 806 609 1039
3 957 567 1127
3 381 1159 1542
3 956 1028 1350
3 699 752 1369
3 573 560 358
3 704 717 1827
3 150 151 1074
3 398 687 1146
3 387 1225 1356
3 1711 616 1829
3 27 1054 1363
3 114 1560 1402
3 258 259 1410
3 420 452 1336
3 990 120 1277
3 359 684 1801
3 691 1635 1003
3 897 1000 1872
3 872 868 1454
3 489 403 1101
3 1415 1076 1165
3 646 644 1609
3 703 966 1840
3 535 1185 1321
3 549 1082 919
3 512 1023 1675
3 357 830 1142
3 1167 742 1953
3 837 379 940
3 865 686 1299
3 998 438 492
3 752 699 1215
3 1147 382 1509
3 605 1423 1062
3 123 124 906
3 768 505 1703
3 1389 46 1162
3 1178 370 767
3 452 847 1336
3 959 511 1116
3 1356 1225 1827
3 1033 761 1460
3 1463 558 836
3 792 559 1445
3 790 838 1615
3 981 626 758
3 774 1498 1731
3 994 783 1839
3 350 1167 1379
3 47 1057 1162
3 632 977 1124
3 368 1096 1559
3 832 1073 1577
3 660 700 1405
3 1247 385 808
3 998 492 1112
3 463 949 1426
3 597 1294 1287
3 496 687 1529
3 992 513 1766
3 822 834 1645
3 505 768 1409
3 460 832 1577
3 1055 1214 349
3 849 956 1350
3 1096 588 1559
3 559 792 1068
3 407 822 1645
3 465 714 1480
3 1191 451 910
3 531 1097 1909
3 282 1061 1414
3 1465 889 1553
3 627 669 1107
3 23 316 1467
3 830 357 1072
3 1543 1263 441
3 1410 259 1979
3 1081 1797 1236
3 1085 487 1075
3 631 980 1511
3 978 968 1268
3 656 678 770
3 1163 1069 942
3 687 496 1146
3 1254 9 897
3 13 900 1635
3 895 1727 1187
3 390 1134 1880
3 470 1085 1711
3 542 967 1710
3 572 1363 1203
3 700 1294 1405
3 924 953 1587
3 1689 945 1496
3 390 373 1648
3 266 607 1390
3 550 928 1530
3 492 504 1112
3 1739 666 1330
3 713 1834 1616
3 336 1141 757
3 730 338 1531
3 842 959 1116
3 402 785 1157
3 717 704 1978
3 1839 783 2034
3 632 1124 1693
3 851 567 1560
3 465 1289 1752
3 1290 451 1020
3 1074 151 1860
3 1178 892 1608
3 156 157 1404
3 1348 661 1961
3 488 573 1974
3 420 1239 1154
3 570 1169 999
3 683 446 886
3 1463 1059 1646
3 838 790 1357
3 558 1463 1646
3 360 697 1418
3 714 465 1489
3 386 481 1462
3 234 235 1501
3 472 953 924
3 451 1191 1490
3 306 1081 1236
3 603 1306 1615
3 241 800 1924
3 686 678 1299
3 326 838 1357
3 1702 1239 1825
3 1366 437 1822
3 493 785 1759
3 689 467 1518
3 1560 957 1402
3 375 704 1827
3 243 244 652
3 80 81 1046
3 189 190 807
3 832 460 1230
3 871 666 1739
3 1239 1640 1154
3 532 534 1877
3 395 837 940
3 820 404 1487
3 1294 700 1287
3 923 789 593
3 525 667 1603
3 946 793 1080
3 678 656 1860
3 389 465 1752
3 451 1341 1020
3 529 804 879
3 731 375 455
3 405 1008 1424
3 579 1453 1155
3 43 1327 1532
3 254 255 1440
3 982 118 1212
3 1453 709 1102
3 370 1178 1206
3 699 963 1215
3 868 453 1454
3 1584 1199 1695
3 742 804 1953
3 531 1218 1207
3 1145 754 1667
3 964 1218 1909
3 561 1254 897
3 1218 531 1909
3 900 516 1635
3 1036 866 1877
3 516 1883 1472
3 1233 561 1729
3 414 481 1903
3 504 703 1288
3 879 1395 1125
3 1753 356 1295
3 936 677 1342
3 667 479 1603
3 5 169 1084
3 168 5 1084
3 2 102 688
3 101 2 688
3 256 257 1096
3 507 913 1662
3 583 1036 1877
3 487 1085 1972
3 685 782 920
3 438 1229 1532
3 470 752 749
3 430 946 1080
3 297 296 1530
3 967 560 1710
3 957 356 1402
3 1016 441 1488
3 616 466 1829
3 637 1366 1822
3 292 1413 796
3 515 861 1756
3 743 820 1487
3 219 1082 1771
3 415 889 1465
3 1169 570 2032
3 763 895 1187
3 786 687 1739
3 488 1348 1961
3 379 837 1665
3 1138 231 1818
3 870 832 1230
3 560 573 1710
3 754 594 1667
3 356 1753 1402
3 1294 597 1383
3 385 1111 1488
3 683 558 1646
3 1495 1783 1486
3 531 1207 1379
3 382 1565 1654
3 1167 350 1855
3 1 89 1360
3 750 600 1828
3 678 686 770
3 309 1163 942
3 954 888 1476
3 687 786 1529
3 1182 574 1429
3 481 673 1903
3 786 1739 1330
3 882 1233 1729
3 623 1584 1695
3 1883 1188 1472
3 1185 485 1491
3 848 399 934
3 29 768 1859
3 847 452 1465
3 648 1702 1825
3 181 6 1679
3 768 270 1859
3 785 493 1157
3 489 549 1598
3 475 896 1941
3 831 992 1766
3 1850 450 1604
3 1276 373 1880
3 1254 561 1233
3 603 1615 1610
3 516 900 1883
3 848 567 1908
3 774 1731 2045
3 758 626 1367
3 452 415 1465
3 961 529 1722
3 357 920 1072
3 838 327 1775
3 241 242 800
3 406 1282 1306
3 375 1345 455
3 486 1006 1868
3 966 496 1840
3 861 515 813
3 1061 629 1642
3 896 580 1941
3 528 363 961
3 980 427 1511
3 968 624 1268
3 588 1352 1559
3 434 1279 1088
3 1094 711 1794
3 1590 1424 1450
3 88 1 1360
3 785 402 951
3 467 689 1232
3 1278 699 2022
3 1395 742 1564
3 1159 381 885
3 1201 592 1412
3 356 389 1295
3 747 1320 1326
3 1341 936 1342
3 711 383 1794
3 1467 316 1589
3 703 908 1288
3 654 555 1863
3 618 557 1743
3 567 1526 1127
3 359 735 1704
3 569 1247 1160
3 143 144 1317
3 632 1172 1546
3 678 1860 1737
3 1006 486 858
3 541 428 1651
3 1177 783 1291
3 6 182 1679
3 128 3 1307
3 1629 1182 1429
3 1114 833 1502
3 699 1369 2022
3 337 338 1784
3 336 337 1784
3 1074 656 1359
3 1222 317 1773
3 715 961 1722
3 931 467 1058
3 532 1074 1359
3 480 683 1680
3 742 1167 1842
3 844 417 1902
3 370 1206 1889
3 607 1273 1174
3 844 735 1866
3 706 1114 1502
3 703 504 779
3 481 414 1362
3 806 863 1090
3 741 642 1142
3 1834 1159 1912
3 590 1803 1283
3 1404 157 677
3 119 120 990
3 1159 1605 1542
3 684 665 1575
3 1247 904 1160
3 254 1440 1240
3 707 1373 416
3 655 1536 1520
3 1565 1210 1654
3 567 848 805
3 605 745 1423
3 913 580 1662
3 96 97 473
3 173 174 772
3 1889 1206 1628
3 837 395 1180
3 19 1793 1844
3 661 24 1893
3 735 844 1902
3 438 998 1778
3 446 1646 1991
3 1291 494 1517
3 622 1546 1148
3 483 1839 2034
3 346 1169 1714
3 128 1307 1831
3 1124 725 1693
3 195 1199 1584
3 367 750 1828
3 920 738 1072
3 888 608 1606
3 305 19 1844
3 753 1493 1002
3 1159 713 1605
3 887 598 1540
3 752 470 1456
3 1810 1445 1730
3 700 784 1643
3 467 931 1518
3 626 1259 1548
3 826 410 1624
3 629 1061 1325
3 892 1178 1808
3 387 1524 1520
3 687 398 1343
3 826 698 856
3 440 535 1965
3 1493 551 1002
3 1027 324 1927
3 623 732 1626
3 1247 569 1938
3 747 612 1320
3 216 1808 1607
3 394 1834 1912
3 746 900 1968
3 908 703 1840
3 1495 662 1783
3 1251 665 1698
3 1137 726 1262
3 114 115 1560
3 1100 1137 1262
3 1306 603 519
3 550 1530 462
3 270 768 1703
3 406 1306 519
3 218 219 1771
3 1221 715 2021
3 1282 790 1306
3 699 1278 1578
3 408 1445 1810
3 808 385 2019
3 1398 362 1740
3 1536 472 1520
3 389 356 1489
3 498 708 1241
3 936 1341 1490
3 663 343 1696
3 1279 434 1419
3 1074 532 1632
3 1424 497 1450
3 1949 843 1966
3 1418 697 853
3 1310 616 1386
3 1352 360 1559
3 681 840 1741
3 398 1057 1721
3 586 428 812
3 66 1208 1238
3 1208 67 1596
3 634 1221 2021
3 1061 282 1325
3 760 1323 1519
3 700 660 1725
3 502 845 734
3 768 29 1409
3 548 818 1712
3 782 401 1929
3 1739 687 1343
3 350 770 1855
3 505 1432 1703
3 909 406 771
3 408 1008 898
3 1803 490 1283
3 1026 553 1216
3 1055 349 1380
3 368 1013 1353
3 944 698 1585
3 704 458 1978
3 1172 632 1286
3 502 739 1271
3 834 822 1683
3 783 1177 1528
3 343 663 1823
3 802 719 1152
3 1524 655 1520
3 77 1789 1565
3 814 1027 1927
3 1638 727 1576
3 1009 459 1677
3 1026 748 1802
3 822 407 1666
3 1181 615 808
3 1161 1413 1894
3 1580 286 1813
3 823 331 1819
3 1134 390 2028
3 1273 701 1174
3 920 782 1929
3 409 826 1388
3 80 1046 1569
3 1461 518 915
3 761 1033 1687
3 386 1385 1443
3 543 731 1151
3 839 1314 1355
3 998 524 1778
3 582 1072 2031
3 1331 692 1747
3 1096 257 1707
3 1055 1949 1966
3 608 888 1544
3 1009 1677 1750
3 953 472 1536
3 549 489 1101
3 1651 428 1671
3 698 944 1856
3 917 419 1622
3 1319 596 938
3 11 280 533
3 293 15 860
3 1008 526 1424
3 518 1095 1293
3 807 190 1260
3 1010 1202 965
3 268 269 1432
3 468 1219 1718
3 1131 505 1409
3 30 31 1131
3 1006 858 1876
3 686 865 1235
3 3 734 1588
3 1193 480 2003
3 497 358 1611
3 1094 990 1277
3 708 803 1241
3 1259 1161 1548
3 817 706 1213
3 1239 1702 1950
3 937 398 1721
3 1314 560 967
3 943 555 1659
3 643 419 1637
3 461 843 1949
3 209 958 1770
3 962 1172 1284
3 1649 570 1040
3 1177 1175 2054
3 877 1086 2039
3 674 697 1950
3 698 826 1624
3 1788 764 1486
3 759 1327 1715
3 963 419 1340
3 8 283 1130
3 290 14 508
3 382 1269 1565
3 1214 377 349
3 1134 581 1880
3 1213 706 1502
3 1182 404 1459
3 1294 1383 369
3 15 292 796
3 281 11 1485
3 617 1071 1428
3 1526 737 841
3 1476 888 1505
3 1741 840 1478
3 555 943 1863
3 818 1073 1712
3 210 1098 1790
3 613 749 1215
3 730 1638 1576
3 1219 468 1959
3 692 1331 1302
3 1037 1726 1925
3 1761 694 1980
3 1101 403 1608
3 592 907 1412
3 784 1305 1643
3 799 991 1042
3 656 1074 1860
3 826 409 1633
3 402 1026 1802
3 1537 201 1237
3 1471 1392 1796
3 278 10 1407
3 1111 1247 1938
3 1203 1363 1391
3 410 1243 1624
3 906 124 1266
3 1330 666 1623
3 591 558 1193
3 676 1224 1716
3 12 295 1415
3 1032 465 1480
3 451 1479 910
3 465 389 1489
3 697 586 1950
3 510 1526 841
3 372 1221 634
3 1341 451 1490
3 403 489 1455
3 1199 196 625
3 589 1722 1951
3 912 723 1173
3 1855 770 1945
3 1889 877 2039
3 856 698 1856
3 1722 589 2021
3 1024 839 1355
3 1018 913 1777
3 419 963 1637
3 1363 572 1484
3 410 826 1963
3 1254 612 747
3 1206 1178 1608
3 1789 1210 1565
3 1123 342 1823
3 1185 440 1091
3 9 274 897
3 287 13 1635
3 206 207 1463
3 629 473 1567
3 772 456 787
3 94 1594 1124
3 419 917 1340
3 1702 674 1950
3 1265 176 1839
3 217 218 1771
3 470 1711 1858
3 997 486 1868
3 147 148 1036
3 450 754 1604
3 520 953 1536
3 592 1201 1742
3 567 957 1560
3 668 660 1396
3 529 879 2033
3 873 568 1697
3 911 857 1639
3 1207 932 1379
3 1319 950 1507
3 888 954 1544
3 1319 938 1976
3 1208 873 1697
3 454 1170 1285
3 804 742 879
3 1546 400 1148
3 235 236 1245
3 1110 618 1939
3 659 1850 1604
3 950 887 1507
3 448 1291 1517
3 1808 217 1771
3 711 816 1841
3 825 638 1441
3 485 1185 1091
3 266 267 1757
3 983 553 1026
3 865 376 1235
3 1381 493 1759
3 1709 672 1634
3 1071 564 1428
3 419 1545 1622
3 825 544 1946
3 383 711 1841
3 1392 563 914
3 671 364 1824
3 672 857 1634
3 376 865 1439
3 503 1627 1426
3 614 1649 1040
3 314 1328 1196
3 950 598 887
3 563 1395 1918
3 858 546 1876
3 744 1410 1979
3 9 1254 747
3 1471 507 1662
3 750 367 1727
3 497 1611 1450
3 557 1228 948
3 1389 639 966
3 1041 764 1788
3 900 746 1883
3 1389 759 1715
3 384 1219 1959
3 612 1254 1233
3 1438 676 1716
3 800 827 1924
3 926 482 1891
3 549 1473 1598
3 679 959 883
3 1639 857 1699
3 1440 368 1353
3 989 1021 1143
3 131 776 1539
3 1228 557 1509
3 899 906 1266
3 473 97 1567
3 173 772 787
3 1385 635 1443
3 639 1057 1146
3 260 261 1192
3 318 317 1222
3 64 65 881
3 490 1580 1813
3 799 1042 1738
3 904 1247 1845
3 732 193 1626
3 1320 870 1313
3 992 831 1547
3 620 1310 1386
3 639 1389 1162
3 248 249 1274
3 555 654 1552
3 193 732 1815
3 1289 445 1468
3 484 1290 821
3 536 1075 1543
3 1413 291 1894
3 1080 733 1969
3 1395 413 1918
3 1783 352 1486
3 323 324 1027
3 815 825 1441
3 1245 236 916
3 1057 639 1162
3 379 924 1587
3 759 1389 966
3 1748 825 1946
3 987 394 1912
3 482 926 1149
3 669 1175 1107
3 1307 718 1831
3 962 646 1609
3 640 899 1668
3 745 311 1852
3 456 1413 968
3 774 1414 980
3 875 571 1401
3 1695 1199 1941
3 881 65 1238
3 1170 437 1633
3 1463 207 1865
3 1054 27 1482
3 19 304 1449
3 1082 549 1101
3 252 253 876
3 15 796 1830
3 587 1392 914
3 1485 11 1322
3 605 1062 1232
3 880 1320 1313
3 906 899 1897
3 580 913 1695
3 642 741 878
3 344 575 1696
3 571 888 1606
3 1407 392 1523
3 652 244 1400
3 363 528 1774
3 665 1251 1575
3 399 848 1908
3 216 217 1808
3 1033 334 1687
3 1062 467 1232
3 1175 294 2054
3 279 962 1284
3 1689 299 1690
3 1083 926 1891
3 409 1170 1633
3 202 203 1029
3 1519 1323 2037
3 719 802 1556
3 1308 1278 2022
3 804 531 1953
3 404 466 1459
3 1832 828 1174
3 71 72 1742
3 580 1695 1941
3 913 623 1695
3 749 752 1215
3 1398 1740 1112
3 917 1181 1340
3 732 623 788
3 376 1404 1417
3 1057 398 1146
3 892 1082 1101
3 315 314 1196
3 1489 510 1854
3 823 609 1090
3 551 1490 1354
3 1116 1225 1956
3 849 1350 1767
3 1569 1046 1653
3 361 534 1947
3 807 1260 1549
3 208 209 1770
3 1340 1181 2055
3 471 652 1400
3 717 1356 1827
3 594 704 1186
3 655 1524 1915
3 1580 746 1968
3 1075 487 1543
3 748 1026 1216
3 1526 567 805
3 26 334 1033
3 524 998 1740
3 354 863 1805
3 156 1404 1439
3 630 1106 418
3 1698 665 1197
3 646 1407 1523
3 578 1552 1952
3 379 1361 924
3 1323 760 898
3 1361 379 1665
3 1076 1415 1985
3 862 1420 1921
3 72 927 1742
3 1008 408 1092
3 636 1537 1237
3 1021 695 1163
3 580 896 1962
3 541 1352 462
3 1278 509 1578
3 210 211 1098
3 931 1213 1502
3 517 577 1364
3 616 1085 1386
3 832 612 1253
3 417 844 1298
3 1349 849 1767
3 292 291 1413
3 283 282 1414
3 232 233 1422
3 1305 945 1470
3 1545 419 1647
3 1225 387 1956
3 1139 729 1387
3 440 1461 915
3 685 1465 1553
3 279 278 962
3 665 684 1915
3 189 807 722
3 1046 81 1619
3 295 294 1175
3 506 929 1672
3 699 1578 1637
3 4 1077 1118
3 934 399 1772
3 1532 1229 1497
3 464 1234 1853
3 992 1123 1682
3 547 848 934
3 517 1330 1623
3 1085 616 1711
3 930 862 1921
3 837 1180 1573
3 150 1074 1632
3 1631 655 1915
3 534 532 1198
3 1440 1025 1240
3 989 1143 1701
3 1355 1314 2025
3 534 361 1477
3 1036 148 1300
3 1463 1100 1887
3 1260 554 1549
3 1234 464 1474
3 435 1569 1653
3 900 13 1968
3 744 1192 1344
3 745 605 1886
3 1415 669 1985
3 1169 346 1914
3 1532 1327 2051
3 1243 410 1867
3 628 658 708
3 304 303 1617
3 1552 654 1952
3 1861 1243 1582
3 383 1185 1794
3 535 803 1516
3 355 535 1516
3 701 1832 1174
3 591 366 1137
3 696 1331 1747
3 936 1404 677
3 685 920 1833
3 939 493 1982
3 959 842 883
3 905 577 1248
3 1095 530 1625
3 959 679 1791
3 306 305 1081
3 1317 144 1684
3 340 992 1547
3 799 1251 2014
3 1013 556 1353
3 734 845 1588
3 1183 315 1196
3 1085 470 1972
3 1106 566 418
3 848 547 805
3 350 1379 1652
3 714 1489 1854
3 1490 1191 1354
3 405 1323 898
3 997 828 1832
3 1202 1010 798
3 660 668 1725
3 1008 405 898
3 1744 439 1574
3 843 461 1820
3 304 1617 1917
3 704 375 1186
3 921 1545 1647
3 643 396 1647
3 445 1032 1779
3 1479 484 1780
3 637 809 1366
3 224 225 769
3 844 765 751
3 1320 880 1326
3 123 906 1372
3 721 1222 1773
3 585 1861 1582
3 650 421 1807
3 504 492 779
3 731 543 1667
3 1493 376 1417
3 1073 832 1253
3 584 684 1001
3 827 1066 1924
3 1082 219 919
3 1251 799 1738
3 21 310 1041
3 486 997 1832
3 802 689 1905
3 511 959 1538
3 572 1203 2052
3 1175 669 1223
3 476 642 1336
3 1357 814 1927
3 1347 1176 2057
3 530 1095 1994
3 776 131 1384
3 1314 839 1611
3 405 1424 1590
3 1783 1153 893
3 1594 725 1124
3 364 671 1049
3 483 1265 1839
3 940 675 1992
3 1180 538 1573
3 913 507 1777
3 577 517 1248
3 629 1567 1568
3 787 456 1838
3 509 1278 1798
3 1151 731 455
3 28 271 0
3 260 1192 1979
3 1289 465 1303
3 451 1290 1987
3 845 645 1588
3 1203 1144 2052
3 394 987 1853
3 356 957 1127
3 646 962 2046
3 664 1027 1984
3 680 1095 1625
3 302 18 1202
3 839 1024 1590
3 737 805 1723
3 985 642 878
3 96 473 1591
3 772 174 1592
3 720 1202 798
3 1369 752 1456
3 438 1532 2051
3 1584 623 1626
3 335 336 757
3 338 339 1531
3 333 26 1270
3 1131 31 1383
3 777 912 2017
3 1702 407 1645
3 1473 319 1598
3 1327 759 2051
3 847 476 1336
3 1023 939 1982
3 578 1308 2022
3 549 1258 1998
3 449 844 751
3 468 1264 2030
3 782 685 1553
3 1194 136 1540
3 1327 44 1715
3 1024 1355 2038
3 662 1138 1818
3 544 782 1553
3 493 1381 1982
3 1010 965 1334
3 697 360 1651
3 143 1317 1641
3 1098 574 1790
3 12 1415 1165
3 1235 376 1800
3 1808 1178 1607
3 419 643 1647
3 1192 546 1344
3 912 777 1718
3 518 1461 2004
3 960 987 1912
3 117 982 1694
3 421 650 1388
3 560 1314 1611
3 1407 10 1744
3 1392 589 1951
3 663 1060 1452
3 404 1182 1629
3 1132 1570 952
3 844 449 1298
3 1422 233 1685
3 1229 438 1778
3 996 436 1391
3 243 652 1437
3 1024 405 1590
3 586 1640 1950
3 1239 420 1825
3 1566 947 955
3 984 439 1954
3 652 411 1437
3 471 754 1145
3 454 1566 955
3 1492 657 1261
3 888 571 1505
3 799 1476 1505
3 899 640 1897
3 619 640 1668
3 381 809 1957
3 1469 679 1943
3 1027 814 1984
3 352 1783 893
3 352 1453 1788
3 574 1182 1931
3 1578 643 1637
3 959 581 1538
3 8 1130 1779
3 508 14 1780
3 944 1585 811
3 723 912 1718
3 1182 446 1931
3 1082 892 1771
3 928 550 1344
3 1427 523 1296
3 1147 1509 1944
3 1387 729 1558
3 331 332 1819
3 459 881 1238
3 1545 921 1425
3 697 674 853
3 368 1440 1171
3 349 553 1380
3 929 1250 1672
3 179 180 976
3 679 1276 1791
3 125 126 835
3 684 359 1631
3 90 91 1504
3 911 776 1384
3 79 80 1569
3 1748 442 1793
3 665 1524 1197
3 1414 774 2018
3 585 591 1193
3 99 100 1297
3 166 167 869
3 103 104 1508
3 170 171 1513
3 130 131 1539
3 804 529 1097
3 621 1165 1442
3 198 199 1474
3 866 1036 1300
3 895 1022 1727
3 876 253 1240
3 1139 1387 2013
3 164 165 981
3 105 106 1498
3 1159 885 1912
3 371 1265 2035
3 1594 477 2036
3 638 1398 1441
3 345 346 1714
3 606 1711 1829
3 647 1139 1122
3 509 1022 1411
3 876 1025 1031
3 563 1392 1988
3 21 1041 1852
3 621 1430 1670
3 1436 671 1824
3 92 93 977
3 1108 1293 1227
3 177 178 994
3 689 802 1318
3 1151 1037 1806
3 827 1705 1264
3 1021 989 1910
3 762 450 1850
3 190 191 1260
3 445 1289 1303
3 1290 484 1987
3 805 547 1723
3 545 1448 1706
3 780 762 1850
3 1424 526 593
3 1570 501 952
3 298 858 824
3 230 1138 1339
3 1263 487 1581
3 1106 940 1992
3 823 1090 1874
3 399 982 1613
3 1640 1239 1950
3 408 996 1092
3 1052 647 948
3 958 574 1931
3 1361 1469 1943
3 1108 1227 1558
3 809 381 1542
3 807 621 722
3 1352 588 633
3 907 592 1506
3 876 479 1267
3 1245 933 1102
3 479 876 1031
3 439 1046 1619
3 749 613 1581
3 86 87 1525
3 469 1176 1347
3 1705 565 1264
3 924 611 1904
3 1274 249 1399
3 658 355 1516
3 945 1305 1496
3 570 1385 1040
3 472 924 1904
3 340 341 992
3 694 447 1980
3 1805 863 1301
3 1139 647 1990
3 1060 502 1452
3 1078 497 593
3 815 1288 1812
3 375 731 1186
3 845 502 1060
3 45 1389 1715
3 1025 1440 1353
3 1096 368 1171
3 729 1242 1558
3 874 387 1904
3 1404 376 1439
3 398 918 1343
3 28 29 1859
3 371 1592 1265
3 1591 477 1594
3 183 184 1038
3 709 1245 1102
3 511 1345 1116
3 818 548 850
3 973 388 1957
3 896 475 1928
3 1225 1116 1768
3 812 307 1236
3 695 1021 1910
3 820 555 1195
3 928 546 1244
3 711 121 1826
3 1536 655 1704
3 97 98 1567
3 172 173 787
3 221 222 1760
3 1358 713 1862
3 671 1235 1800
3 637 973 1957
3 1363 1054 1391
3 387 1520 1904
3 1013 368 1754
3 1019 482 1115
3 408 898 1561
3 586 812 1640
3 1657 198 1474
3 1276 679 1469
3 982 399 1053
3 1296 905 1248
3 84 85 970
3 358 497 1078
3 331 823 1751
3 1361 354 1469
3 1057 48 1721
3 579 1155 1852
3 606 820 1195
3 920 357 1833
3 1028 775 1350
3 847 1465 1833
3 645 845 1787
3 1407 646 2046
3 1138 662 1045
3 1118 1077 1755
3 258 1410 1707
3 1083 1889 1628
3 377 640 619
3 713 1358 1605
3 479 667 1267
3 1090 538 1874
3 1217 348 1812
3 571 1603 1401
3 353 1038 986
3 1453 579 1788
3 1273 607 1967
3 1358 781 1605
3 1615 838 418
3 185 186 1034
3 1095 518 2004
3 674 1702 1645
3 466 404 1829
3 1395 1564 1814
3 270 271 1859
3 311 745 1886
3 1740 362 979
3 1403 653 1764
3 411 864 1806
3 615 917 1622
3 809 410 1366
3 577 905 740
3 222 1599 1760
3 395 940 1106
3 574 958 1790
3 597 1131 1383
3 901 609 2048
3 540 1741 1478
3 1139 478 1122
3 842 1116 1956
3 710 1027 1995
3 11 533 1322
3 789 1078 593
3 373 1276 1805
3 135 136 1194
3 860 15 1830
3 1278 1308 1798
3 3 129 734
3 809 781 1867
3 295 1175 1223
3 962 278 2046
3 669 1415 1223
3 1042 545 1706
3 283 1414 2018
3 958 209 1790
3 1138 854 1339
3 1878 755 2009
3 653 1403 1994
3 1897 640 1669
3 1647 396 1746
3 963 699 1637
3 1403 530 1994
3 1054 996 1391
3 410 809 1867
3 38 39 1550
3 737 1526 805
3 640 377 1948
3 628 640 1948
3 609 823 1819
3 1073 818 1577
3 858 298 1244
3 1485 629 1325
3 802 1152 1382
3 759 492 2051
3 546 928 1344
3 1155 745 1852
3 569 1317 1932
3 1098 211 1105
3 550 1352 633
3 493 939 1071
3 729 1139 1275
3 1015 2029 1857
3 155 156 1439
3 588 1096 1707
3 596 1319 1785
3 533 280 1286
3 293 860 1528
3 1181 808 2019
3 370 1889 2039
3 380 1151 455
3 1317 569 1160
3 1425 921 1103
3 1245 709 1501
3 933 801 1102
3 1029 203 1311
3 380 1114 1726
3 1180 395 1999
3 481 1362 1346
3 621 807 1549
3 1629 670 1487
3 431 1214 1966
3 1524 1356 1197
3 118 119 1212
3 1095 680 1293
3 319 318 1598
3 1509 557 1944
3 1578 509 1411
3 864 471 1145
3 1051 312 1886
3 1114 706 1726
3 1525 682 1397
3 692 1070 1761
3 1543 1016 1656
3 1046 439 1653
3 27 923 1482
3 282 281 1325
3 396 643 1411
3 1288 908 1812
3 64 881 829
3 1404 936 1417
3 1288 815 1977
3 826 856 1388
3 536 1543 1656
3 428 541 1792
3 638 825 1748
3 1041 579 1852
3 428 586 1671
3 670 1406 1487
3 443 680 1763
3 311 21 1852
3 358 560 1611
3 658 628 1209
3 1129 587 791
3 503 443 1763
3 1060 663 412
3 1139 521 1275
3 1358 1862 1960
3 444 1444 1312
3 404 820 1829
3 528 961 1733
3 125 835 1266
3 773 485 1494
3 1214 1055 1966
3 1385 386 1040
3 701 894 1832
3 556 1013 1683
3 1085 1075 1386
3 1130 283 2018
3 692 1761 1980
3 1612 1205 1786
3 211 212 1105
3 852 773 1494
3 1027 710 1309
3 363 973 1762
3 1881 1274 1955
3 656 770 1890
3 1451 133 1634
3 973 495 1762
3 809 637 1957
3 523 1427 1338
3 527 905 1109
3 1259 971 1514
3 1642 562 1512
3 1224 559 1716
3 586 697 1671
3 248 1274 1881
3 810 322 1309
3 1430 621 1549
3 401 782 1921
3 207 208 1865
3 1345 375 1768
3 27 347 923
3 362 1617 979
3 658 1209 1717
3 1163 695 1661
3 710 1056 1104
3 1423 745 1155
3 1811 1012 1745
3 733 650 1807
3 275 9 747
3 278 1407 2046
3 530 1403 1120
3 559 1068 1716
3 402 1157 1521
3 803 535 1321
3 1517 353 986
3 854 1138 855
3 288 287 1817
3 274 273 1816
3 1415 295 1223
3 1373 527 2007
3 439 984 1653
3 69 840 599
3 780 1881 1955
3 75 76 1269
3 551 1493 1417
3 357 1142 476
3 835 126 1113
3 121 711 1277
3 492 438 2051
3 965 18 1457
3 501 1287 1470
3 414 1015 1857
3 1209 431 1717
3 609 1819 2048
3 581 959 1791
3 765 844 1866
3 553 983 1380
3 268 1432 1534
3 1176 469 1620
3 426 1495 1586
3 820 743 1659
3 958 1931 1991
3 208 1770 1865
3 794 594 1393
3 1377 850 1117
3 1448 407 1475
3 890 411 1806
3 1128 758 1367
3 1731 716 2045
3 354 1361 1665
3 1192 744 1979
3 7 229 1644
3 499 922 1654
3 1345 511 1884
3 555 820 1659
3 833 1538 1134
3 640 628 1669
3 363 1762 1017
3 800 242 1437
3 263 264 997
3 668 784 1725
3 228 7 1644
3 983 1521 1782
3 30 1131 1409
3 1727 1022 2002
3 746 1129 791
3 1025 876 1240
3 800 411 1705
3 850 1044 1117
3 1461 653 2004
3 1170 409 1285
3 834 1013 1418
3 1070 564 2026
3 535 355 1965
3 626 981 1371
3 1498 774 2023
3 425 1739 1343
3 1535 262 1868
3 1432 269 1703
3 1779 1032 2015
3 1479 1780 2016
3 1142 642 476
3 894 701 1689
3 939 564 1071
3 18 301 1457
3 428 1792 1749
3 1344 550 1035
3 119 990 1212
3 769 225 539
3 290 508 1548
3 857 911 1451
3 657 1406 1261
3 650 409 1388
3 564 1070 1302
3 1473 549 1998
3 430 775 2009
3 781 1358 1846
3 925 1674 1869
3 372 987 1942
3 312 311 1886
3 977 632 1873
3 905 527 740
3 783 994 1365
3 801 432 1102
3 1202 18 965
3 502 1271 1452
3 813 750 1870
3 605 1051 1886
3 1205 1813 1515
3 1358 366 1846
3 1088 1279 1821
3 987 960 1942
3 600 1589 1828
3 333 1270 1907
3 840 69 1735
3 754 471 1604
3 246 941 1527
3 1066 777 2017
3 495 1093 1099
3 1088 547 934
3 710 810 1309
3 297 928 1244
3 846 1347 2057
3 1033 552 1103
3 1093 947 1099
3 67 68 1596
3 609 901 1039
3 1432 505 1132
3 603 766 519
3 624 1259 1514
3 427 1642 1512
3 329 891 1562
3 905 523 1109
3 1013 834 1683
3 194 195 1584
3 1070 692 1302
3 1144 1176 1620
3 439 1744 1954
3 921 1647 1746
3 601 1448 1475
3 321 322 810
3 1440 255 1171
3 1056 527 1109
3 1473 397 1895
3 682 1148 1397
3 1589 1183 1828
3 1552 578 1916
3 1247 808 1845
3 690 886 1459
3 987 464 1853
3 1444 485 1091
3 1219 723 1718
3 834 1418 853
3 1011 875 1401
3 348 1330 1364
3 781 809 1542
3 423 1432 1132
3 276 1811 1745
3 711 1094 1277
3 554 1612 1786
3 1521 617 1782
3 271 28 1859
3 1545 859 1622
3 35 36 1396
3 1170 454 955
3 884 812 1236
3 1395 563 1125
3 355 658 1764
3 812 884 1640
3 1205 1087 1813
3 51 967 1835
3 863 354 1573
3 1414 1061 1934
3 1413 1161 1119
3 1077 4 1394
3 1087 490 1813
3 149 150 1632
3 486 894 824
3 1392 587 1796
3 719 1648 1920
3 1977 1398 1112
3 307 812 1749
3 825 815 2010
3 835 899 1266
3 1792 16 1749
3 766 417 519
3 1797 884 1236
3 478 1139 2013
3 1508 631 1511
3 1513 978 1268
3 436 996 1810
3 1297 867 1512
3 869 500 1514
3 1172 962 1843
3 649 835 1113
3 1681 822 1179
3 1175 1177 1930
3 1495 764 1586
3 1662 580 1962
3 816 711 1826
3 987 372 1510
3 224 769 1249
3 543 1151 1806
3 1538 581 1134
3 19 1449 1793
3 1202 720 1700
3 598 1194 1540
3 1185 1491 1794
3 527 1056 2007
3 1032 445 1303
3 484 1479 1987
3 1271 1123 1452
3 1306 790 1615
3 476 847 1833
3 842 874 883
3 132 133 1451
3 881 641 829
3 544 825 1804
3 73 74 974
3 1178 767 1607
3 362 1398 728
3 950 1319 1976
3 1609 644 1397
3 617 1157 1071
3 1869 1674 1661
3 1056 1065 2007
3 647 1052 1990
3 829 872 1708
3 1714 1169 2032
3 908 1529 1217
3 413 1395 1814
3 662 1495 1045
3 1019 1115 1621
3 1504 622 1148
3 244 245 1400
3 523 905 1296
3 494 976 1517
3 302 1202 1700
3 1014 1471 1662
3 1352 550 462
3 857 672 1699
3 1591 473 1005
3 772 1592 1522
3 708 658 1516
3 1491 485 1996
3 1166 444 915
3 348 1043 1812
3 648 985 1281
3 464 987 1510
3 1410 588 1707
3 985 878 1281
3 126 127 1113
3 1062 384 1058
3 1410 744 1035
3 760 1445 1561
3 616 1310 1981
3 1056 1109 1104
3 1050 499 1654
3 577 707 1420
3 1813 285 1515
3 924 1361 1943
3 480 1310 811
3 894 486 1832
3 1931 446 1991
3 147 1036 1871
3 608 1274 1595
3 1051 689 1318
3 1310 620 811
3 63 64 829
3 256 1096 1171
3 246 247 941
3 590 1129 1803
3 1385 570 999
3 1606 608 1595
3 265 266 1390
3 372 634 1630
3 196 197 625
3 1265 483 2035
3 108 109 1468
3 161 162 821
3 623 1018 788
3 546 858 1244
3 1529 786 1217
3 725 1594 2036
3 328 329 1562
3 600 1467 1589
3 892 1101 1608
3 145 146 956
3 174 175 1592
3 95 96 1591
3 1648 474 1920
3 1677 568 1374
3 1436 686 1235
3 597 1287 1936
3 1144 951 2052
3 1674 925 1200
3 461 1331 1820
3 684 1575 1001
3 1331 696 1820
3 411 800 1437
3 723 1219 1280
3 1453 352 893
3 1153 1501 893
3 400 1609 1397
3 1398 638 728
3 527 707 740
3 1556 802 1905
3 635 1385 1572
3 1762 964 1017
3 411 890 1705
3 863 806 1301
3 399 1613 1772
3 1526 510 1127
3 81 82 1619
3 1270 26 1746
3 1012 1416 1337
3 504 1977 1112
3 715 1221 1733
3 1493 753 1049
3 188 189 722
3 840 681 599
3 477 1591 1005
3 1592 371 1522
3 1559 360 1754
3 249 250 1399
3 784 668 1457
3 1433 1229 1892
3 1165 621 1670
3 401 707 416
3 709 1453 893
3 612 832 1320
3 312 1051 1318
3 642 985 1336
3 237 1173 916
3 874 611 883
3 627 1107 986
3 377 1214 1948
3 815 1441 1977
3 537 1060 412
3 1089 1416 1050
3 1483 582 1935
3 675 1047 1992
3 355 1461 1965
3 142 143 1641
3 473 629 1005
3 456 772 1522
3 206 1463 1887
3 775 1028 1636
3 1613 773 1772
3 967 51 2005
3 1214 431 1209
3 918 542 1710
3 518 1166 915
3 1501 709 893
3 538 863 1573
3 583 775 1636
3 1047 1610 1992
3 1106 630 2040
3 525 1603 1606
3 465 1032 1303
3 1479 451 1987
3 775 430 1350
3 940 379 1587
3 397 1473 1998
3 553 349 1204
3 1759 785 1620
3 1184 1080 1969
3 946 430 2009
3 366 591 1582
3 985 420 1336
3 671 1436 1235
3 929 443 1426
3 1075 620 1386
3 215 767 1658
3 1238 1208 1697
3 1427 320 1338
3 1037 890 1806
3 467 1062 1058
3 1022 509 2002
3 1262 205 1887
3 522 1433 1892
3 591 585 1582
3 1205 1612 1087
3 327 328 1775
3 707 401 1420
3 754 450 1393
3 1483 1065 1064
3 1815 732 2020
3 1064 664 1984
3 985 648 1825
3 1990 1052 2043
3 1495 426 1045
3 213 214 1673
3 784 700 1725
3 313 1318 1382
3 99 1297 1898
3 1508 104 972
3 166 869 969
3 1513 171 975
3 309 308 1163
3 564 1331 1428
3 817 1959 2030
3 833 1134 1434
3 1318 802 1382
3 594 754 1393
3 929 506 610
3 1120 843 1820
3 675 940 1587
3 179 976 1190
3 443 503 1426
3 521 1990 2043
3 1504 91 1563
3 577 862 1364
3 1282 1064 1984
3 696 1120 1820
3 1603 571 1606
3 1416 1012 1231
3 1107 448 986
3 424 1018 1283
3 437 1366 1963
3 84 970 1732
3 981 165 969
3 105 1498 972
3 242 243 1437
3 1078 789 1348
3 17 298 824
3 272 1032 1480
3 1479 289 910
3 426 1674 1200
3 744 1344 1035
3 1231 1012 1811
3 591 1137 836
3 1506 478 1672
3 1034 186 1734
3 1107 1175 1930
3 1416 499 1050
3 1633 437 1963
3 1449 362 728
3 907 1506 1672
3 547 1088 1821
3 701 1273 1593
3 513 992 1682
3 880 1231 1811
3 204 205 1262
3 1518 931 1434
3 545 991 875
3 1189 1015 1903
3 420 985 1825
3 1331 564 1302
3 92 977 1563
3 267 268 1534
3 933 1245 916
3 994 178 1190
3 485 1444 1494
3 1550 39 1713
3 564 939 2026
3 962 1609 1843
3 708 498 1669
3 1289 1468 2049
3 821 1290 2050
3 325 326 1357
3 1065 1483 1935
3 276 275 1811
3 1444 444 1923
3 1432 423 1534
3 1834 636 1616
3 320 1427 1893
3 796 456 1522
3 629 1485 1005
3 1331 461 1428
3 1068 60 1864
3 1760 397 1998
3 1157 617 1521
3 497 1424 593
3 773 795 1996
3 1018 590 1283
3 140 141 1136
3 707 577 740
3 1065 1056 1901
3 724 1492 1261
3 1015 414 1903
3 1727 367 1187
3 308 1021 1163
3 286 285 1813
3 485 773 1996
3 537 1649 1378
3 416 1373 2031
3 1077 904 1845
3 38 1550 1720
3 1467 595 1583
3 1396 660 2047
3 86 1525 1446
3 437 1093 1822
3 1009 512 1675
3 680 443 1227
3 1258 1760 1998
3 521 1139 1990
3 434 1150 1419
3 443 378 1227
3 603 1047 766
3 1156 1677 1374
3 863 538 1090
3 1416 435 1337
3 202 1029 1237
3 60 1068 1272
3 122 123 1372
3 362 1449 1917
3 1221 372 1942
3 1038 184 1688
3 968 1413 1119
3 980 1414 1934
3 894 17 824
3 1510 372 1630
3 767 215 1607
3 153 1299 1737
3 153 154 1299
3 1536 1704 1837
3 1871 1036 1636
3 469 1759 1620
3 598 950 1993
3 773 852 1772
3 543 864 1145
3 858 486 824
3 1445 559 1730
3 956 146 1871
3 239 240 1066
3 670 1098 1105
3 776 911 1983
3 1480 714 1816
3 121 122 1826
3 374 1256 1976
3 926 403 1455
3 1191 910 1817
3 1297 562 1898
3 978 1513 975
3 631 1508 972
3 869 971 969
3 1330 517 1364
3 1638 514 1699
3 718 1307 1857
3 970 85 1446
3 251 667 1836
3 738 416 2031
3 922 499 1313
3 666 871 935
3 588 1410 633
3 349 377 1676
3 1624 1243 1861
3 852 1088 934
3 638 1449 728
3 1192 261 1535
3 1036 583 1636
3 951 1144 1620
3 757 1986 1687
3 443 929 610
3 620 944 811
3 1649 614 1378
3 257 258 1707
3 641 1009 1675
3 482 1019 1891
3 827 800 1705
3 634 1014 1630
3 904 1077 1394
3 185 1034 1688
3 542 918 1970
3 1700 720 1799
3 436 1810 2057
3 832 870 1320
3 1027 664 1995
3 795 773 1613
3 1059 1463 1865
3 1726 1037 1151
3 1471 1014 2011
3 1475 407 1702
3 938 374 1976
3 991 545 1042
3 528 902 1774
3 941 659 1527
3 310 309 942
3 566 1615 418
3 27 1363 1914
3 896 1510 1630
3 2000 1531 1547
3 870 922 1313
3 23 1467 1583
3 589 1471 2011
3 498 1897 1669
3 343 344 1696
3 1986 761 1687
3 1081 415 1797
3 433 1518 1434
3 902 388 1774
3 558 591 836
3 817 1213 1959
3 1047 520 766
3 164 981 758
3 1498 106 1731
3 862 577 1420
3 61 62 988
3 1219 384 1375
3 1029 1311 1862
3 1566 361 1849
3 1467 600 1255
3 935 661 1421
3 29 30 1409
3 1068 1007 1716
3 378 443 610
3 1328 705 1316
3 470 749 1972
3 867 1511 1512
3 500 1268 1514
3 269 270 1703
3 778 568 1602
3 622 1504 1563
3 514 1639 1699
3 1498 631 972
3 971 981 969
3 1136 736 1958
3 1274 608 1955
3 1314 967 2005
3 510 1489 1464
3 947 1566 1849
3 976 494 1190
3 770 686 1945
3 1052 460 1577
3 1256 950 1976
3 581 1791 1880
3 643 1578 1411
3 273 1480 1816
3 672 1638 1699
3 273 272 1480
3 1449 304 1917
3 289 288 910
3 918 398 1970
3 645 1307 1588
3 910 288 1817
3 1731 107 1431
3 163 758 1126
3 477 1485 1322
3 796 371 1830
3 33 34 1405
3 1196 819 1765
3 364 1049 1728
3 201 202 1237
3 421 1856 1656
3 421 856 1856
3 615 1077 1845
3 1006 1535 1868
3 163 164 758
3 106 107 1731
3 466 616 1981
3 1218 1099 1849
3 1597 238 2017
3 342 343 1823
3 1100 1262 1887
3 1088 852 1919
3 360 1418 1754
3 1615 566 1610
3 961 363 1017
3 1099 947 1849
3 595 1467 1324
3 75 1269 1847
3 1173 237 1597
3 1674 426 1586
3 409 650 1285
3 1853 1234 1220
3 434 1088 1919
3 770 350 1890
3 967 542 1835
3 371 796 1522
3 1485 477 1005
3 831 2000 1547
3 1307 645 1362
3 1305 1554 1496
3 1016 1543 441
3 1524 387 1356
3 1769 584 1776
3 1396 36 491
3 1509 382 1736
3 1722 1067 1951
3 42 43 1532
3 1269 1147 1847
3 947 1093 955
3 667 251 1267
3 488 1078 1348
3 397 1143 1895
3 857 1451 1634
3 1525 644 1446
3 598 727 1888
3 977 622 1563
3 298 297 1244
3 970 646 1523
3 492 759 779
3 494 994 1190
3 596 1136 1958
3 380 1726 1151
3 1287 501 1936
3 1150 1044 1419
3 627 1038 1688
3 1039 901 1922
3 252 876 1267
3 1081 305 1844
3 756 1815 2020
3 939 512 2026
3 1329 854 1200
3 571 991 1505
3 1153 1422 1685
3 286 1580 1968
3 1461 440 1965
3 499 1416 1231
3 1176 1144 1203
3 810 523 1338
3 520 1837 1902
3 965 668 1334
3 1420 401 1921
3 929 949 1250
3 1028 956 1871
3 1067 879 1125
3 613 1340 2055
3 576 1700 1799
3 949 540 1250
3 407 1448 1666
3 1490 551 1660
3 1299 678 1737
3 951 635 2052
3 442 889 1408
3 1307 3 1588
3 861 813 1870
3 1444 1091 1312
3 68 69 599
3 49 937 1721
3 650 793 1285
3 1959 468 2030
3 960 885 902
3 611 924 1943
3 644 970 1446
3 460 1052 1458
3 1791 1276 1880
3 376 1493 1800
3 890 565 1705
3 526 1008 1092
3 500 1513 1268
3 867 1508 1511
3 1673 214 1658
3 415 1081 1408
3 925 1329 1200
3 225 226 539
3 33 1405 369
3 348 1217 1330
3 1034 627 1688
3 1775 328 1562
3 530 1120 1030
3 944 536 1856
3 669 1034 1985
3 757 374 1986
3 982 1212 1613
3 200 201 1537
3 50 51 1835
3 795 1491 1996
3 182 183 1882
3 1575 1251 1738
3 1298 449 651
3 110 111 1752
3 159 160 1020
3 87 88 1246
3 100 101 1351
3 167 168 1899
3 169 170 1655
3 102 103 1900
3 1761 1070 1809
3 487 749 1581
3 44 45 1715
3 1506 618 1122
3 79 1569 1226
3 1075 536 1579
3 1989 474 1614
3 478 1506 1122
3 579 1041 1788
3 284 1430 1515
3 514 1531 2000
3 996 1054 1092
3 1316 705 1848
3 89 90 1063
3 13 286 1968
3 746 1580 1803
3 1451 911 1384
3 536 944 1579
3 1183 1196 1765
3 180 181 993
3 997 264 2042
3 219 220 919
3 436 1176 1203
3 949 463 1741
3 908 1217 1812
3 1260 191 1758
3 984 277 1745
3 1049 753 1728
3 1212 795 1613
3 620 1075 1579
3 1048 767 2039
3 682 1504 1148
3 1580 490 1803
3 1740 998 1112
3 1445 408 1561
3 25 333 1907
3 1274 1399 1595
3 944 620 1579
3 93 94 1124
3 176 177 1839
3 507 1471 1796
3 912 1173 1597
3 227 1329 1975
3 69 70 1735
3 976 353 1517
3 116 117 1694
3 1430 284 1670
3 415 452 1797
3 971 869 1514
3 562 1297 1512
3 365 1575 1738
3 452 884 1797
3 1291 448 1930
3 1069 1674 1586
3 139 140 1785
3 300 299 1496
3 534 1198 1947
3 457 1296 1248
3 1077 615 1755
3 1028 1871 1636
3 532 1359 903
3 1441 1398 1977
3 1711 606 1858
3 1287 700 1643
3 250 251 1836
3 1400 245 1527
3 400 1546 1843
3 76 77 1565
3 1757 267 1534
3 366 1358 1960
3 145 956 1684
3 1427 1296 1421
3 175 176 1265
3 94 95 1594
3 236 237 916
3 1204 1189 1903
3 193 194 1626
3 689 1051 1232
3 1567 98 1898
3 172 787 975
3 1120 696 1030
3 4 142 1394
3 1752 111 1295
3 159 1020 1342
3 394 1853 1220
3 763 25 1907
3 766 520 1902
3 1596 68 599
3 277 984 1954
3 1710 573 1964
3 1489 356 1464
3 433 1556 1905
3 1554 300 1496
3 192 193 1815
3 1387 378 610
3 35 1396 2047
3 1042 365 1738
3 1259 624 1119
3 1642 427 1934
3 506 1387 610
3 144 145 1684
3 552 1958 1370
3 1359 656 1890
3 457 935 1421
3 77 78 1789
3 262 263 1868
3 956 849 1684
3 983 1026 1521
3 1612 424 1087
3 909 1298 651
3 542 937 1692
3 1011 1681 1179
3 313 312 1318
3 139 1785 1507
3 767 1048 1658
3 1599 397 1760
3 991 571 875
3 2032 1649 2056
3 922 870 1230
3 668 965 1457
3 565 890 1925
3 952 501 1911
3 767 370 2039
3 1208 1596 873
3 812 428 1749
3 628 708 1669
3 576 1617 2001
3 1134 433 1434
3 936 1490 1660
3 325 1357 1927
3 584 1664 1776
3 26 1033 1551
3 601 1475 1121
3 1270 895 1907
3 1273 952 1911
3 727 598 1993
3 1157 493 1071
3 122 1372 1826
3 214 215 1658
3 859 1545 1425
3 1210 1789 1050
3 350 1359 1890
3 73 974 2024
3 541 1530 1792
3 188 722 1304
3 1000 1816 1854
3 17 894 1690
3 1817 691 1354
3 489 1222 1455
3 1056 710 1995
3 673 1204 1903
3 1619 82 1447
3 1897 498 1971
3 396 1270 1746
3 861 1870 1798
3 1022 895 1896
3 569 1349 1938
3 361 1207 1849
3 1746 26 1551
3 108 1468 1431
3 821 162 1126
3 1173 933 916
3 889 415 1408
3 229 230 1339
3 1007 1068 1864
3 864 543 1806
3 1475 648 1121
3 231 232 1818
3 1207 1218 1849
3 820 606 1829
3 323 1027 1309
3 319 1473 1895
3 1349 1184 1938
3 238 239 2017
3 862 348 1364
3 961 715 1733
3 951 402 1802
3 251 252 1267
3 1443 748 1168
3 40 41 1433
3 1038 353 1882
3 1014 634 2011
3 1465 685 1833
3 1156 1761 1809
3 1862 726 1960
3 1789 1089 1050
3 1135 1552 1916
3 822 1666 1179
3 718 1113 1831
3 600 813 1255
3 1491 1094 1794
3 226 227 1975
3 384 1213 1058
3 634 589 2011
3 432 1423 1155
3 36 37 491
3 828 997 2042
3 1359 350 1652
3 890 1037 1925
3 1150 351 1117
3 39 40 1713
3 1524 665 1915
3 806 1989 1614
3 801 1280 1481
3 1811 275 1326
3 429 1019 1618
3 1068 792 1272
3 977 93 1124
3 177 994 1839
3 1468 109 2049
3 161 821 2050
3 590 1018 1777
3 1114 380 1884
3 60 61 1864
3 168 1084 1899
3 1084 169 1655
3 101 688 1351
3 688 102 1900
3 1305 784 1554
3 59 60 1272
3 682 1525 1246
3 120 121 1277
3 1599 222 1466
3 1092 1054 1482
3 854 1329 1937
3 937 49 1692
3 65 66 1238
3 764 942 1586
3 1177 1291 1930
3 1097 964 1909
3 51 52 2005
3 1222 721 1455
3 1460 761 938
3 88 1360 1246
3 37 38 1720
3 1518 433 1905
3 787 978 975
3 562 1567 1898
3 644 1525 1397
3 589 634 2021
3 1133 1140 1751
3 1679 182 1882
3 942 1069 1586
3 433 1134 2028
3 1546 1172 1843
3 459 1238 1697
3 223 224 1249
3 1405 1294 369
3 452 420 1154
3 1297 100 1351
3 103 1508 1900
3 869 167 1899
3 170 1513 1655
3 884 452 1154
3 540 949 1741
3 142 1641 1394
3 232 1422 1818
3 1564 742 1842
3 1150 434 1923
3 976 180 993
3 712 447 1763
3 1360 89 1063
3 90 1504 1063
3 1816 714 1854
3 1476 799 2014
3 1317 1684 1932
3 447 503 1763
3 1191 1817 1354
3 1038 627 986
3 1448 601 1706
3 1173 723 1333
3 750 1727 2002
3 568 873 1602
3 181 1679 993
3 55 56 1719
3 1228 1509 1736
3 186 187 1734
3 83 84 1732
3 1793 442 1844
3 973 637 1822
3 222 223 1466
3 867 1297 1351
3 500 869 1899
3 1508 867 1900
3 1513 500 1655
3 573 358 1974
3 1530 296 1792
3 602 1564 1842
3 1072 738 2031
3 889 442 1946
3 1161 1259 1119
3 1061 1642 1934
3 386 1443 1168
3 1665 837 1573
3 1140 330 1751
3 681 1596 599
3 116 1694 1906
3 1051 605 1232
3 1044 1150 1117
3 1575 365 1001
3 255 256 1171
3 531 1379 1953
3 1066 240 1924
3 738 920 1929
3 281 1485 1325
3 1213 931 1058
3 1029 1862 1616
3 1310 480 1680
3 1504 682 1063
3 1617 303 2001
3 1862 713 1616
3 1763 680 1625
3 712 1763 1625
3 53 54 1355
3 203 204 1311
3 353 976 993
3 690 1310 1680
3 1031 556 2041
3 1525 87 1246
3 954 1476 1926
3 40 1433 1713
3 215 216 1607
3 1136 596 1785
3 933 1173 1333
3 868 641 1675
3 731 1667 1186
3 1113 127 1831
3 197 198 2008
3 450 762 1252
3 24 320 1893
3 625 197 2008
3 891 395 2040
3 741 1142 1164
3 495 973 1822
3 1379 1167 1953
3 859 1118 1755
3 918 425 1343
3 183 1038 1882
3 1683 822 1681
3 320 321 1338
3 1286 632 1693
3 783 1528 2034
3 1328 819 1196
3 511 1114 1884
3 801 723 1280
3 889 544 1553
3 1379 932 1652
3 1444 1923 1919
3 544 889 1946
3 525 1606 1595
3 1019 995 1618
3 491 37 1720
3 1958 736 1370
3 785 951 1620
3 1784 730 1576
3 361 1566 1477
3 635 951 1802
3 966 639 2027
3 764 1495 1486
3 48 49 1721
3 831 1766 1639
3 1329 227 1937
3 1566 755 1477
3 1121 648 1281
3 1264 565 2030
3 505 1570 1132
3 639 1146 2027
3 991 799 1505
3 626 1548 1367
3 1448 545 1666
3 1644 229 1339
3 1311 726 1862
3 715 1722 2021
3 512 1009 1750
3 716 1731 1431
3 758 1128 1126
3 907 1250 1412
3 1250 540 1412
3 364 1728 1814
3 1667 594 1186
3 813 515 1255
3 695 769 1869
3 988 872 1454
3 667 525 1836
3 1596 681 873
3 395 891 1999
3 1698 458 2014
3 1136 141 1997
3 1142 830 1164
3 630 891 2040
3 568 1677 1697
3 1032 272 2015
3 289 1479 2016
3 1362 645 1346
3 389 1752 1295
3 1020 1341 1342
3 277 276 1745
3 425 918 1964
3 1923 434 1919
3 953 520 1500
3 377 619 604
3 556 1683 1681
3 996 408 1810
3 749 487 1972
3 489 1598 1222
3 891 329 1140
3 871 488 1961
3 1646 1059 1991
3 585 1585 1861
3 1476 458 1926
3 22 1152 1257
3 1585 698 1861
3 1129 746 1803
3 57 58 1519
3 1002 691 1003
3 901 391 1922
3 906 1897 1971
3 1000 841 1872
3 1694 851 1906
3 42 1532 1497
3 1846 366 1582
3 1052 948 1458
3 335 757 1687
3 1280 693 1481
3 1585 480 811
3 1598 318 1222
3 1007 988 1454
3 1243 1846 1582
3 1133 1180 1999
3 346 27 1914
3 1564 364 1814
3 403 1206 1608
3 1206 403 1628
3 648 1475 1702
3 1531 339 1547
3 899 835 1668
3 204 1262 1311
3 1228 1230 1458
3 1422 1153 1783
3 1728 413 1814
3 533 1286 1693
3 1043 930 2010
3 1528 860 2034
3 835 649 1668
3 553 1204 1216
3 351 1150 1913
3 762 608 1544
3 1262 726 1311
3 209 210 1790
3 1251 1698 2014
3 570 1649 2032
3 1150 444 1913
3 296 16 1792
3 285 284 1515
3 619 649 604
3 31 32 1383
3 1093 495 1822
3 1537 1234 1435
3 200 1537 1435
3 801 933 1333
3 448 1517 986
3 762 780 1955
3 529 961 1017
3 675 953 1500
3 953 675 1587
3 378 1387 1558
3 436 1203 1391
3 769 695 1910
3 1018 424 788
3 1696 575 412
3 72 73 2024
3 237 238 1597
3 1641 1317 1160
3 974 1147 1944
3 1019 429 1891
3 1270 396 1896
3 892 1808 1771
3 912 1597 2017
3 373 1805 1301
3 444 1150 1923
3 495 1099 1762
3 1612 756 2020
3 61 988 1864
3 1152 705 1257
3 1548 508 1367
3 601 1664 1706
3 140 1136 1785
3 734 129 1315
3 854 1644 1339
3 1664 365 1706
3 1560 115 1906
3 712 1030 1747
3 1230 460 1458
3 895 1270 1896
3 1734 187 1304
3 393 1769 1776
3 927 592 1742
3 1648 373 1614
3 1213 384 1959
3 690 1459 1981
3 1625 530 1030
3 83 1732 1447
3 712 1625 1030
3 385 441 2019
3 1433 522 1713
3 723 801 1333
3 1138 1045 855
3 198 1657 2008
3 826 1633 1963
3 898 760 1561
3 938 761 1986
3 1459 466 1981
3 891 630 1562
3 1148 400 1397
3 124 125 1266
3 736 1136 1997
3 129 130 1315
3 1856 536 1656
3 63 829 1708
3 608 762 1955
3 556 1681 2041
3 748 1443 1802
3 368 1559 1754
3 382 1654 1736
3 1329 925 1975
3 149 1632 1300
3 845 1060 1787
3 504 1288 1977
3 155 1439 1795
3 187 188 1304
3 649 1015 604
3 387 874 1956
3 496 966 2027
3 365 1042 1706
3 954 762 1544
3 546 1192 1876
3 263 997 1868
3 879 1067 2033
3 1116 1345 1768
3 1704 655 1631
3 1146 496 2027
3 1217 786 1330
3 1632 866 1300
3 755 946 2009
3 662 1422 1783
3 359 1704 1631
3 490 1087 1283
3 789 923 1555
3 358 1078 1974
3 1152 719 1920
3 1592 175 1265
3 95 1591 1594
3 82 83 1447
3 464 1657 1474
3 2029 718 1857
3 424 1612 2020
3 479 1031 2041
3 20 319 1895
3 1010 491 1720
3 1231 880 1313
3 851 1560 1906
3 423 1132 952
3 227 228 1937
3 1641 904 1394
3 1269 76 1565
3 1644 854 1937
3 330 331 1751
3 317 23 1583
3 1433 41 1497
3 365 1664 1001
3 24 1348 1555
3 1310 690 1981
3 631 1498 2023
3 981 971 1371
3 1308 861 1798
3 831 1639 2000
3 520 1536 1837
3 1152 22 1382
3 727 1256 1576
3 1069 1163 1661
3 846 1810 1730
3 441 1263 2019
3 1403 1764 1717
3 1105 724 1261
3 705 1152 1920
3 329 330 1140
3 1732 970 1523
3 1728 753 1663
3 332 25 2048
3 1004 819 1335
3 737 1723 1851
3 1439 865 1795
3 1199 625 1941
3 1654 922 1736
3 1034 1734 1985
3 602 1855 1945
3 1113 718 2029
3 1870 509 1798
3 1556 433 2028
3 1785 1319 1507
3 1349 569 1932
3 1014 1662 1962
3 1416 1089 1376
3 1115 482 1149
3 762 954 1252
3 22 313 1382
3 261 262 1535
3 1691 1381 1650
3 661 1893 1421
3 524 1740 979
3 1530 541 462
3 756 1612 2044
3 1502 833 1434
3 1611 839 1450
3 194 1584 1626
3 107 108 1431
3 162 163 1126
3 1406 657 1557
3 995 1019 1621
3 1271 739 1885
3 622 977 1873
3 1123 1271 1682
3 994 494 1365
3 307 306 1236
3 937 542 1970
3 78 79 1226
3 1719 56 2037
3 1348 789 1555
3 1638 672 1888
3 743 1406 1557
3 301 300 1554
3 1657 464 1928
3 670 1105 1261
3 615 1622 1755
3 55 1719 2038
3 712 1747 1980
3 233 234 1685
3 377 604 1676
3 1399 250 1836
3 444 1166 1913
3 1137 1100 836
3 1350 430 1767
3 131 132 1384
3 606 1195 1858
3 1060 537 1787
3 753 1003 1663
3 592 927 1939
3 583 1877 1878
3 545 875 1179
3 1872 737 1851
3 412 575 2056
3 1564 602 1824
3 1194 598 1888
3 151 152 1860
3 501 1570 1936
3 475 1657 1928
3 1511 427 1512
3 1268 624 1514
3 1355 54 2038
3 803 708 1516
3 1664 601 1776
3 46 47 1162
3 53 1355 2025
3 1877 534 1878
3 601 1121 1776
3 885 960 1912
3 819 1316 1335
3 988 62 1708
3 1043 815 1812
3 1664 584 1001
3 630 418 1775
3 191 192 1758
3 1585 585 2003
3 1044 850 1158
3 1411 1022 1896
3 1299 154 1795
3 585 1193 2003
3 398 937 1970
3 927 1110 1939
3 1023 868 1675
3 850 548 1158
3 16 307 1749
3 1848 705 1920
3 1519 58 1079
3 1076 1734 1304
3 418 838 1775
3 520 1047 1500
3 551 1417 1660
3 666 935 1623
3 137 138 887
3 930 1804 2010
3 245 246 1527
3 396 1411 1896
3 1723 547 1821
3 1732 392 1447
3 146 147 1871
3 134 135 1709
3 1260 1758 2044
3 1741 463 1602
3 435 1416 1376
3 1166 1108 1533
3 284 12 1670
3 856 421 1388
3 1383 32 369
3 1422 662 1818
3 741 1164 751
3 574 1098 1429
3 112 113 1753
3 1204 673 1216
3 157 158 677
3 595 1115 1149
3 769 539 1869
3 1385 999 1572
3 719 1556 1541
3 566 1106 1992
3 1893 1427 1421
3 1612 554 2044
3 852 934 1772
3 872 988 1708
3 322 323 1309
3 57 1519 2037
3 941 247 1881
3 1229 1433 1497
3 1098 670 1429
3 1405 34 2047
3 247 248 1881
3 724 1105 1499
3 314 22 1257
3 1195 1135 1858
3 364 1564 1824
3 205 206 1887
3 525 1399 1836
3 49 50 1692
3 474 1848 1920
3 999 1169 1484
3 865 1299 1795
3 1570 597 1936
3 927 72 2024
3 1048 1673 1658
3 406 519 771
3 1105 212 1499
3 923 347 1555
3 1078 488 1974
3 1226 1569 1376
3 1550 720 798
3 1684 849 1932
3 10 277 1954
3 432 801 1481
3 1704 735 1837
3 1121 393 1776
3 303 302 2001
3 949 929 1426
3 974 1110 2024
3 1617 576 979
3 98 99 1898
3 171 172 975
3 104 105 972
3 165 166 969
3 375 1827 1768
3 1047 675 1500
3 797 1723 1821
3 1249 769 1910
3 449 1164 651
3 1164 449 751
3 659 941 1850
3 404 1629 1487
3 1164 830 651
3 941 780 1850
3 698 1624 1861
3 885 381 1879
3 819 1328 1316
3 989 1599 1466
3 91 92 1563
3 689 1518 1905
3 178 179 1190
3 1396 491 1334
3 435 1653 1337
3 1719 1024 2038
3 1470 1287 1643
3 294 293 2054
3 280 279 1284
3 1642 629 1568
3 1259 626 1371
3 275 747 1326
3 1305 1470 1643
3 291 290 1894
3 1835 542 1692
3 1323 1719 2037
3 481 1346 1462
3 1423 432 1481
3 1539 776 1885
3 543 1145 1667
3 496 1529 1840
3 649 1113 2029
3 474 1648 1614
3 480 1585 2003
3 299 17 1690
3 919 220 1724
3 668 1396 1334
3 290 1548 1894
3 1860 152 1737
3 334 335 1687
3 115 116 1906
3 915 444 1312
3 695 1869 1661
3 990 795 1212
3 693 1423 1481
3 1047 603 1610
3 1406 743 1487
3 1328 314 1257
3 526 1092 1482
3 339 340 1547
3 632 1546 1873
3 1291 783 1365
3 1234 1537 1220
3 240 241 1924
3 25 901 2048
3 1372 816 1826
3 968 978 1838
3 575 2032 2056
3 980 631 2023
3 1751 823 1874
3 988 1007 1864
3 1769 765 1801
3 1572 572 2052
3 1529 908 1840
3 395 1106 2040
3 780 941 1881
3 739 1539 1885
3 572 999 1484
3 724 1673 1492
3 357 476 1833
3 739 734 1315
3 1863 429 1618
3 895 763 1907
3 1603 479 1401
3 1653 984 1337
3 727 1638 1888
3 999 572 1572
3 253 254 1240
3 1399 525 1595
3 950 1256 1993
3 720 1550 1940
3 904 1641 1160
3 1133 1751 1874
3 661 935 1961
3 1569 435 1376
3 1256 1141 1576
3 1393 450 1252
3 1677 1156 1750
3 1293 680 1227
3 110 1752 2049
3 1020 160 2050
3 503 447 1627
3 974 74 1847
3 523 810 1104
3 447 694 1627
3 347 24 1555
3 1605 781 1542
3 85 86 1446
3 1827 1225 1768
3 272 8 2015
3 14 289 2016
3 1673 1048 1492
3 1248 517 1623
3 554 1260 2044
3 1694 982 1053
3 1227 378 1558
3 1400 1527 2053
3 978 787 1838
3 1567 562 1568
3 765 1503 751
3 1789 78 1226
3 440 915 1312
3 1753 113 1402
3 954 1926 1252
3 1346 614 1462
3 1617 362 1917
3 654 1863 1618
3 660 1405 2047
3 58 59 1079
3 184 185 1688
3 62 63 1708
3 391 763 1187
3 697 1651 1671
3 1189 1204 1676
3 705 1328 1257
3 1204 349 1676
3 618 1506 1939
3 1296 457 1421
3 1147 974 1847
3 810 710 1104
3 1137 366 1960
3 839 1590 1450
3 1720 1550 798
3 935 457 1623
3 1503 741 751
3 1926 794 1252
3 463 778 1602
3 112 1753 1295
3 677 158 1342
3 321 810 1338
3 324 325 1927
3 868 1023 1292
3 1610 566 1992
3 1276 1469 1805
3 513 1271 1885
3 923 526 1482
3 70 71 1678
3 1143 397 1701
3 1571 528 1733
3 1844 442 1408
3 506 1672 2013
3 676 1691 1650
3 1672 478 2013
3 1438 1007 1454
3 148 149 1300
3 555 1552 1195
3 878 393 1281
3 212 213 1499
3 584 1769 1801
3 794 1393 1252
3 948 647 1743
3 1554 784 1457
3 199 200 1435
3 828 1390 1174
3 519 417 771
3 694 1761 1374
3 259 260 1979
3 1761 1156 1374
3 1506 592 1939
3 624 968 1119
3 427 980 1934
3 1250 907 1672
3 41 42 1497
3 1045 426 855
3 453 1438 1454
3 127 128 1831
3 74 75 1847
3 557 948 1743
3 417 1298 771
3 1609 400 1843
3 152 153 1737
3 448 1107 1930
3 352 1788 1486
3 1307 1362 1857
3 113 114 1402
3 1552 1135 1195
3 475 625 2008
3 1520 472 1904
3 135 1194 1709
3 154 155 1795
3 453 868 1292
3 500 1084 1655
3 1084 500 1899
3 867 688 1900
3 688 867 1351
3 471 1400 2053
3 32 33 369
3 887 138 1507
3 1258 919 1724
3 456 968 1838
3 681 1741 1602
3 774 980 2023
3 138 139 1507
3 686 1436 1945
3 1271 513 1682
3 133 134 1634
3 932 1207 1947
3 134 1709 1634
3 979 576 2012
3 501 1470 1911
3 302 1700 2001
3 111 112 1295
3 158 159 1342
3 264 265 2042
3 52 53 2025
3 137 887 1540
3 34 35 2047
3 422 1316 1848
3 56 57 2037
3 426 1200 855
3 220 221 1724
3 1207 361 1947
3 1048 1086 1492
3 1757 423 1967
3 1016 1807 1656
3 925 539 1975
3 562 1642 1568
3 1256 727 1993
3 971 1259 1371
3 458 1476 2014
3 1878 534 1477
3 54 55 2038
3 1089 1789 1226
3 470 1858 1456
3 1807 421 1656
3 141 4 1997
3 1640 884 1154
3 109 110 2049
3 160 161 2050
3 1443 635 1802
3 1549 554 1786
3 457 1248 1623
3 682 1360 1063
3 819 1004 1765
3 1143 20 1895
3 1086 657 1492
3 607 1757 1967
3 1550 1713 1940
3 234 1501 1685
3 1679 353 993
3 136 137 1540
3 1469 354 1805
3 132 1451 1384
3 664 1064 1901
3 265 1390 2042
3 1752 1289 2049
3 1290 1020 2050
3 670 1629 1429
3 1622 859 1755
3 1546 622 1873
3 1599 989 1701
3 494 1291 1365
3 1360 682 1246
3 477 1322 2036
3 1830 371 2035
3 393 878 1503
3 1366 410 1963
3 1842 1167 1855
3 1401 479 2041
3 1221 1571 1733
3 353 1679 1882
3 649 619 1668
3 1115 515 1621
3 192 1815 1758
3 1488 1111 1969
3 657 1086 1973
3 797 1821 1368
3 1821 1279 1368
3 684 1631 1915
3 1470 945 1911
3 733 1488 1969
3 596 1460 938
3 539 925 1869
3 1858 1135 1456
3 1304 722 1442
3 1619 1447 1574
3 733 1807 1488
3 645 1787 1378
3 1127 510 1464
3 1286 280 1284
3 293 1528 2054
3 1807 1016 1488
3 354 1665 1573
3 931 1502 1434
3 602 1842 1855
3 1698 717 1978
3 1837 735 1902
3 1091 440 1312
3 397 1599 1701
3 1241 803 1841
3 878 741 1503
3 683 886 1680
3 1493 1049 1800
3 1086 877 1973
3 726 1137 1960
3 973 363 1774
3 498 1241 1971
3 1418 1013 1754
3 228 1644 1937
3 1430 1549 1786
3 1026 402 1521
3 1510 896 1928
3 1322 533 2036
3 388 973 1774
3 860 1830 2035
3 403 926 1628
3 1308 995 1756
3 815 1043 2010
3 721 1773 1149
3 1210 1050 1654
3 239 1066 2017
3 1848 474 1989
3 301 1554 1457
3 654 1618 1952
3 1406 670 1261
3 1769 393 1503
3 1801 765 1866
3 1723 797 1851
3 1537 636 1220
3 1787 537 1378
3 821 1126 1875
3 1431 1468 1933
3 423 1757 1534
3 663 1696 412
3 1033 1103 1551
3 1618 995 1952
3 413 1728 1663
3 1456 1135 1916
3 422 1039 1922
3 1799 522 2012
3 1390 828 2042
3 576 1799 2012
3 918 1710 1964
3 765 1769 1503
3 1064 1065 1901
3 808 615 1845
3 1815 756 1758
3 1648 719 1541
3 1766 911 1639
3 841 737 1872
3 390 1648 1541
3 1773 317 1583
3 1773 595 1149
3 130 1539 1315
3 753 1002 1003
3 1049 671 1800
3 1758 756 2044
3 1381 1759 1650
3 1280 1219 1375
3 1089 1226 1376
3 1425 552 1370
3 1229 1778 1892
3 679 883 1943
3 883 611 1943
3 484 821 1875
3 1468 445 1933
3 1686 1377 1275
3 902 885 1879
3 672 1194 1888
3 1914 1363 1484
3 552 1460 1958
3 393 1121 1281
3 1823 663 1452
3 611 874 1904
3 439 1619 1574
3 849 1349 1932
3 522 1799 1940
3 1645 834 853
3 1781 1130 2045
3 508 1332 1367
3 1356 717 1197
3 521 1686 1275
3 722 621 1442
3 1417 936 1660
3 1110 974 1944
3 1123 1823 1452
3 943 1973 702
3 1346 645 1378
3 1846 1243 1867
3 748 1216 1168
3 732 788 2020
3 213 1673 1499
3 693 1280 1375
3 625 475 1941
3 356 1127 1464
3 1369 1456 1916
3 945 1689 1593
3 841 1000 1854
3 989 1249 1910
3 691 1002 1354
3 539 226 1975
3 1044 1158 1419
3 861 1308 1756
3 816 1241 1841
3 1097 529 1017
3 391 1004 1335
3 12 1165 1670
3 1713 522 1940
3 351 1600 1117
3 1194 672 1709
3 1673 724 1499
3 630 1775 1562
3 911 1766 1983
3 716 1781 2045
3 1332 1128 1367
3 559 1224 1730
3 1911 945 1593
3 417 766 1902
3 1120 1403 2006
3 843 1120 2006
3 1169 1914 1484
3 1316 422 1335
3 1600 1377 1117
3 1804 825 2010
3 1216 673 1168
3 1158 1279 1419
3 932 1198 903
3 1015 1189 604
3 1387 506 2013
3 850 1377 1686
3 1062 693 1375
3 674 1645 853
3 384 1062 1375
3 1249 989 1466
3 921 1746 1551
3 1460 596 1958
3 1381 1691 1292
3 948 1228 1458
3 902 528 1571
3 935 871 1961
3 1689 701 1593
3 896 1630 1962
3 565 1925 2030
3 1779 1130 1781
3 508 1780 1332
3 1973 877 702
3 1657 475 2008
3 1810 846 2057
3 694 778 1627
3 1770 1059 1865
3 1884 380 455
3 522 1892 2012
3 778 463 1627
3 430 1080 1767
3 359 1801 1866
3 461 1949 1782
3 1778 524 1892
3 1080 1184 1767
3 1630 1014 1962
3 1200 854 855
3 1039 422 1989
3 1122 618 1743
3 1770 958 1991
3 1059 1770 1991
3 995 1308 1952
3 1176 436 2057
3 464 1510 1928
3 1744 10 1954
3 1015 649 2029
3 818 850 1686
3 575 1714 2032
3 806 1039 1989
3 647 1122 1743
3 1438 453 1691
3 1621 515 1756
3 874 842 1956
3 602 1436 1824
3 1345 1884 455
3 1230 1228 1736
3 458 1698 1978
3 736 1118 1370
3 1764 658 1717
3 1949 983 1782
3 1192 1535 1876
3 1340 613 1215
3 1308 578 1952
3 781 1846 1867
3 851 1694 1053
3 717 1698 1197
3 1925 817 2030
3 1677 459 1697
3 1109 523 1104
3 1298 909 771
3 1103 921 1551
3 1372 906 1971
3 816 1372 1971
3 1184 1349 1767
3 1110 927 2024
3 1007 1438 1716
3 926 1083 1628
3 367 1004 1187
3 1436 602 1945
3 875 1011 1179
3 1010 1720 798
3 1083 1891 1601
3 922 1230 1736
3 1666 545 1179
3 510 841 1854
3 1002 551 1354
3 1834 394 1220
3 552 1425 1103
3 636 1834 1220
3 221 1760 1724
3 442 1748 1946
3 447 712 1980
3 1118 859 1370
3 1087 424 1283
3 391 1335 1922
3 1674 1069 1661
3 1799 720 1940
3 1735 1201 1478
3 840 1735 1478
3 568 778 1374
3 676 1438 1691
3 628 1948 1209
3 1224 676 1347
3 1211 548 1712
3 1273 1911 1593
3 1948 1214 1209
3 1390 607 1174
3 1691 453 1292
3 1652 932 903
3 563 1918 914
3 1780 484 1332
3 445 1779 1781
3 491 1010 1334
3 1030 696 1747
3 846 1224 1347
3 1004 391 1187
3 351 1242 1600
3 1040 386 1462
3 1717 431 2006
3 1242 351 1533
3 1403 1717 2006
3 1108 1242 1533
3 524 979 2012
3 1700 576 2001
3 1263 1581 2055
3 963 1340 1215
3 653 1994 2004
3 1841 803 1321
3 894 1689 1690
3 1994 1095 2004
3 880 1811 1326
3 1172 1286 1284
3 1528 1177 2054
3 1649 537 2056
3 1362 414 1857
3 71 1742 1678
3 1467 1255 1324
3 1428 461 1782
3 1242 729 1600
3 1722 529 2033
3 499 1231 1313
3 1889 1083 1601
3 388 902 1879
3 886 690 1680
3 1557 943 1659
3 960 902 1571
3 1198 932 1947
3 797 1729 1851
3 1141 1784 1576
3 1115 595 1324
3 1004 367 1765
3 515 1115 1324
3 223 1249 1466
3 1712 1073 1253
3 1234 1474 1435
3 1335 422 1922
3 1474 199 1435
3 1742 1201 1678
3 1472 413 1663
3 587 914 791
3 873 681 1602
3 614 1040 1462
3 617 1428 1782
3 1957 388 1879
3 1828 1183 1765
3 381 1957 1879
3 1067 1722 2033
3 882 1211 1712
3 604 1189 1676
3 882 1712 1253
3 1158 548 1368
3 548 1211 1368
3 1918 1188 914
3 431 1966 2006
3 1766 513 1983
3 914 1188 791
3 4 1118 1997
3 1760 1258 1724
3 1966 843 2006
3 1301 806 1614
3 1935 1373 2007
3 1734 1076 1985
3 1086 1048 2039
3 1081 1844 1408
3 1581 613 2055
3 1501 1153 1685
3 392 1732 1523
3 550 633 1035
3 1052 1577 2043
3 538 1180 1874
3 1140 1133 1999
3 984 1745 1337
3 1577 818 2043
3 1891 429 1601
3 1067 1125 1988
3 797 1211 1729
3 509 1870 2002
3 891 1140 1999
3 1935 582 2031
3 367 1828 1765
3 1065 1935 2007
3 1242 1108 1558
3 1918 413 1472
3 1938 1184 1969
3 1118 736 1997
3 1870 750 2002
3 1373 1935 2031
3 612 1233 1253
3 1111 1938 1969
3 416 738 1929
3 1863 943 702
3 401 416 1929
3 1125 563 1988
3 1883 746 791
3 1241 816 1971
3 636 1237 1616
3 1237 1029 1616
3 1548 1161 1894
3 1180 1133 1874
3 1233 882 1253
3 1211 882 1729
3 877 1889 1601
3 1188 1883 791
3 383 1841 1321
3 743 1557 1659
3 1188 1918 1472
3 1205 1515 1786
3 1681 1011 2041
3 1515 1430 1786
3 1745 1012 1337
3 1076 1304 1442
3 561 1872 1851
3 1759 469 1650
3 1003 516 1663
3 1198 532 903
3 50 1835 1692
3 423 952 1967
3 1056 1995 1901
3 1494 1444 1919
3 859 1425 1370
3 964 1097 1017
3 8 1779 2015
3 1780 14 2016
3 1686 521 2043
3 1447 392 1574
3 1995 664 1901
3 633 1410 1035
3 952 1273 1967
3 1377 1600 1275
3 1747 692 1980
3 1224 846 1730
3 1600 729 1275
3 818 1686 2043
3 429 1863 702
3 422 1848 1989
3 1070 2026 1809
3 2026 512 1809
3 1527 659 2053
3 2018 774 2045
3 351 1913 1533
3 614 1346 1378
3 1913 1166 1533
3 1221 1942 1571
3 1942 960 1571
3 778 694 1374
3 1819 332 2048
3 1604 471 2053
3 635 1572 2052
3 755 1878 1477
3 983 1949 1380
3 595 1773 1583
3 1535 1006 1876
3 1908 851 1053
3 399 1908 1053
3 1973 943 1557
3 1885 776 1983
3 1951 1067 1988
3 1079 59 1272
3 1982 1381 1292
3 1949 1055 1380
3 1130 2018 2045
3 374 938 1986
3 373 1301 1614
3 1347 676 1650
3 1255 515 1324
3 852 1494 1919
3 1639 514 2000
3 469 1347 1650
3 877 1601 702
3 788 424 2020
3 512 1750 1809
3 1750 1156 1809
3 1392 1951 1988
3 1412 540 1478
3 716 1431 1933
3 1126 1128 1875
3 1201 1412 1478
3 995 1621 1756
3 1601 429 702
3 1892 524 2012
3 537 412 2056
3 1211 797 1368
3 792 1079 1272
3 2005 52 2025
3 1332 484 1875
3 445 1781 1933
3 1359 1652 903
3 2022 1369 1916
3 578 2022 1916
3 2019 1263 2055
3 1541 1556 2028
3 659 1604 2053
3 1011 1401 2041
3 1181 2019 2055
3 1279 1158 1368
3 513 1885 1983
3 1201 1735 1678
3 390 1541 2028
3 1539 739 1315
3 657 1973 1557
3 1729 561 1851
3 516 1472 1663
3 1735 70 1678
3 1314 2005 2025
3 1023 1982 1292
3 1128 1332 1875
3 1781 716 1933
3 483 2034 2035
3 1693 725 2036
3 533 1693 2036
3 2034 860 2035
CELL_DATA 3776
SCALARS Von_Mises float 1
LOOKUP_TABLE default
41120136.00800038 57984130.84890641 57202738.56782698 40635087.84321896 111196813.20720226 60680264.12104311 4123045.6229810338 73852577.23645319 86149284.57742849 170313764.33039907 13935860.968096407 76456157.3950342 78119224.51984893 59582336.82255288 56156845.148469284 37226998.14498495 58768906.924944475 22205108.236570258 60570616.04225764 62554375.08072616 66733352.776959285 51671683.74587009 58057162.84719953 45711550.00554403 41577746.4492804 66665033.856389046 37522491.70660904 73021141.95592374 45271536.42032929 44165645.17015444 10474643.907818716 29976648.701534037 60507544.317654274 80057192.05042177 68794693.63769507 78480197.97112498 57592492.451586574 60179428.50333657 9655092.18646408 65957274.48743126 60764721.146630615 64713644.019461505 59636152.46349471 55412582.61085517 74756561.0473612 22931889.314667735 21115467.848406292 59172124.498252325 51534516.9975736 2047109.2779818864 23187468.743064824 60872058.95279065 57366279.4100248 27052566.20209159 37233813.746961646 51424618.72294254 82050272.16242427 25411405.99645812 66881181.56698122 82308748.04878478 64093042.17513276 42304122.04456706 31206725.057822693 22246598.707415856 56235430.172846444 65896119.39735768 165434049.34482837 60653477.19113036 19899425.125049844 71952305.89811914 50257651.53296799 52270329.00993456 37711091.2364158 8735550.829074437 51321225.86971426 62928489.76009649 62901748.01649729 44967073.196728736 51669573.04467568 39442974.91062375 77351850.14118026 35456286.45938834 66692166.58731692 68729570.78253812 66123150.60892505 39689694.94483197 19827763.559716202 59529139.51455704 26756711.193675887 48398415.55247046 77322319.58666645 323896534.15097576 50661007.71609894 59774478.835733384 65743843.20074254 81727777.06611711 169961382.29030776 52691040.11230479 62911740.358795136 61078188.71562771 60989448.77667546 70825130.57618193 61130209.0398281 72248262.32908815 72708465.10352229 48453957.02463805 60297229.37513522 79309598.9266233 51661107.7696251 49710076.2424551 33810685.33825944 121298008.94617285 50799885.18684995 53741051.879351825 37220409.379211634 50427220.679846935 81519977.71918815 42860854.305684015 62071907.4570426 60362567.855252355 61522055.949235365 62132495.75451278 26848704.3810905 67930532.66757542 53058009.40855821 34019598.88368519 49517249.178336695 62265647.03920842 66225004.71157814 64554827.50317165 37577344.66999043 70289989.33572839 23209923.346523564 44050197.81391492 79747255.75771676 64745579.2045946 36227197.409710936 57911811.29947312 31289448.285263848 23091343.486446515 63756939.06542549 40789889.15341598 28356657.99137745 68032301.79440194 31356206.57953536 49892779.652212724 24701933.771153044 53214511.41685062 44207310.83547038 63150587.4453916 23681851.87954675 63249960.02177434 63514530.38578082 57680213.601673044 2968484.1896644295 71116185.96163477 78873296.9897678 64145380.16145028 166280651.0544074 70030515.61229965 62305391.380023904 68768088.29205729 67998440.6637356 3245277.8077097666 47941528.38356102 71341370.29718402 23932855.53764616 50018544.86824692 59050946.9890937 140931917.3620408 70743081.34559822 31213038.653802894 73424060.14309318 67948939.73738042 50014585.63079464 74187812.4115344 74313855.52854775 60611863.10062687 8549350.934860079 59580147.43875304 31635477.997820072 42408024.45391238 63674312.0019775 69460640.867157 64194320.083770685 57970614.10428177 59001020.69317371 63405847.134393886 70267181.30479808 56569898.02156711 75366756.50319488 69531150.43420687 40311140.198982365 67001110.2671442 3126480.067294901 31746711.968973942 55594802.45316276 72263042.8314345 48977950.64287897 46275800.751193576 88751250.9944884 67833199.99697818 52617485.20383806 39304631.98434513 21726901.097680915 21880490.5921327 31285310.609095216 61243837.77910803 28006788.81101927 31289336.958521124 30719376.63113274 62010106.22743412 27741585.814263422 86899254.4609251 61516311.89756833 63849179.24017037 16771372.325491032 32297271.9849938 22739345.676776562 40406809.733947255 1987885.5698797249 61586141.094154865 65785019.95987695 66480988.5042226 30331796.85336277 53383647.00491643 38983366.71752337 84978272.12889943 84606206.29947826 58202611.48376554 6258994.858482104 65132454.771863975 31939093.379094865 58527736.05233626 56787480.3816141 75608641.46145223 16320475.473024359 94751930.81923851 69539536.84540679 18016583.606271666 5559024.271419103 68514743.01620103 71949653.04687132 32474068.795741767 60062983.62388479 61771334.47845117 31683608.323629048 40719201.975421935 62810118.854306564 4119496.9815248386 104906628.3879457 21612056.803083103 57831645.59250858 16565810.910153838 59356999.12198917 37172996.320292525 51011892.851022616 55381091.05436088 42828620.67891501 66205369.56367726 20413536.62224467 22915934.159489747 42446095.81224513 72235953.18477803 55390940.47043705 17517121.88749746 17552537.40374133 70808396.16012146 53891618.89228499 54020228.21831553 70300770.29158369 54128881.450504676 73159649.35116506 34250092.38778415 6693558.4544099355 67403083.20802993 95588553.18371303 64439769.105049245 71147916.01484667 35924146.87057245 67223717.8970435 34399146.70612997 76789799.7970265 76326248.35533597 34825261.5260076 49272812.12668419 77050132.58487016 80995223.85484047 41378390.24053762 96709092.33228858 69783775.47762452 37204208.91795115 56183432.79434463 58379909.9195831 68726038.62481311 20014837.225298323 72185116.75250755 52102733.792253755 102932771.63617724 29761998.582412265 30288240.05888263 65460042.79238793 32499164.93901916 72089222.77889924 65941004.39917714 64537055.07530738 52785846.58409273 21709793.14460575 13957445.485554723 59538068.15767234 60269998.70416796 69070504.42490983 63718228.21644917 63798212.55387581 57059130.34050368 47798072.96377932 34256943.88820304 35172395.593546756 49836727.676820815 49715491.596508965 68881053.90894051 29191537.48339161 38527507.23153956 87274926.80846612 62004214.73766864 71671048.38711101 58716163.17738111 58771148.71402824 71643383.25963579 58194576.73448257 65447475.03143126 58481415.74516722 65444494.86791105 69246711.95442334 59154208.81653147 59741127.7764577 70312577.1809363 50767879.44546383 57939315.91585805 63959642.054483294 64663393.50985002 52443515.22576377 628376.2663612927 271784.21453330736 272140.83663377713 616352.1656078204 42277633.441941775 65606069.696521044 66226989.67832896 65402556.750412755 57323946.96106509 53624406.4198761 70406527.05915649 59141231.315506354 56956438.60146345 3784913.783508809 69452156.28324431 71304151.31587738 53647491.883016706 58457548.495389946 30090786.647359096 10987310.070296632 46240516.84496431 83362674.86894064 69943435.79869534 81228698.30985081 70501498.83624558 35846481.47035459 33902419.119740926 74274602.11345628 9680688.356103633 68923869.6416457 4096992.558897124 60007666.538221456 69184663.92353216 16030994.978047665 72507307.36744826 66789918.43841938 43117181.90971284 60036175.08014307 70327914.6962247 62643556.21336171 643416.8928900993 18167059.479082804 67335680.39251858 91810782.16746204 61068432.40699446 37551750.34057339 63044211.041820526 70327398.218233 38018268.635925144 56794089.396350235 69105864.3769704 55213929.75759738 63497912.949716836 65597940.386689685 948730.9689014712 73758709.88654391 54267885.57573266 649900.6510877402 773554.0593784661 70771568.557007 30219898.545630053 68475666.87966678 15546217.765556488 74679805.8271649 62436710.429110296 55202852.19203995 42283495.10576958 55791621.324937105 68714490.97005653 34031150.79344495 33726765.44914431 77094469.44884565 57590298.291472465 57138265.897388406 40342214.440853864 110442847.93678443 40367269.658950634 52341154.84125163 7808490.904022873 36445554.978759125 18274541.84914308 6002496.155594261 66777431.48831285 57975295.37957831 21536335.272937715 13923767.049508682 26761983.483374972 60446578.3719391 66377633.67494574 26140647.853639834 327636.7362343135 76259492.14499316 26280714.51620103 55989624.07758528 59408904.4828304 62335622.86091808 66309542.108992584 67178670.95794174 74627350.78574441 67447036.33722878 65245546.95196733 18261088.31499005 46699932.59469518 29652518.577432126 66440954.17163738 72140296.63734378 48122403.194388896 72908254.90180434 91990228.59545112 4811325.31896316 70865283.84936698 6832142.449100485 44914335.28813364 4865427.017133524 341149.097972506 65829185.96691626 59044936.14089873 37277633.86456066 61858597.067922756 23732549.266592994 23732549.266592994 68193353.51123898 68943274.31882581 57717289.72754235 19108863.605759677 66637961.15782911 61242615.51127957 60757931.66873645 47386111.10187695 22973689.74908882 28275250.828076202 46746348.35954032 35766642.35562676 47519181.77805124 69982862.12912747 129842058.28533688 60282716.49263206 64052277.49553367 73642948.59501556 66778633.55494617 69522639.76229836 64010973.18814347 48790621.964277074 80131406.81889777 44283678.539650805 49958794.60330898 49348551.35956745 70718178.06747958 67815580.23987639 2244438.6631840793 66090669.39570623 64560441.88998412 64659903.42129511 17093594.462236423 69224151.28871115 80464334.27253592 97984491.28167838 48988849.81006779 61098684.871313214 66004119.84114198 6050790.812537037 5996277.66113098 39816565.63036787 86820933.30531947 60716662.353496365 39801073.68372758 71099797.8088391 18120639.311514284 56036911.52535151 63424168.206873715 103890040.36918026 71497565.85335489 64109790.56802395 116664018.11444142 65018170.975312866 54156338.52813645 26076335.045371935 27287151.865287296 29245849.59394787 60737348.426881924 3770820.516674505 51300591.664233536 50304481.09364708 24516886.16045086 61320109.44651359 62068453.57976701 75276008.76532693 35275343.49632055 69158434.61786121 67136889.87856662 60330980.592956305 71118389.23597421 65836046.19614731 55653984.16571126 42795791.79789956 42023560.477088645 52328133.47529334 68718034.69097647 75180974.20834282 70128152.2164415 41999410.95016516 32810728.74400183 4782703.30410496 42942554.4609074 113266218.00006574 58997245.810616255 39766272.554886214 68230696.4807265 46427585.69859477 96345202.79043505 72814451.96500513 48080825.89596754 69268282.40389508 64144687.124012634 69948477.34445891 31093322.869152278 59294124.78371441 69235482.80241503 28166339.775201987 66074509.83371615 28211620.629695285 59705654.560182996 27625107.168125514 65501983.984619565 19936468.41938889 64239971.461807065 64828190.20515917 65485601.441761546 60542227.86976812 8614381.306120826 45860925.002625324 28157427.814331282 39315847.61037339 3352683.9494914403 56267639.75154893 54777733.29157781 27576996.667355027 63950331.895179905 9878325.58670607 46331150.19962776 43568604.36883276 75752716.62110823 72325549.36841579 67496748.4045709 39675247.37411748 61761842.37911602 56235855.024549335 4992759.262264435 25656517.07944352 31902674.64400738 5015388.073380532 33259659.824696302 29780414.126997225 45599751.20115588 68789531.63082065 35668286.25000363 48949442.91847143 63590125.09794882 76484977.63980882 42268943.784303404 123772250.20874032 20241683.201132156 70413444.30152781 100160995.59990011 35818058.57162972 29102714.242489807 57658262.561381675 58990243.45558134 50152558.35111244 61143829.80220366 72775962.36563592 84490584.60908973 54441626.00736983 24841795.25677538 66180333.5346809 51778713.929378554 64478061.71811201 28507961.180166088 66263390.745819956 58266385.78885384 64104591.33049318 53781406.16032975 47523186.632614665 35913315.3601 62183386.84375602 132541151.49346556 128065095.53829995 49052111.40906948 49257765.79611668 39565193.28345284 61266268.75553087 50515989.29824653 52207187.63070387 12077815.74194488 59248716.13859604 6037772.435537146 8480166.791287268 2391649.5339865633 68316061.1752415 47120257.103384845 62095279.55921314 12485984.786299948 68131333.93038978 63651962.919349015 38123721.17090925 35282608.874974646 56277621.66371983 7363392.317496074 15781766.955781095 37101657.81238723 96310774.26806055 66442929.45484988 73015998.07102796 15857719.327925926 82028199.98090464 16040706.545556562 41569907.51334232 44269739.45114386 59796459.394971065 59451924.61323425 47367576.97305531 105830087.86223756 102962253.83713019 104540982.91218619 71696884.97856674 65365543.0937447 48108328.24713102 40394197.803570665 56815021.58286846 17769739.93387426 45597065.780653395 45837190.631039284 68457139.98148145 71907095.53308952 51517072.589754395 65834930.78206274 26566625.725258622 59054663.83753764 70943679.900351 83757721.11007848 34370732.56796616 46188375.37970198 65157419.361809544 58775514.171507224 63876073.87086526 25408295.5209618 65796709.72792756 29963479.57283967 49164859.46489961 69440883.53637803 59623109.28005992 76234651.74833278 69593309.92368813 59053063.6195857 100422165.35287632 72571638.26413567 88360753.13682672 60332812.98459114 65513401.885364294 44377452.50045241 65458788.1960522 58475831.50671595 100847579.948904 85915527.60200639 85874689.0123634 73821892.0885689 40388497.0734391 75254437.56923212 60677773.94289782 74163319.52322757 17604629.493423577 71047579.93748736 57695356.16297385 68024889.95925054 64629625.00406753 22246711.575003598 60793526.1489491 58676673.514780395 34296752.667987876 69776543.30877486 99728888.56782898 101055313.98687764 58877769.57407491 59915223.098434374 28223478.20477896 70218896.10990466 12893783.807000905 62197628.76975571 84446655.70045792 84199005.04213275 76043981.55322655 33291193.860411245 33296658.26846607 46289549.526886724 115831421.89670134 41313885.31946844 46324806.856779255 108738332.19372576 57930962.1191602 39424945.431331106 73872558.77311507 69648436.98200923 46834910.98199041 67096630.37769153 70117525.50904883 26571730.952524643 57641089.7357744 64758339.368576884 43889977.44412146 60443024.02448624 118492916.43845509 55996374.016960114 88963601.2750453 64679111.92684463 57613408.725244306 58427353.142004035 14893322.501129018 59648010.49808442 67017673.172019 75791913.26760027 137291989.9360117 15007642.470218869 76324466.76580004 65932211.979938135 57524301.19874193 63431754.55079613 37528394.79959393 72009472.76128061 69085036.05326118 67587428.41076238 71574421.1944793 67084422.677031904 132809167.71628112 53329820.65227282 64857061.12663948 55698558.0332665 64383898.792349026 59658526.49690735 70846834.80232498 63287258.93716951 76868979.70055923 52601260.79856632 97278551.39373864 56096321.58963184 24112544.580677357 25930015.717154976 59162910.86434164 62435764.75463126 5229239.867639163 25294242.828113753 65943783.74902992 33664267.64856845 62020807.4721677 57164067.85101211 39835111.292056575 50213477.95829103 56872156.37666792 59191765.05415404 99118896.87818657 17843743.788291126 43552995.366528764 55122687.72162511 46043898.02955891 33827510.72043953 31479780.885850027 46570585.843050115 67177970.07247292 65346387.29596255 30312240.890248965 30567099.53914764 83531510.52458903 27974190.79869222 8527251.114211924 117372828.4723841 64180594.54144332 83311497.01987666 50683561.99479198 89813588.9801767 71748287.85012114 74599694.43475437 13504391.639793774 61895328.88132495 35976602.024746135 78017190.5101219 28960025.11296706 67351678.17470945 43210004.045330286 43511886.03768694 68794860.68568215 8047620.682601444 61999700.30846092 58932142.18562924 47926753.2615045 35302659.44951763 56247691.59867352 59692534.063998796 23860818.527394827 55923016.62558108 41949764.36066898 57543213.56534953 64384558.16274502 35937878.36478435 27576993.72177422 55665581.633981414 27442976.107281443 63213045.45376934 11106431.275364555 5577750.473443423 27348833.603733033 51112424.81175772 68950374.48214652 64156974.40623033 58372844.88783824 72585251.20325387 87878820.56045236 89083283.23485851 29687729.197381463 58002471.66746262 42989178.471218355 58611197.57964468 42895886.64982226 22192990.00104506 75990452.4435554 64221219.41368077 67334720.15408765 59563212.32297245 49871846.50642341 51850897.01779504 33624067.566355325 88305491.10060287 58681960.69514603 47517626.46353183 66849049.67127074 97937773.38711499 109175922.75266531 20820941.315740846 9277595.84009357 8936801.99610515 44909890.77060381 20348218.74690475 57752744.50063645 71848698.26737124 48290652.42135915 37201611.522552334 46777930.46813013 59130736.860033624 57947034.847830065 35341030.04318333 70138776.95870236 68763098.39460538 69789694.78632858 79324571.76756434 69396057.5050989 118813316.67741168 71496534.39065456 70646968.26032516 20599033.73377478 65813776.53466013 118295161.09149228 78825371.23219657 131829458.50182134 78922364.10978135 48246924.46861313 66242491.7689104 49357196.63942644 61709150.26694324 49744905.27411323 77005162.55381656 103325888.7030249 87650377.74587087 50889663.678960636 53007368.67355076 50233805.41225289 64346981.22095466 68803685.23462933 75361008.54492025 68908527.47831225 128418084.80399913 69023718.51476242 96571913.05467373 71295074.98768385 47467851.47057238 46933229.15726745 33516417.370797306 31310190.462089688 63362089.09090471 46787879.18642005 70680890.63997681 33214745.485046465 51795509.86830451 68566540.92625238 44858587.95783332 69541173.40115601 45212434.041548274 66799610.070967816 41383298.081169605 59207396.799266025 76286320.88074797 29189862.88889777 50556506.160790466 63881820.01946127 57163884.5062528 46714412.57837817 62047531.179859236 15063596.185933694 36895731.18145359 17727028.026248585 14323762.98431427 127576416.46103445 45358753.215512976 61030607.36122085 61365901.00859868 63250438.89887569 37216260.26019313 48587541.63454036 37808044.37241298 37501651.39455194 37553297.3282217 62691516.82444763 76724063.23717536 149958181.7945753 65041109.42445055 51509172.11904029 67254147.50277784 7987682.278610849 65034093.90846074 50234932.47963913 58220423.283302784 52977729.99310024 86575567.81958008 69618968.23012957 47273371.544270545 63646118.471810676 45994718.0499559 21162724.316629127 30874546.40554894 60960432.6985135 70874014.71584764 70889869.66493282 66130583.733854964 68316780.63331117 66127906.57265859 59073870.893646315 32788268.283504847 31893523.14930226 33104019.51533072 84285170.3667065 51276470.35456203 61385925.50663549 63234873.26106528 88783562.73019934 29962245.511437595 61743299.46630147 64754523.68837205 63101093.349824116 63113569.394203715 27277385.66930606 65042504.31263663 64618182.367345944 69772756.26111053 61931946.35577623 66205976.719042465 48982920.12923037 51480646.436284654 62223515.085513525 46057737.97314139 99705539.23513214 72737528.80034404 13343508.399288304 54292562.28919308 33602394.06481412 65923847.44450638 59424006.32461946 65576355.5708293 43736704.90959606 66084561.3416609 63328818.18460795 86115616.91094063 86296829.04103392 39360173.884869546 44621535.46854372 38470775.56291693 33563467.842971355 42969304.93153477 53565660.206753 65764666.39258598 69680405.20176297 55939752.388915785 133357001.19220783 102042738.62114517 69534493.44035798 70951535.81325752 59052971.39562694 49954094.24934828 50541368.26102776 72952646.48359679 65988590.65738011 59319984.91284756 62983631.19920786 62514167.48010113 51106600.675225355 63354277.87438416 72033247.88869385 60742491.549822696 46530486.009355955 91652816.49302565 72030014.29530936 46771904.11441704 69107107.27199453 19221312.0613285 25874535.120049782 37359710.988153145 90797250.34490679 41202980.18899192 65528837.73467514 35566258.45489112 64480495.02417689 62114998.82452487 52803881.30693014 27075099.954574823 36076639.65551551 24512566.75936442 52939270.20280281 65293318.27249558 52998485.156173296 48338191.60252651 87896919.7754127 66457579.31303894 55361968.70344456 10771007.604348589 10779647.663156813 48236087.02641204 58110652.359945394 545.3559655644798 13340322.589185005 64572526.03891702 64600988.96560015 59059686.93116363 83279727.3420406 65584693.728686854 71245539.42886156 41290261.520067915 38970813.21540676 61957422.96838854 119899299.09694745 30475110.657759257 66289266.485683665 62073624.39584237 44157234.5397289 44212714.99098769 52334234.93375122 59163319.802039854 51866887.21866026 72325005.99950911 2522139.8337517167 19296683.701374706 90101194.21880054 12650396.832399178 74170628.78839304 45223645.72627887 51281239.439567216 47757930.00107503 68341045.63039012 65076812.82851696 35944400.26114424 36904219.500863895 50678081.74437829 59180807.320605665 59313167.17583498 104354758.22474074 44863700.57023028 36590620.770811066 16136094.083487898 58076183.394921586 65605665.44475884 36520116.47555314 26752479.080149543 68426346.44844986 70287145.38566831 55014840.88691017 69412233.02543198 74399979.12045486 108095462.50831275 31156769.86812335 76178224.21943998 61236150.198573925 63910322.38243633 70677227.1149354 59909351.984128155 12666369.231294822 54960477.480901785 57212399.00446924 43470242.9212921 60161568.37557549 5714139.794170598 51456125.95502996 9204044.560643118 56043468.121729754 67623377.29662806 91389807.80423583 36851005.30338196 60382124.58712106 65530752.26137301 57812501.36122319 74111249.86633213 92880941.24077906 68605455.34707516 58027310.300468475 55969336.36741475 58100118.36505485 54767789.94011272 64368047.61171032 63056842.63631433 60140500.18915059 61265453.055241585 36516162.85378307 47537959.58941924 53434366.84690568 65555104.28690911 87597120.06727023 41222390.026035905 66048845.79506069 67201078.40107097 62115027.69656005 57398322.556595586 63065283.23742686 57988148.2227736 35795637.67231684 57484903.768514015 68768756.61812095 59883555.03189017 134155609.0359417 63832187.99305387 161407343.4825263 39206968.73255073 41294968.20817605 68810775.40100107 63165145.88130152 9586306.058087524 56087123.21265806 66943210.854887284 46471133.26418016 9621297.061055927 42692990.717459716 45478869.95092529 62286032.34602008 51369237.28778466 47067738.78083131 64101034.05834717 9670037.73979365 5125629.941188953 4926655.770372849 9496070.499400027 58926887.14614192 57923645.24138045 53270257.71674469 71423717.65128112 69993113.78415954 20171644.62875419 48233820.50371019 61037011.24354335 8492311.617621675 8703087.573271262 63887308.95111394 30893725.757035356 31074063.836562317 60492646.398465864 64318631.32477381 52085352.0865006 62443597.16221913 66434956.00430651 47863822.077825226 57576203.75646587 47404499.35662194 74113325.2506388 65433590.84706357 44219767.174267285 60662961.69111491 44253100.964464895 58709898.87205913 57926380.98991887 76415363.69788466 27521198.119885262 69087110.45542794 45954074.57858148 54842654.909060106 54848157.98450213 65520491.144876465 44512419.37149854 71754671.9020895 28027136.223213077 4886537.822148061 29471803.41334542 6514013.012038879 78213918.55876692 53533536.89492986 130804435.54046047 66721974.09580196 55994192.98714561 45375299.095710635 63635379.373798616 67369376.24923001 63363993.86981396 60602715.39437043 61252043.19677651 40217486.93745503 36971542.87864166 64686068.60458027 54640492.54116703 42152789.12669824 47888513.30044036 39845432.28315482 84837263.61178282 5667450.971447421 67628364.25405355 72145910.36046754 56148676.49932476 67678169.86042623 62701507.58694059 16896568.184453726 84401094.33577074 52932936.20188516 7001726.290875387 63427334.66052784 97836509.52907258 61574344.39343884 33346170.491094735 14315393.09763495 49660328.086360596 55770156.52522106 52333295.1034111 41760054.13394242 43099256.77352142 37065441.71458747 60228075.4287812 49012775.747386225 71206699.55550437 12613763.769224593 529600.6313408017 54982594.718648456 54819094.08397035 5715376.880865624 21659820.70687916 41555041.0224689 58319443.326566406 59440407.67586844 67449916.26236449 44986491.813273415 78580039.79448535 24518788.089334704 39623675.02496762 28084877.956927676 66790810.617537014 48391956.34304245 44827500.75507332 44392397.83873194 58028119.34506752 66144864.04937987 67767831.09327193 58549658.30296878 76884315.47560081 48784470.55894454 27461007.864510782 21501627.301859166 46192707.338247426 58765584.61379476 69701805.32761115 65279819.61812134 68993273.5647318 57351524.23732749 9006875.713646531 18449431.3469115 103263019.62376781 74812655.14883916 13478502.497862156 23870029.75447497 47456798.78138904 60157412.78153014 64582864.93224297 70170729.38765743 70222883.19195302 52553665.58850233 26935119.24971791 180063551.92610848 24256430.41955392 7153134.033266245 63858552.98095728 64793774.26674728 57453698.27016179 104372988.51867099 46841004.41767231 49298933.850685015 9691254.468271416 35236931.25903719 28728602.598129824 64223216.156030424 38880739.955292 8808057.94136553 61234996.60521437 44223127.124554664 56234172.99601769 59543246.69731047 959863.9475663921 45094825.470517784 78571067.55215739 62377015.01906319 78059987.14003766 135960644.42515188 59545677.622645415 54002601.69334527 40543089.75765745 55133695.12054124 69496618.30516022 9286226.63230229 238284857.0907381 64955046.2428468 63140056.740571804 50533108.7256919 38567511.05796803 44084693.1901758 14953555.24198513 75954639.61221056 99276909.07673392 45103150.46083079 41129154.68947844 69673981.98118289 60881562.427300006 24556118.23559678 24372825.578798316 52398237.99864273 48010069.9816043 23501490.97078177 71981557.88072813 5668465.42408756 62024729.79075361 62383745.10601971 63250084.70994998 119475131.60050748 86304459.91211352 62520811.45100357 70965458.90531802 60806549.6274651 20484504.26088475 70277270.89882681 63482069.28558188 63631647.10053175 169659071.66910535 58195566.6493132 9360389.717432763 9534887.239154203 44583397.76752737 49734849.15434077 39810121.29335396 23277623.334863365 68609174.68783474 68364566.49993771 31151498.33957715 67041327.4435837 59884464.883531325 61321129.68842567 75296526.77324073 34606665.47533352 126016928.5952155 37316212.89536728 37334676.60667045 101597212.75914946 40023243.143507384 47920298.79243334 65095510.683134235 166425277.68970135 27213174.100326404 31412000.85990092 70283902.48445578 48832482.7293754 70386159.72426122 70435669.37629384 57672110.06962692 57419377.282046676 64711262.83542303 47826859.230551966 70912536.2104225 61134208.168055505 105107329.10206628 67735489.5038868 69424504.95135105 74167071.72702514 40972628.50001077 38729039.07512181 9594085.383786174 64402001.49340225 67976562.743844 57577419.51101833 54467955.596201606 16485489.246240407 88788352.77479334 47851069.46990248 62666682.861586675 69984213.8324057 54161149.0262378 60175706.53059453 66685322.931645885 44206875.58090992 58867587.29566209 37173244.505604744 38456907.67245527 52393395.19264089 62148508.28505312 63576863.64266255 16421449.21024616 63490938.94785638 60035423.39059474 62298309.361258574 40425550.22880869 59841058.38091139 66721300.902236395 61258386.709801435 48017723.00630979 58971756.25539573 65124674.65698475 63662345.62878705 65510973.339547254 82562171.4276894 40680482.92566842 39401409.65921648 63596124.54516811 47690781.87706659 64085980.920430966 85841237.88627145 75488668.45892912 63045919.92674063 39209302.28019105 57915630.74768364 75580497.95119715 65863515.444655366 63719419.37495638 57658399.49273188 60091158.50198491 49788052.9970985 49910450.364168234 18274928.46208908 6087096.113068444 56071158.933988094 42271872.686622046 73285618.9096437 39799281.265757784 57379391.51191493 53257405.50749948 77993017.5016121 46239728.68090737 15572563.677545434 86360777.83509324 63416017.0081641 42173638.836364076 42640482.35131228 16338103.209803114 98070621.73442937 61287563.32466255 86102018.39034234 35331838.02846083 63180033.18374659 55333204.636623345 73046546.22869353 63577281.46060821 10778235.134418583 13223949.440516893 88499912.28817156 88761773.4069017 35386006.12949338 47626224.27703786 57112749.97860183 66433243.16929957 72137704.0081047 75320910.84672631 72652935.5751236 61203171.73952626 63292612.11504002 67593336.87711215 53519522.819509335 47065563.8487253 9577836.829583505 65477007.06080868 63893425.61377743 177156867.72313756 49482866.66597669 52007072.58798758 69461635.1219329 15508354.007046966 70871421.54481636 59652689.98679308 39977731.78967729 67722591.64040367 73722704.29978786 58268061.03073412 57885600.98548777 47609350.08101567 67247112.4021169 30143317.78084271 29684178.86317514 74073172.6037073 19417869.70636664 5337956.885272328 73697752.45520996 46718560.89399323 43091895.96803236 34982160.280762695 63739328.5228967 57528406.59983007 94024057.45638148 60548080.06005466 34549212.40610835 8600577.919422958 70425493.3895431 4287028.787125409 29845638.25849388 56093812.360792056 48882253.93246466 82684341.22208568 58548562.07898513 61762379.186456695 58839181.62288127 30489776.789886646 65413228.83210105 62230953.13424982 25247474.063105594 25585176.30406744 25020162.591864634 27413435.261209887 6015989.962714637 67809224.08295757 68158897.81293046 62078469.11822823 23104508.61662903 66724912.682640575 78679964.34499615 77922319.5257 40969121.075217776 68481694.96783125 18641659.19984736 46322646.434806325 49041585.578065515 49667240.45071283 60403396.29589122 65203038.49524424 50729450.93980997 61170300.45014924 62837479.093132086 12778709.119647862 62831188.61207694 101692338.41556461 11658630.13953206 51089205.46655992 11614863.067282233 30966144.578785952 59131264.158650994 33822123.45828331 28912144.421096638 35625987.53438076 98079606.06555133 64932010.03457038 60218634.415288985 62393493.48002956 19086034.210890613 31402319.368920613 67234860.2351109 77362562.37856413 83149370.69676363 92479317.01616605 57467543.378014855 62671817.97605872 38971833.3459325 10105531.162028052 62444874.319335245 162303027.1776263 57795425.42366669 66539267.60806451 203329607.26652348 6687579.615737941 45017351.07221886 23490314.14349637 13478664.795842187 55009122.47940626 51911184.42176912 35537573.107501924 75279623.41648102 65004246.65146126 74453441.3521167 56715209.93872256 134328347.45281124 45910966.08720538 40829398.43196212 37243303.44396837 46581823.385822795 18023611.70768017 10710129.118804265 28923575.958402622 39118572.492631935 104508700.6341225 60828635.19444393 66694599.58272485 61962841.55404948 56020850.4916876 37527956.13939631 46557193.29751224 47769811.09232518 62190456.734273605 13742596.320783816 81590562.15529346 66413771.06561377 76790529.07319619 70230169.01658219 174130.75834523453 157487205.83588892 17652527.65999123 58238359.49150953 86796710.93857746 56885720.507989936 62823617.44653395 83952825.29791558 89741572.4593611 9233118.455339985 89926491.50505896 29949046.135622323 26013603.65663848 169113002.54306012 81213109.66832155 71446285.81638251 26216012.12209301 58366999.18681398 55146824.238539115 60318429.696498685 91912041.892524 51258761.26558126 64652553.12396017 73276062.6998286 44534864.04802026 84567151.24689719 61846657.59821706 16578785.978996359 8798179.203329107 57797534.23504279 4431295.71466214 9291738.360348122 29182329.53967237 63789194.927741185 38470192.46504902 29269409.57197255 51281918.613423996 65022832.04313204 66034725.58264712 64651268.746235296 8052033.292784003 65710963.34300646 38270896.11314867 62968446.3747806 67298644.94359998 93916043.17211589 65043570.75696059 46992595.03382954 56483091.757987574 56376048.44786021 18544352.238789473 38445461.928162634 67236997.06885026 50137930.69375923 63135947.06870137 63322484.48215382 55173330.285242006 73545516.71954836 56485712.72865951 74234151.87209311 115298105.2254126 19135960.18359947 69803559.79133204 28201515.070493028 46679127.91848686 61490706.63494649 61929048.32063933 75821745.71889511 43317123.83058685 58285007.62716993 30591187.65852817 23022202.743288852 8675782.320797436 101095272.34321402 51986661.3706863 8656940.648786666 74715538.40555522 63424437.96060607 38726243.04198686 58647641.32640277 47549780.03680629 47871323.65369265 63330203.88685803 65042595.516433604 60355409.898226924 49601274.66650406 57559076.536140785 65044784.67383649 30807353.213482626 59330238.46918454 67229121.90357845 25232783.522677533 35104308.33126751 47834132.270750545 60602109.35663852 46751435.25319868 73582086.94870074 51518579.867534645 81619897.87332849 62726056.58697149 60685797.81846049 30777237.569174774 66787965.62752869 71768382.90956396 66673203.442773074 41791814.32710138 63146129.068184055 63050971.80978198 34089745.526654534 90021441.33766744 65265275.806775555 87876759.18327934 59297577.18474215 55702640.89236083 63047469.3465905 74197877.11231089 44830036.2963124 13839876.992768591 14243084.31092857 72459310.6282693 16751029.3397505 39702701.35399985 44776388.35499735 47557867.23870364 16923175.557171695 21571704.99841793 80842857.75131641 80943187.04322211 80580056.64167939 83385099.63740987 64153424.361476675 67418123.93401186 9787432.897803087 81257751.15299389 12393369.042157238 65795077.00296534 50801316.82232156 65107154.9912585 92476096.10128771 45761417.53980488 31173363.198217504 21749537.67975177 22105038.97345083 68257928.298643 49797698.146469705 24591023.46434781 89650881.95133136 57495058.11911398 81427317.69447169 115154545.6395049 67006948.97506006 72916804.94214576 15306406.650277423 220432772.55432457 85701484.41378643 58294636.52728828 59237838.6980438 69731755.8444141 15522492.783649176 66231580.451566435 27304162.097087417 27190114.255600695 29402326.63980608 74040681.49195316 28532084.79179517 53458137.609249175 57227660.2627061 53531616.604994826 22995242.048830025 66973329.36859498 70579808.06342155 65305468.93071899 64142159.81712811 50621772.39342881 19333677.891416572 64460094.58601146 54634837.29150919 58383572.36091345 72717591.1866674 46874039.25672728 50566900.56371759 62264594.188906156 102238143.714986 20003497.2706164 20344506.50296226 72274500.61082137 68231524.45323245 64957967.91202813 21623556.64458501 64108628.01428565 5741629.606902093 60463647.83025115 26989629.26435987 105934472.25247099 64825825.049993075 43916202.60712549 46792413.37208862 54259341.54337143 66529462.36944366 66449151.332782574 64594755.11901377 57843777.00080312 48120426.6206136 68443485.82005465 72337309.70217994 61859742.77484882 61505656.87569859 65360470.298851915 69344511.39325762 66304273.0154674 62797722.24806647 63681513.8250885 68616881.1616759 64916614.7757684 57080538.77340034 69906164.72760332 36743165.836324915 54384965.84118347 72120946.47604142 55080757.658624314 63189718.9802944 85512327.35822149 42305861.63062709 52307724.24176375 69186691.22634079 43737426.836605094 71301760.13075769 38947135.207203105 61935290.08651307 61728854.94461713 29443335.750088446 77090989.97780882 27828584.729172498 57092011.853948615 16680007.480472134 11582269.590643533 11376924.82863584 16457143.362959879 147241342.83103073 66448846.2439677 45730936.23399503 32033066.242516704 45914417.11620936 67369251.78176086 62198319.71303589 64914169.78251502 57416736.560013086 16774594.40129469 62504784.6617863 59827223.653550155 16794306.22938152 50967919.427813835 40241124.889396 64815203.44793668 58532744.07731423 85787740.69092146 22375148.96723081 75383788.89602359 58405896.98103479 19138702.76939373 13472619.423305642 13676965.09238528 108121994.37698968 7643787.747266981 57055264.85354004 91188079.56632836 91253203.0908877 30621697.542671002 30836228.210894726 89447894.18019852 67477016.3107259 63358654.42319565 19478295.10377727 25526292.486365885 76541516.04445918 58395225.47283577 71720509.4215012 64640855.576014675 62765116.243296355 22234301.685979936 11417370.565492876 82398998.40934162 74052666.83865137 17277102.115092415 46489254.299645945 66042013.25631788 64165916.78965474 65279941.732877865 21499387.69366785 24591145.665963057 40902049.937550135 21486464.406702787 62445862.550037995 38546609.3816717 65374171.92308665 25246180.84244091 63250618.147260725 35649104.0472027 35861665.04267764 35224060.33961147 47193477.60346446 88787930.94456704 60050973.52671921 16172721.923270442 67751554.56929733 56445065.38055129 31512334.464158136 28927312.422708098 66754245.607226335 56948826.633884266 36233128.842763446 70737123.33944112 27440464.2430721 64922035.09290673 73464313.68521993 242634954.58856705 52748379.78536389 42543250.9116837 55801566.563615605 65323568.82144882 22106290.41198353 78254305.6942823 88119526.96561858 64943120.13719819 68950324.7730468 52626873.11250381 117565211.56467177 30934237.142610274 60862769.34933881 26790532.220595907 12538277.964619994 57398786.5996223 63564603.16347986 61354283.90733563 60974196.54091328 61511922.72890357 58967657.0628873 61353176.34229855 43256355.6287723 64155434.69976843 119771549.2637704 76462763.90098138 69883824.9841688 54007811.28618318 67365871.52467863 85009211.35999064 62146090.382918045 12484547.502204766 12996402.143822454 26548026.472022407 41897863.70999778 63374976.08221636 71087476.29479013 71469197.85063858 74292647.39813054 46635982.755061515 70786324.73010482 69507820.67968737 97415357.54407185 65059197.104569264 70935588.97210251 13859160.960803898 49907352.40908376 72601693.25845309 109764552.96474262 68490919.98175707 41638169.58877012 97132821.74750094 67952514.08878669 66527025.91031275 33316681.04598488 96816714.35021004 10489759.660599105 10464396.283006636 11723645.952836193 11414269.370160108 50707524.79103275 45133174.93134092 61024324.135095224 14844596.249034645 61719991.577295475 51543177.746539615 75500000.66679834 40470635.72939971 30174716.530796293 65506483.30921442 61284351.96901559 63476188.25739138 65783463.16844555 14072058.300702175 68388003.30198412 79106181.12917222 36573695.13588203 61875128.35744276 61451208.64017525 78355497.92533572 39908943.97365108 63733146.27727584 26766002.44674296 86163993.90301614 62192585.29514716 101048436.05338593 14883427.395857884 8134783.512955755 59027404.41905062 62255205.854341224 66133497.80950242 38940582.11468022 67118905.57818165 71440861.91199325 55156147.92877315 60492079.581132166 44830117.54967843 83601454.80205627 48549306.10511813 59024378.115347855 86691322.40422179 125002499.61732073 44257461.13244009 141238682.20199764 65495533.8037814 17027949.307479117 73730235.0859796 35469418.64766092 60437497.54331323 64247939.70578033 37981364.97177706 78377089.06369446 84808441.28153874 23801790.226540618 59510879.39863283 66889208.18459069 50650993.01667349 47043185.643475465 21148032.035621114 21242562.042424493 53778091.11720328 59279324.7232082 34825394.24519064 70306435.36903167 58908629.5237803 2236266.7324333857 61406335.07066276 2265734.523592001 57102899.34578527 61721620.31602807 111199685.92987669 73708263.39094152 10079884.174578201 10963963.468782816 4364053.76738439 64424411.05821793 10673857.333129426 36284937.500628345 17517151.738938928 17201219.01593991 157685657.88941714 68981299.90703532 14616501.882621149 74871786.40383896 58862704.76090299 10633098.728439959 66932543.76464162 63067490.73549257 79867584.67856093 46552756.39963135 79850910.29506467 82055306.96563941 47592247.52351213 116338475.1824093 71664964.2458671 115909753.00903887 15403228.448834624 73735721.96153313 81999523.45478882 21364224.55504093 21360849.49425385 21093938.85861445 21881245.46956583 26645325.023605503 58254223.86845331 65157548.65721588 71138561.51456353 63497465.23184404 61511354.57074462 139273773.7571857 21111131.319263186 7091011.526902105 7441320.017276682 60991073.456030786 58335271.58193141 92102359.84373221 15400347.41443746 71793261.88469455 61433375.92163525 25909140.34444518 41730741.2383142 57978467.77647279 57649428.936001845 19070449.779931 72151944.62874539 87596536.9369471 29104725.58413374 58296335.621012494 67373515.15005094 61214930.216711156 65901037.88164513 8560109.225102209 37904111.34974951 37628213.64309742 19880239.36463056 63938461.03626404 18019384.9939489 74635735.98548637 46990831.60936593 52454909.91069039 25392458.507983673 69143874.54806587 57847852.2754096 53950047.60222726 71788521.48835082 57438143.69132442 58134535.28000859 18029534.490029313 39037093.21452952 60132311.21809127 12496998.163360912 69868564.54981539 24045137.453408904 19465825.919255182 30481730.73915459 48909349.704245396 24036963.14714395 129754448.79732 48672413.980566 10564461.252741927 59357138.127522066 12451912.39088912 216846080.86951247 54031767.28520769 80824317.93131667 67889696.13805062 65125365.073309325 3916133.6764664426 50657884.60175881 18219115.135059793 67394242.44507796 62075279.099934496 79607368.61628434 80788558.90539481 47444161.45994546 46577488.94305466 33759489.49770421 53756986.940102674 63750705.59610765 72543092.15890151 56640003.11604151 95611114.69995128 74730505.57595849 63944846.51869437 42547321.99459022 75660738.06458975 71271905.74388608 84604604.47863053 65276885.244252294 65483445.26221721 27086533.240796298 61290486.11603617 67314124.99616113 13388136.61327196 58679402.69824841 61217967.91844132 61968716.804703094 53069806.90850273 18905456.481983922 62701859.20895506 59407030.2693897 68643253.68080385 66930244.17684515 46037145.38195837 4969064.0918383505 8028902.500865057 67620307.69398402 74041096.83387879 5122071.818234999 57456563.584772505 21251172.26538618 47185561.25039213 18513275.77776283 46838933.820464335 63207475.90400321 63389619.68425589 32139317.78288217 48234450.12597017 69483006.57885791 70765266.87730144 16447119.07853395 65052871.53903937 1101612.6974495808 51695084.218880765 49088568.01958384 43905060.92045942 43995500.85105819 1083554.252818293 2058521.4825873428 912661.8109483408 2002419.0249027205 924360.4644191694 64563222.275850974 78696824.43864343 47951732.959191605 64996410.72862264 59627377.904725194 63520936.55544387 117597879.07418424 63140958.155917645 69852125.62536237 95529308.08274834 23208747.725607283 55014299.80495827 95428923.3387994 2032950.7673642016 88663786.56320506 63416912.2716343 54239369.69905656 64291147.143481344 45899165.276270404 2023302.2095527963 50385241.86307201 117368950.1350379 71295247.42007358 63877400.15612108 45827303.88087635 59519234.92186864 95113308.82115638 66075666.6716616 66836136.28401164 63570627.07354698 56942419.00246732 5196090.029179469 75241625.25145955 65537885.10660786 49734948.04122381 6248598.780618648 70579069.1172439 64363146.576514915 68630741.13427414 68780113.69210455 62886808.79478218 68650110.98909408 23240402.267836172 67959073.98240131 5248583.974420863 74218262.99411915 99751766.20260021 81470724.25823846 16781634.704038035 9309392.278151568 47761526.85412196 90137237.07391702 19808244.61788801 58573690.06154355 217850835.20471627 35435871.61217907 63496126.804666966 54570597.51553658 142943452.02545315 68493744.09544507 66241670.28404841 61903959.00139704 55926576.48370927 23292354.312390406 69272425.88730219 87799627.54695022 19621030.049882885 73724499.98602152 22358566.41320219 64824825.017159134 73047187.82393134 60342854.21160527 83567977.52017954 83267022.45898469 83630547.71948704 66624007.63808628 73556426.9693477 28196690.900513805 21089960.958350535 20874534.968392435 64027532.43139245 90422219.889241 57346827.70714076 57177355.16071405 66789901.57783299 112989756.21330139 45918704.78709407 66136039.127025105 101512363.9960426 12759325.048884396 73461368.82933731 28096812.42448097 18827351.041840237 69309476.24705656 61081490.79579119 24903091.86761042 48313637.98718028 22748081.899940573 18161949.206218023 61638705.5883176 87405095.34785964 165799382.88069665 65830203.201084085 57811822.91440734 69064674.40498716 49794599.81739011 73105307.51224026 71790965.41375718 79615731.91741681 49756215.96563785 5720066.18144731 46693048.32753989 100967152.12235317 158945358.90281972 58842235.64402673 41451668.371066175 49852047.60835468 72152720.30400588 70215906.15806524 45101800.14324238 68711119.7868044 3505951.6927945176 40190709.765581004 65501291.272118375 58500292.50618032 63619300.85306987 98898979.63179778 20533830.958771802 73461241.61349528 35244862.12392914 49072808.87423953 338880348.65681076 52600271.5894135 20986831.615140017 14257591.677812062 75020444.83618666 68935939.16464013 66524942.91228093 82108826.24376188 151531672.9234469 70812549.3942246 65875052.79986648 70368038.09425983 53860669.18170244 26676741.14904222 81095920.18117961 44199600.59362175 80787475.35718177 31240614.29507148 42271355.89556924 70484561.37222637 26845483.29124031 64393925.41485789 141676482.2089816 36219259.903513774 58623204.912639804 67735642.89238894 59727217.77886123 269766053.83944815 25772706.435523838 26004008.162016705 63680696.40096727 71340684.03166631 17151424.373036142 55762992.06089425 66112153.671355285 51413295.79033412 30764885.69019199 58723760.475982405 53084475.61389355 36278767.98065794 36988127.204134285 62344031.766333714 105919878.67976947 51819008.73888963 58419790.920033894 77361406.45183836 63381731.98999417 78963115.49581587 43036872.19598027 7764965.620040262 61119477.46397675 63439492.47974089 64093660.766549714 68039742.49967098 67710615.67943855 45198767.24134499 44856730.71350403 62240575.55556148 18478129.819928076 65123426.3315053 44639921.5629535 41002395.868703224 60907775.64644344 15338409.30616845 11921045.353514016 37790943.8779829 63490844.885887355 56674248.05228223 58848833.25537183 30655815.24506066 45136566.83918846 126087183.94353533 38622678.8670795 75538228.72608696 5431782.108590648 54485284.77009338 33841785.61769135 33853005.94766762 36251212.703895554 36477526.58158497 70006403.02532029 39788297.53851531 56744416.26549293 3672690.5030406797 2891442.08775081 2935345.6667666645 3678558.1472646883 15795247.153859045 54985517.73428952 7722501.1103748735 68510613.56644024 14696779.110190114 51986088.58987006 9131566.214280762 2098961.3997030007 65207549.93236513 92200266.66149019 17747196.075678796 57660472.67381303 24551222.056097884 67771229.43208851 103084132.63411249 3675652.2988648904 11838304.884818394 16872887.381180756 22875538.248423297 23212849.955598976 16949743.06948444 58968176.06483945 74333320.71184878 3663033.2445347956 57200533.847899266 30723149.37035141 17584273.98071226 64198234.16425706 31389398.00969511 23178206.42897162 78119142.92365108 5177805.867181096 6074219.079082389 6183131.957543055 5056811.603705872 79868700.41981202 64809603.29289323 60402733.60644718 7171870.505390433 59946227.4311156 60186905.72028404 5041149.401590427 62744023.99538877 2897210.36305203 5066776.192404466 84925772.45537353 51532700.06304617 72410136.97727197 62851005.13114597 85161863.66317818 16892329.334107738 49119008.0235013 48867691.98903915 25125697.70263229 64473127.986634724 2876526.690102483 48242320.35910014 68243027.9501409 5728401.780475173 5658188.534783316 61471187.79190859 58545220.74908782 12848910.568008933 6782228.254079572 7570368.579338985 7499230.796000285 6633562.2104829075 6432950.41672074 50001633.89699365 60714782.6473823 53604543.42415594 58781543.672730535 25857710.693154503 16525831.746172732 78631773.99254334 76257333.19567844 73742697.25630413 65969819.453434736 71842318.31802566 26086979.745665245 58278228.14648637 49060796.125633426 47600312.852298364 59123436.97396489 99507658.6725853 54625419.6522701 33336240.755759563 27912509.169200394 68056343.9477552 62453542.36575754 6633018.260143762 77374110.0580034 67895599.18130554 61909302.692214586 62702383.47965184 41968083.82727944 72972026.32861473 6602961.080617325 62269288.34255009 40129487.602342404 6237785.469561596 54493867.90907773 44390183.007740185 90292239.14280263 175011126.52520993 47938568.229864806 62571152.3475338 54068515.602533944 62125638.06372269 72774877.03286347 69736584.60879996 68655144.60192326 70844011.12217245 57151874.87735259 56835094.52822825 57714675.07029603 60649518.77341888 173538946.2851326 22525619.026149265 6171042.8625533255 42976009.21597458 46977069.25554082 22547435.03805819 22524044.465588503 100776468.25739288 41046445.94700515 39614512.0355957 57994221.83864017 62086096.07222657 61379772.573015906 59583747.7865102 64070210.64831468 3627148.6087225364 27094924.963794466 131100037.94924425 74339738.95148614 25765282.81104556 60232225.73230529 81213280.93463472 34664869.94131515 72332759.4149607 7108276.739478145 28516681.168667965 14877734.92392097 60118030.34020081 57546731.85554222 68690413.04386899 7161286.3645885 29184949.340885527 50205000.542817235 35374663.49095627 47106997.11047745 7165900.843078808 68409388.60129325 58846158.628435746 64108075.94415685 20308494.612033676 20241813.76057163 64511096.85641739 64824069.48090102 61696863.16104808 63543194.27748628 7919201.826828265 15979976.758143319 60883334.85920171 59548628.68775446 65194624.389890894 57161859.66376666 55026966.942749456 190542531.20887876 56934481.15676682 50572504.003008336 64156133.078074224 110188483.80897816 107356919.57086363 73103866.08057438 54911914.06929462 55110611.44375867 116927488.87704425 11821039.272589518 60009308.896183126 50896166.48923625 62785079.5324032 36440818.38025251 55220135.804501064 73716449.00320359 42482619.121622115 55656929.16725251 22738463.77453844 67940660.54580204 61427919.103641085 59256526.97934494 17087371.281993967 61949507.15752794 65798694.730111055 51063076.37216213 73391284.2133103 169988225.3392448 64780572.298354365 73500831.5960891 71786323.14304739 50232223.258977436 62917819.29259096 63870060.185317464 17156579.284294385 31028990.911455516 62641895.453687504 64537226.58602082 58512676.05554599 63246769.42402135 77314243.18386552 94598679.1817557 62059112.172091685 24575498.934028156 4887468.481395807 54480293.19143833 19382081.92143515 64182231.24819579 71038191.44901791 65934355.36924998 33332154.638118036 61959822.27462289 13999252.974690862 51128820.993084446 14015900.81046367 62442927.514403224 71325452.65628809 59480034.44549713 65631949.07450464 71182949.21485831 78069672.81678416 47582036.66630065 77674356.23396151 59185234.20002296 122806831.8771581 118027409.03375807 63441750.870430075 16684545.406573666 57814923.215102 69408570.33308186 69739899.49263981 49065667.41802765 12642020.330864215 74060319.7363099 57464331.851780705 51389107.41289676 49693515.27976543 61011724.94671788 77701368.82132234 17605221.43838563 73285169.12250945 47246316.8213462 72021018.11011215 96252037.58693932 76012005.9843915 69613682.28410065 8831578.263345571 100838617.97890222 82041978.48696254 88663333.29603505 94948756.92562512 60205536.62398802 57607786.408735335 73233343.377433 58102146.14711675 79257100.37763353 47792631.93255072 47241821.077189215 166777030.50202852 40101729.921865135 3106713.437965159 49429352.46928169 71763087.56513606 63609302.826259375 66538415.80399421 79297961.92917526 22400072.69833156 52031810.40024357 68488318.30975342 84672304.01293992 34469783.74248075 61069648.6034042 62870096.56379716 22423059.577684388 62833860.10969561 82275145.54920524 45556810.761807375 49858898.92798797 10067055.90253365 70915138.17588185 58656687.68890798 44355193.2453567 63154972.882842675 56831379.67862761 47897492.94579622 12545688.63168108 67204686.1183049 179200315.85069543 64407561.09436898 63374632.81573922 61320895.66315745 64292477.92008082 45413806.86552218 78755838.28033252 31850627.314525537 70243081.60218719 11208158.755582113 70697783.25805315 53097020.15748913 52677581.64740663 72571200.45493643 6261958.100791851 61956302.65648258 51524521.49345521 35818841.47057551 47071392.79967192 64348362.21184981 19158421.40766942 36250198.84573981 57209268.161612496 51239898.820554316 48228832.688113764 30892191.129105285 42865275.07870709 69914138.78881526 59530660.635951415 23898018.608942956 49125776.83989539 81270246.90091409 17542314.495530542 5228996.168736688 50656723.97022759 48363093.44305275 48299523.58382415 6226536.52280932 69377109.98269388 61152749.15031372 76784111.70608567 51289613.10464634 33828260.816489674 25498262.279634446 81286128.85365683 71113438.95831904 13296412.654020926 28551969.934220646 89213716.94606164 71219484.27007072 10227034.484580705 81304420.10830909 69738474.75686653 49591271.78022625 47616231.42679087 9486647.52290756 58744044.7525903 18077807.073730648 17934002.371673293 32186277.07802376 21759274.39842459 50325319.421647385 62690555.69432136 58075910.90609907 70899941.08349892 56765935.74746256 85870232.55891396 62871781.95009776 64391902.063255295 58865791.73441643 63050621.544218466 18382570.834175006 65912670.25513722 188445334.57889336 81774789.78412654 66416586.17987886 71786709.34376788 71012901.70549427 71092588.20502923 18757932.17362638 63414207.178275615 59548113.236227326 43116231.49421558 23404332.85082498 164410895.1814252 63216444.80961198 63442320.572570026 68937193.03540675 47449868.50872221 60509612.6930416 78433231.32167488 30124055.488376006 64703819.35865793 74641497.13581009 76871592.43820034 36619638.12569079 69306395.13531381 27253927.8787263 19976035.11111918 71110362.31956047 5476997.4816793455 5468330.317288836 49236753.13777907 8272496.895323976 34761903.29856218 13734673.566451652 18552737.298571326 13696118.232427739 97361895.50827889 2467686.7246107534 58474137.159324534 45840276.68882567 21141856.85360834 65872069.81710913 42411011.170259304 10134005.946592353 67498284.98001537 59762073.202551104 160166643.96599996 41587622.274574764 63529349.50344419 12341214.303854665 65204792.09126295 62892433.22553756 59805233.80522102 67193404.15459988 61164747.13471668 59445697.019075476 49915522.11669096 59035266.825935654 65382546.315752506 66769636.678129226 65906760.972275525 47875182.76629999 65628199.83324213 62485107.25175974 63091928.37585775 83721380.99235873 72332956.30247043 7015851.758354527 68770570.22005436 12841726.055853583 12374739.530812612 38629806.07971242 63370445.19169956 51559242.23901001 30406520.960942455 29520999.831282236 63201871.90452646 49850173.87761854 62141171.05856432 111335216.36900601 60641680.50379387 50306366.353354365 50818247.67707131 42618774.91297358 59214513.60747848 63270611.08323637 58459358.37721578 79046488.22757292 72391030.27874997 63212069.12577604 11074696.794978451 68193187.39429897 63439844.84801052 57007912.91805471 126710359.75371271 101451819.69601512 50146565.11318411 20081423.949787986 40952568.66996253 45990078.52062413 75613389.23230104 48359197.56734632 149375951.92175853 52850327.92406385 97734285.35310422 90148492.25663805 62228554.52673346 20250363.288981646 77648907.64371784 82929852.85597645 57715414.87362641 64668602.99610372 72052314.22591028 59660343.76418586 146613974.68580937 61374646.378832735 18811668.471437614 27393317.79695851 55627236.235665515 66962665.85802274 68457638.06011325 70927060.97876741 68609907.47615477 37650934.19083532 24266335.51169768 92872561.51782848 27255794.42161231 45702143.71105961 69324415.54094785 72192722.63140425 63558480.485010006 59870478.37664339 37311581.45191199 47733525.45949146 77969029.90187153 49602518.508237034 61961436.89355163 24040436.125993226 85325933.23590715 67017508.06383368 38858437.58260086 48518242.4252012 62059723.58285844 75868617.30560678 66511461.494956225 3018421.7113104397 92760956.68216076 96623312.05867043 71965075.79482494 6677672.821768751 70270084.3997298 67514671.85918954 43088417.67350652 70076442.43334547 14984560.389295626 6086775.016286896 57321525.72098413 42391165.32214935 66578785.39557708 146949980.17251286 24700865.223186575 48536797.151377596 54487780.187938266 118906217.41758944 62843327.06630537 70583983.84713879 79323282.13466828 26660445.557203297 26518101.666551646 7287316.053151507 6879069.1099342145 47807480.342469424 46780731.078918286 62447665.06004058 23470298.50722433 52916006.40119659 52549132.656008095 78169696.37635891 51597172.29086558 52965863.979152836 76290016.91543476 61270040.29134574 61241212.20007142 82790970.97657336 25559459.82384424 26643387.945821177 28031533.84959028 26621334.501846503 24163188.815801673 67564306.76760152 42686325.67857881 18420451.930665657 13596526.087187622 13537452.902119277 5402352.832171269 32566777.79565405 64710277.2624847 13166662.262276161 36939184.626855955 5559030.207632484 43984117.25212454 76726818.99285753 26441381.949390322 44289996.82098721 60710623.872396566 40093773.25918141 60704035.78736546 85400239.30870605 62128133.24459371 68020509.06293592 73863127.6218272 34364579.14602425 31531721.48290852 71200393.71539652 26288750.646498263 75506324.58442108 60478692.21016695 24357915.82629952 68646122.88254301 30445618.53693487 46028592.64787588 52291576.86614056 92354537.42573848 49601316.783864915 16741718.087933946 5687716.0731051145 5663454.92493494 68476766.9101498 114487982.42895901 297109062.20660657 66446494.86392703 9700643.483031662 64255953.56074393 26365866.43527967 89608401.98096588 58649126.05678258 51775594.24924819 94810881.31295814 39982534.07557155 53394225.84704269 80139412.12924917 31179079.723776955 102142843.64950621 63029067.01744224 63973818.23482579 37423551.044267066 15091969.285054745 58354956.360256605 55664849.22976763 82087676.26091978 55231766.149824314 92187364.44479713 55417390.616165034 61541936.2297234 82084875.95407662 45923964.86390971 69698234.2926968 90161384.95376855 51587040.054034665 64811401.91731309 37071949.52735684 62873487.81396793 63957960.498609304 61417751.88360527 41359469.1476301 41511778.874389894 62972222.47495802 71912678.88960779 45600544.00529393 63507165.69307578 8648541.709841376 62240509.96555461 7747153.507471164 50775973.054086305 150346662.33417812 148002542.845395 56408704.87206277 50717774.68724024 64777120.59641458 69288177.19596902 60703927.21698218 89329907.80629306 12572515.221391127 12778955.291569507 54087267.65230655 64310249.44239637 61346669.50807825 67874099.95630522 63295662.99613258 75887527.5027636 82637432.96092731 16521306.679763658 24327618.589177873 52576449.865800604 7750345.968586002 61435305.15591817 124158258.22979152 39606038.31534889 66722816.49216256 60923730.38576748 66882839.36869064 65355908.35212863 60368877.10088215 71063163.77998228 44500239.05812445 67094340.5894898 30506799.881581884 31654125.074284084 49319975.784782834 54779147.96581206 57134172.67456389 63937560.287137926 63989830.98361997 63891460.26580148 45035860.25648004 34634947.478914365 63340990.57794457 45780250.028491125 74721480.00509086 22466097.930713467 52063556.12375928 69369695.64020668 22347572.85279711 59093444.18286559 64627170.73516329 61897230.34404989 62020317.855932064 63287142.14837649 59846325.95364447 73052504.59461753 40726886.89354372 57514051.93073497 77686627.61606878 49780399.07374613 65640789.06824075 63819749.65948435 37023234.411093295 71248559.59388295 32314461.165884502 45718257.420218356 63869348.78591321 19726995.191756826 64200871.24165366 66689305.267064966 16773020.539058873 21770227.863928728 64025683.489685155 50671762.31125327 33831252.153007336 60170200.86624558 69067859.34737472 75474785.2076199 64987317.761452794 47013442.052438796 21423962.91195989 73414020.8543154 21588892.663474523 47063756.660984986 66848969.961626515 73634203.79806593 40149555.00796875 70852927.40928972 50705540.71241393 79109657.65550102 76064221.72388297 62085924.77302785 3158339.86590448 2426370.1403853046 2497714.488789176 3198089.350752239 85570912.57483557 24136063.11913321 138904644.1489949 78621997.6110999 7350406.521988463 64773444.113142766 34613445.23010058 187442342.93246308 65254235.055395834 23681217.554550152 71334156.92575386 61560062.067812756 71586493.66768773 82646930.12483044 5177048.290005429 106787281.4171213 56742426.479229525 56961477.610628024 69519727.57562672 35405550.851051964 115051833.42065449 23189279.363236103 129165058.70630237 50125154.00309248 14483709.143332578 101500406.77820233 60190599.36136018 54970713.3178821 21526261.546376757 66303928.79342043 23628362.790165916 8980090.895825641 59515363.135783784 25227050.344051432 51218865.23700239 63006178.26349975 46935970.13519309 65576129.82565204 58907176.938136116 63755521.16905173 297152563.7395634 77113608.0035647 25261604.09972961 25526674.959927946 82468637.66147861 67518717.66602324 56957018.614406295 3210105.912218243 61756288.255235724 11742806.38249726 44643378.92435337 30054613.550667424 36443892.26158352 14174779.681328923 3219374.9651637613 120935927.41590522 77430490.38971175 54763432.77224198 41216935.15108086 42961908.56734301 48376330.30568928 48592593.255237564 62344324.246985346 156650661.36256975 9413872.580583936 22018352.35456888 9407121.474476764 2488084.929851448 43659175.53843697 43629415.80638357 55321704.21968409 59483507.13624199 60771657.570192374 45688694.21674091 60208098.119682595 2496909.2234229883 62629838.21999082 10111990.565105 63994642.099538945 69430047.38602684 44569022.94144093 58735011.45125574 60298923.21167785 50919352.16469173 9330935.969115205 63917726.07393301 91734376.77298541 4636752.176411244 53258548.38450074 28341016.94068359 28125322.577120353 64429568.050697535 66796127.20089921 74854986.8036549 15569939.197868394 15616139.134544848 67649082.88084729 90493170.86730236 31299522.987118702 62341968.3403072 50266369.69299689 46871843.12006983 61903645.13887063 23514662.11076067 64490822.992298774 57648170.358258516 63499594.73700382 69373479.9262022 29527974.450320914 67423275.55329062 58031649.830824494 64162794.64886224 36011032.291653745 11454578.761460822 81887383.15109113 73602984.04545794 65820753.482385494 23711413.70776915 58734220.28586869 23761260.317685273 4430473.790839227 14237104.968319217 52187417.314965315 49005081.73713574 71418635.11114387 97031213.62945299 118259602.55183402 11943591.201758781 19953670.173674386 59598597.463791914 54914756.08482756 49642951.794264995 60996781.65094679 68101363.8968516 68894833.43700887 25887758.614371706 25573507.857238308 24517322.650874186 49875086.423400834 201511736.63881907 14852074.215614242 60471157.9378069 50303713.74402204 156567937.0555114 63560379.59139501 48178481.31887694 64603757.63657476 8452220.802958686 52119955.416577555 42949681.43775672 114678728.37581448 65893420.44301957 43190854.89238727 31855941.38224109 72945675.9392537 54097514.7396821 87621025.68707922 66752391.68263283 47100567.27233101 72478121.52938148 67573197.60920124 67567822.07953934 65478539.93951999 47386193.20248997 67376127.58641267 141891239.74594894 58925801.40953222 53441043.80002263 57637571.565776005 37099151.575133204 36944499.80278517 58743032.06940973 60557418.868815675 65735119.80883983 114810491.67200892 120388767.53678872 54300875.97882238 22887233.34322547 50704629.950783335 41666288.853221126 67832478.19121346 51495888.89511732 31641511.735532477 40289568.41227156 40249723.68818758 47762367.131836414 59572727.33400488 40978077.903269574 73583134.11187099 68657160.23111373 25005976.552719254 25081280.10592787 72700675.89092793 61361728.43854152 75377405.847198 71774370.11528847 69456423.93217288 34265493.44668997 68721435.22330464 73295910.82691228 56586231.998138286 14737425.051617915 80133461.02575316 9881815.38839056 79807919.60556458 21031849.973641656 57744643.371608056 23225658.483442843 64575806.95921508 57281492.40779345 106353070.81442963 96346897.12886742 50433055.23751195 58837900.25564506 81227352.76478228 66809758.41710904 45528526.19240656 32758041.130131483 41640752.746660315 41637023.00047627 55878510.49898148 9190213.553390754 46647212.42892263 63523364.72371617 64375872.55733564 111198044.19730698 118521494.23791307 58906599.89541371 52641907.58042266 74580805.11502434 59331673.63170409 63380392.51161605 64975653.32508267 61930545.37297995 58951572.379821606 42258267.37761669 42091196.15921293 38753164.708528005 8866794.371380322 149964850.76529494 139070850.71018198 63246221.818979256 66004541.86323037 60358855.12086778 38531725.36111355 30723438.040466633 64292007.45729968 56562020.941018425 68937968.9700106 70794963.05266792 30338078.87033831 69302429.43328008 56453349.003084846 63559569.07053264 72653940.63882391 50534394.678044595 57538300.5131249 63942318.26218953 62266050.29669041 49447264.74431724 67680033.49401724 61426381.303270936 60408490.99647319 64239581.375613004 10416170.68214538 151973021.4249865 64072380.72598608 70962777.53150329 69953650.94519946 20913312.823121943 69527564.97630484 67372194.21367198 97155689.82435434 62720691.989219636 57852935.100186765 73736479.19591494 156809873.57933503 63938817.310708135 61290417.28220871 5831671.384928155 46016003.73890997 63395030.939758554 41928006.93247955 68261954.61390707 50059942.14381925 176096986.51417416 62888930.03617745 68852607.30083117 15776894.579954391 94826826.53005433 31737560.777417615 62950790.88654742 69596089.8673141 50508511.34613457 59939137.63095844 64368995.96392615 45703201.09319618 45840520.34753729 224288824.5227282 65898423.86710048 65379418.2191351 64301224.722069286 68619667.97182985 58145601.139826715 9736058.184883436 52495637.99090872 65042988.51630548 44270886.994143546 40695582.98243782 11016116.304849306 70009501.27863613 41816945.40647411 79348356.23052901 78938298.40129893 65960075.12734326 181087131.322012 67585109.36306119 71919932.70929267 55128351.12932487 63318306.29807695 148387370.6556517 79680831.34175764 140054394.8819589 34177673.863691896 57153106.5153756 66841337.157194965 66289009.341157354 64035827.86348666 61490118.050875284 63555604.902810104 60212688.71292745 58332568.735496804 12835292.950496973 64311661.4372436 38542793.26733832 62668678.87922139 63213032.00928663 58064991.8788233 45694765.42423105 46698974.39164529 35771967.22608761 63921770.22936573 59041533.86634464 60378686.87525673 59447674.32981723 81792278.79787911 63894449.595790215 59285534.531952284 63360928.023856744 60026558.543756075 70203177.89141299 72234107.24047042 88047515.58138633 92669734.6530123 61710312.27104384 63795670.90892617 47689013.2875898 61664759.162196964 85867010.03818618 9444554.100162582 9828649.970474368 69777529.05838025 64086939.40643062 68321440.1426131 3974593.2351118596 67839795.21948537 59253237.64423827 57187214.17222978 80522173.73645535 7782582.534348885 60370675.043767996 61106463.791142456 33239221.07965997 60478749.13791013 61796332.726077504 61600773.86109376 27274266.805484388 48964781.34095039 38258703.13902936 15627230.551424691 6428107.760170909 55881660.964642644 69354884.97316197 142882826.42802757 70089524.09199543 68098606.82268226 61166847.769739866 55730446.49785611 65128554.61633328 78359738.46295027 68640801.05740824 59536256.177171074 34890704.09007651 60759230.32232408 56744379.56565 55577904.30181853 64809478.15360347 58201606.30959251 58769429.046828486 56497835.814061426 54931145.850577265 64460809.47544554 22573524.073862683 57668749.32696505 195558036.0245799 51653487.463870436 64811235.914141715 127262246.8271701 49163970.32810199 34382991.6177215 41399451.11113627 80593942.50454472 87310982.55284938 22294078.00075757 32604123.58234464 35394003.5037039 60000016.44436079 105100540.12885873 66975887.99947799 83712985.27184665 60279885.64182605 9223579.771906767 57453493.41946127 57218822.51235858 45649210.01103208 64738792.75436918 51219661.460393436 13579761.556578102 46182327.78230707 59779302.567742854 56431935.85855193 65243931.78155908 144206088.726882 35800084.24720486 49006614.333185166 60156114.349066645 65331683.34712108 54785105.006136216 26393413.313613657 53291429.270928346 55936805.12159199 58434247.838520065 65174701.32198729 68038404.93031049 69942414.2002772 23348519.690257393 77740185.66695076 55099924.49676918 59199608.448461145 24592686.216292903 55808560.314371936 64837172.16728967 43840975.72694281 58100425.2670132 90518369.2042617 41477755.649340145 83651067.62386431 90034071.2179617 39436231.33380229 65673692.89203428 68128304.89042483 65490229.08532739 64300106.86930918 3621244.5748416297 19611255.759454977 42752875.28431121 61287772.91823793 170882130.32118317 57644948.841127746 112231592.34592727 103404685.65722585 59846084.83678624 39235891.56815892 40730417.91392625 27125732.073341843 15258102.87883473 58909345.34733379 64065745.53252379 56063284.856157966 59673143.109385975 58664961.334041886 13799959.784227315 127306023.35068394 64897410.46676198 64737509.0882328 80170912.7343993 33215209.59181402 59365449.46095893 74565386.98411497 59818479.98537496 60395380.77779721 62176275.570117235 63950394.15894983 147736315.063779 74987791.80611362 87865664.51961923 60565172.008744664 68780358.96659768 44860102.06326374 13644453.460031856 69645693.97561057 67071436.32134247 36767936.96501028 31699598.10872131 56961406.85971003 52609039.81786252 65097409.25047351 67527916.25805995 48680080.973210335 74138725.09254228 95524185.7184041 63414695.0875749 4369336.074019193 63050024.563843206 33445356.437071513 64376533.39331013 14295332.33474818 74198385.10523503 64067863.08308119 64341445.73816704 57780447.438958056 65464740.023992434 33088659.625826143 33062378.488705453 66066361.9432837 4031845.9691556916 16367197.049801197 69120280.96572039 56897815.628255785 59648456.4085554 52431226.03240822 27786168.750114296 48820775.37750789 48560641.212161094 64589151.61502608 52586484.44124758 45086964.98437835 88789606.35186864 33136046.28569174 82192555.76747689 50234229.74114628 101944562.09728259 57764263.56872191 32705839.144764904 67453938.20483412 35382477.89993408 46167509.58143403 36546700.297857165 58293572.74039679 57414218.62815998 67900021.08521585 26059032.608716715 64176515.52825374 30819470.340407953 31048922.324719045 25374684.946273956 25372020.611611865 39868351.579093225 39979946.6617979