# vtk DataFile Version 2.0
Really cool data
ASCII
DATASET POLYDATA
POINTS 2029 float
10.0 25.0 0
9.999999999999998 2.5 0
15.0 2.5 0
15.0 12.5 0
20.0 12.5 0
20.0 2.5 0
25.0 2.5 0
25.0 20.0 0
13.421875 5.0 0
12.5 5.921875 0
11.578125 5.0 0
12.5 4.078125 0
23.421875 5.0 0
22.5 5.921875 0
21.578125 5.0 0
22.5 4.078125 0
13.421875 21.5 0
12.5 22.421875 0
11.578125 21.5 0
12.5 20.578125 0
23.421875 17.5 0
22.5 18.421875 0
21.578125 17.5 0
22.5 16.578125 0
12.5 15.5 0
20.0 15.5 0
20.0 14.5 0
12.5 14.5 0
10.0 24.63709677361402 0
10.0 24.27419354592701 0
10.0 23.91129031775874 0
9.999999999999996 23.54838709246676 0
10.0 23.18548386794702 0
10.0 22.82258064299358 0
10.0 22.45967741670554 0
10.0 22.09677418897655 0
10.0 21.73387095986818 0
10.0 21.37096773248194 0
9.999999999999998 21.00806450811888 0
10.0 20.6451612807928 0
10.0 20.28225805407666 0
9.999999999999998 19.9193548266023 0
10.0 19.5564515987474 0
9.999999999999998 19.19354837138494 0
10.0 18.83064514499617 0
10.0 18.46774191704055 0
10.0 18.10483869087001 0
10.0 17.74193546347678 0
10.0 17.37903223681661 0
10.0 17.01612900940379 0
10.0 16.65322578413419 0
10.0 16.29032255642479 0
9.999999999999998 15.92741932834607 0
9.999999999999998 15.56451610131936 0
10.0 15.20161287375545 0
9.999999999999998 14.83870964642377 0
9.999999999999998 14.47580642010495 0
10.0 14.11290319369939 0
10.0 13.74999996694269 0
9.999999999999998 13.38709674181718 0
9.999999999999998 13.02419351686376 0
9.999999999999998 12.66129029367583 0
9.999999999999998 12.29838706999966 0
9.999999999999998 11.93548384555825 0
10.0 11.57258062117281 0
9.999999999999998 11.20967739572134 0
10.0 10.84677417031325 0
9.999999999999998 10.48387094675739 0
10.0 10.12096772123179 0
9.999999999999998 9.75806449698064 0
10.0 9.395161271231192 0
9.999999999999998 9.032258046482013 0
10.0 8.669354822118947 0
10.0 8.306451597138944 0
9.999999999999998 7.94354837200364 0
9.999999999999998 7.580645146620729 0
9.999999999999998 7.217741922905391 0
9.999999999999996 6.854838700199402 0
9.999999999999998 6.491935475456518 0
9.999999999999998 6.129032249693084 0
9.999999999999998 5.766129024955096 0
9.999999999999998 5.403225801332082 0
9.999999999999996 5.040322577682138 0
9.999999999999998 4.677419353225353 0
9.999999999999996 4.314516127429037 0
9.999999999999996 3.951612901263398 0
10.0 3.588709677867029 0
9.999999999999998 3.225806452333023 0
9.999999999999998 2.862903226670315 0
10.35714285661005 2.5 0
10.71428571213589 2.5 0
11.07142857046827 2.5 0
11.42857142735092 2.5 0
11.7857142850142 2.5 0
12.14285714287573 2.5 0
12.49999999995663 2.5 0
12.85714285391503 2.5 0
13.21428571211111 2.5 0
13.57142856468173 2.5 0
13.92857141917294 2.5 0
14.28571427871344 2.5 0
14.64285713891684 2.5 0
15.0 2.857142857852235 0
15.0 3.21428571521503 0
15.0 3.571428572726516 0
15.0 3.928571430603533 0
15.0 4.285714287978719 0
15.0 4.642857145514987 0
15.0 5.000000002580401 0
15.0 5.357142861368146 0
15.0 5.714285719647869 0
15.0 6.071428578485179 0
15.0 6.428571437049889 0
15.0 6.785714296048281 0
15.0 7.142857154135942 0
15.0 7.500000011102228 0
15.0 7.857142866965729 0
15.0 8.214285723560286 0
15.0 8.571428580253976 0
15.0 8.92857143590683 0
15.0 9.285714290295818 0
15.0 9.642857145775196 0
15.0 10.00000000179977 0
15.0 10.35714285775001 0
15.0 10.71428571439413 0
15.0 11.07142857145955 0
15.0 11.42857142775673 0
15.0 11.78571428532397 0
15.0 12.14285714320719 0
15.3571428591223 12.5 0
15.71428571719138 12.5 0
16.07142857423201 12.5 0
16.42857142974857 12.5 0
16.7857142846084 12.5 0
17.14285714112862 12.5 0
17.49999999772317 12.5 0
17.85714285297952 12.5 0
18.21428571083795 12.5 0
18.57142855939082 12.5 0
18.92857141386655 12.5 0
19.28571427430228 12.5 0
19.64285713574168 12.5 0
20.0 12.14285714165368 0
20.0 11.78571428436058 0
20.0 11.42857142737726 0
20.0 11.07142856955135 0
20.0 10.71428571316279 0
20.0 10.35714285484745 0
20.0 9.999999995955926 0
20.0 9.642857135639455 0
20.0 9.285714276871845 0
20.0 8.928571418674213 0
20.0 8.57142856231663 0
20.0 8.214285703660536 0
20.0 7.857142844508807 0
20.0 7.499999985406642 0
20.0 7.142857130003156 0
20.0 6.785714275659092 0
20.0 6.428571419530735 0
20.0 6.071428563699761 0
20.0 5.714285706611115 0
20.0 5.357142850049079 0
20.0 4.999999993527312 0
20.0 4.642857137101577 0
20.0 4.285714282125578 0
20.0 3.928571425551149 0
20.0 3.571428569906041 0
20.0 3.214285713520577 0
20.0 2.857142857692707 0
20.35714285650163 2.5 0
20.71428571178895 2.5 0
21.07142856795603 2.5 0
21.42857142687388 2.5 0
21.78571428441634 2.5 0
22.14285713997626 2.5 0
22.50000000002168 2.5 0
22.85714285703133 2.5 0
23.21428571221953 2.5 0
23.57142856194335 2.5 0
23.9285714186928 2.5 0
24.28571427764782 2.5 0
24.64285713873408 2.5 0
25.0 2.864583333579086 0
25.0 3.229166667418379 0
25.0 3.593750001170938 0
25.0 3.958333335039145 0
25.0 4.322916669051911 0
25.0 4.6875000031225 0
25.0 5.052083336528115 0
25.0 5.416666669875903 0
25.0 5.781250004033231 0
25.0 6.14583333738102 0
25.0 6.510416671422698 0
25.0 6.875000005290905 0
25.0 7.239583339506053 0
25.0 7.604166674125976 0
25.0 7.968750007979722 0
25.0 8.33333334199249 0
25.0 8.697916675860695 0
25.0 9.062500009671076 0
25.0 9.427083343134518 0
25.0 9.791666678332678 0
25.0 10.15625001249001 0
25.0 10.52083334768817 0
25.0 10.8854166811516 0
25.0 11.25000001496198 0
25.0 11.61458334738459 0
25.0 11.97916667946025 0
25.0 12.34375001292369 0
25.0 12.70833334511499 0
25.0 13.07291667765324 0
25.0 13.43750001088538 0
25.0 13.80208334365493 0
25.0 14.16666667353327 0
25.0 14.53125000442354 0
25.0 14.89583333573303 0
25.0 15.26041666500421 0
25.0 15.62499999488256 0
25.0 15.98958332836045 0
25.0 16.35416666104326 0
25.0 16.71874999219373 0
25.0 17.08333332471754 0
25.0 17.44791665847009 0
25.0 17.81249999193352 0
25.0 18.17708332505002 0
25.0 18.54166665810869 0
25.0 18.9062499938851 0
25.0 19.2708333296615 0
25.0 19.63541666578485 0
24.65909090697006 20.11363636434331 0
24.31818181387862 20.22727272870713 0
23.97727272112545 20.34090909295818 0
23.63636362933978 20.45454545688674 0
23.29545454074166 20.56818181975278 0
22.95454545175678 20.68181818274774 0
22.61363635870555 20.79545454709815 0
22.27272726938004 20.90909091020665 0
21.93181817642107 21.02272727452631 0
21.59090908415283 21.13636363861572 0
21.24999999070893 21.25000000309703 0
20.909090898365 21.36363636721167 0
20.5681818062032 21.4772727312656 0
20.22727271532826 21.59090909489058 0
19.88636362288735 21.70454545903755 0
19.54545453222531 21.81818182259157 0
19.20454544067146 21.93181818644285 0
18.86363634917439 22.0454545502752 0
18.52272726008306 22.15909091330565 0
18.18181816691119 22.27272727769627 0
17.84090907624678 22.38636364125107 0
17.49999998161302 22.500000006129 0
17.15909089129634 22.61363636956789 0
16.81818180107666 22.72727273297446 0
16.47727271035784 22.84090909654739 0
16.13636362113641 22.9545454596212 0
15.79545453028867 23.06818182323711 0
15.4545454400335 23.18181818665549 0
15.11363634812483 23.29545455062506 0
14.77272725866684 23.40909091377772 0
14.43181816866006 23.52272727711332 0
14.09090907805834 23.63636364064723 0
13.74999998745307 23.75000000418231 0
13.40909089754563 23.86363636748479 0
13.06818180839043 23.97727273053652 0
12.72727271853859 24.09090909382047 0
12.38636362812021 24.20454545729326 0
12.04545453791708 24.31818182069431 0
11.70454544876188 24.43181818374604 0
11.36363635991656 24.54545454669448 0
11.02272727049761 24.65909090983413 0
10.68181818161208 24.77272727279597 0
10.34090909059876 24.88636363646708 0
13.29836716804519 5.460937501850858 0
12.96093749805554 5.798367170236416 0
12.03906249886036 5.798367168455805 0
11.70163282969542 5.460937497937477 0
11.70163283195481 4.539062498149142 0
12.03906250194446 4.201632829763584 0
12.96093750113964 4.201632831544195 0
13.29836717030458 4.539062502062523 0
23.29836716853658 5.460937500999747 0
22.96093749805866 5.798367170234614 0
22.03906249972091 5.798367168952648 0
21.70163282978201 5.460937498087458 0
21.70163283146342 4.539062499000253 0
22.03906250194134 4.201632829765386 0
22.96093750027909 4.201632831047352 0
23.29836717021799 4.539062501912542 0
13.29836716891448 21.96093750034519 0
12.96093749723044 22.29836717071278 0
12.03906249968323 22.29836716893089 0
11.70163282943968 21.96093749749452 0
11.70163283108552 21.03906249965481 0
12.03906250276956 20.70163282928722 0
12.96093750031677 20.70163283106911 0
13.29836717056032 21.03906250250548 0
23.29836716933758 17.96093749961236 0
22.96093749736115 18.29836717063732 0
22.03906250038764 18.29836716933758 0
21.70163282936268 17.96093749736115 0
21.70163283066242 17.03906250038764 0
22.03906250263885 16.70163282936268 0
22.96093749961236 16.70163283066242 0
23.29836717063732 17.03906250263885 0
13.0357142863834 15.5 0
13.57142857334916 15.5 0
14.10714285783675 15.5 0
14.64285714470339 15.5 0
15.17857143070267 15.5 0
15.71428571720997 15.5 0
16.25000000702564 15.5 0
16.78571428904744 15.5 0
17.32142857412979 15.5 0
17.8571428511085 15.5 0
18.39285713616606 15.5 0
18.92857142211578 15.5 0
19.46428571101452 15.5 0
20.0 14.99999999601014 0
19.46428571160309 14.5 0
18.92857142040583 14.5 0
18.39285713577575 14.5 0
17.85714284336419 14.5 0
17.32142855637984 14.5 0
16.7857142655791 14.5 0
16.2499999775787 14.5 0
15.71428569556309 14.5 0
15.17857141150299 14.5 0
14.64285712475407 14.5 0
14.10714284117721 14.5 0
13.57142856006613 14.5 0
13.03571428124737 14.5 0
12.5 14.99999999867727 0
22.26958274149815 10.95721052916667 0
20.79986499368108 12.70287990268133 0
22.0675207564937 7.588601309962359 0
11.19027247793568 23.35386304083931 0
14.65545902592658 17.77251277184088 0
10.36004924588453 23.29144874078271 0
17.54251370022386 17.66624592288946 0
23.86178336745624 16.99231951472439 0
20.87926174419512 19.5696034411492 0
13.80387590442377 8.854680006511865 0
20.30446326553214 19.1585578980278 0
10.57983303811232 16.63846109929658 0
20.77232787570201 10.17857142540164 0
10.84906700501841 5.623956596785963 0
12.50253841088172 8.750000008080407 0
10.39170361664793 20.61804172346937 0
21.64009018922794 14.70127838190198 0
23.3132496974372 14.7135416700782 0
22.50272023606961 14.25163378116593 0
24.39129717447209 18.92289517316965 0
13.68429103859577 10.7183445291194 0
14.48958961042135 19.46354054099125 0
22.19720936829211 12.6256226769797 0
13.37245885890666 12.63452093647016 0
15.10659570657499 13.24569970573869 0
16.25075136301763 19.32043596753711 0
14.47596453511799 10.02983783398312 0
21.54689957758132 7.691974800225236 0
23.47685129924373 12.01202918102885 0
21.90624032839728 16.00500799035036 0
21.11166538291147 10.82474048023415 0
13.75660036272381 11.25127308923338 0
19.75438467698914 17.32642832200058 0
15.33109744023029 21.16528660880159 0
14.34698404958932 11.49334415493493 0
10.88482072385876 10.57976506663638 0
23.74922129836443 8.756638960251237 0
10.73234720775624 19.73790321267485 0
11.23971173320038 3.807028180849467 0
18.74563737173835 20.90408978616357 0
24.15979719682971 10.23399174856349 0
11.60925640618057 7.399193534763064 0
15.30491893171502 22.36434224265582 0
12.3034307092997 17.44761513116974 0
14.70415254189505 16.13691663180137 0
21.32968127033861 15.16413180563089 0
12.45732571272971 12.2338076079982 0
18.12377473809206 21.70044138123217 0
15.02228302952322 16.64654411714828 0
10.77097196870735 7.243967052383298 0
12.21124941385595 19.61490678908582 0
13.46403574706994 16.93508081461115 0
22.46739702106047 9.797129866983038 0
16.72814371829827 19.33133378873105 0
13.77688367687927 19.15661452313357 0
17.12886627861963 16.63552894678104 0
11.67715011621903 23.78145037085849 0
22.43107253298123 11.99022766133909 0
21.71821780692625 13.01416675887091 0
11.89033289591375 9.269229462949383 0
18.49548740429852 21.19521869937873 0
21.06351720939105 13.47429867920192 0
13.60169406030579 20.00864025369769 0
11.62982826833782 18.49479238177264 0
23.02544845088007 13.36008114977387 0
16.11555317377113 20.4220837054187 0
11.48005720617354 16.86872756852774 0
23.45591398229024 9.973958345411349 0
11.75269650706231 12.84274190526981 0
23.80938705387582 19.14332354918361 0
13.68782526046078 7.241322830726723 0
11.40215185367971 21.80972280639721 0
20.80309897818067 11.66020258049204 0
16.07882573587131 17.0178248735077 0
10.84155281496207 23.97232505666728 0
21.10617849720296 3.606178497139716 0
13.43507587457949 9.952421427786476 0
19.8316503322762 13.50566147020552 0
24.26560903194991 17.65773275153617 0
11.71527982377981 12.04281083902917 0
14.38334440793914 18.63722849110013 0
18.29227483760144 13.4282846813149 0
16.90214047283978 18.42684218173017 0
13.84411622948956 12.95610676549036 0
13.0254844892695 19.28926423173788 0
11.11393052482621 17.93441694890372 0
18.69220024875286 13.58837935758354 0
22.50396830147454 15.45952817707069 0
19.19305859026527 19.05644854043653 0
13.13298400127971 11.74170874158666 0
15.69068491089686 13.748155024296 0
13.03223458711869 8.91621911137565 0
11.21919230497129 18.40749864597552 0
20.84732475743738 5.55545579276645 0
19.70805860570341 14.0034737704767 0
21.93880642483674 3.352142513207079 0
20.83331263238161 4.403600543710224 0
14.40021454375065 3.107339356987807 0
19.8462946106326 20.37033628552593 0
10.9589349139898 12.30465456650034 0
18.24536564935639 18.39635873079098 0
24.50971841166669 5.869409334251905 0
23.97126426108935 3.532725489994626 0
11.2330651405964 11.44761340637076 0
11.82634100659438 11.36163063372402 0
22.43740789887904 13.19070013236757 0
21.21486899938347 15.83806412832361 0
12.65201063325306 13.43433525269097 0
12.50638275157497 11.24999999960811 0
14.5471439821359 22.16415926842161 0
13.54439257923088 12.10988124487062 0
24.16055663460191 18.35937499157944 0
21.3800764963797 12.1250926481214 0
23.44134818774187 7.413488604490416 0
12.41797604753959 17.9233870771734 0
14.15629865919215 4.424189356294447 0
12.58361039284649 23.58677304274526 0
14.15691033526098 5.535714290508001 0
20.99062293795977 20.2257334116265 0
19.8675449196238 19.71394432980479 0
23.70971384674508 13.21679999246733 0
13.37558198167574 11.06900109757211 0
11.93006672888767 6.614938070425135 0
10.78615447641982 17.19818257433074 0
19.74427444401963 21.014508823471 0
11.22931569650021 8.22386600118791 0
14.6305412251583 21.39070409733834 0
21.01275501441187 9.259034107897623 0
23.16952938990656 13.98761541064694 0
11.89963146551687 13.59872337686634 0
11.02808715008035 3.53059538627811 0
12.13907476903466 11.05732998409432 0
11.90453577166386 3.335408283016171 0
13.18391942655092 8.375755633743264 0
20.74577810995693 8.009833054697733 0
10.83475407343166 4.489019895013394 0
17.58820052548336 21.53588378940034 0
11.81870335006377 10.78857743866362 0
11.22553342228765 11.84465427100717 0
12.90445621306904 23.1697750884356 0
12.1042431574168 23.22978387229803 0
21.11510430573963 6.607142847594906 0
16.69328970387328 21.33363241878971 0
10.64909286298984 8.547147890376262 0
13.57054838978419 7.692501096767321 0
19.83650775738979 16.40167507818682 0
24.09628940907234 7.932350087037015 0
11.85448885078173 7.048453674940136 0
17.75091653346641 20.42313801966715 0
21.4831533272802 9.776842499621448 0
11.20728445678944 13.95201310290746 0
14.14937583931952 10.48346156273276 0
22.92119393967938 12.25045427030628 0
19.20118702257015 19.76668124456841 0
15.89285714571177 13.5000000019311 0
23.68569536634273 5.899562917772009 0
17.02208545153932 13.5883793562974 0
20.71101894122702 17.77147124189606 0
24.16580109191894 4.498010645802557 0
10.90081847163605 7.955734745674013 0
21.3895835165527 20.28280805051011 0
11.20414119230427 14.45179278444325 0
19.48175768491559 18.27274492841021 0
18.72948096523697 17.93046363564187 0
10.85711744508019 9.544224878407773 0
21.64327528737842 11.35857225133156 0
18.57105816420878 20.50427039876475 0
21.78878036978375 9.073974333617679 0
13.4097907795858 9.358857326525282 0
19.27174352207084 20.46897891957615 0
23.91123704912611 12.10856350960977 0
20.29821155287116 18.45193731689386 0
18.42426275003635 18.74103074391518 0
23.92223854092476 11.00561477438078 0
23.07218214923482 10.77562867139487 0
16.93309364422369 20.59718179147318 0
22.55811285811892 8.757153560600461 0
11.43696864960922 19.38159678413203 0
13.37603320515248 18.94675647826642 0
21.53507718458648 8.66027114907166 0
12.77197032165537 17.27197704984109 0
10.75673422975797 14.65643799581458 0
14.25118270954717 13.34681926122099 0
18.54636677727024 16.79585224767837 0
10.95455362158893 22.49655233477641 0
11.9295823350749 7.781401296585976 0
17.78247533506791 19.02994995053739 0
20.47480984435064 9.88575604638604 0
11.76986478440113 17.5241520386294 0
11.55211975089172 11.70524915831046 0
19.11988031607901 21.23770354480194 0
24.20372764258271 15.09909995843796 0
24.09210087596438 14.12665561108701 0
11.61449752502277 9.987372942304045 0
13.89382150287616 3.606178497386566 0
11.25607282167939 8.827790777790192 0
23.63503905533823 19.81993719231579 0
14.51400871593122 7.752589899399273 0
24.17364774508815 16.44331678895831 0
12.7878799201205 9.5115432796125 0
17.12091052419849 19.72514880563243 0
24.15808311247323 9.452391971031375 0
12.50066586976253 10.27238230370854 0
24.15157672011299 5.637959152978691 0
10.63621048941636 23.00110049838996 0
11.25086596940593 17.41906161945453 0
21.00515130007598 9.791496202417171 0
11.16782331102575 6.421494254743489 0
15.36183374920314 17.46894725710069 0
22.35726110369053 7.003788047609224 0
13.63045805221027 18.23514367630994 0
14.43101003005639 20.61213866225272 0
15.95076795869629 21.30030255244571 0
15.35296974613354 19.09618537283924 0
20.42330119725824 20.474449084161 0
18.52300789510665 19.79637104306948 0
16.04126771277219 21.94556181360532 0
23.81186166993883 15.80729166162157 0
10.86349121463875 18.73465763628023 0
10.94493273066816 20.44228986294075 0
23.09900109020412 12.77611718372196 0
21.72720933948813 10.49891033870326 0
14.25616593510879 7.30106025869543 0
13.87213696676189 6.617939246927357 0
11.24614984518616 15.38306448753742 0
15.75194167709571 18.22902705246423 0
11.6335447176887 14.65438565820515 0
12.35187488999215 7.858321551877147 0
12.64464223213504 7.016280982980349 0
16.73713724957882 17.63319688627522 0
20.48541310151631 16.07488105326953 0
24.43256985499747 10.83212556542942 0
12.47181771509778 16.56027454874658 0
14.34561271765185 22.85433860613167 0
20.54757658401284 10.63918829726269 0
14.45717088487709 10.94223949471571 0
10.62962239628751 15.37960629980266 0
22.06819498133222 19.72731223052073 0
24.23862857630728 7.243635859600014 0
20.77896367638783 15.15151329969176 0
22.93894340599764 10.09873658492399 0
24.34649722737323 19.53017530337231 0
13.79855150148435 12.43190483292596 0
24.41607190184069 15.73747413066264 0
15.64167532704413 20.63194748067637 0
14.39155774927945 6.220468462346735 0
21.10053509819718 8.76075414665037 0
22.59709263173598 20.1419781001756 0
13.03030151024089 12.59538228613759 0
24.16584927810175 11.7454639793488 0
14.4617872148399 17.06886346209886 0
13.64499581510276 22.86680566945595 0
11.89558979910019 8.695827947392171 0
22.50220478394316 19.15322137272248 0
10.78781755066284 23.33533964496644 0
22.62051972837099 12.7808071806797 0
20.97109904048126 20.7624255788748 0
14.16334568038533 16.37630746426331 0
11.31471599841582 3.021042610905732 0
14.01224420563486 6.275085267133052 0
23.83233341856307 6.430460492441453 0
21.85133740650852 8.393114939184366 0
12.14537480624549 23.80254575184463 0
20.74184555770175 9.424475683619619 0
22.60838511151845 7.872515691697661 0
20.60733935536327 3.099785452750241 0
16.40333290518563 21.62504799953632 0
23.11358629610952 8.41123273429125 0
24.56171677315909 14.00738246033496 0
22.89425631180308 11.46596904222336 0
17.92409500706865 19.35822031769643 0
11.81448319910098 16.07318452085524 0
21.37258860264732 10.29843679514542 0
23.2172146467562 15.34101467411728 0
24.50151140239279 9.83896631462945 0
20.63414967699894 6.19334309789235 0
23.06431265283875 9.182225484758545 0
20.85697452804941 14.36179499716408 0
18.41916817833627 13.03664624275589 0
14.03763436694203 10.93752372800179 0
10.65769752098021 11.70515616255768 0
13.40667151008609 8.779480412081211 0
13.34781386799156 7.018722088944184 0
14.08344906719345 12.15261775593141 0
12.89363905396217 20.0108867658062 0
23.55744248933006 11.52232711774768 0
22.72911815578979 11.05915817563758 0
13.01833572387923 12.2820553324946 0
14.26341571495593 8.239029613080813 0
21.73822392940657 13.80041030157041 0
12.66421383651376 17.62960896331094 0
14.36101390970969 11.20924428850651 0
23.07820551303193 6.638516547682778 0
11.59927019918133 11.12518651296811 0
13.68127029297839 3.026428560916463 0
14.7625395077017 12.97571300204638 0
17.28269021038436 13.02203855497644 0
16.79264513439217 22.04675840300608 0
14.00724900473421 21.17974702476882 0
10.35212974634058 17.1903700184225 0
24.78364773693646 4.131190445559064 0
13.48428501068905 22.44574731691844 0
23.23470909294247 7.772178920866573 0
20.06769125705273 17.87808011026468 0
10.58753507037019 10.0704838905618 0
11.64157903973496 8.09547688610466 0
14.4429505789405 6.805715109587818 0
22.50638313527659 10.40954243114257 0
23.00477269367793 19.6503085929607 0
11.18783840903759 12.78595214515256 0
11.73099118319107 3.010756801136515 0
17.40067439163198 20.94427629634663 0
11.55612224253195 22.76461850081754 0
14.7141811965123 6.961891439943583 0
21.18473335279052 19.9270180957176 0
22.83973867894834 7.340470503411963 0
24.12676587721596 12.52022127969201 0
14.47776694928871 5.798181838203909 0
14.43588487701281 12.72922855950762 0
21.30739623548529 16.48034284126238 0
20.64226959136442 11.15040586082681 0
10.51246771684859 23.51067423480486 0
10.6078451779716 3.105317790648001 0
12.78105695356853 12.81596173785206 0
10.55385707569151 12.68299390065562 0
10.46542252762416 4.665485648812989 0
24.31946490746298 13.54033235074676 0
20.72591205235828 7.260965089883213 0
15.41227560550501 13.95029924686729 0
14.16949506522512 9.584332792851201 0
11.56489661155769 20.13393082168748 0
23.1516657904602 19.00554009527819 0
14.07995309735743 6.995785924767088 0
16.11101033914265 20.03170747239243 0
12.12728049535101 9.806458664304305 0
13.70774320291519 4.175338368991829 0
23.26883445403379 3.011366191296178 0
12.00195919067466 16.93171293189452 0
23.73290470521006 6.864287005688719 0
14.66556233365091 3.436214011264117 0
24.45920283702696 6.306371032649741 0
10.51823936198581 4.267727712316725 0
21.46860422491423 19.68708762828425 0
15.75394973953908 19.81104426936654 0
10.26670527319199 21.91532257442233 0
20.71286984138714 16.82631822250807 0
24.72249460317371 6.128979284864272 0
11.95831009278965 11.71378210791541 0
13.14637419665629 10.7402671000371 0
10.54204132714359 6.294995415961242 0
24.37309187865964 8.93845406144049 0
21.14652709596652 17.63815495927354 0
10.8022389244244 13.24741077704539 0
11.21677048373054 15.85314948055776 0
21.923743823753 11.9304816421256 0
23.59572949680613 14.25548521996766 0
13.10650255069849 18.58357784019577 0
18.22489563778907 17.50427371399579 0
21.99358544676655 6.503690782052638 0
15.76316562867546 16.30516459849499 0
19.63472387157777 21.42658151102797 0
12.95741369351108 7.556318739238868 0
15.48380484517162 13.03858531835278 0
16.48210557652406 19.89536397389276 0
10.8579882820708 16.06791637139223 0
23.5854681629193 18.5723916858478 0
17.44164963496835 13.89008620859283 0
17.87545601640494 18.3040087247486 0
17.58423871086668 15.91726870673348 0
15.34554335937393 21.75670475401073 0
15.2417518750379 20.38055890251484 0
14.55690222486757 11.96428571426559 0
22.36149369010562 8.278481101646161 0
23.095196035615 3.336041443076199 0
12.03855459497216 14.90734231694315 0
22.00635348112536 20.33328191359929 0
13.04376217250524 17.82856954450408 0
13.09063215776964 3.343412532191537 0
20.76271223731102 4.066253727389729 0
18.32110557342407 19.22753076087921 0
21.66438490845637 18.62453951969695 0
12.49252491964336 3.060484686078856 0
11.38678841149924 9.482998751478764 0
22.54018811721192 19.67593044551418 0
13.15780337906434 16.24502057283343 0
10.59956143545568 11.12063278734223 0
21.76824902674756 3.775954027684842 0
15.06408576448814 18.41551597104699 0
13.1475838157189 13.03010637688939 0
14.43931386865769 4.993170288038083 0
10.57007939380598 18.21914950590057 0
23.71375267103019 4.147678433317783 0
11.206794942195 10.92274470888388 0
10.51652407527318 20.19944675113938 0
11.44983403719139 12.33074012511134 0
21.31485260937 5.986186812993458 0
24.43491913922038 17.07127549264212 0
21.3143867745359 8.20460755042707 0
13.42423646701128 23.3408912593692 0
12.2395348353993 13.00803626583231 0
14.0488573275786 8.53696751431454 0
11.25896917469081 6.824877716662401 0
21.16821457806133 18.69126914631021 0
23.47405083027066 12.9565040289984 0
24.46619338001049 3.84296969452089 0
16.44564271517008 20.73729360517277 0
18.30040236554333 21.99222783952267 0
23.86228678136986 17.42349975128701 0
24.43865475634252 12.98412211492687 0
13.40935842307062 13.42096149937564 0
20.38302963574585 19.90287712447864 0
17.88283261615297 13.34754481112354 0
22.66298769276169 9.045323969908152 0
21.02509263270233 7.709683339717808 0
22.68579479240935 13.72299985941649 0
12.15239795472642 12.01930916910718 0
10.3959563164612 22.52602174504635 0
18.89955624358838 20.27892015483477 0
10.54063507454317 9.08702305113491 0
14.67689187726288 13.89316413507319 0
23.38359656386535 3.652944043804598 0
21.92110043280397 9.51480096143683 0
14.93316505440613 22.79492233111536 0
16.42857142937082 13.87244898555864 0
11.51919478088649 9.094941693256288 0
13.35423646876998 3.612887155588151 0
12.46889083717509 13.91999935196081 0
17.02648555203663 20.97489526899251 0
19.50169504290306 12.83186553369652 0
10.56012145596627 22.05322305584161 0
19.08910197562885 16.21267900866716 0
18.93692298833662 19.42318094308791 0
12.33506163837085 10.76217628234017 0
16.37815975264748 22.35029651623865 0
13.89422638018366 13.89623359086198 0
16.13983317730246 18.32684348928911 0
13.92255638573043 10.00207250762213 0
11.16736320005822 7.57952276316464 0
13.42863248720288 10.39834042745379 0
22.46185334020605 9.513852369494897 0
23.53853081058323 8.3433107902799 0
10.77950150189832 21.55241934617507 0
10.52777113861401 7.568388820892446 0
14.3557025863046 8.493462283044334 0
11.66766029993576 16.52554284469452 0
14.60811961919253 8.330863300231297 0
24.12680204119287 16.06566707957771 0
21.57326300396981 9.443012092981833 0
14.66962860214321 22.98876373165935 0
24.06334107125952 2.837119956562295 0
23.59589045982427 12.54973826301023 0
21.67453118153158 7.015948920915235 0
13.27482554950253 6.373141614749483 0
24.39201055175278 3.106939397501749 0
21.72901854011744 20.01482381512444 0
12.0672961927931 6.200198106765606 0
10.32677192734746 19.7714809802835 0
10.34602428831806 3.44995844550209 0
21.26576725439302 9.265273851389864 0
12.3062403951843 6.914850364740581 0
23.14519827190075 9.667898371108844 0
23.52561777892839 7.983556612623144 0
19.42974908333031 16.83101760557179 0
20.55089023956987 6.789970013521812 0
24.47111772150928 15.30604961536706 0
10.58584113410589 20.96176132467809 0
14.37134153654599 8.795990361963717 0
12.57990967605967 10.62871357878424 0
11.22643190978441 5.476968515867556 0
24.50256472104784 11.32208539993746 0
11.50855860426084 8.513053458595962 0
16.86655113105331 20.07890844046096 0
12.40349011485721 18.65281015770367 0
12.798918529907 14.16831946966833 0
23.71537265089115 13.79261715192579 0
14.58720103712673 20.13852432992628 0
24.47968865335412 6.791431248179063 0
23.2082131600872 18.63373140245723 0
17.93724453937922 21.37146576103272 0
14.10288928145685 21.73162814744857 0
16.60988671667212 12.76732992074069 0
16.49402978431649 18.14678349055185 0
20.19195896889483 17.24697282803677 0
11.38059035855936 13.30248137522776 0
24.54174413958119 18.51831170938909 0
17.82295449274671 19.74116655211461 0
21.79399498770594 19.06306614885801 0
24.51978809026108 12.14435005277898 0
17.10077220275747 21.57582004127212 0
20.49915384755254 15.57090377176265 0
20.36344931094617 7.362652692300062 0
12.18800312454602 8.925870705147426 0
22.02281815100731 6.845739969034826 0
10.49030067893364 5.853061277668681 0
10.30156559184295 10.27520335052742 0
18.32017670063122 13.89343365893288 0
11.90215840825724 15.30504565837236 0
23.25800405226477 10.33958362611346 0
11.11489136781205 10.02943254601695 0
21.45112154696652 13.47884530898898 0
17.98006384517337 12.97713982583745 0
20.31767936181708 13.1235216908645 0
10.52648670581467 6.785305643293635 0
24.13739228054422 6.100663563035468 0
20.88614026424372 11.38873467809252 0
18.49296348722647 16.24817057262522 0
23.96255659003641 10.6032402151908 0
10.87916753448492 8.290833781634168 0
10.5775992360868 13.87021974888692 0
12.0365675928313 18.75357558702564 0
23.88116003114752 7.52041293667638 0
21.06314225961275 13.06049446150283 0
22.22201165807645 11.5165203536619 0
20.63895123686549 18.79513803076992 0
20.11829897005256 12.8328747062066 0
14.06273319018453 2.845268546548806 0
17.87255649503364 16.28346903952649 0
17.43030149830418 18.61591726054158 0
14.22783912227094 12.41143007567667 0
10.5003675313083 12.09898560144165 0
13.11393120950731 11.27211354179378 0
24.71579500877218 10.35113677244682 0
11.24057207585293 18.91205656457056 0
12.9788473200665 13.44296319313617 0
19.25959372417604 13.12407122217768 0
10.83948972223523 17.59029930630555 0
23.40123863020058 19.4045118411543 0
12.34797724088293 16.03708523707026 0
18.1762921417646 17.09731301042211 0
15.47365832148276 18.62692263082294 0
23.34227600710745 15.88908749469035 0
13.87257588122531 9.333802826570656 0
22.25160036451238 14.63697778812022 0
23.98806343838787 8.430021063212813 0
21.54348819920591 14.2608949856373 0
20.56885121614064 12.17442523690924 0
23.98738424597633 18.75663182020473 0
22.650764495547 14.85759719562572 0
23.59842370763462 10.5222785502007 0
16.40424399441789 13.12055315449572 0
22.94060948815202 14.32536663455182 0
20.21522809797295 3.772627870168991 0
20.52642855983227 3.818729698817516 0
21.27149522405434 2.712047537533303 0
14.37179255842518 23.18642912520117 0
21.31411926175389 3.021356639212173 0
14.78795246195149 3.771495227893978 0
11.32298962257308 7.903545367545192 0
19.81823077386098 12.70734850842646 0
20.51003107559469 4.231257403376286 0
14.47864335977594 3.814119265584607 0
18.10245800681793 19.0106695337677 0
17.15061706174656 17.1735168695576 0
20.54007957872148 8.74660477564242 0
24.36929935239072 10.52864015562151 0
11.13327937729154 20.03257648524514 0
12.00423227834725 22.79861986839474 0
10.25805644492864 5.655002405014403 0
11.75664767221354 9.649188135874649 0
22.71052115169183 9.359787120181391 0
23.68494862918605 3.021804520322274 0
22.12344093052101 7.235540304172838 0
12.96376672886515 16.75869038234687 0
20.39119997918016 13.86841539371637 0
22.3482685950224 20.48430299653274 0
14.68248600486211 11.66577797944479 0
13.91234459952631 17.54608058085416 0
21.11616757253904 18.10584015863511 0
19.28571427745271 13.87244897806818 0
10.53282449379429 3.837684094789033 0
24.47952649562058 18.06353808602391 0
14.65732572936202 11.26920136248324 0
16.08880165452135 15.9533453473565 0
21.768976403051 9.756622823443521 0
20.02745319692377 20.0216441157555 0
14.89021239530439 21.83853633038319 0
10.30802620419208 10.6513126202543 0
24.47696181371919 8.347352019369566 0
19.70414192634276 18.92018497617835 0
24.08475714746857 8.767262864259294 0
20.47182952762892 8.389240105584472 0
20.82952683125152 8.456064123508746 0
23.33507207128105 4.021226472204743 0
22.17477530650223 3.749355402772955 0
16.82650487639908 13.02592711084005 0
23.52269144628953 16.35103347246119 0
10.87746796551757 15.66060954389933 0
22.16283377749563 9.688469880034754 0
15.49087217122395 13.48832227700053 0
14.06121592653045 16.88256515125907 0
14.26573340738814 7.593109869464366 0
14.08349710651364 20.19139604712877 0
10.45206217708002 13.05252858374695 0
17.47353039256558 19.39426957841624 0
21.15039356032532 14.00919428524723 0
22.87124706076142 10.42481767986527 0
22.6893792825874 8.434242525361594 0
13.89058585970236 22.27592747188127 0
22.88409990070923 6.198705635515233 0
16.20880718677476 16.57208528538624 0
13.86109451593171 18.67319904187375 0
21.69074464608117 20.37017884990696 0
16.98758419302348 16.04722221945502 0
10.86068579776751 6.090959684373823 0
14.62445593531205 7.379013665747857 0
12.20080903469551 8.334183028386576 0
15.7200767566552 20.20880398329919 0
22.84342203710317 16.01528629710704 0
13.14736548298748 17.24071901277512 0
22.06429703033326 13.03468458979567 0
15.12207005843468 21.44772277819343 0
11.40237405658222 19.77382400213385 0
21.96571632394563 9.972890622016234 0
10.52718347116985 13.4402125059289 0
12.05374079348773 20.17278753926058 0
14.72348794636218 7.978939722520545 0
23.04273666914644 15.00158984992809 0
10.56624031031358 5.048057826488852 0
22.54734451619338 12.36545280902777 0
24.4326943431345 5.059351435681622 0
23.85418925173502 4.428463095335323 0
14.34341792565712 13.72332432556699 0
22.07367387717508 14.17291241555382 0
12.47894342535751 22.93028729717784 0
14.01154151034802 3.230895819736791 0
21.82416655674331 7.905274213642563 0
21.21400597306049 12.76338109935662 0
14.17600547354967 10.18221528773971 0
13.26778137283199 3.011714392310243 0
22.50747498517371 3.060484560566868 0
22.29233942073909 7.934959083800275 0
24.71619521815185 9.603708378091836 0
11.2136165645012 7.156333617852759 0
21.15567894660673 4.96395036684225 0
13.84736183312286 4.965620647231049 0
14.51933727167284 5.369055699858831 0
20.5606860494994 4.993170020202232 0
12.75756360748437 11.65730514044456 0
12.12097284065764 2.916856230363125 0
10.73007800052459 23.66924465278051 0
24.57788888801459 7.987882119104048 0
10.40406447893967 7.208286522477162 0
10.92671946048162 4.109208459028519 0
23.65898703761241 9.288980639322066 0
23.84944347080922 7.81630634801359 0
11.43648407884034 20.59689535637329 0
22.29750585170686 9.249931794691024 0
18.68844274488901 21.48997797652389 0
10.54990754532567 8.151598492789502 0
14.15610017860466 5.929874250895988 0
20.55135629864955 7.06979703468699 0
10.29235897428055 11.80476754605498 0
19.03320378905209 17.32929027319918 0
24.53232932112362 16.220773391057 0
14.66370474069378 13.39586350515599 0
17.12112162884206 19.06297127070749 0
24.58806165277645 12.65730709473587 0
20.37641538422971 9.095096231764696 0
15.27135141575954 16.07276917853405 0
23.04789086163385 20.1456779428861 0
14.93248829138613 20.74911868242279 0
24.60100531387134 7.205312791811418 0
17.65774804073878 12.80089785230248 0
23.77690856713792 4.732749400338561 0
14.73040510301125 6.064744990752121 0
24.4560386149435 14.56529011623904 0
24.07375681772598 15.49015844077316 0
13.7784024923897 5.996648829207304 0
20.09322705446811 20.69738076244699 0
14.56424521305412 16.62174372492295 0
10.2556564570875 13.95563521890883 0
20.47982848007003 5.37227057598743 0
24.53411464558111 4.674501513021289 0
11.44205757837659 10.48138486931865 0
10.4949433577781 15.02506438029011 0
11.60707614011645 15.64158222295378 0
10.58253063673324 19.20574424477097 0
10.60062192388343 10.42179469421611 0
19.41509426600449 20.85231572392902 0
24.57403347087457 5.442607128226007 0
17.32940309899395 22.03121420268425 0
19.39283571939776 18.70002323294735 0
11.30113018876321 3.421552349690153 0
19.55803091834588 15.98503632756715 0
13.7060487949485 8.335336317184344 0
14.64619684590681 12.30698140630156 0
13.157479114306 9.701886036304412 0
16.66038302169214 18.91877319922139 0
12.17353470005748 7.333702947005079 0
21.99781485523039 11.21756688746463 0
14.64102465545027 18.22436717530116 0
13.73999524515597 21.8654387569881 0
11.99095105415442 10.30756037223928 0
12.05314942174892 14.17709328827753 0
16.28464225422476 13.50797194154153 0
16.50878193117804 16.19032938187649 0
20.94627923889142 14.81268197148307 0
20.8075681251454 9.01255360775085 0
11.62498287600481 6.291943584143795 0
13.06352941723346 9.291394389978839 0
12.93448796935062 10.00716569016277 0
12.85021495020879 10.32609455676253 0
16.26835357591703 18.6640262655363 0
21.83629313261279 12.52668597054925 0
12.2757188547021 11.73547966908159 0
21.29439269046626 7.20428479043375 0
12.22332537402491 8.6198425761739 0
15.8412279602155 22.50366035229838 0
22.81726749499983 11.8545229479538 0
22.97669176884239 8.763496473057632 0
21.84440991378247 15.29622917682244 0
19.3742360288213 17.71232188880609 0
10.42352721718026 5.427930438538747 0
19.26944777122649 21.54600626706807 0
24.03165750619875 3.223378505975771 0
18.08319666636748 20.60011655158893 0
10.36863168444854 21.55241934617507 0
20.7240089914299 7.573184634106488 0
20.39546999394495 20.94625790189691 0
14.69569436809913 9.000149888516223 0
22.32894385809362 3.35987955264785 0
11.11927018045789 9.678814420679615 0
23.43892979882271 3.272890290272317 0
18.5483777355793 21.80821628897759 0
12.12753185309369 18.28515719419056 0
23.83319755255511 14.61956651519953 0
10.29539571999454 16.83467739676901 0
10.55121121653422 17.67904051336013 0
21.45813629187548 8.997853956568619 0
23.44869164466726 6.717147287352846 0
14.5072160280427 9.235457745770615 0
18.99908377915551 18.57372858538749 0
12.51529268538114 19.26714273382161 0
11.24237422809769 24.02375262034499 0
21.29020915070639 14.66313910423789 0
21.56631931380085 15.63246816730333 0
14.20566770491179 9.872753297746698 0
22.76974767730166 20.44506471280158 0
10.29016704688235 19.01422550859584 0
21.63875815250676 10.95090754542545 0
12.75850402723959 9.141696149470373 0
12.68314704403819 8.2714191969803 0
12.39311465513664 9.254675136804787 0
12.06969277678084 15.63448293976504 0
22.45424948198356 7.547075886694916 0
24.49621344561041 7.585275771160577 0
17.85714285031339 14.06498105623528 0
22.58538362233938 11.40960224993549 0
10.38729782238949 11.39946358782048 0
24.05915342520162 13.80309592787347 0
24.68116945594218 11.05868905351903 0
10.26778535182088 18.27580272133428 0
11.0118068813336 20.85654774148824 0
10.71271014407454 24.48243971023182 0
12.75641255616331 22.69522626378672 0
23.0570521649554 20.42115650736918 0
13.42746195989806 3.265518050241778 0
17.77056758714823 16.995939644517 0
23.33068418844232 8.611788906168538 0
15.58771667369738 17.84370479468445 0
18.1080603838311 16.69792450347861 0
22.51942429517439 10.7601400506215 0
12.03960689353281 19.14745488987304 0
20.46577447848895 7.711034301233814 0
13.62524584683402 23.16013710495622 0
11.74120066648157 19.73694438043201 0
11.31896022700878 22.27487431340315 0
13.73795829163741 20.52219339507321 0
11.12953134517655 10.37051494017095 0
24.67488525703663 17.66657936686427 0
12.75530976836091 12.44187662409355 0
12.74617136022017 19.65627246195884 0
24.73987936032653 12.90508792490726 0
10.89857455910679 22.15972855137017 0
10.34445157149362 17.92948942836099 0
17.92660767235383 20.93964780225291 0
23.16572589299722 7.073696275894761 0
11.29032403879025 4.145083935892749 0
11.31821942417607 16.3130963905647 0
15.05935475427422 19.66335530110502 0
23.8751278758123 19.52176117689428 0
18.61879354648809 18.29013359267747 0
21.11064131508701 4.121070504593732 0
22.38709140184177 16.10021132247145 0
23.85573091546128 5.079421191865223 0
13.7116347688298 9.684245020766223 0
23.72822936363262 2.71267392479275 0
23.87526293263051 9.9325334196267 0
15.52376444817524 21.42617137675128 0
22.70777036620655 6.932368679962325 0
11.30610820751362 5.892416480021779 0
23.28068323996171 5.943921259463763 0
22.13409622992707 2.980491256005432 0
19.9737903185518 16.86500840447674 0
11.18470229098687 21.20674554843976 0
11.41072523486661 9.786710460826287 0
23.73170798432233 12.76314694812337 0
22.12857274444396 12.21241515906011 0
10.47438285251238 23.865098302684 0
13.0820780254317 13.88638037895463 0
11.12280300418349 21.57632910146767 0
15.89544387415685 18.62100384499515 0
22.15844766713315 10.6209573865369 0
15.65343458749359 21.05192640385979 0
23.63501796001194 15.12849698874845 0
12.05766257180066 12.39783143926494 0
13.98792705859054 22.65961069124432 0
16.09984401228381 17.82720275635744 0
21.19186666324937 9.564561324574871 0
13.64131494682904 6.343091450993903 0
21.15629326080538 11.34939035793999 0
10.96805291051253 3.220834251602862 0
20.43281074259895 14.29567960509379 0
11.38991008025388 23.0452746622754 0
11.66734877679848 18.02558057328426 0
21.92746462035799 14.88847969614239 0
11.24018765423822 9.171447678791086 0
10.46518108611127 24.35350018140172 0
23.77658175245411 5.489415510531411 0
22.34487622692571 6.684823227384421 0
18.93188471207922 21.71225612596342 0
19.42964346110953 13.5079719393016 0
24.64328181246435 13.30824946744233 0
13.81146414324307 11.71768261070731 0
19.78286846331567 12.96894924834305 0
15.79181942082323 13.19038611954403 0
14.62376131190695 22.60165920634576 0
22.62954788742089 6.533734875914292 0
12.41913696268119 6.457938483737118 0
11.90124732371513 10.01855093896157 0
12.03722029371295 3.75375097768206 0
10.82248390046667 15.05935176251388 0
20.35620841734439 10.89035489093322 0
13.16627585861604 22.75802939648465 0
16.51002103839312 20.30610478316491 0
22.05617129676007 13.4387321479687 0
11.05432580040975 22.91905028209764 0
13.30081760052121 7.38872863664321 0
11.12522262197985 21.94355515904846 0
10.94911532778534 24.28748809638292 0
20.47556756897486 14.72283065069071 0
12.06077952913842 16.42556001665222 0
14.97326138769589 20.02476715016958 0
24.78336240106767 3.797861421462711 0
18.75169086521105 14.0596511401029 0
20.75946669858105 13.90338664262146 0
15.79032977101274 21.65652795602065 0
10.83295836725584 21.84559567482241 0
24.54713990703025 9.2671386294763 0
22.87980989181461 13.07513570975889 0
23.51256522455278 18.93036045476887 0
24.219167175395 12.04781711436329 0
14.73970363067085 9.393270093808553 0
20.04899130112559 15.97914095086734 0
24.73061583185569 15.49341876782024 0
10.90737719018206 16.45234966831354 0
10.30601294671254 11.01682022094449 0
22.79029987516539 13.98504303023202 0
11.61607472007137 3.650597267327412 0
10.93654327839174 2.836415158969855 0
20.82918726500035 10.56206361209314 0
19.5564049724325 20.05470105387122 0
13.95420565232819 7.787514489559343 0
20.96701234419314 3.212179971331185 0
13.98371717056633 11.51560304343321 0
23.37087185745351 11.01159923016857 0
24.70373539315432 6.557759078769603 0
21.62727059162847 20.6772663405956 0
21.72422415596507 6.716863743081904 0
23.63071231294053 9.650284247244013 0
12.87553530280733 6.267090369030226 0
20.96404272699836 12.028332108822 0
10.84562178913897 14.21864386216067 0
10.88972237424903 12.00638058419652 0
12.53467101856978 20.06688760376333 0
23.80752598628694 17.80974571372501 0
24.69020896335089 19.77951882382028 0
14.67228811102706 10.59159912245912 0
11.50401342247361 13.03920078358107 0
13.66834276923495 21.04285980327339 0
20.25887154588771 12.26064694480968 0
23.85657476677127 10.26916796323536 0
13.99688826018262 23.07191324992813 0
14.10025803819582 11.27319344619133 0
21.07146209928994 17.20592357008162 0
21.21999078581886 8.454138726243759 0
19.99601872202462 13.16563923850496 0
11.91103408708019 13.14748823725925 0
14.13049485260178 18.03635319151246 0
23.36264827092762 18.34432389257138 0
14.75421077333863 10.89285714292684 0
10.29143669496428 9.590037512672302 0
11.56365689916879 17.1882521236043 0
10.84771174439542 19.03653130725408 0
15.20637390344076 22.97473051113732 0
14.32699373889224 10.67404654365574 0
22.85991976557393 12.54883669062761 0
11.0917924306537 11.16545648139662 0
12.41297877906648 12.67259097269751 0
20.27209982207846 6.063545577315876 0
20.51215969424234 5.800949461939126 0
13.81537145580969 10.36781683571292 0
10.98706460395253 19.35941267040304 0
12.71207889920321 18.29929965384217 0
14.13815362113899 13.02038178498919 0
11.58696776348486 14.28996789766738 0
17.57471431808809 16.61555521611795 0
22.05639073990226 8.722784046927394 0
14.30460076650656 17.44663702461199 0
18.17127992282717 20.14287651241161 0
12.08537438496424 9.488407346478969 0
22.29755518429997 15.12339726530725 0
11.85576707053191 11.06620108894893 0
17.3095162205687 12.70626016574502 0
20.41686177250013 4.620963652997645 0
20.9131577312022 5.91432427496359 0
21.73702589651646 3.01568955629588 0
20.20444338397484 4.107142853838361 0
10.29291478460502 24.59424781954277 0
14.58313822504368 4.620963660099717 0
14.1111066548187 4.034464827095524 0
14.48571730545491 4.234589721994706 0
21.59801078287105 2.716479497153895 0
19.03850837703196 18.07815791333487 0
12.87079601794742 2.978676252654072 0
10.83234037242224 11.34631182711166 0
22.72353615219368 3.325370996321625 0
21.36250358588369 13.15471311466759 0
23.39285713708138 2.704445147079181 0
22.87902563902436 2.916855314946624 0
24.38807856394624 2.761830724422716 0
22.97256559973151 3.749826165560469 0
10.29776289052293 8.427292872409135 0
10.93689776376202 13.63717568907751 0
23.24751353641154 11.71245364475569 0
13.51950893561004 12.98640953703632 0
14.64839765289134 18.98724389532746 0
16.96428571286855 12.70836442144615 0
22.1899342290316 11.82156168290341 0
13.40707341941544 11.46128891191827 0
10.7218679019388 3.485968616924675 0
23.26011223202877 12.38814179216239 0
10.91716333197238 6.788203631325519 0
11.71870185092843 13.92212006988005 0
21.29508149709513 11.81334356464102 0
11.71344694829156 5.935535727192924 0
10.89285090471397 9.123880413540306 0
20.71287880923249 13.11108533293788 0
24.1096274587384 15.7719354495647 0
20.3798302048476 11.6140561052886 0
23.76025536493285 18.2561917043022 0
13.52914236069439 9.052681237928574 0
11.35627650481845 23.63336890343811 0
18.85355422900524 12.9624903908972 0
18.98811110185186 17.70903407880781 0
14.13847943858199 23.36763701754571 0
11.07145124292043 19.70049672191363 0
10.48477477446881 15.80122905212506 0
21.69205856648981 6.01550915589088 0
10.65155954908098 22.33318468702875 0
22.63770012919798 10.06855655227112 0
11.63741663420275 23.34499246036779 0
23.58642952296184 7.703247946462643 0
10.42834915127426 18.60745366791814 0
11.69225095826953 19.00765502326279 0
24.48068465675728 4.275404846296532 0
21.39332779184892 10.69458436471878 0
23.0685470402958 11.13697599635999 0
15.38543935073003 19.8495983082253 0
20.29304201859454 8.036137793947386 0
10.48502500481094 14.27708300090735 0
23.37551012644115 9.727420903498448 0
23.28003202768671 13.18197952384247 0
22.73906244678692 15.20995400361155 0
23.26345398916219 8.120361463066262 0
24.0320194101456 12.95506559834245 0
22.35827440646242 6.289617009733228 0
22.85193401301226 7.673341818557628 0
17.32067721319655 20.18219802079654 0
11.03416906763707 23.66278602477996 0
11.43296552344783 17.74662894510682 0
14.30538217663564 14.09066608861019 0
12.73276769030126 10.92024338668474 0
10.31540836056092 12.43625352743057 0
23.35115370725429 15.01638164491161 0
17.72531105170089 21.94431497222324 0
13.89406933995112 5.704053967381378 0
21.33869862448591 11.11995086393544 0
20.77930869976604 6.541645206018121 0
24.39435936979897 19.9111340530207 0
16.10053262523917 13.25608659642044 0
24.23708275639385 11.44309938860775 0
21.25390159856625 19.18980690532511 0
11.11666026378452 13.09818639828447 0
24.73475515992024 4.944080883580831 0
16.02138467337288 12.95259548597536 0
24.1476699222505 3.775109695754461 0
14.9567012170324 17.12284343509694 0
10.91325217355713 10.94930027171132 0
16.52016008787716 15.810794000395 0
20.12303336727344 14.09907075213646 0
23.55888648401784 14.5167719550044 0
24.7933974598193 17.99551223716224 0
20.55494383368724 13.462061057775 0
15.95266830950692 14.01121204977413 0
22.88465150191829 19.28439569197984 0
18.73569125124529 19.08363830475003 0
16.89292849273465 22.3772285751397 0
21.77664448750454 8.790273264703917 0
13.59221406871109 13.7415544792835 0
11.14731258270238 5.069504480584691 0
24.04862531399099 19.89703931806019 0
11.13301489918776 13.38551757013838 0
19.27014077590469 19.42598801543728 0
15.82227091818329 18.98861839571818 0
22.5355321132355 3.654736797399339 0
13.76640526592792 5.366786074291301 0
12.46435875717743 3.654935466836169 0
14.1432798642847 5.173559959342722 0
21.26044340424429 5.36431672860457 0
12.38107437197453 9.588397907996182 0
22.96841256319119 9.472384553023232 0
14.15565857547918 4.791976256359053 0
12.68374479578497 3.351275207202167 0
19.96959374361468 19.28312176514181 0
12.91159562487966 3.766576492398233 0
23.14310849040653 16.32765307604326 0
20.83446425385685 4.781855975138798 0
20.3648470202393 6.54237694226978 0
22.12563388568982 13.795270783406 0
11.56571770779811 6.717324051622098 0
14.50815779043445 9.627204250883276 0
10.56128372004459 17.42937688878087 0
16.10348264556758 21.54888568433529 0
17.85769945724547 17.86207897905797 0
15.52439540016393 16.94709165921319 0
12.54067992354257 9.848667907298186 0
13.97021431039425 8.143817754407234 0
24.07278627089495 4.114835895516181 0
24.64091828718122 2.860107672117204 0
10.27258078163748 19.3749999850662 0
13.16908723875809 7.935025063995201 0
24.17822886098984 17.25829201283037 0
12.80322548989268 20.36834706646858 0
23.35811142822124 8.916845315747612 0
17.37702493879794 18.09052474036108 0
18.68595203767202 17.53389514250043 0
21.87494959025019 12.80242734667499 0
14.78114676234 7.678571439033995 0
13.50722173535078 6.67634114207585 0
11.48913731178101 15.97025315373287 0
11.72071419440136 22.44140084181277 0
14.37325683330221 19.83015411731671 0
10.81697924673285 7.643693466035405 0
23.38722711854556 20.19688475420757 0
14.23320801798108 7.909878320012272 0
21.74415529536454 16.37877817657789 0
23.97420962663962 9.108402691937817 0
22.39259995672503 2.751870386467282 0
16.65485068647883 16.94770776096535 0
11.16168240541097 14.95538763063186 0
17.24784501671872 22.31171692864038 0
23.26840717350266 19.85328047099008 0
12.80433639657188 15.92043056031407 0
15.56666998992154 22.81444915658233 0
11.07052032636892 8.531115634737754 0
15.19821249736532 22.06960190073356 0
12.27062808590047 10.46163368583337 0
23.39367272297366 6.303632626493525 0
21.3279535300174 16.90120605131027 0
21.71693718226295 7.416856538086332 0
10.27128447795531 16.53490325213739 0
21.55009623001365 6.404465065471862 0
23.93549227008852 11.39832227060032 0
14.41959203245132 10.36010017289141 0
14.96508739853676 17.54168155868519 0
20.4176135204198 12.53300495435128 0
20.34717894900267 10.18860955928884 0
23.49663012135527 13.97328048787117 0
10.61919005044725 7.829433306753083 0
22.28757898055309 10.03814031278289 0
17.41353325274958 18.96109213283972 0
12.99859588091852 7.162840298161417 0
23.35000490429329 9.451402340184902 0
24.3119899926622 8.562959259524005 0
11.84760207939996 8.989389284233402 0
14.44887540220175 8.040941324998347 0
24.34425470969748 13.83816345021106 0
10.86045997235096 10.22631784594336 0
24.62075452051537 11.76308976132571 0
10.25315061532747 16.01516809197225 0
14.43123312355901 7.099465507507761 0
18.65989121632927 13.26477847389509 0
24.72953961247301 9.979881435587666 0
21.09908511495299 10.12972366640061 0
10.26987229294303 13.61627244080303 0
17.07944823285919 19.39404678618789 0
18.74999998662868 12.70836442437949 0
23.38447788378883 10.70107269753439 0
10.96767176610711 11.67002325024876 0
12.33684174902573 18.96877979695473 0
24.76915466329887 12.12123980392737 0
11.75418458132697 23.01959817245936 0
12.54306320559914 23.30012804731058 0
17.92057795891661 13.71082779404279 0
23.5013080973649 7.070168565979236 0
22.10754502626648 8.190537395880112 0
20.23240534816588 4.847821461056531 0
21.88964611939569 2.750452587250972 0
24.19719762443999 14.75829940408676 0
12.34727516596313 2.733646463495391 0
10.24217889560845 20.37243328927413 0
24.74848331529171 4.42880129271157 0
13.72818357549732 16.02363530179655 0
23.75227178266049 20.11683388274347 0
22.65238635662275 2.732389348739644 0
23.79581681055251 14.06586345825176 0
22.7201518608594 13.42403158759581 0
22.55025089714188 15.76450736158158 0
10.48119363166971 16.25782942406241 0
17.52661738589401 17.2740298358737 0
16.62597654635063 22.26683840198261 0
10.60204923460994 10.78993761018414 0
19.6072353868112 19.30627473888925 0
10.97603860144374 16.82535666787478 0
16.85353928754238 17.96465925223062 0
10.58030504177082 16.94767855052396 0
12.4790548842126 10.96042737087833 0
18.5668352999714 20.13512696912878 0
21.94757343706672 10.85953967549739 0
13.27873414989067 9.084654132894578 0
12.48816427636879 11.52747168666318 0
21.1810507478061 20.55526472838746 0
24.54851021916525 14.92017612053645 0
13.81707124774414 12.0091937825693 0
14.1428094382932 9.058028005976997 0
13.67453512002597 3.428304231261838 0
23.89549276209069 9.50813162636708 0
13.04024273661198 6.73980637481321 0
13.81791607225762 21.47611170036752 0
23.41449014048256 13.59695758273476 0
16.04042855469168 20.89039105310736 0
19.08851304403309 20.89259898910214 0
23.60883588831828 10.20750438091751 0
16.47319468305606 19.58422298167737 0
18.24796456535993 17.95000469680339 0
12.80325918309389 23.76291420218059 0
24.27437533266347 9.224263166740027 0
11.38749305774971 10.16339987750164 0
10.73030871126621 22.71811454231121 0
14.18627693214045 22.07276373161718 0
24.74386828628941 16.43706650048409 0
16.68143916258201 21.03041318580351 0
13.99404362337473 19.62628024311665 0
23.88066770200249 13.54244154660704 0
20.35843442283331 2.857792084329773 0
24.65388186175786 3.453629074537054 0
21.07697310789109 12.42087563316245 0
14.74020936447077 9.899867983843878 0
21.48263002471094 16.08671626491418 0
10.25933237938353 6.966056616625419 0
20.34526854605764 3.437266802731889 0
22.12452094161092 19.3161299196892 0
20.93621400804281 2.834437664934265 0
24.53764405336237 16.67222288221192 0
23.65099179770819 11.20136712053804 0
23.80476090749621 7.163399218319102 0
13.46087104728301 18.55425622124719 0
14.94193042627927 19.31652027156815 0
20.3078929928781 11.95294739113421 0
22.19885773218373 18.8086306230821 0
12.10206003029323 13.8227133244129 0
20.57669053251928 21.21490722433631 0
13.14675273686319 23.53503821964308 0
13.60330832111546 22.13701276153325 0
10.87538449241196 4.858950205720356 0
21.55279214255658 3.387817555306662 0
10.86069194214467 21.24101196040946 0
24.71718494270645 10.69951203426873 0
22.15184030643781 15.63080211019219 0
15.1314163786989 12.8076348382503 0
15.29415866225544 19.46277269359255 0
13.49329244484167 17.40927727257239 0
13.3256206598996 15.85086062213643 0
23.62493731093493 9.023842709721684 0
16.96627131093164 14.04672706222914 0
20.60307288729203 11.87394925173988 0
11.58124863313973 8.81932900762606 0
13.30326053386119 16.59344958922212 0
13.50143980436011 19.47785989139345 0
14.75233446512718 12.64851284536696 0
11.49914744796113 10.79362661889675 0
21.6422581767191 11.76492946699376 0
15.11149810280529 17.92298243461737 0
23.61346944513933 12.28052323074875 0
14.64220791442387 2.858434423618783 0
24.31884893155652 13.23317793357994 0
20.61164468164401 2.76056754279504 0
19.04198589214346 13.42977594314427 0
12.7722764157495 16.31009423378375 0
10.35894267153714 2.859584760850836 0
15.63951136162195 22.1502141910931 0
24.07666127284972 6.808990118404683 0
23.69860161362073 3.423326284659217 0
11.14319615132793 4.419220541266448 0
21.0826448377893 11.62663534154215 0
12.75336930023179 8.867171031336344 0
17.64072423634522 13.13902318219911 0
20.75581649551853 21.00320282865715 0
21.19623796427642 19.5064051414885 0
17.36188766935805 16.27098484365483 0
17.10055560278918 18.74578377491604 0
10.89185081144431 13.91951310075814 0
19.98259635335466 21.35056781705378 0
14.95969398643385 22.35732386031095 0
21.6591177891514 10.08490942618177 0
20.65042201671774 18.14947270090143 0
15.2377939340866 22.65593526015127 0
23.59617636552665 14.81737923146535 0
12.22381855175325 15.25988478679421 0
20.10388852734789 21.05670028806078 0
12.29306774770582 22.66794681593903 0
24.40430418406515 12.41929131422892 0
11.56052564041376 3.271943280833475 0
24.27024554865788 18.63930342358573 0
22.86493243885209 15.61670890106651 0
20.9814907827788 11.11688163544879 0
22.32985850646885 12.90795364495566 0
12.83976081627554 8.557611356621415 0
24.62271029677553 19.16328890581039 0
13.18529069041128 10.1850591956591 0
23.29203769161942 14.3442658223858 0
21.28989558901652 20.90339982825807 0
12.94433128067558 8.186623235242095 0
13.7273721210828 2.715228098452872 0
23.75951654190877 11.76094879280187 0
18.34684734363695 12.73903449149991 0
17.03649586208853 22.14274838384922 0
21.60058305459101 8.148458599530523 0
12.18259618952145 7.616713069848206 0
22.6661750551091 14.53215785666417 0
23.83557735818216 16.59361143365677 0
24.76143738103197 5.208141782577769 0
11.21681489269407 4.727395065774723 0
14.07054157309793 20.54096423266115 0
10.40007648156008 8.764204447459875 0
22.23793665559546 8.950106585601189 0
13.82707615235443 13.2915793180879 0
14.45243927209113 13.09032694296511 0
10.30263683235184 6.541002872568633 0
13.25614410430607 20.32954025705383 0
11.72172115013186 12.50835021168698 0
12.89213632642555 10.67546098094695 0
22.76783600318207 18.78321523127044 0
21.50256297501049 18.30040639013354 0
13.67342214583612 10.10304405116529 0
12.52408656946109 7.52100135815015 0
24.18159295284768 5.280259625088825 0
21.03518040281805 21.05653292121974 0
10.839338589061 20.03901412791206 0
24.69295516066686 18.81607581548361 0
24.13848755858274 14.44215107354692 0
14.2248758298561 19.11121902537263 0
19.77337516853029 17.81724770705301 0
20.91719224232228 6.968585697500431 0
13.66868311428186 16.51899766365246 0
10.27765025647864 6.11188827838504 0
21.25371912309338 4.555958491166646 0
10.3210862194363 22.84090627634515 0
13.65638642609741 10.99756560362915 0
20.35762050513528 9.553162852844794 0
12.83185993068062 12.05146180738137 0
13.97125649108228 7.437294040985118 0
24.06581124123158 13.30484627389415 0
10.88040117789704 12.59405085157886 0
12.73640862800619 7.909397755257194 0
22.27229026048912 8.53878538814115 0
17.46521947136638 13.42129834321541 0
14.64408164621261 6.529738204615871 0
14.39644305964298 2.762383828592519 0
10.29987570548839 21.18555801730173 0
14.76757761516029 4.847755891514366 0
20.30604999019019 16.49167802520004 0
23.2615008697918 11.37291844148671 0
10.22051785190483 20.10932533453989 0
17.68197436899293 20.07384133112319 0
20.7538775728619 10.8680675716638 0
24.65738503026117 8.592547809042218 0
18.98561006810473 16.6274899689727 0
13.72984131737706 7.988482400488668 0
15.70138195634405 19.45158254133271 0
24.2390347624055 11.11576849310757 0
13.50918704331653 23.59331448874109 0
20.82504800654084 16.37435022318175 0
10.6297640169536 8.82730454606335 0
17.43027652629931 16.93891410256946 0
10.90091443829833 8.784001898842044 0
24.66716327496814 13.69957251039927 0
21.46315124362161 18.92168294045389 0
13.61252842757235 5.691246392004293 0
20.6075782072661 11.4145804780946 0
22.90482596724733 8.091528257270442 0
21.54913574448743 12.7590444918269 0
20.19992232195497 7.683973058004983 0
18.06035136849266 18.69661589581026 0
13.35099773760093 5.962814905261759 0
14.23395289994444 6.542489362427034 0
13.60986599814867 17.82393343986989 0
17.63598677857632 21.15421011973032 0
11.49702186165289 12.69764963908607 0
19.93880999536304 18.19314590522222 0
22.80904916480345 9.732926764318 0
13.76455900257399 4.574353627148302 0
22.22888757009993 20.05974944747797 0
20.2006043913207 19.57712973977924 0
13.80098912758379 23.42075179483872 0
10.19913960137084 15.02076820659461 0
15.63748215757523 15.89078959518772 0
20.85478216424062 19.17456683303609 0
18.9337090181704 20.59117220556729 0
10.21646923293817 3.792205926753553 0
23.77387621238692 16.14910983445874 0
14.12345202342394 11.80660596388703 0
21.62025304355095 14.99200142355202 0
12.25895556364728 13.43933857982465 0
11.53583653209102 24.16572204684147 0
23.64088056938957 15.48599588264573 0
20.32655199769407 11.25950316577302 0
13.23705129871041 18.21548130531371 0
21.98853597309797 20.64978866014954 0
19.36284208353693 17.21228149406316 0
11.60714285618254 2.704444896488637 0
24.31571658494434 7.863790394522605 0
24.68897527428538 14.30936876548536 0
24.75841633732716 7.467179794422776 0
16.195333694646 22.61358116357574 0
10.29149403865054 9.935139822177984 0
10.28569016778474 15.39116538317357 0
20.47465514994493 12.85569699974928 0
14.2878200251581 3.467012346378611 0
15.89277329726172 22.79195630607625 0
18.86066626752136 19.81943681683645 0
13.7105716023659 12.74343438691719 0
17.40010754068849 20.56350165009787 0
24.71634306868447 17.27392455355865 0
13.24946673064364 7.643143384161149 0
12.98445577587236 11.51118948914151 0
24.27711291384329 3.489125309714091 0
11.27168042616186 2.712380533272845 0
24.77247589869702 11.43229168117327 0
21.05111154218174 6.274517884155713 0
21.38301163162646 11.51607634268509 0
24.1679980355016 19.21171461178348 0
20.92746228843113 3.820301987613397 0
20.73089581771813 3.488458484870238 0
18.57919332794997 19.49015346649891 0
21.14163198879672 10.480045364309 0
20.56529891619912 10.40449984134427 0
15.47609633726813 12.74486929630958 0
14.63409608091476 20.98480191490161 0
11.21720247870516 24.31873024152486 0
24.74294100750414 15.16913138185696 0
14.28732352867078 22.45044744043566 0
21.38008977050625 6.814473977934957 0
10.68311523894943 12.35388650530059 0
18.05848909221352 15.89325437063061 0
13.4633230716538 14.07117715211309 0
17.30814535416499 21.30477675712864 0
22.59662214470386 8.141879693648091 0
22.98153535358502 14.64750778260608 0
13.31862649221571 4.020569109047702 0
11.68483366887145 10.25237990676569 0
10.29656508833424 14.65591224527273 0
16.78330104770188 21.68095517566379 0
16.4733316061281 17.80033401576337 0
13.44901985722838 8.136557089917895 0
21.78371592933694 19.47889369119375 0
10.56158365655219 21.7837959994873 0
16.33171488017104 21.21698810006842 0
10.84535940300481 9.885915938057956 0
12.02755708675721 17.85258389443586 0
14.28366154286164 15.93453426235932 0
12.2167426604203 11.42577139991015 0
20.81783281119785 20.47995516045967 0
18.32302532854169 20.88086896042806 0
13.51912700731069 11.79554648546116 0
10.31239043245007 22.23070061133686 0
14.99228505858765 21.09673823763785 0
24.72894500894876 8.23153702385755 0
16.8152788717774 17.3233421618348 0
22.02432428225771 10.28876499381435 0
21.73186245174303 12.17222870024488 0
11.89117379436613 24.0217169671764 0
24.70133646480077 8.985795604919371 0
20.26925159970621 6.964285702831125 0
23.4625887346496 16.74697045611658 0
12.47368359029174 8.454089202398407 0
12.46835838761197 16.98449714540315 0
18.19251679613636 19.61534663846242 0
17.66198246120499 20.75349954764673 0
21.08913706193025 7.991413170256138 0
11.76996226945307 19.35645393220282 0
11.90194126028588 7.457311887883627 0
14.44154750833315 21.77658311502699 0
14.01822248633887 12.70822986266316 0
17.14359659452285 17.58130552467514 0
24.70523070571793 12.37584251314823 0
10.30047384992765 7.827751008374053 0
14.71692449680142 10.19944068677803 0
23.8344102486822 8.11839028956179 0
20.84285668684914 18.45333167913256 0
19.11573182187809 12.78185171291178 0
12.21976414315996 10.11946114463632 0
12.45003060229387 23.87727362343316 0
10.29338839996566 9.281570481491663 0
23.84673825631402 14.33786600364352 0
10.2693799630491 23.62537973769941 0
22.78425731702059 10.70281328573851 0
11.54831489811809 15.13279438067405 0
16.53850180521155 18.47324681953539 0
20.14175676508532 18.81969937353647 0
15.82634487760501 17.40717139628041 0
14.66833948712848 8.684450915920893 0
16.385297434362 17.39373776029367 0
13.0095462895322 10.99608667030136 0
12.49502233903184 11.92216156969151 0
10.74590002466238 17.93714190334803 0
20.36900485318951 15.18103339340912 0
12.07528679267841 8.097111649657508 0
20.7654691130262 12.37190356718526 0
24.75606567890401 15.86456902826796 0
23.13214320232868 12.0234667840307 0
21.25360390982839 3.409730735171837 0
24.19705569246762 6.487583290942081 0
21.92149011581605 11.61022528433141 0
19.67149701660578 20.66194716642902 0
20.16501330873096 13.40345876734732 0
11.33641301170504 11.14576337609191 0
11.66727318325988 4.02073813500138 0
21.03815285180013 15.49394314070402 0
21.37250665328585 7.929060656191812 0
11.42868718540853 13.64233361105677 0
24.73188329749993 19.47584660568986 0
24.12610505830424 18.02743257873684 0
13.74139667653756 6.917210139055582 0
11.93044507145625 23.57379098776269 0
17.52869364505467 22.23472195018559 0
12.52089628359643 9.009173947714125 0
12.77955853143779 18.86299259827909 0
16.44332804043764 22.02890198121708 0
15.02282342391386 14.10840279458252 0
21.53353701696134 4.169133227513385 0
20.67270390768017 20.7332581108099 0
11.17602738190326 12.48820794307218 0
22.98551341394171 13.6870313359044 0
15.03089871108857 18.82471848984836 0
10.86180040505602 18.37556459283833 0
13.40854516336307 20.71187958283064 0
23.90646940391059 15.21946755705167 0
20.22236316919893 9.844748960244363 0
21.89641859482813 14.52958810927035 0
14.75355023837149 18.61781480452482 0
16.29078791320342 12.76267831950517 0
13.22922477832359 12.05172078548337 0
22.54274811736494 11.70174140819894 0
12.72391896061722 10.04584035179693 0
20.30387479095208 21.2747861354352 0
20.86068325534964 5.175800013127728 0
12.04743678528363 12.7629312557808 0
24.12702587210631 4.867130037135164 0
22.84272158396458 19.91794680487222 0
20.5603465501379 19.47892109863425 0
11.90136522420045 8.378144273916131 0
24.17275383406304 7.639880215720566 0
24.20623837576987 9.797400456817574 0
21.28961143769269 7.536925255171898 0
11.95695576719627 14.5121055887085 0
21.04894594254412 16.75762818166882 0
11.59528750620543 7.72020767905609 0
18.31824864242022 21.45119843859409 0
18.81298666118484 21.23453049612224 0
15.06219392086241 13.6802919440697 0
23.81784279064435 12.44194607230157 0
24.73102206313635 16.96006976323406 0
23.64898336064583 10.82908761345242 0
18.05262275055551 21.99674433021627 0
14.80471998281642 11.9665862118299 0
11.1026100324617 9.393049448340065 0
13.68759412285646 11.52210270448532 0
18.81983942933406 15.86863565699605 0
23.40523899058696 9.177941202390507 0
17.474148111683 19.79730720721552 0
18.92706210845169 17.00007311130486 0
24.38012354377054 14.2113221596383 0
10.28508040079197 17.55493278711377 0
13.32864942756041 12.32967110110579 0
14.74805336033824 5.108159485178632 0
20.25177977327837 5.108802401016092 0
13.6585219707188 8.610055110476035 0
12.82309249602964 13.14853100828195 0
24.47412992550622 17.42395143000065 0
10.26459193387504 4.933504985119701 0
20.75007271348429 19.88424952290923 0
15.30341725540173 20.84279534416936 0
10.22962885715525 8.131328468543053 0
10.25548409124844 20.88371737087218 0
20.24308878821593 8.72715003204052 0
19.52248327105363 19.64838840294646 0
11.77525070383415 20.43364804016286 0
12.60408458050752 2.764183469031396 0
10.26655164229633 12.77706624999342 0
15.44335251182902 16.53224194413635 0
16.57325222907086 22.56066583482184 0
20.70841207250848 9.729796310420305 0
14.85386851993191 20.38553663382548 0
10.27768403652752 24.15517367383745 0
16.12762900496304 19.68011226533855 0
22.43198687956017 13.91873624691963 0
16.07612829689461 22.28295249375285 0
17.84186723021461 17.39859511221321 0
13.23449977117891 19.83960361840847 0
24.73608428518644 14.64963795255482 0
20.28382459653572 10.52885714548193 0
21.16520575001702 5.706119313368133 0
11.8863106779133 2.740408304444081 0
20.66172346473819 17.30219610225507 0
22.4137986108518 13.58455761174351 0
10.5980038602285 9.378674022892262 0
11.21634435307079 22.65254587321541 0
20.84593684078658 15.89665960076234 0
13.25911956428966 23.10032355118907 0
20.04536337424291 13.77808678920123 0
16.71037517948936 16.52696150963695 0
19.41026873017537 16.42065297273539 0
16.66365954905838 13.43589008833901 0
24.80225726600245 13.98437500859404 0
24.16751790163047 16.85093767204184 0
24.82142856936703 2.682291666789545 0
16.16808779049904 18.96707859396586 0
12.47088066658659 7.224122429052118 0
14.02970086418429 20.83812882618988 0
22.10591094268297 16.34319558594999 0
15.37483762319135 18.20689787128653 0
17.05659488639314 21.86798386924288 0
18.56599523433438 17.19129284064969 0
20.57038311912458 20.20135464143981 0
11.21251048669134 17.07279804658393 0
11.36404150306219 18.12780633634282 0
10.58520720541897 18.91459602760114 0
24.40752465458851 9.549123505853597 0
10.25994502855661 7.467171356430061 0
14.23931440638867 9.323874494090015 0
22.01383304342737 9.24669387611291 0
15.74372219007852 12.80022769695919 0
22.77915117164895 16.35567422960958 0
10.93510411334464 15.33254564463483 0
13.14326226612477 8.643824175478686 0
12.07153520026169 10.67079357936906 0
10.23725381932623 5.195669157019971 0
14.20734687690849 21.43815018847457 0
23.90358264398108 14.93499205234984 0
10.8281188459468 5.261914876879029 0
13.96878107043553 10.66087922896617 0
21.20750584276117 14.32093535061236 0
24.26681160302449 12.77020983065514 0
24.73686986265122 18.26809839768981 0
20.32725408399345 17.63899334144275 0
12.78506128806043 13.76374668537799 0
17.84709891547182 21.67891368374661 0
10.58025903148539 19.48990821863971 0
24.73547870204935 3.113462865092631 0
23.1060623486396 7.486384574436899 0
10.26405040312178 3.11123055635132 0
19.22542079541746 20.13029451999349 0
13.75563814399999 17.18583449525613 0
20.81942740832889 8.743994163388095 0
16.73097715566893 13.77834308685582 0
11.26989819958943 20.30142313156166 0
11.62673196118418 9.34825101743897 0
16.99107966446314 21.29648471335245 0
24.75745192396192 7.735308229849508 0
21.12802154031981 9.049264753071814 0
10.80284009474478 6.476191725939541 0
10.57849108538308 9.734079344128347 0
12.7964863326271 11.29943391477347 0
14.09005410558282 3.749938448029318 0
20.26238382728425 3.103556935530648 0
14.73943245590139 3.111644683911821 0
13.40982502535903 10.76383876763218 0
10.20879097100531 12.11693545777897 0
19.1968539657796 15.79265959860551 0
10.61186098798193 2.761532159185895 0
23.17429342015239 9.93677546125327 0
24.23543734796132 8.173563779590822 0
19.6103497624341 13.20931942162808 0
22.3497069732845 11.25739103397328 0
21.03053055517082 8.234614051168734 0
24.16500247228827 10.83349867814275 0
10.84837339095598 3.771421732727953 0
22.68672388595261 12.1003941044647 0
20.17121501450756 20.32263438127335 0
16.79058300816787 19.72123614122268 0
11.53699660109491 7.075633331831652 0
13.42849513432527 9.674352452845598 0
24.44703015810471 10.12166948061108 0
15.83371275639455 16.69785589085086 0
23.59117323914846 17.16411613571789 0
12.27834272542892 3.324936218909044 0
17.05312230881302 13.25228856569009 0
13.96780978488616 9.750464303193839 0
11.75120471661484 10.54905379754218 0
17.35079501581342 21.72036347751683 0
18.97947980961827 21.44637162620935 0
12.43454310700255 8.140223912994498 0
23.36567267541035 12.70175340205162 0
14.74149773897953 5.611089236987568 0
20.25850087311319 5.61108660053408 0
11.42871554774927 12.03524694026007 0
13.39285713839643 2.704443384799094 0
14.78358153894618 4.097905093714806 0
15.55425579792814 22.49866746734311 0
20.02305812736291 17.56417892628948 0
13.44408770442059 8.445037950647981 0
24.74093344674364 5.669895055129962 0
10.25079696736315 4.420302700369199 0
13.11272949685483 2.746816943935255 0
14.75800663669639 4.385728972098687 0
20.24033757732039 4.386331562657508 0
10.83217633798585 12.91018710941064 0
18.98120080779684 13.76923604570904 0
23.11367049007777 2.740469937601196 0
12.28747819756984 23.55583303286101 0
20.34838526203922 16.90550077681369 0
10.25645936708656 13.29696689493943 0
20.32524203057669 18.04259998157572 0
24.80741746134915 16.17187499470176 0
23.76039191057601 3.80969233075023 0
18.14358486931601 13.19740389025794 0
11.18726095498996 10.65762098120158 0
13.14699527391971 10.47658850063238 0
21.29561469868197 9.989987698331438 0
10.2163976394424 4.123765540691299 0
24.74293863259474 6.970623093267375 0
23.51030122353464 11.75966740248132 0
12.80642622410126 9.792431152358157 0
21.6240400788337 16.70020447978017 0
14.07316996445114 8.806933253738157 0
13.73573193531493 3.803954376771561 0
21.32353394351367 3.774420956230411 0
19.19386671209576 14.20591266098922 0
21.52887594327067 5.721906112982858 0
14.97305653014059 15.8241663241186 0
21.5086268442714 8.379125422609537 0
12.75949827143657 7.329167081188145 0
12.67023476989123 6.696047285544505 0
19.40020430126062 21.14138466002512 0
19.82625227399594 18.55962262219808 0
16.51785712157891 14.23703750502154 0
11.24111104574243 16.60768351985812 0
21.46472448436242 12.46121809054358 0
10.56831486035709 21.32391492207328 0
17.1900902821452 20.76996375172755 0
12.80661684149446 23.46594592117675 0
21.73175586604605 13.32025870364371 0
12.16983618986348 24.06201124156153 0
19.55029115058724 20.37852442454853 0
11.51300209809242 11.38954373985654 0
10.19708729226828 15.74596771483271 0
14.95171466761603 23.08308784402037 0
10.25414686682289 8.993625717186674 0
14.401756165189 11.7550431970835 0
18.03571428190872 12.69818993561667 0
14.66872712456844 17.39050765046677 0
21.13517602138143 16.13522661168885 0
14.2993731528922 21.06315387378042 0
22.02192681924235 6.149912514022436 0
10.19356671428145 14.29435480690216 0
10.69016168760575 20.61561748074317 0
21.4110931238304 13.78390225153859 0
22.55143386273547 7.225845703955936 0
11.17959857159807 12.15226899769802 0
11.39265571207231 20.96385861629889 0
21.00189695064283 7.378545861357407 0
12.10523127388901 9.181250263160884 0
12.52793821016071 13.08646563619657 0
14.35120958494609 12.11486176819687 0
20.19202315603133 8.390199636315792 0
14.03083762824218 13.6059112891965 0
11.64120877990219 13.36143413622376 0
21.54225958871267 19.27837854954016 0
10.17857142830501 2.681451613335158 0
14.73015246939032 19.73706337286742 0
24.81707397337849 9.244791676402794 0
10.62010437699552 24.18600417020086 0
18.2001227173987 21.16767993233731 0
20.17889431983373 2.67873373550562 0
14.82126626333518 2.678894320367754 0
POLYGONS 3734 14936
3 865 368 772
3 921 1240 1906
3 1412 639 1722
3 639 1134 1722
3 538 595 1140
3 515 837 1620
3 699 849 1377
3 325 326 660
3 807 543 923
3 442 574 1827
3 409 426 1153
3 854 509 1234
3 774 381 1385
3 518 849 1636
3 354 1035 1129
3 670 592 1534
3 450 492 1464
3 574 355 1827
3 604 553 1298
3 702 576 1835
3 420 910 1455
3 553 604 1547
3 1094 382 1733
3 837 762 1620
3 299 899 683
3 1074 531 1352
3 851 612 1205
3 328 329 766
3 553 1071 1298
3 796 575 998
3 992 702 1835
3 12 1116 1150
3 444 1203 1276
3 539 733 1274
3 1110 776 1990
3 798 1062 1467
3 1241 817 1730
3 753 978 919
3 325 660 1336
3 372 1119 1806
3 470 435 521
3 381 774 973
3 1041 608 744
3 1071 497 1319
3 441 907 1546
3 854 1234 1225
3 226 227 1561
3 718 427 915
3 322 698 1078
3 827 320 1078
3 1071 553 1461
3 519 344 1409
3 932 412 1594
3 778 530 1653
3 708 512 940
3 921 582 1240
3 402 476 1169
3 1346 357 1622
3 1140 595 459
3 1080 717 1257
3 66 67 908
3 110 996 1947
3 1231 160 1948
3 1099 394 923
3 786 492 646
3 840 1002 1427
3 1220 412 932
3 1037 783 1402
3 1329 582 1001
3 382 1094 1064
3 570 1077 1805
3 564 669 1173
3 612 1080 1257
3 849 699 1636
3 117 118 777
3 487 592 1400
3 1063 1113 1255
3 776 398 1990
3 1723 444 1524
3 733 539 1362
3 243 244 692
3 1240 898 1906
3 709 757 1357
3 507 759 1484
3 945 840 1427
3 500 863 1117
3 592 487 835
3 737 507 1484
3 1062 798 1051
3 648 502 1183
3 344 519 1845
3 542 1220 932
3 1041 508 928
3 539 1122 1030
3 648 1307 1128
3 1814 648 1128
3 669 776 1173
3 801 1421 1323
3 487 535 835
3 380 1329 1001
3 497 1071 1021
3 22 1216 1401
3 576 397 1473
3 386 932 1594
3 475 980 839
3 406 1065 1171
3 353 1500 2023
3 226 1561 1592
3 576 702 938
3 694 356 1512
3 333 958 843
3 608 891 744
3 612 851 983
3 1622 357 1848
3 1357 757 1702
3 1018 408 1562
3 531 1074 1072
3 669 398 776
3 1032 1018 1562
3 1122 539 935
3 842 445 1498
3 418 827 413
3 698 488 1609
3 502 360 1567
3 344 1426 1688
3 592 670 1061
3 513 1006 1704
3 1110 603 776
3 1302 513 1704
3 1077 570 993
3 230 231 1343
3 575 796 1186
3 491 769 879
3 369 725 788
3 1192 344 1688
3 345 1122 935
3 827 418 1176
3 488 698 1517
3 280 12 1150
3 457 491 879
3 558 706 1750
3 910 420 1013
3 840 945 1265
3 766 329 1698
3 608 1041 1376
3 603 1110 1382
3 1037 1402 1807
3 992 543 1846
3 353 1268 1500
3 34 748 1600
3 499 1239 1578
3 1480 830 1127
3 1342 10 800
3 530 1573 1653
3 585 715 1494
3 110 111 996
3 863 661 1941
3 159 160 1231
3 919 978 771
3 581 502 1567
3 373 769 964
3 399 1119 1475
3 427 718 1508
3 447 667 1252
3 1164 566 1618
3 614 402 1169
3 980 491 839
3 237 238 1199
3 1095 466 1301
3 599 1041 928
3 520 669 375
3 702 992 1846
3 27 1025 758
3 382 1097 1733
3 150 151 989
3 817 1241 1617
3 157 1360 1726
3 1181 552 1304
3 1065 388 1657
3 851 1205 1696
3 796 523 1465
3 1065 406 1311
3 1051 120 1184
3 446 708 1235
3 543 807 1846
3 491 980 1411
3 523 796 998
3 300 22 1401
3 435 470 1431
3 637 457 879
3 1762 575 1186
3 123 124 1209
3 674 786 646
3 621 1167 1361
3 1404 473 1682
3 1514 708 940
3 1117 863 1941
3 1076 596 962
3 426 900 1153
3 1421 581 1323
3 727 1404 1682
3 849 414 1377
3 548 1533 1178
3 945 684 1265
3 557 1139 767
3 930 1159 1308
3 565 1214 1138
3 1546 907 1398
3 1050 546 1784
3 1167 621 1995
3 1113 495 1255
3 1203 444 1489
3 830 1053 1127
3 793 634 1294
3 1336 486 1026
3 1110 696 685
3 296 1207 1282
3 380 376 990
3 1295 722 1788
3 398 669 1224
3 852 453 1271
3 652 1164 1618
3 350 864 954
3 684 945 924
3 336 1220 1240
3 33 34 1600
3 1103 416 1852
3 699 1377 1366
3 546 1050 1000
3 511 593 1340
3 858 640 1337
3 395 1146 1056
3 708 446 622
3 1533 701 1178
3 246 1055 1152
3 450 1464 1715
3 1015 25 1185
3 1129 1035 1723
3 499 1578 1884
3 578 511 1060
3 996 649 1947
3 443 902 816
3 1232 1231 1948
3 587 354 950
3 474 598 1710
3 715 569 1494
3 957 359 1402
3 416 1521 1852
3 512 708 622
3 439 758 1656
3 296 20 1207
3 437 587 1181
3 388 1065 1284
3 364 794 1125
3 372 1806 1936
3 320 827 1176
3 698 322 1517
3 1194 476 1604
3 381 769 1385
3 378 1137 747
3 769 373 1810
3 752 1054 1535
3 10 275 800
3 885 912 913
3 1220 898 1240
3 476 402 1604
3 583 633 1138
3 579 991 1069
3 741 1131 855
3 502 648 1814
3 989 151 1838
3 1421 819 1183
3 701 907 942
3 547 1241 1730
3 954 1361 1849
3 581 1421 1183
3 466 1095 1049
3 507 737 1166
3 18 1126 2013
3 343 1451 1187
3 355 574 1674
3 350 954 1849
3 946 662 1097
3 669 520 1224
3 927 639 1292
3 411 1137 1583
3 1555 1190 1014
3 392 979 1811
3 550 424 854
3 397 737 1473
3 1758 417 1788
3 1207 20 739
3 634 445 1294
3 334 957 1402
3 979 392 1812
3 267 268 1657
3 296 1282 1221
3 538 344 1845
3 706 828 1750
3 1298 1071 1319
3 923 394 1485
3 834 381 973
3 513 493 1392
3 414 849 1543
3 1205 431 1696
3 1472 452 1486
3 454 1160 791
3 1066 377 1028
3 794 477 1125
3 473 1404 1695
3 736 1175 632
3 978 753 1884
3 615 574 1466
3 1652 901 1973
3 1214 583 1138
3 912 885 1838
3 777 118 1754
3 499 753 779
3 842 570 1805
3 457 637 802
3 753 499 1884
3 569 786 1708
3 69 70 1223
3 1710 598 1365
3 305 306 1445
3 362 1298 1319
3 354 587 1559
3 1566 626 1950
3 877 875 1254
3 873 874 1249
3 882 878 1951
3 44 45 1295
3 385 357 1019
3 923 543 1576
3 686 1723 1524
3 387 884 1391
3 1610 113 645
3 1498 445 1437
3 1657 268 1692
3 621 831 1995
3 285 718 915
3 572 927 1292
3 437 1167 941
3 1131 741 1341
3 552 735 1304
3 382 946 1097
3 590 1680 1663
3 737 397 1166
3 316 25 1015
3 1118 892 1260
3 681 825 935
3 397 576 938
3 1193 451 906
3 1159 624 1121
3 593 1239 1340
3 1367 540 1329
3 444 1276 1524
3 502 581 1183
3 866 348 1066
3 585 1502 1585
3 574 442 1466
3 917 862 1653
3 1445 306 1713
3 1307 740 1528
3 394 1099 1582
3 806 1472 1486
3 1137 411 747
3 1451 696 1187
3 711 504 1338
3 755 1336 1026
3 752 1535 1968
3 13 930 1308
3 499 779 1060
3 1847 1130 2025
3 410 1207 739
3 715 585 1337
3 626 960 1950
3 1248 877 1254
3 874 881 1249
3 1253 882 1951
3 433 672 835
3 550 1295 1788
3 837 515 1092
3 866 1066 1895
3 901 673 1973
3 734 899 1586
3 1297 736 632
3 489 899 1548
3 642 590 1663
3 1163 1392 1887
3 1137 378 1230
3 1660 708 1639
3 663 858 1337
3 892 668 1260
3 1119 399 1201
3 1014 1190 370
3 899 299 1586
3 633 929 1138
3 112 1610 996
3 466 912 1301
3 1076 893 2011
3 607 1232 1247
3 863 341 1467
3 912 466 913
3 1062 1363 1883
3 404 1203 1518
3 143 144 1281
3 605 862 1557
3 786 674 1708
3 334 1076 962
3 377 571 1028
3 1363 661 1883
3 511 578 1217
3 837 314 1821
3 899 734 1742
3 128 3 1017
3 575 985 778
3 1042 1243 1511
3 1605 1307 1528
3 321 322 1078
3 320 321 1078
3 22 299 683
3 243 692 1545
3 1239 593 1608
3 302 1358 1727
3 912 1838 2018
3 535 487 1150
3 769 491 1385
3 1139 557 1091
3 734 1324 1650
3 360 502 1526
3 818 712 1502
3 78 79 1598
3 573 1343 1112
3 574 615 850
3 784 1202 1637
3 292 977 1840
3 1806 1119 1469
3 879 769 1810
3 1119 1213 1475
3 864 350 1572
3 542 1660 1639
3 119 120 1051
3 989 885 1029
3 1043 364 1595
3 715 579 1645
3 595 989 1029
3 1203 867 1518
3 417 424 1788
3 1109 276 1536
3 1241 480 1617
3 1402 359 1807
3 380 1367 1329
3 191 192 678
3 373 964 1934
3 430 1193 906
3 648 1183 1554
3 794 364 1662
3 197 1619 1720
3 330 1131 1698
3 128 1017 1818
3 848 837 1092
3 980 475 1264
3 872 460 1563
3 287 723 952
3 1581 78 1598
3 1119 372 1213
3 1568 832 2003
3 570 808 993
3 891 978 744
3 1773 1265 1344
3 1602 595 1845
3 1122 345 800
3 618 506 1299
3 492 450 646
3 862 917 1358
3 667 447 1644
3 618 601 1079
3 314 837 1697
3 689 1477 1366
3 1167 437 1858
3 1917 1252 1979
3 1764 1508 1980
3 802 527 1397
3 551 977 1084
3 1203 404 1537
3 1063 504 1113
3 489 1548 1966
3 533 1806 1469
3 342 845 1650
3 197 198 1619
3 745 466 1049
3 543 992 1691
3 190 678 1955
3 1623 563 1082
3 725 369 1591
3 377 1042 1067
3 801 1623 1082
3 381 834 1274
3 1220 542 1639
3 14 965 1599
3 640 715 1337
3 500 1117 1935
3 689 1366 1851
3 1373 476 1707
3 1349 11 1162
3 15 1347 1263
3 955 472 888
3 1598 80 889
3 482 1265 1773
3 845 734 1650
3 649 449 967
3 425 1232 1003
3 1489 444 1991
3 1343 231 1446
3 695 1166 665
3 751 327 1313
3 483 1233 959
3 1392 556 1887
3 869 864 1572
3 1898 489 1966
3 1916 1314 1756
3 1386 233 1087
3 1273 552 1228
3 192 1198 678
3 624 1159 930
3 865 772 1741
3 1098 1170 403
3 66 908 1188
3 908 67 826
3 960 709 1256
3 427 1248 1124
3 881 428 1246
3 447 1253 1251
3 1160 454 787
3 353 1485 1594
3 966 8 1644
3 464 642 970
3 840 1302 1002
3 668 705 1261
3 712 298 1502
3 1250 29 1847
3 356 627 1512
3 998 549 1658
3 985 575 1762
3 1243 419 1511
3 825 345 935
3 696 1110 1187
3 482 493 1204
3 1166 397 665
3 1535 434 1968
3 1603 421 1795
3 852 1271 1678
3 1040 601 1266
3 692 244 1045
3 989 595 1602
3 292 18 2013
3 356 694 920
3 327 751 1782
3 670 1534 1498
3 345 825 1044
3 1130 406 2025
3 1069 991 1087
3 457 802 1397
3 462 1014 370
3 556 685 918
3 1609 743 1436
3 899 489 683
3 1257 717 1330
3 1603 619 1102
3 528 858 1112
3 1360 158 1231
3 424 395 854
3 985 530 778
3 701 942 1120
3 898 1220 1639
3 454 1030 787
3 958 333 1489
3 332 618 1927
3 938 702 1300
3 900 426 1981
3 355 720 580
3 845 503 1742
3 1047 1107 1731
3 707 786 1645
3 535 433 835
3 463 469 1889
3 568 1289 1669
3 672 808 1765
3 852 1916 1756
3 1257 1330 1229
3 681 834 1581
3 1018 531 1031
3 601 1040 1796
3 1485 386 1594
3 1285 856 1530
3 862 939 1557
3 1695 1404 1200
3 1114 710 1685
3 757 1088 1468
3 493 558 1392
3 531 1368 1352
3 433 535 1011
3 455 537 857
3 664 554 1604
3 1114 1685 1980
3 757 1468 1979
3 3 1512 1522
3 843 393 1279
3 1567 360 1975
3 1055 979 1152
3 834 681 1914
3 1502 21 1585
3 816 902 1897
3 578 913 1217
3 1233 768 959
3 1360 795 1726
3 504 711 883
3 440 1314 1916
3 537 455 1878
3 377 1067 1771
3 1139 813 767
3 209 988 1738
3 246 247 1055
3 673 467 657
3 1062 1051 1184
3 1579 741 1267
3 270 1250 1085
3 601 618 1299
3 808 570 1534
3 1278 750 1626
3 821 562 1185
3 752 705 1054
3 249 1317 1817
3 293 292 1840
3 736 1297 1370
3 453 363 1271
3 614 1470 1381
3 147 148 1409
3 31 32 337
3 1274 733 964
3 1307 452 1128
3 1036 679 1714
3 537 417 857
3 725 551 2009
3 1595 364 1953
3 1232 425 1247
3 698 1609 1436
3 1076 334 893
3 469 463 1244
3 673 901 974
3 1289 696 1451
3 1523 1005 1942
3 210 1154 1104
3 490 1297 1004
3 831 393 1259
3 926 393 2010
3 569 715 1645
3 998 1658 1790
3 402 664 1604
3 471 955 1086
3 9 1160 787
3 618 332 1093
3 1041 599 1090
3 390 941 1995
3 378 1603 1102
3 963 201 1425
3 464 1190 1555
3 1276 1203 1537
3 1656 758 1503
3 506 1197 1299
3 804 1056 1235
3 1209 124 1222
3 742 1803 1834
3 621 1361 954
3 1405 581 1567
3 278 1357 1702
3 641 1325 1960
3 730 1505 1862
3 593 511 1984
3 495 1477 1378
3 1079 601 1796
3 1006 568 1669
3 885 989 1838
3 758 439 1899
3 506 618 1749
3 660 326 1782
3 872 350 1189
3 206 207 1421
3 1278 496 1859
3 491 457 839
3 456 692 1987
3 877 1248 1508
3 882 1253 1252
3 932 386 510
3 1358 917 1727
3 32 33 1600
3 1098 516 1105
3 480 1047 1731
3 786 569 1645
3 548 598 1781
3 1009 367 1454
3 871 916 1866
3 893 541 2011
3 750 1278 1859
3 1285 610 1429
3 692 456 1545
3 111 112 996
3 158 159 1231
3 1608 593 1438
3 1199 238 1564
3 393 843 1259
3 437 1181 1449
3 544 1178 1120
3 1285 1530 1424
3 908 1009 1454
3 393 831 2010
3 553 1134 1461
3 337 32 1600
3 262 263 1505
3 1165 289 633
3 610 1568 1429
3 412 1220 1022
3 669 564 1729
3 1563 460 1410
3 1202 273 1637
3 1363 358 1068
3 969 421 1603
3 1194 1387 1369
3 381 1274 964
3 726 411 1583
3 1220 336 1022
3 1245 628 1269
3 31 337 1748
3 863 500 1283
3 679 436 1714
3 1149 1250 1847
3 1135 544 1120
3 25 821 1185
3 8 279 1644
3 779 790 1060
3 628 916 1269
3 344 538 1426
3 687 1563 1410
3 77 1581 1492
3 902 410 1101
3 1165 471 1086
3 586 653 337
3 393 1335 1279
3 1534 570 1498
3 519 1602 1845
3 525 1480 1127
3 661 1363 1068
3 415 1579 1267
3 610 832 1568
3 289 288 633
3 508 1041 744
3 858 401 1112
3 556 918 1887
3 1217 913 1928
3 1606 641 1960
3 949 657 1507
3 157 158 1360
3 814 364 1125
3 757 709 1088
3 1114 428 710
3 974 1930 370
3 1866 916 1940
3 573 1112 1684
3 769 381 964
3 1525 719 1022
3 1063 420 1338
3 1198 193 1974
3 1477 689 1378
3 1056 446 1235
3 291 1098 403
3 341 863 1283
3 480 1241 1047
3 550 854 1225
3 131 1327 1885
3 235 236 896
3 567 1209 1222
3 286 15 1263
3 476 1621 1707
3 1241 498 1047
3 1646 742 906
3 720 655 580
3 744 978 1578
3 962 596 1700
3 1596 1037 2014
3 1685 407 1980
3 1468 526 1979
3 1136 605 1316
3 11 277 1162
3 896 236 1661
3 64 65 1080
3 1160 9 1202
3 536 1168 586
3 1256 709 1355
3 427 1124 1052
3 487 280 1150
3 1207 410 1775
3 867 1203 1761
3 668 892 1054
3 1336 755 1989
3 237 1199 1661
3 484 1273 1228
3 595 538 1845
3 804 1235 1780
3 389 950 1129
3 582 921 1001
3 255 256 1396
3 1319 497 1683
3 605 1136 1658
3 808 672 1198
3 284 14 1599
3 1146 395 1879
3 1389 533 1469
3 386 1521 510
3 1377 338 1366
3 1400 624 930
3 936 529 922
3 1017 703 1818
3 590 642 1555
3 1328 1370 1968
3 445 842 1294
3 611 567 623
3 395 424 1879
3 1124 961 1052
3 713 1256 1355
3 657 467 1507
3 517 637 1810
3 721 967 1350
3 1003 968 1799
3 1317 1012 1943
3 412 1268 1594
3 342 1650 1803
3 1505 471 1862
3 1080 65 1188
3 1134 639 1093
3 1037 1596 1695
3 1409 148 1791
3 1421 207 1433
3 1025 27 1808
3 382 1103 1206
3 985 1762 1967
3 258 259 876
3 504 1063 1338
3 1391 405 931
3 112 113 1610
3 967 449 1350
3 425 1003 1799
3 1209 567 1227
3 1056 1146 1712
3 328 766 1313
3 503 1752 1988
3 1293 388 1284
3 275 1122 800
3 336 1525 1022
3 190 191 678
3 536 586 337
3 279 667 1644
3 891 608 1353
3 923 1485 1384
3 79 80 1598
3 451 1646 906
3 1107 1716 2026
3 1107 1047 1716
3 1502 585 1494
3 1168 335 586
3 426 318 1981
3 460 872 1189
3 407 1764 1980
3 526 1917 1979
3 1235 688 1780
3 1108 1061 1437
3 704 962 1700
3 332 1134 1093
3 202 203 853
3 503 1548 1742
3 517 559 1760
3 1002 1302 2008
3 864 869 1243
3 19 293 946
3 818 1502 1494
3 1346 545 861
3 452 735 1128
3 570 842 1498
3 928 508 1608
3 539 1030 1362
3 530 985 1496
3 276 1575 1536
3 1004 951 1801
3 1019 357 1870
3 843 958 1259
3 960 626 1088
3 881 874 710
3 465 1560 1565
3 941 1167 1995
3 652 1618 1558
3 788 725 1616
3 335 1311 586
3 1387 620 1369
3 507 1310 1675
3 208 209 1738
3 1170 1098 1105
3 1239 499 1340
3 368 1376 1090
3 1126 18 1132
3 921 589 1001
3 950 354 1129
3 678 433 1955
3 995 287 952
3 1259 958 1634
3 858 528 1394
3 619 1603 1795
3 551 725 1591
3 1177 609 1144
3 26 318 426
3 280 487 1123
3 931 691 904
3 586 1311 971
3 69 1223 1668
3 1302 840 1204
3 1310 507 803
3 1250 1149 1085
3 232 233 1386
3 1470 784 1381
3 266 267 1724
3 862 549 1653
3 1297 490 1370
3 493 482 1237
3 606 963 1425
3 1027 931 904
3 722 1295 1083
3 552 587 1228
3 210 211 1154
3 150 989 1602
3 748 34 1718
3 114 115 936
3 836 652 1558
3 468 1317 1943
3 1628 1278 1626
3 467 673 974
3 845 342 1752
3 192 193 1198
3 868 351 1684
3 1216 22 683
3 490 1004 1801
3 1095 822 1049
3 4 1408 846
3 1772 745 1807
3 1521 416 510
3 476 1194 1621
3 683 489 1857
3 825 1598 889
3 682 1180 1479
3 1335 393 1177
3 335 1293 1284
3 1336 660 422
3 934 387 1864
3 1042 377 1655
3 787 1030 1277
3 500 1018 1031
3 1252 667 1979
3 1508 718 1980
3 1268 353 1594
3 705 752 1263
3 649 577 981
3 583 1165 633
3 7 229 1208
3 587 552 1181
3 638 1610 645
3 548 1781 1850
3 723 287 914
3 380 990 1843
3 605 1557 1305
3 1180 682 1725
3 1825 524 1419
3 780 258 876
3 1421 801 1681
3 991 579 1802
3 417 537 1312
3 948 605 1305
3 1669 1289 1999
3 228 7 1208
3 742 1877 1932
3 1122 275 1277
3 1214 565 876
3 1190 464 1162
3 276 1109 1770
3 1131 330 805
3 1248 427 1508
3 1253 447 1252
3 1197 506 1430
3 401 858 1182
3 352 770 1233
3 998 575 1280
3 1615 1197 1497
3 347 725 2009
3 704 928 1608
3 677 1216 1857
3 772 368 1090
3 16 1211 1471
3 784 1470 1202
3 1405 505 1623
3 705 668 1054
3 764 463 1889
3 155 156 822
3 693 1373 1607
3 1582 616 1852
3 311 312 934
3 408 1117 1587
3 521 411 1949
3 1117 768 1587
3 642 464 1555
3 991 1386 1087
3 1368 534 1744
3 77 78 1581
3 368 865 911
3 868 401 1182
3 1281 144 1659
3 1376 1041 1090
3 324 1336 1989
3 634 793 1306
3 1027 934 1864
3 987 385 1019
3 667 279 1702
3 718 285 1783
3 895 1177 1144
3 661 863 1883
3 1512 627 1522
3 1216 683 1857
3 562 1614 1185
3 117 777 947
3 587 437 1559
3 513 1302 1204
3 428 881 710
3 709 960 1088
3 493 513 1204
3 1400 592 1061
3 1314 440 1459
3 532 1310 803
3 298 712 1586
3 794 1662 1824
3 640 858 1394
3 428 1114 1599
3 509 854 1296
3 364 1043 1662
3 978 891 771
3 690 1404 2007
3 572 829 927
3 1108 624 1061
3 386 1485 1521
3 1614 477 1185
3 402 614 1776
3 123 1209 1740
3 617 1615 1497
3 1021 844 1766
3 503 845 1752
3 379 810 1811
3 895 1335 1177
3 477 794 1865
3 697 868 1182
3 262 1505 1624
3 990 308 1649
3 1560 1073 1565
3 439 1656 2016
3 540 1367 1753
3 472 955 1435
3 906 742 1932
3 559 517 1571
3 1210 1219 2020
3 534 1368 1797
3 1327 131 1794
3 267 1657 1724
3 445 634 1903
3 1066 348 1655
3 932 510 1499
3 926 609 1177
3 513 1392 1163
3 1084 977 2013
3 759 643 1699
3 1732 745 1772
3 44 1295 1070
3 19 946 1206
3 1289 568 918
3 822 659 1049
3 783 1037 1695
3 598 548 1365
3 677 1614 1625
3 1362 479 1934
3 598 474 1705
3 1043 494 1255
3 1295 45 1083
3 350 872 1572
3 28 271 0
3 578 1060 1913
3 627 650 1522
3 1656 731 2016
3 722 1758 1788
3 533 1389 1479
3 711 1338 1687
3 666 1368 1744
3 1043 984 1662
3 568 1006 1163
3 749 501 1651
3 519 1409 1791
3 1367 405 1753
3 849 518 1413
3 910 1752 1356
3 772 599 1306
3 319 320 1176
3 322 323 1517
3 36 37 1048
3 470 521 1949
3 248 249 1817
3 1811 810 2026
3 874 1493 1686
3 626 847 956
3 1525 1091 1874
3 808 1534 1765
3 529 936 1380
3 1010 456 1987
3 994 136 2003
3 401 868 1684
3 1006 1669 1648
3 1149 1847 2025
3 527 1278 1628
3 1525 540 1091
3 411 726 1949
3 498 749 1651
3 143 1281 1501
3 466 745 1732
3 825 681 1598
3 376 380 1001
3 16 295 1211
3 577 649 996
3 1232 607 1231
3 1154 740 1104
3 1496 728 1868
3 501 1010 1474
3 975 1389 1469
3 844 1021 1927
3 1115 361 1511
3 531 1018 1976
3 1008 1234 1901
3 1404 1290 2007
3 382 1064 1103
3 1216 677 1809
3 1109 974 370
3 364 814 1953
3 1361 1167 1858
3 751 986 1813
3 1614 562 1625
3 317 26 1172
3 452 1307 1605
3 454 479 1362
3 907 701 1398
3 1275 461 1503
3 672 433 678
3 1006 513 1163
3 1020 479 791
3 929 1023 1482
3 708 1514 1639
3 637 517 1760
3 1547 944 1722
3 393 926 1177
3 1760 559 1945
3 553 1547 1722
3 589 376 1001
3 696 1289 918
3 392 371 1812
3 567 611 1227
3 1215 611 623
3 443 868 1282
3 716 1445 1597
3 399 829 1924
3 1705 629 1781
3 955 471 1435
3 1585 663 1337
3 1165 583 1862
3 793 772 1306
3 1642 503 1988
3 589 1445 1713
3 1485 394 1521
3 659 1596 2014
3 1023 811 1482
3 1619 198 1725
3 740 1307 1896
3 1040 1266 1763
3 637 879 1810
3 549 862 1658
3 1307 648 1896
3 859 603 1075
3 377 1066 1655
3 1370 723 1968
3 701 1533 1398
3 299 298 1586
3 717 1080 1188
3 1317 249 1778
3 1343 528 1112
3 634 1633 1309
3 307 376 1713
3 554 936 922
3 1159 1121 1151
3 1310 480 1675
3 1271 421 1678
3 858 663 1182
3 544 1710 1365
3 594 1724 1777
3 544 1473 1710
3 1335 895 1768
3 359 957 1772
3 585 1585 1337
3 125 126 903
3 871 1327 1794
3 617 1405 1567
3 1633 596 1309
3 357 1346 1870
3 1781 765 1850
3 1724 388 1777
3 130 131 1885
3 564 894 1729
3 308 309 1649
3 198 199 1725
3 1121 541 1151
3 1119 1201 1469
3 1621 1194 1369
3 896 707 1645
3 449 649 981
3 424 417 1879
3 329 330 1698
3 868 697 1282
3 1493 597 1686
3 847 429 956
3 1223 70 1746
3 1473 737 1710
3 48 49 631
3 559 1588 1607
3 1074 1352 1242
3 1622 675 1300
3 621 954 866
3 537 520 1312
3 579 896 1645
3 1392 558 1750
3 1234 369 1901
3 396 1181 1304
3 13 281 930
3 1115 1511 1450
3 907 458 942
3 1661 1199 933
3 1035 354 1379
3 1662 984 1824
3 482 1275 1237
3 428 1599 1359
3 816 225 1592
3 988 740 1896
3 829 399 1475
3 972 909 1925
3 1074 1242 2015
3 498 1241 1460
3 99 100 847
3 166 167 1493
3 170 171 1495
3 103 104 671
3 862 605 1658
3 90 91 1191
3 179 180 781
3 1533 374 1398
3 1268 412 1793
3 86 87 789
3 183 184 1488
3 1278 527 1148
3 1067 438 1771
3 901 789 1272
3 400 1219 1210
3 770 408 1587
3 1588 693 1607
3 941 390 1379
3 741 720 1267
3 324 325 1336
3 1005 1703 1942
3 1347 15 915
3 8 966 1348
3 11 1349 1357
3 965 14 1351
3 598 1705 1781
3 986 356 1813
3 894 512 1729
3 388 1293 1777
3 627 356 986
3 520 537 1224
3 71 72 2001
3 155 822 1635
3 72 1577 2001
3 1643 792 1924
3 28 29 1250
3 545 1346 1622
3 616 1582 1375
3 742 1646 1803
3 494 1043 1595
3 838 372 886
3 620 777 775
3 1363 121 1490
3 576 1135 1835
3 572 1643 1924
3 492 1199 1464
3 758 1025 1503
3 242 243 1545
3 482 1204 1544
3 1488 736 1679
3 510 416 1780
3 859 24 1395
3 1202 1470 1986
3 1274 834 1914
3 688 510 1780
3 480 1310 1617
3 1803 340 1834
3 566 1192 1618
3 650 627 1580
3 282 1290 1982
3 496 1278 1819
3 1012 1317 1778
3 846 1408 1670
3 1859 496 1915
3 363 611 1215
3 451 1193 1839
3 1162 464 1939
3 372 838 1213
3 359 1772 1807
3 675 938 1300
3 475 839 1397
3 1394 991 1802
3 528 1343 1446
3 583 1214 1096
3 838 870 1213
3 957 1570 1772
3 1368 531 1976
3 298 21 1502
3 471 1165 1862
3 685 556 1007
3 977 551 1909
3 1033 1032 1562
3 410 902 1775
3 1007 556 1750
3 270 271 1250
3 821 571 1771
3 829 506 927
3 735 452 1304
3 759 1699 1911
3 1103 616 1206
3 705 1263 1258
3 1472 460 1786
3 333 843 1279
3 740 988 1104
3 1465 523 1441
3 1391 884 1721
3 777 620 1418
3 396 1472 1786
3 712 734 1586
3 230 1343 1321
3 603 859 1173
3 135 136 994
3 1098 291 1383
3 1561 573 1684
3 3 129 1512
3 638 664 1638
3 937 1760 1945
3 829 870 1430
3 420 1063 1013
3 939 862 1358
3 458 1691 1719
3 988 209 1104
3 579 715 1802
3 1235 708 1660
3 1032 1033 1797
3 1010 501 1767
3 508 744 1578
3 1426 604 1688
3 303 302 1727
3 1227 611 1894
3 476 1373 1677
3 789 654 1272
3 1033 534 1797
3 1025 1275 1503
3 1343 573 1321
3 600 1825 1419
3 506 829 1430
3 611 363 1601
3 352 611 1601
3 972 1925 1664
3 685 696 918
3 1039 1533 1850
3 837 848 1697
3 530 1496 1868
3 404 1281 1632
3 621 866 2010
3 907 441 1735
3 1628 475 1397
3 411 521 679
3 1654 2002 2017
3 1154 211 1629
3 856 1285 1743
3 368 1389 1516
3 472 1293 1434
3 21 297 1585
3 828 1007 1750
3 1281 404 1518
3 958 1489 1991
3 853 203 1510
3 1389 368 911
3 574 850 1736
3 455 1456 1878
3 290 888 1383
3 1389 975 1516
3 680 453 1756
3 1368 666 1352
3 934 1027 1331
3 831 621 2010
3 1768 895 1863
3 682 1389 911
3 1599 965 1359
3 351 1561 1684
3 785 1488 1679
3 772 793 1741
3 424 550 1788
3 118 119 1754
3 520 375 1712
3 1199 492 933
3 1223 1859 1915
3 469 625 1523
3 1605 658 1486
3 1129 686 1270
3 27 706 1808
3 1310 532 1823
3 1338 763 1687
3 10 1342 1575
3 64 1080 983
3 1317 468 1900
3 1234 509 1288
3 1622 1300 1513
3 618 1079 1927
3 389 1129 1270
3 884 387 1627
3 311 934 1331
3 1241 547 1460
3 902 443 1775
3 24 859 1075
3 405 1391 1755
3 1063 494 1013
3 890 666 1161
3 376 589 1713
3 770 352 1920
3 576 1473 1135
3 525 890 1161
3 986 751 953
3 707 896 1661
3 12 287 995
3 838 886 1929
3 41 42 788
3 125 903 1222
3 1116 12 995
3 453 852 1756
3 720 355 1267
3 707 1661 933
3 458 907 1735
3 587 950 1228
3 1138 929 1694
3 538 1140 1972
3 469 1523 1942
3 1067 1042 1511
3 762 837 1821
3 340 646 1834
3 211 212 1629
3 658 1081 1486
3 1752 342 1356
3 891 1643 771
3 812 133 1269
3 452 1472 1304
3 1643 384 771
3 829 572 1924
3 1045 522 1987
3 283 282 1982
3 1400 930 1123
3 564 859 1531
3 1396 256 1226
3 1325 684 1960
3 1581 834 1492
3 942 458 1719
3 207 208 1433
3 27 331 706
3 770 1920 1971
3 692 1045 1987
3 1349 1162 1939
3 465 1373 1707
3 520 1146 1312
3 423 613 1462
3 497 1021 1766
3 1533 548 1850
3 715 640 1802
3 1455 910 1356
3 109 967 1828
3 1003 161 1829
3 534 1033 799
3 684 924 1960
3 378 747 1757
3 984 1043 1286
3 1651 501 1474
3 664 555 1638
3 1263 752 914
3 885 913 1907
3 1263 1347 1258
3 754 780 1158
3 153 1301 2018
3 768 1117 1941
3 903 126 897
3 1470 614 1414
3 732 341 1830
3 83 657 1833
3 1108 647 1121
3 260 1647 1287
3 371 392 1716
3 255 1396 1672
3 121 1363 1184
3 615 1654 2017
3 1004 187 1326
3 609 926 1895
3 1920 680 1971
3 1106 47 1826
3 1124 174 1390
3 96 1256 1841
3 114 936 645
3 343 1456 1458
3 361 1067 1511
3 1016 732 1830
3 1135 365 1835
3 421 969 1678
3 1219 400 1800
3 681 935 1914
3 276 10 1575
3 988 1896 1554
3 208 1738 1433
3 866 926 2010
3 1146 520 1712
3 1472 806 1410
3 611 352 1894
3 1577 72 1264
3 394 1582 1852
3 371 498 1651
3 969 1757 1463
3 225 816 1897
3 494 1063 1255
3 640 1394 1802
3 822 1095 1635
3 861 545 1787
3 1168 536 1481
3 1134 332 1461
3 1293 472 1777
3 625 436 1998
3 1293 335 1145
3 1018 1032 1976
3 479 454 791
3 72 73 1264
3 795 1360 1320
3 460 1472 1410
3 521 436 679
3 253 1667 1844
3 677 1857 1964
3 1117 408 1935
3 916 871 812
3 813 414 1751
3 1892 1057 1441
3 1099 923 1576
3 1021 332 1927
3 1065 1311 1284
3 436 625 1244
3 1106 1059 1758
3 362 1192 1688
3 244 245 1045
3 1619 909 1720
3 870 838 1816
3 1373 465 1565
3 501 749 1905
3 936 115 1380
3 119 1051 1754
3 356 920 1813
3 838 505 1816
3 149 150 1602
3 957 334 962
3 1644 447 1354
3 780 565 1158
3 260 261 1647
3 624 1108 1121
3 1561 351 1592
3 384 1412 919
3 695 803 1166
3 1456 455 1458
3 309 310 904
3 1585 297 809
3 1145 1168 1860
3 815 1210 2020
3 1412 944 919
3 426 409 1863
3 67 68 826
3 808 1198 1974
3 888 290 1553
3 1396 1039 1672
3 1190 1162 1770
3 722 1106 1758
3 414 813 1457
3 625 469 1244
3 716 1597 1520
3 731 1219 1800
3 274 9 787
3 1140 481 1972
3 887 551 1591
3 46 47 1106
3 1930 462 370
3 934 312 700
3 782 1814 1128
3 1391 931 1864
3 1203 1489 1761
3 1389 682 1479
3 821 1771 1861
3 512 375 1729
3 524 1081 1419
3 238 239 1564
3 870 829 1475
3 560 1470 1414
3 1757 1036 1463
3 375 669 1729
3 1505 730 1624
3 1134 553 1722
3 271 28 1250
3 754 1546 1549
3 408 770 1562
3 1360 607 1320
3 498 371 1716
3 1335 833 1279
3 1363 1062 1184
3 620 732 1369
3 420 763 1338
3 430 1000 1767
3 1132 1170 1179
3 1000 456 1767
3 375 446 1712
3 1408 4 1212
3 222 223 1101
3 903 567 1222
3 461 1275 1773
3 1048 37 1612
3 826 68 1668
3 376 307 1983
3 1500 1111 2023
3 366 903 897
3 153 154 1301
3 1464 588 1715
3 1445 589 1597
3 527 756 1148
3 832 994 2003
3 358 1363 1490
3 646 340 1541
3 920 660 1813
3 132 133 812
3 1080 612 983
3 485 763 1345
3 695 665 1848
3 888 472 1434
3 610 1285 1424
3 1036 747 679
3 803 507 1166
3 613 341 1283
3 983 851 1921
3 1698 1131 1341
3 633 288 1506
3 1324 734 1630
3 571 377 1771
3 1189 350 1849
3 335 1168 1145
3 859 564 1173
3 286 1263 914
3 1416 865 1925
3 763 485 1673
3 1862 583 1096
3 225 226 1592
3 863 1467 1883
3 1377 414 1457
3 773 1132 1179
3 942 365 1120
3 916 628 1940
3 1233 770 1587
3 1092 1089 1238
3 126 127 897
3 1620 794 1824
3 749 498 1460
3 840 1265 1544
3 552 1273 1946
3 1243 1042 1147
3 472 1435 1963
3 888 644 1383
3 1637 999 1141
3 835 672 1765
3 732 620 775
3 340 1650 1541
3 360 1273 1763
3 522 1812 1474
3 1596 473 1695
3 51 1451 1403
3 1072 423 1031
3 1546 374 1549
3 1896 648 1554
3 451 1455 1356
3 253 254 1667
3 1132 773 1509
3 1273 484 1763
3 1126 1132 1509
3 314 315 1821
3 63 64 983
3 1301 912 2018
3 405 1367 1937
3 441 1546 1158
3 720 741 855
3 251 252 1339
3 1540 1050 1784
3 1019 414 1543
3 593 957 1438
3 935 539 1914
3 1376 368 1516
3 145 146 1164
3 1246 428 1359
3 447 1251 1354
3 464 970 1939
3 1261 705 1258
3 406 1130 971
3 1330 367 1970
3 273 272 1637
3 1467 341 1978
3 731 1230 2016
3 440 463 1459
3 977 292 2013
3 732 1016 1369
3 966 1644 1354
3 463 764 1459
3 631 49 1058
3 892 781 1046
3 599 928 1633
3 662 977 1909
3 1007 828 1075
3 272 8 1348
3 278 11 1357
3 14 283 1351
3 15 285 915
3 608 1376 1822
3 1560 346 1728
3 655 720 1831
3 434 1328 1968
3 820 1705 1911
3 1169 693 1414
3 1172 26 1144
3 695 1848 1476
3 1061 670 1437
3 756 714 1148
3 1191 590 1143
3 1130 653 971
3 516 1168 1481
3 1650 1324 1541
3 1162 277 1770
3 374 1546 1398
3 24 304 1395
3 363 453 1601
3 514 986 953
3 147 1409 1854
3 644 1145 1860
3 142 143 1501
3 206 1421 1681
3 636 826 1668
3 1011 951 1574
3 453 680 1920
3 609 1172 1144
3 1857 814 1964
3 949 1044 1890
3 848 1092 1238
3 776 603 1173
3 1125 477 1614
3 675 1622 1848
3 734 845 1742
3 408 1018 1935
3 13 1308 2007
3 784 1637 1141
3 36 1048 676
3 1891 811 1471
3 1610 638 1638
3 317 1172 1759
3 1139 1753 1755
3 9 273 1202
3 1112 401 1684
3 1451 51 1422
3 531 1072 1031
3 1192 362 1618
3 421 1271 1717
3 1583 1137 1800
3 1142 1319 1683
3 1610 577 996
3 719 861 1787
3 1298 362 1688
3 505 1405 1497
3 721 1251 1613
3 1246 968 1439
3 713 970 1442
3 1261 961 1447
3 902 1101 1334
3 714 890 1127
3 1812 371 1474
3 950 484 1228
3 1188 908 1454
3 213 214 1665
3 671 882 1671
3 1495 877 1195
3 967 109 1947
3 161 1003 1948
3 1039 1396 1952
3 1082 205 1681
3 1295 550 1880
3 1405 617 1497
3 972 196 1720
3 1160 1202 1986
3 1404 727 1290
3 1192 566 1689
3 1367 380 1843
3 1402 783 893
3 344 1192 1689
3 1694 929 1482
3 603 1007 1075
3 1625 1861 2005
3 509 1296 1733
3 436 463 1714
3 74 75 1739
3 345 1044 1893
3 736 1488 1175
3 763 420 1345
3 789 901 1652
3 847 626 1566
3 877 1495 875
3 1493 874 873
3 882 671 878
3 756 391 1910
3 446 1056 1712
3 306 307 1713
3 338 1377 1737
3 714 756 1910
3 799 1314 1459
3 174 175 1390
3 95 96 1841
3 282 13 2007
3 890 525 1127
3 391 756 1417
3 807 923 1384
3 416 1064 1780
3 764 799 1459
3 639 927 1749
3 1485 353 1384
3 1705 474 1911
3 584 802 1804
3 187 1004 1444
3 624 1400 1061
3 1065 1657 1692
3 1456 343 1187
3 590 1191 1680
3 791 1160 1986
3 1405 1623 1323
3 657 83 1956
3 1011 189 1955
3 1093 639 1749
3 781 892 1118
3 1496 220 1815
3 813 1139 1706
3 39 347 1837
3 392 1811 2026
3 728 1496 1815
3 1373 693 1677
3 1753 405 1755
3 749 1673 1905
3 997 1465 1441
3 486 1336 422
3 204 205 1082
3 375 512 622
3 1155 1654 1466
3 463 436 1244
3 161 162 1829
3 108 109 1828
3 577 1610 1638
3 436 521 1998
3 81 1044 889
3 1488 184 1175
3 1073 1560 1728
3 1233 483 1894
3 70 71 1746
3 86 789 1652
3 99 847 1566
3 166 1493 873
3 1495 171 875
3 671 104 878
3 509 943 1288
3 48 631 1826
3 1806 606 1936
3 635 1898 1966
3 1599 1114 1783
3 463 440 1714
3 924 60 1842
3 312 313 700
3 560 791 1986
3 1030 454 1362
3 747 1036 1757
3 556 1392 1750
3 140 141 760
3 82 83 1833
3 1115 939 1886
3 1191 91 1680
3 179 781 1118
3 1737 884 1452
3 1654 615 1466
3 514 1579 1236
3 1034 1019 1870
3 523 998 1790
3 639 1412 1292
3 573 1561 1774
3 1408 867 1761
3 1257 435 1431
3 834 973 1492
3 666 890 1242
3 289 1165 1086
3 890 391 1242
3 1011 535 1589
3 724 1330 1970
3 187 188 1326
3 592 835 1765
3 700 313 1697
3 174 1124 1440
3 1256 96 1957
3 107 1251 1958
3 1246 163 1959
3 202 853 1425
3 756 527 1519
3 1607 1373 1565
3 94 970 1856
3 60 924 1965
3 1261 176 1962
3 189 1011 1574
3 122 123 1740
3 37 38 1612
3 607 1247 1682
3 414 1019 1751
3 1505 263 1478
3 1057 1593 1441
3 1767 501 1997
3 817 925 602
3 800 345 1893
3 400 1583 1800
3 613 423 1888
3 832 610 1969
3 977 662 1840
3 802 584 1519
3 1044 81 1890
3 235 896 1069
3 1172 571 1759
3 269 1171 1692
3 822 156 1726
3 1854 1409 1689
3 387 934 1542
3 1265 684 1344
3 732 798 1978
3 1164 146 1854
3 781 785 1046
3 1374 339 1868
3 477 1015 1185
3 1327 871 1322
3 418 413 1424
3 894 564 1531
3 121 122 1490
3 1609 488 1940
3 703 1017 2017
3 1647 1214 1287
3 658 1154 1629
3 1465 215 1693
3 802 637 1804
3 1658 1136 1790
3 341 613 1830
3 1064 416 1103
3 215 1465 1853
3 1673 485 1905
3 925 987 1413
3 1271 363 1820
3 1299 1197 1615
3 654 1191 1143
3 1417 823 2015
3 1230 731 1800
3 341 732 1978
3 664 402 1776
3 387 1391 1864
3 1176 1961 1981
3 890 714 1910
3 1251 107 1613
3 163 1246 1439
3 484 1040 1763
3 970 94 1442
3 176 1261 1447
3 1579 415 1236
3 116 117 947
3 612 1257 1431
3 848 700 1697
3 663 1585 809
3 347 39 1443
3 867 1408 1212
3 76 973 1882
3 461 1773 2020
3 1193 485 1839
3 1208 573 1774
3 351 816 1592
3 819 1421 1433
3 584 823 1417
3 1530 418 1424
3 987 1019 1543
3 1130 30 1748
3 220 1496 1483
3 608 1415 1353
3 1573 917 1653
3 1409 344 1689
3 27 758 805
3 395 1056 841
3 1908 1517 1989
3 397 938 665
3 338 1737 1452
3 1473 544 1135
3 291 290 1383
3 357 385 1476
3 456 1010 1767
3 589 921 1597
3 483 1227 1894
3 327 328 1313
3 1961 900 1981
3 1415 792 1353
3 288 16 1023
3 716 894 1531
3 581 1405 1323
3 1775 443 1282
3 1234 1008 1225
3 61 62 1315
3 788 42 1372
3 853 1510 886
3 946 382 1206
3 1547 481 905
3 1044 949 1893
3 1168 516 1860
3 924 656 1960
3 391 890 1910
3 951 1011 1589
3 1348 449 1318
3 1667 765 1844
3 554 664 1423
3 1100 367 1420
3 968 1246 1359
3 1251 721 1354
3 1108 445 1903
3 783 824 893
3 970 713 1939
3 1455 451 1839
3 961 1261 1258
3 488 1866 1940
3 760 1156 1926
3 1366 338 1851
3 535 1150 1589
3 437 941 1559
3 429 671 1671
3 597 1495 1195
3 168 1487 1918
3 1487 169 1529
3 101 1527 1611
3 1527 102 1919
3 385 987 1428
3 944 1547 905
3 990 691 1843
3 957 593 1570
3 662 887 943
3 973 76 1492
3 739 339 1374
3 798 732 775
3 1020 791 1871
3 413 610 1424
3 1596 795 1320
3 664 638 1423
3 373 479 1734
3 628 1609 1940
3 1404 690 1200
3 650 1017 1522
3 1064 1094 1432
3 909 1416 1925
3 201 202 1425
3 844 1796 1270
3 1289 1451 1422
3 274 787 1277
3 844 1079 1796
3 735 552 1946
3 884 1737 1721
3 1370 490 952
3 240 1540 1590
3 333 1408 1761
3 326 327 1782
3 801 1082 1681
3 268 269 1692
3 753 919 905
3 1038 584 1804
3 88 1532 1904
3 854 395 1296
3 919 944 905
3 332 1021 1461
3 1479 1180 1881
3 1625 562 1861
3 755 1908 1989
3 1017 650 850
3 1371 182 1902
3 597 1493 1918
3 1495 597 1529
3 429 847 1611
3 671 429 1919
3 1107 1640 1731
3 686 1129 1723
3 925 518 602
3 1532 89 1923
3 1582 294 1375
3 1739 75 1882
3 662 946 1840
3 551 887 1909
3 944 1412 1722
3 467 974 1536
3 1636 504 883
3 181 1371 1262
3 1477 495 1113
3 1451 343 1403
3 916 812 1269
3 284 1599 1783
3 832 743 1539
3 30 31 1748
3 446 375 622
3 281 280 1123
3 194 993 1974
3 937 1038 1804
3 647 1108 1903
3 222 1101 1676
3 856 760 1926
3 1059 1106 1826
3 1004 1297 1444
3 979 1055 1811
3 599 772 1090
3 649 967 1947
3 1003 1232 1948
3 479 1020 1734
3 1694 441 1158
3 433 1011 1955
3 1191 654 1923
3 518 925 1413
3 23 1115 1886
3 521 435 1998
3 1172 609 1028
3 925 817 1823
3 1219 731 1656
3 913 466 1928
3 974 1109 1536
3 475 1577 1264
3 785 781 1262
3 566 1164 1854
3 673 657 1956
3 242 1545 1798
3 913 578 1907
3 783 1695 1200
3 1699 468 1943
3 1230 655 2016
3 1017 3 1522
3 390 1259 1634
3 1342 800 1893
3 887 662 1909
3 1115 23 1873
3 1021 1071 1461
3 532 925 1823
3 975 1201 1415
3 507 1675 1993
3 654 789 1904
3 938 675 665
3 1018 500 1935
3 566 1854 1689
3 1045 245 1152
3 41 788 1616
3 1044 825 889
3 1211 630 1471
3 309 904 1649
3 558 493 1237
3 915 427 1052
3 709 1357 1355
3 449 1348 1350
3 1351 425 1799
3 987 925 1428
3 1247 727 1682
3 534 799 1399
3 1488 785 1902
3 1040 389 1796
3 1176 418 1961
3 200 201 963
3 1056 804 841
3 597 1487 1529
3 1487 597 1918
3 429 1527 1919
3 1527 429 1611
3 1523 625 1769
3 646 450 1834
3 820 1699 1943
3 549 998 1280
3 950 389 1931
3 488 1517 1908
3 354 941 1379
3 1275 1025 1237
3 369 1288 1591
3 723 1370 952
3 812 871 1794
3 389 1040 1931
3 733 1362 1934
3 182 183 1902
3 461 1219 1656
3 1053 830 1711
3 779 481 1140
3 87 88 1904
3 19 1206 1375
3 1780 1064 1432
3 1600 748 1481
3 613 1283 1462
3 821 25 1759
3 1560 465 1888
3 536 1600 1481
3 484 950 1931
3 777 1754 775
3 1265 482 1544
3 100 101 1611
3 167 168 1918
3 169 170 1529
3 102 103 1919
3 196 972 1912
3 224 225 1897
3 1040 484 1931
3 1107 810 1640
3 509 1097 943
3 1043 1255 1286
3 1737 561 1721
3 1752 910 1988
3 1388 651 1491
3 251 1339 1393
3 607 1360 1231
3 275 274 1277
3 573 1208 1321
3 798 1467 1978
3 49 50 1058
3 565 1138 1694
3 1445 716 1515
3 369 1234 1288
3 89 90 1923
3 790 779 1140
3 699 1477 432
3 180 181 1262
3 644 888 1434
3 674 1541 2021
3 1199 1564 1464
3 234 235 1069
3 786 707 933
3 139 140 1743
3 239 240 1590
3 654 1532 1923
3 1124 1248 1440
3 1251 1253 1958
3 960 1256 1957
3 881 1246 1959
3 1754 798 775
3 196 197 1720
3 1408 333 1670
3 816 351 1556
3 970 642 1856
3 1150 1116 1589
3 668 1261 1962
3 420 1455 1345
3 505 838 1929
3 145 1164 1659
3 1717 1155 1466
3 1371 785 1262
3 799 764 1399
3 236 237 1661
3 921 383 1597
3 925 532 1428
3 4 142 1212
3 616 1103 1852
3 533 1479 1881
3 1181 396 1449
3 1207 1775 1282
3 487 1400 1123
3 993 194 1666
3 714 1053 1819
3 144 145 1659
3 512 894 940
3 409 1926 1218
3 1053 496 1819
3 1243 869 1305
3 1540 240 1504
3 859 1395 1531
3 790 1140 459
3 1164 652 1659
3 969 1603 1757
3 231 232 1446
3 221 222 1676
3 964 733 1934
3 1030 1122 1277
3 712 818 1630
3 139 1743 1429
3 605 948 1316
3 936 554 1423
3 946 293 1840
3 1110 685 1382
3 1665 214 1853
3 1548 899 1742
3 1341 1579 2019
3 26 426 1332
3 930 281 1123
3 1339 252 1844
3 473 1596 1320
3 908 826 1009
3 50 51 1403
3 1532 654 1904
3 993 808 1974
3 68 69 1668
3 352 1233 1894
3 407 1686 1195
3 526 956 1671
3 220 221 1815
3 571 1172 1028
3 1097 662 943
3 743 832 1969
3 747 411 679
3 337 653 1748
3 1029 885 1907
3 1716 392 2026
3 810 468 1640
3 122 1740 1490
3 527 802 1519
3 492 786 933
3 575 778 1280
3 749 1460 1673
3 614 1381 1776
3 833 1335 1768
3 348 866 1792
3 442 1717 1466
3 1496 985 1483
3 1329 540 1407
3 1227 483 1406
3 1047 498 1716
3 630 1891 1471
3 957 962 1438
3 857 417 1758
3 38 39 1837
3 404 836 1537
3 951 1004 1326
3 25 317 1759
3 1171 269 1085
3 1101 223 1334
3 704 1608 1438
3 785 1371 1902
3 1347 915 1052
3 1357 1349 1355
3 1348 966 1350
3 965 1351 1799
3 656 924 1842
3 1193 430 1997
3 481 779 905
3 1477 699 1366
3 1208 229 1321
3 1029 578 1913
3 981 577 591
3 313 314 1697
3 229 230 1321
3 657 949 1833
3 836 1142 1537
3 30 1130 1847
3 967 721 1828
3 968 1003 1829
3 779 753 905
3 305 1445 1515
3 866 954 1792
3 1596 659 982
3 1091 557 1874
3 1230 378 1102
3 595 1029 459
3 580 619 1827
3 542 932 1499
3 865 1741 1925
3 724 1523 1769
3 886 563 1929
3 232 1386 1446
3 909 972 1720
3 578 1029 1907
3 1637 272 1631
3 795 1596 982
3 703 897 1818
3 1472 396 1304
3 896 579 1069
3 1086 955 1553
3 1019 1034 1751
3 1288 887 1591
3 894 383 940
3 924 945 1965
3 548 1178 1365
3 734 712 1630
3 23 301 1873
3 763 1673 1687
3 515 1876 860
3 60 61 1842
3 1467 1062 1883
3 894 716 1520
3 1465 997 1853
3 59 60 1965
3 1640 643 1731
3 508 1578 1608
3 249 250 1778
3 43 44 1070
3 215 216 1693
3 1735 441 1482
3 1237 1025 1808
3 120 121 1184
3 728 1374 1868
3 65 66 1188
3 443 816 1556
3 681 1581 1598
3 1092 515 860
3 1153 900 1530
3 51 52 1422
3 972 1077 1912
3 911 865 1416
3 1578 978 1884
3 219 220 1483
3 1691 458 2006
3 973 774 1882
3 462 1272 1143
3 691 990 1649
3 717 1188 1454
3 1460 547 1673
3 939 1115 1450
3 1741 478 1925
3 546 1877 1715
3 746 1189 1849
3 496 1053 1711
3 142 1501 1212
3 961 1124 1390
3 1256 713 1841
3 285 284 1783
3 279 278 1702
3 334 1402 893
3 1024 1703 1161
3 1828 721 1613
3 968 1829 1439
3 984 1378 1876
3 1578 1239 1608
3 1546 754 1158
3 1281 1659 1632
3 1703 525 1161
3 214 215 1853
3 113 114 645
3 240 241 1504
3 1841 713 1442
3 961 1390 1447
3 1621 1016 1707
3 367 1009 1420
3 55 56 1704
3 796 1465 1693
3 257 258 2000
3 1643 572 1292
3 75 76 1882
3 596 1076 1309
3 688 1235 1660
3 682 1619 1725
3 1673 547 1687
3 954 864 1792
3 361 1115 1873
3 811 1023 1471
3 1679 434 1046
3 193 194 1974
3 39 40 1443
3 355 580 1827
3 1607 1073 1945
3 1395 304 1515
3 419 1243 1305
3 931 1027 1864
3 1787 1268 1793
3 1320 607 1682
3 716 1395 1515
3 256 257 1226
3 810 379 1900
3 347 797 1837
3 990 376 1983
3 1077 972 1664
3 853 886 1936
3 614 1169 1414
3 1273 360 1526
3 886 372 1936
3 1161 666 1744
3 1024 1161 1744
3 53 54 1669
3 203 204 1510
3 782 1273 1526
3 760 856 1743
3 1833 949 1890
3 1205 612 1431
3 1745 594 1963
3 670 1498 1437
3 897 127 1818
3 1727 339 1938
3 582 1329 2004
3 809 697 1182
3 458 1891 2006
3 690 1308 1151
3 109 110 1947
3 160 161 1948
3 17 289 1086
3 499 1060 1340
3 384 1643 1292
3 34 35 1718
3 156 157 1726
3 898 1514 1906
3 1668 1223 1915
3 818 1494 1708
3 76 77 1492
3 725 347 1443
3 700 848 1542
3 425 1351 1855
3 663 809 1182
3 1414 693 1985
3 833 846 1670
3 1646 451 1356
3 1514 898 1639
3 29 30 1847
3 522 1474 1987
3 999 981 591
3 951 1326 1574
3 653 586 971
3 778 549 1280
3 516 1098 1860
3 269 270 1085
3 1926 1156 1218
3 1137 1230 1800
3 1078 698 1436
3 655 1230 1102
3 481 1547 1972
3 523 1892 1441
3 183 1488 1902
3 1470 560 1986
3 789 87 1904
3 755 1026 1866
3 643 759 1993
3 1547 604 1972
3 955 888 1553
3 1077 993 1666
3 736 1370 1328
3 258 780 2000
3 847 100 1611
3 1493 167 1918
3 170 1495 1529
3 103 671 1919
3 410 739 1374
3 485 1193 1905
3 1060 511 1340
3 571 821 1759
3 1247 425 1855
3 391 1417 2015
3 1801 951 1589
3 1081 524 1448
3 277 276 1770
3 1510 563 886
3 42 43 1372
3 806 1081 1448
3 90 1191 1923
3 1877 546 1932
3 308 990 1983
3 435 1257 1229
3 557 861 1874
3 781 180 1262
3 349 1701 1563
3 804 1780 1432
3 1315 851 1696
3 861 719 1874
3 811 1735 1482
3 826 636 1009
3 468 810 1900
3 760 141 880
3 549 778 1653
3 974 901 1930
3 559 1607 1945
3 1701 872 1563
3 1511 419 1450
3 1386 991 1394
3 367 1330 1454
3 186 187 1444
3 1126 1084 2013
3 1514 383 1906
3 83 84 1956
3 850 650 1736
3 1076 647 1309
3 1098 644 1860
3 189 190 1955
3 613 1888 1954
3 80 81 889
3 287 286 914
3 96 97 1957
3 173 174 1440
3 106 107 1958
3 163 164 1959
3 1494 569 1708
3 93 94 1856
3 176 177 1962
3 1474 1010 1987
3 363 1215 1196
3 1521 394 1852
3 1059 857 1758
3 1861 438 2005
3 794 1620 1865
3 1275 482 1773
3 351 868 1556
3 949 1507 1893
3 941 354 1559
3 496 1711 1915
3 1183 819 1554
3 565 780 876
3 467 1575 1507
3 617 1266 1615
3 1746 71 2001
3 536 337 1600
3 1435 448 1963
3 1266 601 1615
3 1817 1317 1900
3 43 1070 1372
3 57 58 1002
3 1209 1227 1406
3 674 646 1541
3 1816 505 1497
3 479 373 1934
3 319 1176 1981
3 1198 672 678
3 1311 335 1284
3 1266 360 1763
3 45 46 1083
3 656 1315 1696
3 609 1066 1028
3 1197 1816 1497
3 330 27 805
3 116 947 1380
3 264 265 1745
3 1000 1050 1552
3 591 555 1141
3 1561 227 1774
3 1517 323 1989
3 349 948 1701
3 685 1007 1382
3 567 903 623
3 635 1595 1953
3 540 1525 1407
3 365 1135 1120
3 204 1082 1510
3 379 1817 1900
3 1456 398 1878
3 903 366 623
3 421 1717 1795
3 263 264 1478
3 1082 563 1510
3 928 704 1700
3 209 210 1104
3 1888 465 1954
3 741 1579 1341
3 791 560 1871
3 35 36 676
3 719 1525 1874
3 877 1508 1764
3 882 1252 1917
3 250 251 1393
3 1533 1039 1952
3 1308 1159 1151
3 1215 366 1196
3 588 1540 1784
3 1412 384 1292
3 963 1180 2024
3 1000 430 1932
3 200 963 2024
3 17 1086 1553
3 456 1000 1552
3 461 1656 1503
3 1187 1110 1990
3 448 1745 1963
3 1313 766 953
3 1501 1281 1518
3 711 1730 602
3 1557 419 1305
3 398 1456 1990
3 217 218 1762
3 383 894 1520
3 984 1876 1824
3 1925 478 1664
3 384 919 771
3 1351 283 1982
3 61 1315 1842
3 140 760 1743
3 1512 129 1690
3 727 1247 1855
3 1097 509 1733
3 1617 1310 1823
3 759 507 1993
3 1588 559 1571
3 290 17 1553
3 1024 1399 1889
3 194 195 1666
3 383 1514 940
3 501 1905 1997
3 1540 588 1590
3 407 1195 1764
3 526 1671 1917
3 995 490 1801
3 1755 1391 1721
3 782 1128 1946
3 169 1487 2027
3 1487 168 2027
3 102 1527 2028
3 1527 101 2028
3 947 529 1380
3 555 664 1776
3 1744 534 1399
3 644 1098 1383
3 1066 609 1895
3 1024 1744 1399
3 444 1723 1991
3 1718 35 676
3 645 936 1423
3 458 1735 1891
3 618 1093 1749
3 1204 840 1544
3 1530 900 1961
3 1128 735 1946
3 999 591 1141
3 1564 239 1590
3 1620 762 1865
3 124 125 1222
3 1156 760 880
3 129 130 1690
3 1214 1647 1096
3 1796 389 1270
3 588 1564 1590
3 63 983 1921
3 584 1417 1519
3 619 580 1102
3 797 347 2009
3 149 1602 1791
3 627 986 1580
3 562 821 1861
3 1642 494 1595
3 295 294 1789
3 659 822 982
3 861 557 1133
3 522 1045 1944
3 366 1654 1196
3 823 346 1779
3 1074 823 1779
3 1491 651 2005
3 1073 1607 1565
3 1015 477 1865
3 1075 828 1551
3 1575 1342 1507
3 868 443 1556
3 294 1582 1789
3 24 1075 1551
3 195 196 1912
3 1052 961 1258
3 721 1350 1354
3 713 1355 1939
3 1799 968 1359
3 1346 861 1133
3 848 1238 1542
3 1602 519 1791
3 604 1298 1688
3 1905 1193 1997
3 828 706 1551
3 455 631 1458
3 89 1532 2022
3 445 1108 1437
3 1564 588 1464
3 379 1055 738
3 2002 703 2017
3 264 1745 1478
3 1371 181 1869
3 374 1533 1952
3 1457 813 1706
3 1116 1801 1589
3 1501 867 1212
3 517 1810 1734
3 1300 702 1174
3 1116 995 1801
3 1633 634 1306
3 1282 697 1221
3 1525 336 1407
3 1273 782 1946
3 914 752 1968
3 755 1866 1908
3 304 305 1515
3 743 413 1436
3 711 602 883
3 948 869 1701
3 824 541 893
3 815 1773 1344
3 1723 1035 1991
3 1033 1562 1971
3 346 823 1038
3 1190 1770 370
3 241 242 1798
3 1007 603 1382
3 1532 88 2022
3 1121 647 2011
3 361 1388 1491
3 761 1718 676
3 897 703 2002
3 730 1862 1096
3 1743 1285 1429
3 869 948 1305
3 836 404 1632
3 1020 1588 1571
3 532 803 1933
3 1629 600 1419
3 864 1243 1147
3 1785 726 1641
3 98 99 1566
3 171 172 875
3 165 166 873
3 104 105 878
3 1826 631 1364
3 91 92 1680
3 1054 892 1535
3 178 179 1118
3 182 1371 1869
3 1810 373 1734
3 1048 773 1709
3 1787 545 1500
3 1541 1324 2021
3 918 568 1887
3 471 1505 1994
3 1783 1114 1980
3 1702 757 1979
3 920 694 1157
3 931 405 1937
3 660 920 422
3 1704 56 2008
3 797 1084 1509
3 814 1125 1964
3 1609 628 1539
3 1111 1300 1174
3 997 1665 1853
3 55 1704 1648
3 1024 1889 1942
3 272 1348 1631
3 762 1015 1865
3 85 86 1652
3 803 695 1933
3 823 584 1038
3 333 1279 1670
3 590 1555 1014
3 1070 1008 1372
3 1255 495 1286
3 363 1196 1820
3 1377 1457 1737
3 1268 1787 1500
3 46 1106 1083
3 184 185 1175
3 723 914 1968
3 383 921 1906
3 1911 474 1484
3 1623 801 1323
3 1618 362 1558
3 131 132 1794
3 1548 503 1966
3 658 1629 1419
3 301 300 1977
3 810 1107 2026
3 986 514 1580
3 47 48 1826
3 1507 1342 1893
3 1050 1540 1504
3 1735 811 1891
3 759 1911 1484
3 953 766 2019
3 423 1072 1538
3 599 1633 1306
3 1560 423 1538
3 1067 361 1491
3 1708 674 2021
3 528 1386 1394
3 994 832 1539
3 227 228 1774
3 1669 54 1648
3 774 1739 1882
3 1770 1109 370
3 1346 1133 1870
3 151 152 1838
3 768 1233 1587
3 729 1217 1928
3 53 1669 1999
3 857 1059 1364
3 245 246 1152
3 1201 975 1469
3 297 296 1221
3 1315 62 1921
3 1266 617 1975
3 1055 379 1811
3 594 1745 1996
3 807 1384 2023
3 617 1567 1975
3 1144 26 1332
3 1631 1348 1318
3 470 1205 1431
3 1133 1034 1870
3 396 1786 1449
3 555 1381 1141
3 546 1000 1932
3 1575 467 1536
3 1657 388 1724
3 1002 58 1427
3 423 1560 1888
3 468 1699 1640
3 346 1560 1538
3 541 1121 2011
3 1171 1065 1692
3 137 138 1568
3 252 253 1844
3 1396 1549 1952
3 1015 762 1922
3 303 1727 1938
3 1301 154 1635
3 462 1143 1014
3 718 1783 1980
3 667 1702 1979
3 1311 406 971
3 146 147 1854
3 1388 361 1873
3 134 135 1245
3 1711 830 1420
3 406 1171 2025
3 1079 844 1927
3 1457 561 1737
3 307 308 1983
3 1045 1152 1944
3 217 1762 1186
3 1072 1074 1779
3 1717 442 1795
3 720 855 1831
3 740 1154 1528
3 1650 340 1803
3 1386 528 1446
3 1691 992 1719
3 851 1315 1921
3 999 1637 1631
3 57 1002 2008
3 302 23 1886
3 1745 265 1996
3 688 1660 1499
3 1154 658 1528
3 205 206 1681
3 1178 701 1120
3 785 1679 1046
3 855 1131 1899
3 254 255 1672
3 653 1130 1748
3 600 1629 1867
3 948 349 1316
3 706 331 1551
3 631 455 1364
3 1629 212 1867
3 1659 652 1632
3 234 1069 1087
3 455 857 1364
3 1272 654 1143
3 1046 434 1535
3 1053 714 1127
3 555 591 1638
3 1401 1216 1809
3 693 1169 1677
3 1762 218 1967
3 1660 542 1499
3 600 1665 1825
3 490 995 952
3 1095 1301 1635
3 539 1274 1914
3 631 1058 1458
3 1786 746 1449
3 591 577 1638
3 1784 546 1715
3 601 1299 1615
3 1201 399 1303
3 452 1605 1486
3 339 739 1938
3 1106 722 1083
3 1704 1006 1648
3 773 1048 1992
3 1088 626 1468
3 710 874 1685
3 1070 1295 1880
3 926 866 1895
3 1718 761 1291
3 1302 1704 2008
3 574 1736 1674
3 1885 1327 1157
3 1798 1545 1552
3 366 897 2002
3 115 116 1380
3 947 777 1418
3 1667 254 1672
3 1745 448 1478
3 360 1266 1975
3 20 303 1938
3 750 1577 1626
3 1612 38 1837
3 247 248 738
3 842 1805 976
3 1805 478 976
3 318 319 1981
3 1347 1052 1258
3 1350 966 1354
3 1355 1349 1939
3 965 1799 1359
3 956 429 1671
3 1686 597 1195
3 1396 1226 1549
3 294 19 1375
3 1838 152 2018
3 1573 530 1868
3 558 1237 1808
3 323 324 1989
3 1577 475 1626
3 1665 997 1825
3 1125 1614 1964
3 1180 963 1881
3 1857 489 1898
3 213 1665 1867
3 1647 261 1624
3 1022 719 1793
3 1545 456 1552
3 412 1022 1793
3 1740 358 1490
3 766 1341 2019
3 1051 798 1754
3 1619 682 1416
3 1339 1844 1453
3 1315 656 1842
3 40 41 1616
3 18 291 403
3 1031 423 1462
3 1831 439 2016
3 1577 750 2001
3 395 841 1296
3 694 1885 1157
3 1549 374 1952
3 439 855 1899
3 1381 555 1776
3 1060 790 1913
3 694 1512 1690
3 1534 592 1765
3 743 1609 1539
3 855 439 1831
3 1081 806 1486
3 561 1457 1706
3 610 413 1969
3 867 1501 1518
3 315 316 1922
3 929 633 1506
3 250 1393 1778
3 765 1667 1850
3 413 827 1436
3 1330 724 1229
3 6 182 1869
3 1352 666 1242
3 1388 301 1977
3 525 1703 1480
3 216 217 1186
3 1703 1005 1480
3 1264 73 1836
3 228 1208 1774
3 1055 247 738
3 331 24 1551
3 1213 870 1475
3 188 189 1574
3 1771 438 1861
3 98 1566 1950
3 875 172 1254
3 165 873 1249
3 878 105 1951
3 504 1636 432
3 814 1857 1898
3 839 457 1397
3 909 1619 1416
3 310 311 1331
3 1680 92 1663
3 81 82 1890
3 748 1718 1291
3 178 1118 1260
3 714 1819 1148
3 565 1694 1158
3 88 1 2022
3 1665 600 1867
3 1667 1039 1850
3 841 1094 1296
3 1736 415 1674
3 85 1652 1973
3 980 1264 1836
3 1381 784 1141
3 58 59 1427
3 62 63 1921
3 1175 185 632
3 1084 1126 1509
3 1155 1717 1820
3 233 234 1087
3 1717 1271 1820
3 107 108 1613
3 162 163 1439
3 94 95 1442
3 175 176 1447
3 441 1694 1482
3 1623 505 1929
3 568 1163 1887
3 1612 797 1992
3 864 1147 1792
3 1582 1099 1789
3 500 1031 1462
3 830 1100 1420
3 1058 50 1403
3 1481 748 1291
3 1205 470 2012
3 486 920 1157
3 1855 1351 1982
3 1206 616 1375
3 510 688 1499
3 677 1625 1809
3 706 558 1808
3 1625 651 1809
3 797 1612 1837
3 221 1676 1815
3 641 1785 1641
3 1606 656 1696
3 503 1642 1966
3 1178 544 1365
3 261 262 1624
3 212 213 1867
3 148 149 1791
3 1570 593 1984
3 199 200 2024
3 101 2 2028
3 168 5 2027
3 5 169 2027
3 2 102 2028
3 1005 1523 1970
3 369 788 1901
3 1523 724 1970
3 1147 348 1792
3 431 1606 1696
3 127 128 1818
3 73 74 1836
3 342 1646 1356
3 532 1933 1428
3 371 1651 1474
3 438 1067 1491
3 1017 850 2017
3 1573 339 1727
3 1877 450 1715
3 1242 391 2015
3 1039 1667 1672
3 417 1312 1879
3 152 153 2018
3 629 1705 1875
3 1 89 2022
3 636 1668 1915
3 154 155 1635
3 164 165 1249
3 172 173 1254
3 97 98 1950
3 105 106 1951
3 135 994 1245
3 92 93 1663
3 177 178 1260
3 431 1205 2012
3 181 6 1869
3 1741 793 976
3 1477 1113 432
3 962 704 1438
3 823 1074 2015
3 1646 342 1803
3 1568 138 1429
3 1169 476 1677
3 636 1711 1420
3 84 85 1973
3 138 139 1429
3 185 186 632
3 1393 1012 1778
3 265 266 1996
3 693 1588 1985
3 460 1189 1786
3 920 486 422
3 133 134 1269
3 134 1245 1269
3 259 260 1287
3 137 1568 2003
3 56 57 2008
3 301 1388 1873
3 52 53 1999
3 223 224 1334
3 686 1766 1270
3 413 743 1969
3 1139 1091 1753
3 690 824 1200
3 1023 16 1471
3 1614 677 1964
3 54 55 1648
3 218 219 1967
3 1766 844 1270
3 1642 635 1966
3 1426 538 1972
3 141 4 880
3 339 1573 1868
3 1699 643 1640
3 473 1320 1682
3 580 655 1102
3 516 1481 1291
3 1189 746 1786
3 437 1449 1858
3 1933 385 1428
3 1223 1746 1859
3 527 1628 1397
3 1091 540 1753
3 1746 750 1859
3 739 20 1938
3 1705 820 1875
3 136 137 2003
3 788 1372 1901
3 647 1076 2011
3 132 812 1794
3 1027 904 1331
3 824 783 1200
3 1730 817 602
3 635 1642 1595
3 343 1058 1403
3 1279 833 1670
3 365 942 1719
3 1034 767 1751
3 658 1605 1528
3 638 645 1423
3 1393 1339 1569
3 466 1732 1928
3 927 506 1749
3 730 1647 1624
3 691 931 1937
3 1293 1145 1434
3 1194 1604 922
3 1113 504 432
3 366 1215 623
3 1524 1276 1683
3 1760 937 1804
3 497 1524 1683
3 856 1153 1530
3 1339 629 1569
3 824 690 1151
3 780 754 2000
3 497 1766 1524
3 650 1580 1236
3 1588 1020 1871
3 767 813 1751
3 1224 537 1878
3 1766 686 1524
3 1023 929 1506
3 1817 379 738
3 1296 1094 1733
3 997 1593 1825
3 793 1294 976
3 651 1388 1977
3 980 1739 1411
3 643 1675 1731
3 665 675 1848
3 1633 928 1700
3 1449 746 1858
3 1016 1621 1369
3 904 310 1331
3 502 1814 1526
3 316 1015 1922
3 959 768 1068
3 1290 727 1982
3 1312 1146 1879
3 529 947 1418
3 981 999 1318
3 1593 524 1825
3 629 1339 1453
3 563 1623 1929
3 1643 891 1353
3 483 959 1406
3 1603 378 1757
3 1283 500 1462
3 910 1013 1988
3 728 1676 1832
3 792 1643 1353
3 904 691 1649
3 1395 716 1531
3 1675 480 1731
3 475 1628 1626
3 1300 1111 1513
3 1739 774 1411
3 934 700 1542
3 963 606 1881
3 1580 514 1236
3 1557 939 1450
3 398 1224 1878
3 872 1701 1572
3 895 1144 1332
3 751 1313 953
3 702 1846 1174
3 1676 728 1815
3 676 1048 1709
3 545 1622 1513
3 1081 658 1419
3 822 1726 982
3 943 887 1288
3 602 518 883
3 637 1760 1804
3 1013 494 1988
3 1489 333 1761
3 561 1755 1721
3 1026 871 1866
3 594 1777 1963
3 130 1885 1690
3 726 1583 1641
3 449 981 1318
3 1768 409 1218
3 596 1633 1700
3 1858 746 1849
3 651 1625 2005
3 1415 1201 1303
3 628 994 1539
3 939 1358 1886
3 805 758 1899
3 409 1153 1926
3 817 1617 1823
3 430 906 1932
3 1782 751 1813
3 1384 353 2023
3 1846 807 1174
3 1374 728 1832
3 652 836 1632
3 1358 302 1886
3 547 1730 1687
3 660 1782 1813
3 1736 650 1236
3 1145 644 1434
3 1816 1197 1430
3 619 1795 1827
3 682 911 1416
3 1834 450 1877
3 1505 1478 1994
3 1456 1187 1990
3 543 1691 2006
3 1012 1875 1943
3 518 1636 883
3 74 1739 1836
3 288 1023 1506
3 358 959 1068
3 426 1863 1332
3 774 1385 1411
3 1413 987 1543
3 762 1821 1922
3 1385 491 1411
3 994 628 1245
3 871 1026 1322
3 1701 869 1572
3 1058 343 1458
3 541 824 1151
3 1361 1858 1849
3 1101 410 1832
3 818 1708 2021
3 684 1325 1344
3 1739 980 1836
3 474 1710 1484
3 1415 608 1822
3 799 1033 1584
3 1314 799 1584
3 1131 805 1899
3 809 297 1221
3 495 1378 1286
3 1795 442 1827
3 485 1345 1839
3 1654 1155 1196
3 1048 1612 1992
3 1730 711 1687
3 1378 984 1286
3 1153 856 1926
3 726 1785 2012
3 1679 736 1328
3 1333 687 1747
3 1059 1826 1364
3 1676 1101 1832
3 849 1413 1543
3 1835 365 1719
3 742 1834 1877
3 1604 554 922
3 1773 815 2020
3 1005 1100 1480
3 1738 819 1433
3 1378 689 1876
3 1100 830 1480
3 362 1319 1558
3 440 1916 1463
3 419 1557 1450
3 494 1642 1988
3 797 1509 1992
3 697 809 1221
3 1174 807 2023
3 1139 1755 1706
3 1319 1142 1558
3 901 1272 1930
3 1211 1099 1872
3 1755 561 1706
3 1875 820 1943
3 560 1414 1985
3 1050 1798 1552
3 1738 988 1554
3 819 1738 1554
3 1345 1455 1839
3 1219 461 2020
3 1699 820 1911
3 387 1238 1627
3 1848 357 1476
3 1654 366 2002
3 1710 737 1484
3 1226 754 1549
3 1367 1843 1937
3 459 1029 1913
3 766 1698 1341
3 1606 431 1785
3 1156 846 1218
3 1562 770 1971
3 1916 969 1463
3 1675 643 1993
3 1636 699 432
3 870 1816 1430
3 1777 472 1963
3 1330 717 1454
3 1084 797 2009
3 1089 1092 860
3 1259 390 1995
3 975 1415 1822
3 876 259 1287
3 1707 1016 1954
3 992 1835 1719
3 1740 1209 1406
3 1597 383 1520
3 465 1707 1954
3 745 1049 2014
3 1170 1105 1179
3 358 1740 1406
3 1142 836 1558
3 1711 636 1915
3 656 1606 1960
3 1049 659 2014
3 434 1679 1328
3 1876 689 860
3 1008 1070 1880
3 1094 841 1432
3 1843 691 1937
3 1272 462 1930
3 1806 533 1881
3 550 1225 1880
3 606 1806 1881
3 1570 729 1772
3 409 1768 1863
3 1703 1024 1942
3 626 956 1468
3 874 1686 1685
3 846 833 1218
3 917 1573 1727
3 478 1741 976
3 1238 387 1542
3 630 1211 1872
3 367 1100 1970
3 641 1606 1785
3 956 526 1468
3 1686 407 1685
3 352 1601 1920
3 1325 641 1210
3 346 1038 1728
3 1726 795 982
3 1601 453 1920
3 1057 1333 1747
3 1785 431 2012
3 1417 756 1519
3 729 1732 1772
3 1399 764 1889
3 1214 876 1287
3 1647 730 1096
3 815 1325 1210
3 1728 937 1945
3 1732 729 1928
3 524 1593 1747
3 248 1817 738
3 1267 355 1674
3 1971 680 1584
3 1033 1971 1584
3 841 804 1432
3 1152 979 1944
3 1478 448 1994
3 1035 1379 1634
3 1032 1797 1976
3 1180 1725 2024
3 1797 1368 1976
3 1725 199 2024
3 754 1226 2000
3 1579 514 2019
3 1068 768 1941
3 831 1259 1995
3 850 615 2017
3 1099 1211 1789
3 814 1898 1953
3 1326 188 1574
3 1073 1728 1945
3 1038 937 1728
3 1714 440 1463
3 1863 895 1332
3 792 1415 1303
3 750 1746 2001
3 1814 782 1526
3 108 1828 1613
3 1829 162 1439
3 1133 557 767
3 1372 1008 1901
3 1170 1132 403
3 827 1078 1436
3 1012 1393 1569
3 82 1833 1890
3 765 1781 1453
3 1294 842 976
3 1009 636 1420
3 1226 257 2000
3 266 1724 1996
3 415 1267 1674
3 1036 1714 1463
3 1593 1057 1747
3 1924 792 1303
3 1211 295 1789
3 399 1924 1303
3 1781 629 1453
3 515 1620 1824
3 1724 594 1996
3 1196 1155 1820
3 680 1756 1584
3 1026 486 1322
3 1225 1008 1880
3 1077 1666 1912
3 1756 1314 1584
3 4 846 880
3 1387 1194 922
3 1593 997 1441
3 95 1841 1442
3 1390 175 1447
3 892 1046 1535
3 1571 517 1734
3 1379 390 1634
3 1143 590 1014
3 979 1812 1944
3 1401 651 1977
3 1671 882 1917
3 1195 877 1764
3 1872 543 2006
3 1798 1050 1504
3 999 1631 1318
3 448 1435 1994
3 1034 1133 767
3 1819 1278 1148
3 719 1787 1793
3 1537 1142 1683
3 1812 522 1944
3 1324 1630 2021
3 846 1156 880
3 1844 765 1453
3 1276 1537 1683
3 1630 818 2021
3 1290 282 2007
3 1020 1571 1734
3 959 358 1406
3 606 1425 1936
3 1425 853 1936
3 560 1985 1871
3 1147 1042 1655
3 1136 1316 1550
3 634 1309 1903
3 729 1570 1984
3 661 1068 1941
3 1238 1089 1627
3 1387 529 1418
3 348 1147 1655
3 689 1851 860
3 336 1240 2004
3 773 1179 1709
3 1240 582 2004
3 1583 400 1641
3 1132 18 403
3 1435 471 1994
3 1875 1012 1569
3 551 1084 2009
3 438 1491 2005
3 1821 315 1922
3 833 1768 1218
3 1666 195 1912
3 1891 630 2006
3 651 1401 1809
3 588 1784 1715
3 1851 1089 860
3 300 1401 1977
3 790 459 1913
3 1892 1136 1550
3 1805 1077 1664
3 1309 647 1903
3 1933 695 1476
3 1830 613 1954
3 1889 469 1942
3 478 1805 1664
3 349 1563 1333
3 1325 815 1344
3 1089 1851 1452
3 806 1448 1410
3 410 1374 1832
3 430 1767 1997
3 97 1950 1957
3 1254 173 1440
3 164 1249 1959
3 1951 106 1958
3 1663 93 1856
3 177 1260 1962
3 1851 338 1452
3 1105 761 1179
3 1516 975 1822
3 625 1998 1769
3 1998 435 1769
3 385 1933 1476
3 1563 687 1333
3 1956 84 1973
3 1376 1516 1822
3 1872 1099 1576
3 415 1736 1236
3 1217 729 1984
3 224 1897 1334
3 186 1444 632
3 1892 523 1790
3 1100 1005 1970
3 511 1217 1984
3 241 1798 1504
3 1985 1588 1871
3 1448 687 1410
3 655 1831 2016
3 604 1426 1972
3 969 1916 1678
3 727 1855 1982
3 629 1875 1569
3 1616 725 1443
3 1057 1892 1550
3 216 1186 1693
3 1105 516 1291
3 1157 1327 1322
3 1316 349 1550
3 1427 59 1965
3 1949 726 2012
3 1308 690 2007
3 687 1448 1747
3 1916 852 1678
3 1136 1892 1790
3 418 1530 1961
3 40 1616 1443
3 529 1387 922
3 761 1105 1291
3 761 676 1709
3 1210 641 1641
3 1509 773 1992
3 1407 336 2004
3 1866 488 1908
3 400 1210 1641
3 1171 1085 2025
3 435 1229 1769
3 1229 724 1769
3 1876 515 1824
3 1085 1149 2025
3 346 1538 1779
3 1950 960 1957
3 1248 1254 1440
3 1249 881 1959
3 1253 1951 1958
3 1186 796 1693
3 642 1663 1856
3 1260 668 1962
3 673 1956 1973
3 1538 1072 1779
3 1444 1297 632
3 543 1872 1576
3 1016 1830 1954
3 630 1872 2006
3 1333 1057 1550
3 514 953 2019
3 1897 902 1334
3 945 1427 1965
3 620 1387 1418
3 349 1333 1550
3 1500 545 1513
3 1422 52 1999
3 1898 635 1953
3 1991 1035 1634
3 1329 1407 2004
3 1111 1174 2023
3 958 1991 1634
3 486 1157 1322
3 1089 1452 1627
3 1885 694 1690
3 1111 1500 1513
3 1448 524 1747
3 745 2014 1807
3 1452 884 1627
3 470 1949 2012
3 1289 1422 1999
3 1967 219 1483
3 2014 1037 1807
3 1179 761 1709
3 985 1967 1483
CELL_DATA 3734
SCALARS Von_Mises float 1
LOOKUP_TABLE default
47956545.11185887 38450156.63034956 44298416.61215859 43390217.28005409 47984802.94665077 64061049.62143609 37938647.21414415 3559514.927567171 49725737.880417 54973039.17497277 124730739.43154684 39540098.26132967 48390957.990206115 36275182.73102701 54688301.17574901 53856544.18208685 37213565.56128046 58057756.4220951 44908916.02539959 38252503.34277057 32977316.879897654 44399995.07580692 47295741.1067124 77650166.40286109 33423322.54361421 47258484.641331084 46953872.61510453 38680272.37868122 43671286.349569276 38129321.169518545 36797786.3197981 53513993.320822455 57513450.14330715 54072497.24276866 5664725.44838551 48788921.4289364 37604562.57043103 44798091.36476178 6840699.559421555 49254005.56643933 48549780.35699508 48335871.844161615 46098419.501520716 44388418.75549975 22891323.137902256 38029401.57287771 20220231.312259387 9285262.987755684 16196371.164796917 14682472.783125171 44465660.88574738 50928212.008655645 43664116.31042825 27214109.52910933 41166618.757183574 35822462.51924357 50468092.59527249 39574072.222562544 47680855.199708715 47976168.99865383 49156295.410819925 32227380.513592765 32169639.595899265 61412841.82849415 27914405.06122787 38384738.05780916 43593373.26124224 51150579.42750403 34156080.52384969 48975061.57666026 48392664.2860708 31404019.272492923 47215353.83508009 42006338.75645498 50212936.08452656 61176049.1132449 44983727.56789057 17816861.682542287 55509962.68639713 54941834.51056439 75384140.85398468 38732872.94970365 10457728.130950037 40805050.610627234 38523513.40545433 47682029.84173395 55747781.85742622 35051582.81424568 48829538.12262682 49797746.559867814 49113255.66459979 42176966.62015267 46271742.07849088 61278669.47635217 48057423.86759028 46234575.28420795 28777242.45293056 53244337.08073672 48004865.72382448 30915466.005409226 44825105.25374071 24008429.018079717 33547738.7133798 47052698.24203758 48854590.468136154 7272680.724245874 44795690.29031403 7766948.117427099 35329375.89262905 31410863.523084644 85271897.90471259 45500321.97764155 46233427.358162194 36337402.54911391 1980010.8932633172 47419449.535917714 47232419.525703125 20983884.801526822 47511316.3020829 55819657.90871884 50258081.67195097 37658187.119213864 24173967.543928776 48445245.54328876 46579665.55346822 54857801.95681241 29360081.3223672 15974960.747294929 33940449.11989981 48391317.13956465 12648953.950961305 38249692.598276384 48843790.01118608 34051088.711544156 48458230.44230591 47823224.533904225 22610881.677832548 16332362.094118603 89443542.13587731 48609533.39817272 30880256.49090171 39099166.12629918 37973806.47131867 47073706.4913775 46217940.60240743 4225098.732290061 50447663.3567942 41019273.0492701 45604656.63267046 15558867.191928733 45933337.09188769 47819432.51971156 53315394.308841124 12964375.295556488 24281293.30159097 28884603.575625736 47873161.46846433 28783722.989882234 45059536.78696034 48323262.35865024 50419778.20471163 47087632.60592802 9907632.07816452 21674198.18756914 51285892.44239789 51351187.68917944 48329269.378236696 61366797.09139779 48754622.32326147 46841651.965017736 32013086.445229806 40775066.03560973 103924986.38793023 52540521.275724895 51358023.83279898 41942276.38823501 45010953.618252836 44279791.71464955 12231790.874326568 45589237.88868382 42582727.38969225 6366619.996069461 49371974.54436098 40728473.05719876 47486909.649932235 48728826.14128274 27209707.595315777 55354140.50295378 48161676.06753198 48533934.11399212 55647119.75610628 49883318.90775745 29822739.590171658 48315550.44426194 56210953.2512141 41682273.02407399 47895129.341324195 47943778.70127314 65904577.25959551 51013149.09737114 62190208.532661125 38208343.00881056 34624579.46618956 39810528.25831623 35289170.536450595 55174838.62762837 25533897.51034883 27273468.707979534 54423444.52716941 53884379.02079359 51416724.318000756 62204671.23916364 48024630.51957563 49046445.78790508 16173645.517732015 2421322.604056353 35573969.73892614 28817772.77260173 24833889.897404313 22116103.048951555 49401564.05201698 49944957.47389165 26621535.679278784 40473067.84231412 39154272.673437096 18176348.74955241 49340177.69765101 41329967.58915398 50947828.39293245 46628948.939034045 31553703.526681576 35057198.94696197 40976400.86982474 26622742.891335007 60688033.24969874 46632344.004854664 241833228.01083025 53953554.29296196 45577405.382162854 47019936.41194761 31836769.82925575 13588346.500237882 31811106.39440437 50268165.32371931 37293122.96689089 12398609.272487814 49048646.09429386 49516728.358138084 41706385.64707886 77608106.50902653 67034427.64554754 45871816.07376261 13987698.886555718 88933391.90385725 49324615.21089639 14067166.167873843 16214278.56580765 49250956.027272485 48905208.071603835 53964139.68346314 49735427.67521015 2150395.2338810614 89911224.60430522 49468197.02007071 38490091.25996269 49892842.89773232 23793375.300592188 12193533.759413006 70794083.29679844 48674371.320767194 50350447.91864108 53791395.58310376 29701545.9137262 40265129.73230908 38188725.58633392 50739831.18043193 48557592.46440745 39737696.36400053 69019856.47437291 5591230.899675173 56714555.24544622 33901692.515964605 57808971.89864026 29213448.410197448 44533561.58688537 51402982.2733234 2184931.020498965 55809502.71846787 33088655.67277092 38604175.53762616 24925985.132775564 23928518.69976846 49370546.91889646 49244639.76011754 53462293.390690036 14944339.938750055 76714796.08779657 49111637.30409341 10812919.851664348 45127571.02202758 56026019.46269257 46889593.05291764 26340397.6521028 35588648.697969206 46560440.0796852 41272897.19452508 52545883.52022239 39966930.98846065 120269804.95700468 56012145.87241348 10994775.861840544 45420993.334764175 52352968.921915546 10972430.497780358 23565485.301739268 49479585.90733323 49243606.95196421 45608510.796392605 49059393.02772932 48164405.30993434 45448474.74234034 17055216.438469555 49794880.99155193 34722940.17729569 32114598.44760055 44364687.74692341 46981999.2517082 16594090.182605907 16626552.963153027 10575085.78012056 11031201.09809562 27969029.204524487 37893051.76098516 54708443.19791485 51405824.73703008 35018138.030288234 44721532.47850076 51834007.22484903 9391176.552324295 61302625.4989738 28736073.67154352 44581836.83483039 50100184.388099104 60305983.44900422 40768202.59583371 57439969.588039696 16567870.25637031 34426599.69475067 122255348.0334999 16522539.983969515 41554148.83395627 38849599.478654794 41502951.179499 52859870.46186745 46578694.50286245 31575590.11553502 52369803.86682693 50329406.799710065 42036419.00485895 30270762.099925324 52402742.08989186 26847912.13251834 30875016.746738207 48609971.15025046 63903727.77583721 37084898.716324314 52917766.28998293 4313066.595492831 41874751.37211092 10970193.723985387 9146361.837139497 48759580.198719084 46162173.402323395 2663772.931747759 15341097.16753201 24868486.923430428 13147454.315910153 12459862.087054163 14507455.2365458 15244851.794153947 41730659.102451056 28462224.400800973 63383513.26741803 47931409.95517358 15715415.037151396 28590802.090148594 15771504.681740155 23417113.087328237 13107742.335721944 20616531.086378396 56844490.20289773 41623902.30800647 51720556.654554404 13093733.260271607 47140276.472065076 9040644.547341565 22707717.38176535 29806386.871021938 38860915.61865726 49390081.60384531 49740121.51174192 42331706.13141962 47861304.78598556 48532364.29269959 48889523.374576814 53521201.72566655 68917841.10887669 15501217.757070152 20991429.3296261 48642737.51750255 21898072.544061136 48388721.1362414 47603661.36652834 54548331.53258574 10829618.786387606 49899917.30183668 41693009.55478434 11064509.29213389 45592324.53756888 16600934.285843946 16600934.285843946 45649372.36142094 65617482.58504621 46664641.30835931 54000503.40952494 50190943.74794801 58377912.358182065 48924179.07725551 33442347.256020185 22435190.15647727 46082718.70490909 5148923.152560777 37057732.82459451 5524726.981613266 52070803.268560864 64861066.13319661 78470816.49149816 48071529.37208555 49415909.77282022 48077318.960725226 24901831.666421585 42757601.492367655 50062661.94246907 49487305.04823825 63684609.930248864 20958170.375083048 49156340.04466587 58803431.89401202 27111792.544436045 12601907.35612004 39935177.04668076 49614425.12311687 31482141.413813565 37320069.52910924 51922383.492292136 38561644.68646388 49987725.078231595 90241735.85840558 49746426.524735235 64396033.5773933 45736103.32512349 47392088.14824708 48636756.05580387 26303304.81202828 13019710.098889865 39990487.99312362 48112998.36427333 83447210.96361755 46873875.43570804 45475235.12712302 40818010.05301236 49343804.97623071 58300408.5789764 45548225.20125438 39184533.65316037 24393884.48299932 25407336.165343296 45664893.32893573 55806910.69785876 48111507.82905077 46780303.438142136 16718759.037034608 7186511.06054043 48088241.58078918 44519270.21941765 49390571.61322859 45747196.2771165 23657937.732257254 49009645.116976544 25977362.510207277 50709152.0628995 48945488.90040787 40887373.23757508 33349338.140274614 51382658.452247 37371925.40297002 14907345.825086841 52632627.15182434 49090032.07016481 42274968.54146005 32261908.43335132 36513016.53005022 47422867.36091367 43869102.17500336 48847920.55300327 35032294.2674988 35521407.83489725 19125516.950902734 33070681.228810027 35150978.73819717 10234054.815446105 32162285.03018371 31913494.003958076 68307989.06417741 3587745.688651329 35788439.568857744 23491102.287033696 48013605.811734445 21884529.581128962 16981398.28835145 36516732.358661406 49796686.62905645 9330893.586448932 44395058.074770086 40236900.713462755 54284156.631758384 48120631.41139588 14415998.59239498 48404275.79264064 48731585.22347617 23828586.974880278 24010220.524424493 17095851.349598233 16821008.05982307 55938669.29639339 48948689.8385822 32983748.852673657 23316175.797743913 35177829.35512808 23249391.654852036 13958542.789250672 554762.3748340802 29011163.181164693 2095132.4055019536 41192464.27679843 4589672.14000359 46484927.13657609 3767889.7887339615 33099704.119618002 37915054.9353333 10392660.737106238 54007727.9962136 50647891.61094542 45823985.90798981 63937815.91963941 50537744.56510821 81873013.29330707 18603572.387526367 25038927.76492756 52302604.25219235 33324515.833182625 2849573.7217537956 15557366.918672247 48043458.50503297 10296716.633892203 10217675.123756811 34838696.05013292 15161167.680535499 47669605.32909806 56998569.38674373 17774830.642362166 38899963.33329048 34518341.21487354 21953240.469859164 27869872.891945593 41158710.60919009 58689709.142660394 87374137.68745732 44034405.646016285 40949412.97913265 54730873.41501878 62717306.4097861 13562304.715897433 41536246.34893665 22061559.937116537 46623425.444720656 48767040.10092992 20301589.749920625 45637535.07297092 49882255.800437845 48043032.02541922 44865840.171514966 47315950.08023264 45981447.97558884 47976481.282156006 91180583.3787072 33298169.43837842 58310899.20196873 16040172.455028804 1943625.3814753243 30205498.885713063 47371287.5182127 33587440.872841716 15256077.381570319 49401677.34707585 20593424.5429837 8572854.978821985 35032025.39315679 93417358.99408177 46512346.46259698 63409630.09422259 45677306.14984883 39307585.87098021 1027867.7605860136 48016073.14276552 47762591.87859754 44210887.345256135 38398745.011859834 50059769.315066814 16833658.853709463 9376611.382833503 34785361.01421646 55591766.65959168 66482453.846424595 17712233.17892454 49439730.940975115 60862910.419621006 841295.0657447458 44681835.11373859 49072425.16643777 48641960.281805314 84016141.42482057 7410720.7217066735 54085115.87712841 70675466.62044394 15954275.387469858 49071300.26375637 55060249.77799317 54595499.40032721 10558011.616151009 52461611.72260951 43591248.95010624 51359285.16609262 22483731.366008915 34384740.603116095 63212603.9191196 43281829.12961076 24322698.217082143 49132456.80220812 49114237.69238755 15907722.529099757 14029417.900199976 48200596.15478364 54482963.75510598 17743606.27569214 74681192.13393115 66787200.27181089 14557051.604347255 15904150.68268752 50378533.6262143 24238785.911709215 53186408.850784056 44779892.153034754 46754763.62445677 59320508.60993502 56836765.275016226 51223238.05521746 7400555.270631866 52983690.67228688 65508543.13309955 45301291.404742345 40918096.59748633 48902837.7852248 34765825.760431625 42101814.81582608 49136678.251435295 27615987.1588596 43986838.28886905 6023411.545353491 47366130.198525175 53837448.95404949 45059822.37549026 27066145.82900863 50256836.60855602 74789327.95797738 44336537.61546053 9887680.894178906 28746811.512398537 57332411.284041025 48251185.43213278 48485485.460266955 57732455.92281528 12445411.225613577 15871636.564044122 45884253.44126727 38324766.06037522 15760339.20224139 22166279.735365182 44853017.643776126 22667607.55910446 34615623.6499522 48362484.130647644 31405900.19394991 49349546.75963221 48740611.29728245 84220523.81653601 67890854.68045868 35751658.32299588 35688927.788122416 46727046.47549663 58006689.50903382 81015346.62195702 42509395.50541442 29331362.475501888 63440572.685539566 48262078.74073588 69695776.59229703 43416962.189898506 12077585.049038917 31781644.05410007 5889731.8329661945 98120347.81284049 40776748.41183178 39908316.86941455 25952027.39761635 60046409.69575307 48804779.254442714 53844787.51001061 48448826.70967237 49894350.642791286 50580484.7585885 38961392.42902316 51402363.461652696 7169818.578755253 47525757.48381268 50385843.10555646 1341852.2582128022 34934015.38702308 217728614.7276955 54880050.096761115 46320212.67066624 42704898.802574255 47602788.20444123 28809644.39868497 44669616.29517038 8211807.128864507 9855805.2483008 6155303.124890142 94913051.53730263 49860975.00613184 50927753.55702369 47898473.29427398 48268335.05537128 57061709.890351824 69426517.76116057 15183799.385640647 45992100.580377884 22765257.04011669 20060302.850302447 48053955.14788205 44542552.6207478 22305542.813316166 41943406.400493644 92215192.41120788 8145524.690686808 23115386.306625925 19508193.841342602 32845099.519554637 11461988.279748622 50003766.48077892 38009786.590605155 42643389.67148893 44712225.54972505 48896756.44769823 40035123.15623438 21140430.856089797 47904135.50765037 40377883.85017065 34223354.51416533 33536445.324875653 38633069.4495111 48737121.57869972 27528490.35043032 48539332.330807224 46094996.97701445 38538160.483070105 62031107.29530192 45509085.024901554 47640275.073834 50298691.25013106 13106232.388982361 10220631.442246925 4479524.8986796765 27716783.554833245 39563113.723951235 48122797.82989229 50020524.39957959 8357092.1749383565 17046075.80363523 17900775.22401627 60670841.217871994 19449577.931021515 64459173.72072462 12765712.120252676 9511264.26086347 45726453.371458076 45699845.94161719 48976730.821843214 42913839.538739234 49868868.99274438 34097166.27770112 32051292.94049308 45927305.747886546 5490841.01919145 44904125.10754532 54876681.1660843 33656497.65846784 48157460.69440585 47940342.56810481 41392997.75206322 58366053.85905837 48699272.27832439 41982159.2459846 12786734.542120786 19489699.157007642 49615409.199425384 47365657.59431687 31357072.97256295 32920358.51677966 32144010.753873948 24058921.231293272 49060289.45434517 25620707.471258737 25475439.10088361 50530451.26199134 44956336.839823455 20113110.032701597 2155149.86466878 48006452.8248005 44175911.95130347 52023666.799630314 52184044.66595294 54936261.8222231 64983360.671049796 49697930.615941755 56523987.17510368 15606560.774762342 37119934.57056693 30668443.98929613 41989576.65541959 37380467.288596384 37601660.34755079 48030148.47490603 35557793.832862794 37313958.96717782 25592806.556746736 13572433.067974165 60447336.071563706 38272587.65640536 30674764.972445037 9748905.38980282 18617381.773868956 45635667.974234365 53745817.52532839 30369281.66401243 32143965.82996615 45196885.84839 48229757.30451766 9112194.066626342 5836760.108486974 81713376.9378328 24016018.152469452 8002527.448571683 11936806.001071515 43457535.28609822 53950626.98201072 47307805.68166504 43443839.30777005 53283569.64642353 23206011.93338886 48649868.06728644 37071905.670892194 12814136.367580224 69888247.07217807 9065835.701233018 39926007.0798637 44464905.90900088 49931037.943804726 46373612.46443137 58367979.467509754 48371481.61033933 31972932.31306077 22448968.597183827 35264523.885407686 84860897.64988199 12883934.267332476 14540306.247993404 47655935.32373943 56243242.98921232 49541733.79644632 31701822.244405624 1158577.9824804887 48599646.04800374 40836410.25065717 58716666.046306536 25343720.446345314 46295682.08207904 46994051.55162235 40229211.19071761 34797656.60315987 49486762.075663745 33029366.607547663 32577109.680063628 73139348.03912945 29554198.238608193 56190758.37081803 40216687.85444144 87122572.1378543 95943494.50786126 77755304.10566965 28421869.307193983 4150384.4768926986 49117473.62899394 35789453.90912522 37825714.81343038 1528321.9926899048 8076623.710666554 58720064.224128604 23433614.47971716 3697038.897651222 23184780.89477039 34029156.57566904 51184597.4883382 27960857.943043053 26342635.408557784 46983529.21182569 58875810.90587044 50667624.94961017 17820092.201583337 48485307.80909706 46585502.47143422 46510843.878659494 48290120.90933144 23099628.589756005 19541420.240063332 43277747.17969958 12215839.193083266 36141592.199972786 24188733.576888047 48812901.369567305 106634343.75288206 48888779.288051225 47793731.32482486 48894437.57300849 34321023.306798965 32748630.95790968 49252534.639212035 90084890.58377549 5552214.025868651 5680365.626597447 33063671.67509773 22318674.77281985 69443385.61518757 47321747.88626385 16582717.262941608 5403411.810772712 44944635.76737488 10028767.383373728 41535681.10815725 25253630.37989758 2689279.789914817 42898502.32458122 44259530.72392383 35943997.95679208 3674757.626034031 29065953.89150837 18654058.051109917 49901369.22578741 44494347.44719005 14232685.950815529 53405284.69984823 19064979.70794773 22348878.171634596 3780720.8239418473 25000358.891599137 4530061.07569409 42768090.66852682 77620822.93191887 17709826.690239504 10008781.097475598 3738193.5410135617 62552705.931608416 7768771.739984529 22709308.644823562 46195986.1124696 41252684.891278826 47655328.80685849 19998454.255392924 46286165.246686466 31376679.817020804 46669958.22877099 64783090.39820758 47494727.29921876 52723331.14645064 56505824.5306515 48815381.22906574 8142833.990600416 48874117.493336946 48614782.21530211 48681039.237996735 56254609.45102465 31481852.13010423 47684730.460725434 49622748.8395988 47608827.44632547 8153589.334652507 9407486.716229463 47701024.252167925 43085576.25528561 48166301.53618375 20158536.44057417 54869438.7399445 46937063.23947767 9323082.342763904 48068479.942178234 30255524.493763447 36384361.90326524 2920766.601054225 6919785.792093797 98374447.67320928 48278031.49878865 48786781.559822895 37644370.33443829 109740116.8916429 49214550.13526291 47031553.36663746 30349217.228829186 19778874.109502606 8767346.598603163 32922653.98860403 58252850.813314304 49626458.081943415 38603087.69830896 47553919.08609133 82302672.17922479 22873336.734327804 20780791.92926352 43255730.22924815 73933175.07732026 45010554.898986585 57852349.13713262 44962304.938108444 54109786.28881456 49989452.61392039 167890481.07948548 52531029.83193064 49042220.73645956 47200923.213541955 46075358.59274507 27884954.82710492 51288043.63454301 96576929.5176494 106277119.62228507 43823829.85093646 13220568.108233629 26944761.556506302 47883925.9629293 67310171.3421593 32656289.00823852 28751650.865070596 36222741.92886416 48490921.90243366 48224096.23763864 47669053.27909295 38018349.52183229 14655950.738351533 49791631.382133536 33866246.11240433 45165414.38339091 72235098.75168215 27995732.302656762 58444058.3882227 39758386.56579736 48723360.935248844 29139931.264728088 54077356.3735372 21710102.922513116 48475935.40751457 53061069.95181289 36442646.66126033 72552252.07151519 54047208.56039592 37569572.93401667 54267539.43467334 23332461.318581186 18419614.241706368 66313.31299220619 47655663.963753566 43910487.3820826 61848591.58629876 21993460.64780737 48821921.23956769 36208878.90249236 47596064.5112958 70972000.09830949 24155865.142094947 46898057.14089541 52195750.52851345 30101804.73054265 39813888.5931898 27780912.214981303 47465642.494720384 558209.742867284 13705169.830543352 13114596.179653073 48808145.627769426 59559476.66715845 50490902.44411656 11316449.731593955 7261569.62162161 34782974.93899872 48306671.92325501 47953787.856353916 58640521.344653375 74758397.18244855 20495813.964762878 28971021.618449688 1288602.8235975525 48334717.08618668 35288415.18106014 49176013.825688116 45448679.26851256 52533400.76173763 48393065.78782831 40271242.231588766 31009202.919745702 88130236.99884307 39316713.22272122 38791379.88918384 54084042.981795 45390591.78597964 53689900.888084054 48034544.462330215 44350889.6388989 3188486.999858735 47293432.913022235 35288844.42711378 66482264.73235869 48322803.2098609 60485797.07817154 16226444.301974904 68648574.80364832 42879542.56271266 32430337.007708333 91861655.24551314 63262492.63160984 46415993.8004366 54237832.20074326 22565626.26331143 50390892.33465261 40423652.83253055 28568968.43553016 51036781.90403932 28221941.755231954 42413128.00077268 48314001.20054792 44130423.381628744 76116282.05076356 48004935.319424935 44130015.52488395 30630814.906829543 10876793.639328094 53527480.14854946 48096204.48121557 47261847.61770662 21748681.03296738 36859580.647442885 45757025.48148809 39408801.81470254 21212139.54948847 44023797.83409745 12941441.93589309 48119517.64168167 35675860.76582676 31185425.834335614 52962577.85350002 49294377.622718975 25220603.407000702 50082081.73269897 50113065.87389756 46118706.74700432 48755992.87497495 271444.51523359143 48077147.192055605 19218592.94535454 26830435.77376006 16444331.16667397 29355279.326266546 58928618.960642025 47822021.80513021 52092955.990679316 15519013.585538616 48250837.80208427 28420580.785947796 48502118.52039675 51820866.42979962 40869798.933212906 51549846.2307108 35087635.92156828 32587954.949518822 24966933.66750705 36978724.29588091 116649068.59673326 48557616.26992264 52088574.51876022 50105447.052420735 30609460.78852207 48141788.35014607 48078659.060434885 36539636.70200764 34136828.13674356 16919063.12257354 42696191.49579537 40305521.8857377 26576621.604023967 50914526.22058342 50549118.617579386 48040504.288572334 48612629.30613947 28967453.416798234 43234676.558131635 29165794.374545652 47945492.746520296 28533003.1026879 5868557.534969515 2445671.1071006465 49218009.13275405 33306182.19695961 2146174.8296385333 48451273.984289 47266794.87711855 39775328.92783351 45896671.66799194 25998897.69830712 15250164.9402936 21494283.970658798 37872820.05696441 39126078.13679446 66207772.7546075 14880459.271665301 27132183.21389633 44184100.52746339 55635950.620433494 68971497.6533936 34151936.86595592 23754435.545440212 9537647.408464821 51664129.69264296 46430730.9215905 49304545.092299044 47339927.90648566 40446984.65137842 6414229.4447302595 4550140.806994354 6481678.413856494 4590329.199930389 22626913.56896588 6214785.290185779 6185438.374595834 28903817.155178126 41799673.99692352 4506447.4781435765 4528831.495853686 47849110.41331213 10295571.850436253 10850877.34976998 50526614.77266 47529677.5494622 49182263.102362484 59987070.03202056 62607650.15141778 4705389.377433605 48038825.645704605 40337246.12614982 49093060.44941458 40169356.01947748 50974814.3545941 38062064.77650725 24763319.339592464 40928150.59712119 17485740.620723493 38882313.100692555 23723713.05997967 50109149.819436684 48911808.03915147 49573708.90721131 45622320.02710709 279873.88895920897 37319193.634804174 59504280.1027627 28364381.517872993 50191285.6326682 49402442.74937778 48628109.62975317 49297706.30301001 32969317.565853506 44910828.263452835 47123519.007695936 57038323.766730756 77478816.7603759 35185719.65963122 10906064.077007622 45464799.4243707 74336608.48469897 52664150.57597061 48361827.26826727 45096506.918440774 38956834.74744722 25159406.758591063 48478281.10171765 52078871.04219315 66433393.684498966 48310990.516976856 47611370.445335634 128832776.80078681 48735425.786645785 47838722.26992995 35630060.51692063 25162176.42308217 48625300.8777258 49156059.80526295 37372732.73596107 48326892.18981488 12962622.935616283 8430511.141919797 17200708.668801103 48208395.133270785 48303588.31667122 47332395.20071883 34388745.74212696 1917198.3037908538 14688390.165347407 50755928.92726553 47656537.79502784 14205611.170399757 11478648.656290712 284867.3230108559 22267504.26944205 45065839.53486777 43091327.81279306 42553056.35677016 52027652.68429817 24656139.7761463 31584464.783629224 96973475.8272539 53088010.806435436 32338460.94738118 32495403.99437951 48777508.42869397 36231410.48381109 19410389.772586774 2680733.534585558 27154881.815137915 71357110.56908546 11785236.695393706 3045431.943355034 50484326.19346873 48661845.98862265 48074129.23013779 45962085.333488554 35042344.7798249 51135527.623982035 35857005.548969075 55157070.61154589 15717672.849072684 42963578.825897105 47680089.098809645 49574828.63329196 45841075.21430078 46539452.97009251 93336056.96655427 47452178.42643279 49187670.01429079 5772428.302315292 47816926.67486047 52706499.280268386 3847448.247703929 44213836.05673045 45918337.71982191 47687059.08954044 47802143.18498053 48521425.44288488 13533453.043006154 31917994.61538504 48104301.375582255 29258096.812954843 51384654.24392518 50967046.79353159 26124315.201711122 48376094.96692362 50267370.24862851 45972219.75011086 52874069.43660489 89667688.92039593 47608975.40151817 17264317.101354785 54285475.16897414 11721456.371285627 49153598.33463948 71632958.97525918 52309541.48723522 48353933.74265656 52366940.74567281 7585306.683104412 28192143.07119444 47410736.63891878 48814437.405204274 47387394.398425266 28845866.155827317 60402993.93443869 120713161.27086343 48378500.99882189 37635073.97906248 5441365.7739169365 5795467.48246311 48043501.1670708 29446766.042811703 50238497.3622079 34167320.32002041 34739759.8199297 48672230.734365165 48538680.60160049 44750942.70963702 49107131.028410345 40124395.642750785 36123017.69312245 41014258.43145289 35815363.83582852 47031973.80966279 50108950.71786608 43606483.58942917 39909855.04659414 44759828.83173006 48408571.08483318 34889910.32976623 30780319.650589865 42377474.93277587 12330464.46353836 50200391.941860944 30247418.69651173 39974673.28898854 47616467.401835054 31287933.924397152 47920376.243373364 36475203.06189565 47639482.58734008 30279730.631083492 29317233.80867831 58745667.33470887 49977694.52647242 31625101.850537024 48677623.219496444 35789069.72244595 49318922.32876154 61278058.968578845 33790912.01621582 27891624.62451577 46233772.7701628 27014010.550344046 46577566.63707159 48421989.33187652 11871500.930945583 77207336.32560396 33494710.822873496 58479178.878297284 41601449.8711532 30607944.574612807 45117658.50110208 45802077.04534343 37792847.424902186 44701211.5254026 45765518.6027392 56937992.83336913 86961293.51386666 69206362.23666085 42715187.79152353 23898428.856408942 42305412.28694248 44705213.095605575 29747456.113869693 59103484.980067424 11253392.731171891 47925450.80345991 67133224.18397944 16813954.246923104 48126548.77003193 30424125.16559304 47543128.76717677 45176344.47842132 29977673.714166902 20309742.555630874 36159651.640225425 19938564.96330484 19945537.365732454 48111571.69366589 41786219.66032877 54578747.58642344 65125427.12302405 45539276.44352261 50908263.02975335 1917778.565948094 48443889.09247779 16283031.20839828 24910536.872339964 49907123.3963853 47792366.19154536 47486873.9141382 52180519.337664716 48068708.99440571 17414375.61419508 50893163.7814428 4267256.246268669 48279749.1281346 29288450.926480502 49403756.54176004 48864500.897759564 17487554.766756434 59928526.46351626 48314113.126329325 13708526.825828265 36110034.55633718 35380524.63758431 46674602.501823545 1262834.7002252792 12558107.625310391 47878176.10109344 35017467.75320853 52042327.6929286 52873279.193541266 48452281.42937114 58351197.03547605 51553854.46338665 55919165.79329893 59150923.188263014 30972583.369078327 32556680.854434926 47819835.78474455 49308614.27138996 56571538.57072115 45942433.72538938 52758800.08483565 9226365.14716609 46427275.85565256 28349036.42073463 48117730.25726467 38563281.680244766 14432887.082298294 44219299.45217014 14431970.44098863 49156341.29308503 5756649.875053336 47425327.49010771 53135944.14375059 50245315.40154223 46919471.471857265 33981125.0172718 50081643.625551894 36541189.98729212 70474465.90836225 47431368.14890666 35094772.43591248 36040965.54752563 22876920.1536083 56824840.43335267 45006820.542877235 6960508.173560593 49103294.397856414 16280601.861224378 45876130.23339201 73197331.1811894 49921737.61341422 47257501.70539 48210427.84932652 43504727.3404831 48706087.47043302 49324808.099342674 24994574.704664215 48694598.18169508 51974941.24952199 48115463.647413954 23613537.384933352 21263531.03087275 7331383.599707374 52780441.324752435 10947460.176334394 44307155.061237596 37952965.84606409 10219842.754364498 27063331.689881608 74689362.20253794 8763843.108896349 46769832.45728225 44534691.39323066 118997415.85976027 49415754.84456606 44753862.70631725 32312197.39737079 31180009.21894891 1756942.3945727807 21859261.567787185 35741233.41840002 49001836.53723311 40750850.90593167 55460792.18872642 66576269.91097502 46391374.03248784 43193303.34607885 17274863.656797025 12612406.052147346 34518374.85493252 46174626.55475039 30379355.241621405 74352524.67365567 49207499.841111474 37827049.50883363 39273106.239815176 39813758.091891654 70034189.20901287 46932917.92264283 52187649.71501974 52614141.91774326 36145307.53452995 13176787.63784001 44174032.79308196 214585.20296433827 27226811.101519093 47660585.63402729 44957349.83659213 49902419.486298606 112401040.33660507 48846421.16021336 48344050.5061998 35601590.578595065 52303239.562793605 27400057.17245096 51645384.071278244 37450549.84863409 120747767.420237 13952231.807143327 48389746.6588211 43225365.1431541 19069363.37725334 48963701.537756145 28324527.793461226 44531455.75899138 47827868.70043913 50479091.60776802 45681658.47764151 36913304.50100791 47907604.943638735 67311978.15655029 48787418.831000306 24570263.7366775 13659272.12665435 45569956.9377893 47478550.79130309 35603527.87254125 38438253.145695284 26566457.77083227 82302233.98346654 52280017.81153154 36293556.286381006 47621504.496690236 46530799.89194045 56342538.41936632 12260315.65699293 14261314.143731492 16011733.319126917 29246045.840044282 7020373.983053305 43916303.405468434 22927811.363131672 48706859.10527495 40835131.480093434 14947202.640404742 25104820.284342654 48261307.12964259 35339014.39203262 22265760.376253158 31828944.959781144 41995042.218637705 47754361.17026983 41235854.86134594 50419520.2358816 85431306.94019741 43985224.78231533 36352294.30637294 45330231.586757086 15388313.343190785 18018444.550171565 13252608.7332242 60424625.363338165 48484242.247653395 48433943.20671243 26138397.1602362 45276399.195418574 56583279.09948668 52776938.062123224 9212971.172305536 47292833.413869224 23477789.26148787 50891595.889229715 30891415.642103937 39479776.66565688 28561708.050439604 46871864.18090671 34476364.9654961 66712977.91921616 47362866.01439496 49579579.31786884 30686151.30842713 27281070.142684817 65160616.27344412 47273607.84663916 59860992.6200169 39084332.0217383 47589887.40330309 49881525.896362916 47475506.51646742 60086344.76688539 24515516.133618224 24455068.168933734 16816327.433660064 16629073.501786519 2550556.89103679 48087303.89050547 80234457.37905744 48327666.51228281 60405304.63050041 49640254.8404023 59821312.60587515 48370309.20821264 37510559.90007517 49218779.023912445 940570.1225564925 7221627.550693444 46962213.54321076 61510449.851326756 6058879.338057805 93533557.18157072 27877854.818941735 95519825.41230822 28255736.44925066 46577395.63202701 47492360.48408182 66479694.71639278 12683215.057752334 42827750.857713215 50392624.65581779 165522500.96397015 36407402.030368224 53671228.65010157 47723391.447149396 7231290.545687694 3886789.005765732 14161587.333443878 16295429.571649862 23648305.321960043 26199805.262071364 47050022.720592834 48412231.88914242 43427050.23341448 53436461.33327171 12188282.781377696 77314086.26049502 54334177.16620134 48986702.364963375 28908793.69269421 48328012.87545984 96252068.80195649 78468143.59293106 28781549.807728212 46529579.00045364 16278002.092680193 114862349.65621987 39063945.95519614 16791678.687635716 47489901.32661659 56349655.01859508 65479357.57470391 18296878.454969455 29198607.160758816 46830393.62435969 26412226.208748735 31374030.31629688 66406038.80132469 17644615.502757993 18420957.962395325 47223234.53510307 48419829.46041363 51222207.386847295 53987475.92000417 45857613.75591752 41106541.2643457 39764368.26216341 46142185.22089953 49022957.28961746 18651689.960148152 18701439.865359787 26123019.9726875 26049357.19501095 11049418.259231066 47769721.00512628 51040838.883289464 46714459.07112755 48485475.727640234 58516365.36224551 10682539.428281985 7045117.289360641 26840148.66039187 26769094.424299523 29670152.960656345 54107261.20573664 30801325.554276377 47363779.90416057 49756209.49946834 53842995.12546722 62223202.84828143 50847358.202212356 29439186.15662847 51233849.45337923 48504539.8586345 27283836.074309528 13119642.698420387 52660716.031146824 45261950.341906354 50005751.613110654 49864035.408003606 38060608.725928925 8273201.485943687 40150048.6734681 8240962.348957263 7444764.881520145 7638410.139328925 8218237.591678335 8158038.603063284 47636224.45184682 37368263.961725004 29372946.86956708 35938725.717832714 47634940.526913255 49119261.52728489 47551875.719081916 47313095.63772946 67777148.57580768 47641335.377521925 47400693.54473229 50621255.70465791 45923986.2882486 49046957.517283514 44268192.17000362 49507421.20287741 37878318.62559191 47660687.01063035 13543241.409307426 59437217.21874719 13810114.51989585 2654347.274439201 7521756.54454193 50513400.06212731 50624659.3065785 13546608.828759043 28097629.494661946 44177771.51946751 7485449.026792118 45736604.07462414 33588888.13411293 21765904.38190076 50971488.407565914 41503799.75585624 49340933.08044975 32617628.87246094 42979184.85587249 44090394.51398059 8006784.262029425 55386351.54287809 39968616.500482075 49354969.69334879 49179123.323575094 14606901.250130646 14640769.14264075 44529254.56745461 49098074.46724483 27847373.845140807 8802953.288154604 47571578.04590547 47493544.44966364 49945365.81973931 8782581.822179249 12633646.645836709 8689916.640106943 12555674.284715056 8747117.941367583 48274195.81675027 8715850.83052481 50303712.12170853 40656509.59362568 28723175.49126197 50236083.4472345 43043741.303859465 37477143.85195644 51281916.854946256 59727396.905965246 52944951.61802569 21140600.863106795 171959353.906701 10956973.792799277 54745678.43346814 12483545.562080018 12453489.033625156 36375533.643102765 48792845.97442343 51261263.22674649 37810652.30965527 21685039.78469121 43846258.80715156 3351328.542536238 84385998.92990741 47703638.43725416 47058536.120254986 47394858.50038411 21892082.56741224 47446410.355542496 38107470.842768565 48170563.47550229 10956739.896089677 49876066.9586638 42170647.84064799 30418977.281120665 30613529.683176607 13293004.691710187 13191057.703627165 51751588.96317746 47721986.64419367 48526765.953860305 30911229.3590276 40995663.13868859 30844030.24474836 21039471.837380767 49917234.80400415 12205804.936216852 49905398.7929632 34419043.45634931 23844294.916092265 34335801.1269008 47028101.01933626 36105233.84687631 38203063.44990485 51919093.538770765 47395558.63184534 69501495.68213266 59597100.88907982 47803378.152167335 20849577.43766167 24133325.75588859 11881497.851306237 7412843.879645378 46711012.4492954 52825237.61892558 32784594.770652078 37829921.714583024 48159830.738842174 54099317.76208002 2420008.42963948 39954601.65330468 146591921.7894302 29833424.18255937 47540398.18135994 47881730.6654931 49937797.18044835 32110965.266931865 45770717.81080236 11914883.158703603 53048107.50221503 53546743.35948591 48030508.97804002 3444616.5577998157 47763496.52052326 46298153.45032488 51885752.29244599 38661744.86673453 36954946.400282554 49087317.37047432 45939470.09264367 2413075.489836652 47372204.56170299 58860666.89179061 48182504.51463821 51938579.28593622 30840670.045171384 27564261.601516012 47508165.972588174 16340077.860883107 16288536.021322165 45398857.82280066 36146496.71187938 36286459.573721 58122505.42028142 50340386.42133658 47773465.47803861 42613238.60336535 55715069.934935056 25762341.37563332 72951239.78971447 48160432.25796498 46567461.14691864 37293777.78944184 4612607.839780164 1304607.575498903 53926375.58967867 47442522.20923442 59576273.19958149 36335536.321505465 5111730.279066867 58805492.7833877 45851745.050804734 22347126.63170844 50867070.79987569 104166751.8992681 39147701.23945527 12051237.636222899 35694215.26087054 40173938.06583392 31195485.22306542 15776627.198792193 35404907.85793716 53959311.357058294 34642842.25069008 48030272.332348086 28624939.597346783 58195792.95181775 45858138.0102185 65683593.88164376 43606982.06895065 50354178.25425501 25492848.751509428 34237588.55195573 44719775.58689501 31907478.201956622 52334877.09543477 57465509.00407039 44842199.289598554 25796423.327693775 14986371.812596232 43106784.514019385 47515464.488055766 26044447.47335312 52370614.161675885 39131713.864864185 49107347.23584593 48220214.803385094 22528456.550692562 22597490.773397595 50300426.8707607 51634157.72468088 31216509.515578117 38106607.78757676 30715938.920392547 25835371.219904345 112245206.45925929 43492765.257066056 38474020.12224479 52602680.02652736 5487955.501103064 2388311.093093277 2785163.0849925824 2459333.3266309802 2469972.073177258 2741982.411211129 36617160.625565305 44927901.22409489 28061820.430532414 47529317.18517536 52424791.06433546 46182012.06075488 19472536.89887992 48775734.88935912 49870079.38331895 56792942.89218892 48961467.02702063 48090637.534081556 50699378.51529652 33934517.45581759 57837847.11830772 54698970.30282082 45011793.69712755 48779308.71611816 52441856.70130611 46565553.926635146 12878516.069577357 59734461.929506324 45418323.32950515 45888429.63105768 35821779.82598521 20069911.41254649 64324407.502857916 98470588.66740136 11952536.633727103 53768140.76881298 7167182.7730455715 45102260.664976366 47647473.90779245 2728706.8599365028 38242426.01937063 44320498.809224054 43580291.81364517 49694415.25133055 54425475.60679153 14054608.636435233 47588774.44775599 2733670.4314622963 5569874.376439236 5164431.631844112 5233500.494411911 5369149.255968369 46704668.6753165 53652702.88416469 39478586.167629264 2433087.8317823056 60785833.20882242 48509391.15769063 70860508.19367863 45975917.449842 43904802.403603405 20072717.481930092 39821217.96952664 2430673.463752098 45478921.566338785 8648186.798779905 43241569.4069748 7121704.4794067675 49905518.74964384 4818908.7285762895 38197494.23857212 76848224.84575184 46284408.77769808 47701555.97339327 50513346.14575763 23781536.0791136 92718872.11594218 15702536.187842157 19347315.210191566 55319874.75811662 47476850.75924538 32119352.022220414 32193489.53011855 50861782.008512005 24369453.437486894 32663458.736749228 5147027.723510867 36578363.803585336 34791009.96884621 48896758.491522655 68905654.14002737 39319601.182001196 60042839.70456197 48764692.159744896 28966966.18402998 49287709.14569389 5139900.759678972 54149108.09078065 19277680.812104758 67834632.10922375 48458966.24558574 54292696.330368675 48330689.616834015 62841437.89051829 48427271.7639989 67675061.9114396 47912384.57523397 56858918.3771077 40937756.11109415 43861906.23961102 37626288.430297196 47151439.01226072 37673592.34409253 5466444.765676912 39135374.20352105 47463465.715308934 51068458.598037876 63524023.98470472 29863990.78489584 32326798.821898565 49941784.41381376 26791345.84659548 34671072.489741035 30659657.51510602 28377775.524648428 35858003.90529633 36069675.83567631 38930979.625678815 52795605.40881621 48153617.78318659 5481655.501818326 46602501.375328615 34861885.41456129 51732900.49117028 40249484.27013652 1855293.6411273202 1585468.4939746559 1598728.2918048876 1850415.6454810111 48579731.2648123 30515759.61335337 42756659.12541609 21553486.5336156 46297722.941535436 16454342.603602698 55573937.57038118 41178106.21546011 41038324.95810477 28817559.424381692 39025461.000615716 47065384.37036662 53979648.87961598 918849.316651309 53096110.26920295 47968075.814100765 45808538.09982716 907237.4074651592 65810850.84499519 44977755.90814469 17310791.735479075 47466858.32378683 95241101.49696402 47707140.86765751 11600678.313087821 46603661.91742138 49279266.67175427 37711554.92264856 1419769.1280783825 885919.6241852368 1380839.7591188145 926184.0025402287 49126806.07808115 22501087.965216815 47372720.12637886 44213654.98737899 50104958.736511976 54813243.684054255 35045177.91423874 34149284.3061051 26974542.74715057 44263153.74799859 41286879.05843665 77141334.51944993 2223055.660832555 48335666.635908976 6883301.568879985 25389347.367097773 40268633.748065 40037344.25677605 1320697.9197969558 46861520.46704675 43650630.65761542 1315338.7506717676 9228530.767688842 20915539.82520861 47074691.06081849 24991490.722784404 32547770.493704353 155424904.84527647 76895506.54287042 1851423.643872345 21234906.49303327 18988324.289696336 20919538.663571686 19122993.9506474 48679437.99350106 50521957.43658424 102346400.60224624 9288664.801618828 22819994.63142515 48146294.78587051 22823899.822613236 35625187.72217817 48591851.38832265 54762006.80307851 49797700.635095775 1849048.7151121425 48581745.95020011 52395154.86435716 39326700.47121321 36646458.479163125 71145298.63825601 50129826.23251579 49303349.963106275 41733550.78351836 28888938.961100154 64241895.68426082 48260085.7772323 48010710.40394505 65112992.81034447 43500808.186188474 120083125.34206948 47957860.69646172 6586654.664233543 71246862.51693092 52377738.49123045 47125135.84654412 54692883.26108032 53689867.66423967 14623155.290518532 40263289.97185217 52540666.02541007 65089947.56848932 17714667.55556461 113143779.57140839 7116063.92169998 47553690.34841654 63184575.97766775 3996164.3442786844 51337095.96579054 13449166.110909505 53643595.09244889 252131922.41083673 59164499.273919895 40214840.81762561 51260323.735197686 48781951.35308834 15763467.556212274 1595408.9284787697 47099221.19960836 49624592.01155995 47800930.12751515 7556418.7314577 7191608.277938987 62525041.73888059 41884961.15391876 58147258.38811809 53368658.298562765 51617894.47366124 8686548.17546665 48634277.47864843 51943953.96219665 49830259.98284425 49235404.600255944 47676085.73202334 35108040.813399084 19977548.774620917 41897704.17357631 54890333.49779781 109870778.35810792 34854562.68261599 52569537.026906304 41631994.94190829 34429548.24235705 48128209.95806469 42254599.5512138 38402011.723576605 47870786.68280504 19023524.596267138 15550831.04995212 50182029.68486901 19869550.61411616 6972608.735762049 3049631.074568374 3978716.279466911 46909830.46763792 1605826.5343843796 20195183.554505497 17789930.37018545 43598645.201711096 43245985.34373104 42176460.68970586 46086019.49977647 45720322.57837647 41712569.75163844 3296144.1860344117 47667527.03836322 48399679.568855084 45320664.28510774 8657279.525676064 19747894.492419828 46288910.13491522 1506237.898240476 28065656.00034536 27977573.83873348 45129140.59246988 33908451.26766419 38813717.44055693 49100245.02183351 36479247.317538895 57629891.006916724 48852180.03294228 58743381.46207209 44262348.44019674 48507052.80645027 48200643.0837778 50780616.14553221 2034297.1535771368 49004789.412252605 48651185.624798745 74595356.68282394 48014547.906703115 46730733.44755714 40925953.93372791 23431819.56599068 15845392.314633964 36361841.10861116 44433430.51876841 41457851.51425057 41260775.670337915 29730320.674455736 8208765.791173354 37126272.98907965 36537232.92985288 60581261.479982436 42948412.779664226 48311195.40442498 44480887.912775606 45064740.07217831 41728116.553937756 41194311.02277507 46033000.644159414 56148044.96740705 31583446.165279422 62704371.2532411 25220760.088843536 38669429.01394442 50021842.35005321 27410857.30728293 48788210.88564593 10845833.781633532 40842732.87457793 51520474.40591561 74909310.15173674 20919564.040124044 48870265.41990163 48419236.68691282 45521159.36639044 70837395.68210563 33712259.26728469 47298730.38318638 7259112.377214559 27388811.9223624 48009256.08363352 39503683.1503101 20596568.690536927 48522646.865051135 47578817.9111408 35359769.90116288 48313102.216568746 47558273.29067851 26036532.2873951 25703052.81341171 3319843.7639152138 2736154.454587574 49489522.310629286 47832038.76165376 17778336.839990206 17773710.56562393 58522529.797511205 46006444.987370536 20892320.967070878 54712477.55891008 47803471.911727324 60611255.77742857 46159096.77714189 76551710.53053296 38030351.83925077 38435132.83752592 48478906.87207094 48153796.89982248 37415877.15419168 43720161.369416334 22860281.548443437 44993216.28576125 48854655.15801559 48523478.180332206 42684118.896628514 49948904.06227278 41652808.377240576 34374887.63582776 8417124.824339926 37777579.85846444 7315482.829972157 47218160.846959926 21259224.12477618 58450164.50957089 48055323.429704994 43775922.18884442 4777867.536473785 30311325.548110116 42585301.19944346 48787352.17712346 39318578.55787715 28138365.41145408 52973629.80871956 26362321.601888698 28477985.994846057 48780568.21031112 50622510.856064856 51718418.24546175 46750655.39904433 50625953.30046437 47586776.61007173 47839038.42948125 33234109.522202257 54362745.372941956 46815303.45102919 123983592.82928199 18452612.447037764 46980280.20428702 28275662.3448509 52408360.18398504 46781139.34822869 22601428.14292814 33698512.767279856 39277297.07804276 35701969.927810974 51704800.88387468 19042587.764837116 18945194.368684307 33336748.126596313 46184934.255936556 44431974.479881704 18685507.2284453 46140867.7504972 40621309.08054755 49151610.33210102 12988440.658380471 47097721.212566614 29072177.94614281 39511199.13472251 54845315.961877786 63315869.24954205 50502935.62262937 123952995.75859554 34584396.41563372 40464249.818096094 1705170.8039909555 58749799.60492133 51856977.92175968 18561408.196835432 3396417.2460653097 21527360.292996366 12978231.73202629 2223200.5683151423 94692646.36522117 55422872.79044404 18188490.997313604 60390765.099608436 45477841.34457732 32185120.87836866 4225050.478262731 51694541.27306799 4198461.556209636 20266797.05361636 42192865.43181709 45447343.79515968 46086383.37380851 47425375.61187717 16084127.654942345 20099654.570473474 3724877.065165739 4224911.657556793 3785182.864692509 4200613.890198613 22413714.533132248 41766192.400756784 46925658.09993541 57812829.78325987 45137934.451322265 47458765.727906324 33302218.555720434 39658572.05099775 4477846.997074924 51097922.217892125 32842681.62829202 34870794.61060782 3722838.3206043756 41337000.80718802 27015640.75921751 48072220.32983819 36151933.77225165 3706316.637121675 17472924.68484393 43789598.28957976 45788316.90431898 37940383.68283471 25662482.06804105 48460497.79368926 46443340.292684264 132742327.62981494 7828165.7813822385 15959172.004189337 48382465.21839747 17386098.802548308 9346702.031306736 18183904.58219988 48030650.65356823 10295243.369580489 43042999.82556805 40898941.74321779 10347974.152754305 54288706.405434534 48905210.49960688 13926607.163537508 20839295.334812794 47774374.2864899 20570586.010322113 4510101.316166416 41457035.83637506 41420070.54933932 10071734.933021458 9989867.58837781 15453832.972376626 41135438.91284383 41038843.096874215 51864051.666096024 47089739.60874812 53756322.52158615 19606307.942394797 21652356.35196803 102233178.02102667 41483213.323352836 12379826.627323022 33163632.136862356 52688103.34544055 48256793.404593356 51570725.73011825 22590009.59199747 25044292.86070294 45898965.82439535 49374713.16996788 12237629.856364772 25928349.035693932 46219518.25410725 53116954.90614125 31307075.843341216 39128491.84005975 48294383.222493604 25674524.349267762 47247238.75529488 52135737.41410324 13090393.473853672 40952412.094584145 6215827.852408948 46652160.63078999 23757792.477791373 44110853.87231103 48151038.14617195 47476101.231759824 70086871.37491658 48980445.87183035 39481651.68911901 60084904.75993367 54737623.86472657 6068145.378046994 13728349.317723265 6821339.605413123 3532590.0951088155 47999734.640174806 54128613.22466959 34142870.54844089 29858564.431965478 53056762.4503304 52491515.330041096 15690398.768018626 46804928.7324784 53277665.67853853 41297740.955211475 53212439.64832332 46982941.051041275 59883169.35510144 47659714.679133736 57669154.64810002 50684611.24813325 15464887.850244237 38082543.33127116 3352359.998948988 16633321.676041527 51861809.74990428 31075030.012546007 51037674.7638052 47513286.82522369 54142804.00117651 44540225.97834513 50777615.37709415 44204639.5225716 50767258.57002903 47051991.445060775 58518708.257671334 57693652.48649301 7546930.3231229605 20891569.76550545 35376567.79751776 57125278.79183924 36992761.203023784 9160423.406770958 9292259.667723762 71500228.97410104 43359751.96405922 73263412.23635533 48949314.49548039 44686212.12668835 63725451.65400675 43852954.06610767 118036493.98111917 28768282.033493932 58372422.01334011 50173999.698211014 40808255.92025232 39744665.269578725 49092234.51964208 43430769.967967786 48299501.37336191 48969770.50132978 41961752.68759967 45719849.69952873 63509132.55307019 7850356.021837426 13946482.620493453 25111823.66526094 33990410.89929659 46178616.951552935 327123.7510286931 201636.6169798412 207937.96009441753 318466.9333498552 49223574.388832144 52689995.49659238 47972291.31040367 11587688.692014016 56224866.87724681 47949306.09308056 58711069.725746624 18162244.139487162 47892686.10222208 26715373.64233783 44133493.870150864 33872457.71755496 46267184.690627106 43100902.08409978 59141009.4829588 64552045.099578895 92337163.11146592 50192017.08963947 127539925.02360602 46719797.92831564 13404841.105404643 46355210.15969003 58183472.96343164 46114248.55955279 47498136.67307039 58605294.364220366 28767397.85363515 52002776.659414835 39456625.61733822 79714130.23734683 48316840.64124401 76567613.42559421 47553528.56781314 37667829.186813906 61554129.92098805 46453815.39717709 47255868.32123784 47321105.33497888 20076625.179330416 47936522.8927822 136178951.93087864 14224021.920769412 39959627.29123194 15130174.152565872 70815753.01407975 4919153.493134506 50151038.45275888 20319315.129834447 30971483.5568021 20135302.4942134 30339474.626089588 36330183.00081638 37476215.2114898 51010730.830795296 44848614.98265769 41668353.358294494 13611314.378048452 3683753.934379008 303928.26358013035 52132182.04575552 54994807.017580844 58153700.877042584 45837061.87154711 27475743.494891968 303227.3908838896 25534230.543159083 34142693.723942585 30734790.606274337 66155964.02200905 49246363.97296401 39416346.4512353 40345772.41909386 47975970.21637143 39628954.799914934 36477976.06494935 44153515.37852442 3180157.301060294 15420573.415121043 36449731.186486475 41261099.31590263 41497261.18360253 10166110.039763534 51596167.595115386 42638727.03822344 61054543.08681858 47793472.40266578 47395077.0835709 3056892.8225171175 78195745.57779227 3939494.569009122 204567.20293060242 49930066.03420029 12829186.28460819 18320780.868510913 44787056.60339475 10518915.198136717 116964304.19294333 2115226.0419965144 47398793.72487881 49328545.80468835 35975951.17142068 50299257.121323176 19735911.253957596 48478985.924266316 15355017.27785994 15682615.31264459 7600732.683787604 7930209.565746514 6503855.932266024 15159072.603230994 6564167.1840719655 15101917.699162642 205947.61735791952 50214155.77893422 19580159.528759945 42350180.29943277 20804365.735467553 16270428.542127652 20898460.74169958 13310086.076686151 2447809.6465570405 25081704.885434397 29323136.049916204 13566818.11144238 35394919.872529805 31507861.385614097 83703800.44325545 47052416.526287206 43497955.87040587 51246186.225675665 32514079.252994444 48227580.24176516 62177795.90708469 109445958.22793023 7706846.798629272 36768217.186703645 47457268.16136216 113653498.73565677 6559004.187106863 31889803.83868757 55343370.341682345 48835437.010632604 38464583.34719156 41662606.59519866 21086661.259849854 7722525.44137159 17275516.827896547 37816281.8258825 40336395.52627543 50426755.62910398 45953759.55518283 43015704.95532849 25156672.105863392 46677630.18227588 71966605.92013231 49845689.35544458 43952606.982370906 9560385.407845715 30795309.48802688 60374508.180419505 29778695.172954705 37464254.68889631 46558441.07921951 47296292.6216795 47613763.9794558 47294094.41337089 2387844.7983117434 20254237.525242195 13145189.571889887 59801668.68760041 14469207.784591647 30467270.71571933 48909206.870178975 17204851.447688513 38243205.03088359 51185966.67463078 47687937.84326886 48091382.0149486 24031058.06771281 13721083.96162244 70988952.75749454 47194183.36603698 96717920.19222715 45641167.57111678 47328966.57717829 56681652.09139469 28026270.799919043 46934891.60542023 47313268.8829997 202026646.3547104 59076424.525721796 47600417.41568913 35106504.151680574 37845814.86932786 57823267.38436655 48504588.31800423 22758522.47526885 22408559.129873797 38314164.014929585 47533547.55584654 42750495.588606946 47404898.5817264 50644362.30628407 7631763.900374344 107153518.78776395 44187857.938786134 25503616.44282612 96595099.35638006 37569726.500518925 49225426.27144245 7619437.921396484 9515357.02524763 17901950.65536298 2011761.3437152405 57538248.169884145 18184658.494132224 59666569.24923155 48276557.468124695 3739369.9522545673 45473040.82094196 33264697.14533339 26923509.29056267 64891056.64575734 54750609.88280054 47183662.52369592 52917891.02799314 68822959.32413942 51474736.80602907 27700854.18258859 15176549.493027998 34938867.93307996 45095053.6183847 65896081.45497827 36711654.501156606 57232262.37715003 26206730.99831645 44161346.76760286 48017672.06756485 56949216.11048905 32969097.56506537 7204960.738243437 71546250.80642536 36236983.36366046 3590901.4823537315 51947954.095801204 9494450.409413563 10987383.155902244 11160040.22891389 54191965.728405826 50109106.39894701 14972827.803270726 13145477.796136877 7187314.437177051 7695633.128699616 47724930.06082686 52333431.52839128 78286984.13649997 49873778.54489049 57177588.37428447 42825230.681074865 49517746.13155283 22652856.138052918 49487127.42015293 51156732.20667579 3136749.9799852576 37198618.52365162 48375705.06775148 45560129.70488219 45787025.36820707 46591593.80036898 40486198.08800434 33075296.83816197 19703557.216769204 33211725.773837417 23263659.91285855 6706785.85965418 18061400.931818027 27885623.506617825 52111616.96722846 20345925.409117755 34064849.534128696 56969800.29590022 31865685.738898523 69373590.23265667 45559172.16306533 49901446.25961326 49230321.78285908 32449948.672742072 31514358.070348814 46518371.64067144 28972518.669909094 48902190.82603984 21209901.763292957 64116500.49247315 48923835.22853735 48922043.85407971 20876692.492337972 35714922.012451924 30515030.459206715 36669760.96586503 30347427.578279596 6947482.2998446105 7304231.065450876 28695223.98940764 80191423.05277485 50151238.01712455 41613341.37843985 37162504.880420014 11844191.07108806 48618789.94104894 44086173.24755582 100811907.79131828 50154414.293642886 41327584.853824265 53462788.20505828 11792060.863376457 39938781.37543839 58823747.029785216 41869291.18339506 49241814.27182582 47840395.41405867 49382340.924769625 49300127.41431553 43552715.674417764 44235702.494949006 27053186.55519234 45130125.58164914 47278976.31293191 70251064.10510434 49068316.24566451 40343314.530308746 22263077.818985473 29281196.3786908 75592946.99695636 54373771.27520996 47165385.795891784 26845258.4859948 51185271.455623455 39280613.02421909 68322742.85858656 41424488.83443204 35171697.62193534 58615163.91866538 52014322.10316271 85957898.93161708 28101700.458152067 48016769.20158508 35480858.80747223 26344800.69275158 48012862.07186937 167028.82534690996 47438160.7398008 70315787.48500915 47810286.222874686 67161690.81471153 47995516.703577735 49352470.80210065 4818576.571895918 58446531.31375031 5710072.185881182 46946002.96326372 14717528.716810392 20565906.73684753 17258120.819153644 16651545.652106613 10806958.589270454 10907942.589041399 42971791.3992981 62036798.63157296 48332153.918292895 49216412.80502865 28593989.32899117 17111692.82169974 14536952.067634271 17971411.379722647 17082117.817015503 47801149.31975464 26720243.17415911 166628.56607354575 51566837.476984836 32455781.179221872 43059246.28732036 56336222.20717975 10990267.337290876 49387197.55837117 59086001.53266731 40093580.19563175 46244724.74299409 11020551.615662422 35823077.44023129 49898886.14755655 9050447.15570218 50077524.52236721 10266641.808465622 10196176.20224152 48951858.05911464 48899572.21270454 26108250.569588665 50255506.52885766 23990324.586873 25181328.76452308 25153811.07791811 67569891.76979904 47393041.27457881 48006138.623743005 5231996.6520108925 17974983.099105757 47532007.26514901 16030753.119694736 60654496.70556911 50093418.81559269 44332023.350291274 75181101.80585183 38675662.19533442 57409260.36991234 19975887.187411197 38374462.6455002 46550810.51215945 45039262.780047685 29170438.010335162 35254064.25587155 22796336.434911177 59864818.59218222 53444036.13428569 47370963.71888364 51403298.3573079 198015.09866732312 167546.6675211433 196087.97253954274 171127.03358239558 48143652.606604196 34166493.051845185 48252161.600977935 30993953.488508847 45255235.941491954 52019965.63094693 50360139.264257096 27770951.244067468 37981433.05086991 52655802.40059759 2026023.4513879234 49754754.11417964 41483323.84170654 38126308.61148604 47331314.59067606 34605437.169226356 27712970.907833867 50901956.614631474 43477227.897214204 189906.32907370047 48597952.85889905 50036568.4464002 9072474.87627828 29676406.802329265 29709210.182351176 9169164.069852168 56756289.44831117 29447601.075201027 29353333.777765017 46634202.39684386 190658.5407909809 48727075.16838858 44533655.29452743 47160481.74434147 47233206.43539622 31168048.09713443 99128001.02087742 49631959.15434648 48221552.715684645 8979049.593842879 134282520.73099285 8935900.225158567 50329747.35098833 34117824.20473721 49185815.860739656 33205249.31313832 16990014.73477987 51398931.64644891 51400915.84124371 7967131.457600326 82325816.64926377 38626060.55022741 21380147.56540664 28702781.73708544 12831291.576684887 48259727.10727729 42351665.52695818 34445572.08917104 53714119.426129416 35442792.30813055 97861605.92392217 36696842.41851996 77996984.9233216 46649245.13992338 39717276.555710346 47103236.78610849 206969679.64078584 19674446.5812061 46092765.78470158 54318524.19828606 61292131.91491049 19265771.143383685 32252310.127578035 42973123.251504146 36364868.01779817 49234531.778009176 48037162.135669254 32235259.68122996 48780746.75369635 19637704.409170967 39221958.446751684 86894991.16538379 32598271.869183157 49292046.7888242 39393789.97167591 28955247.760040823 54300874.19647578 41300449.10551189 42093485.668053135 4659293.037847571 112697431.75372544 31080734.65376556 35078637.5031342 48371364.098352656 47080682.96606327 47080110.585360974 48461380.22965517 45000042.830754645 6161171.375704882 28471887.70383594 6892326.587524976 48887960.58305889 39237491.913555205 46961559.26532349 50613928.74181885 47840173.541369766 46848848.003806084 66224548.83446093 43717886.01124817 53754638.01981405 18224937.338648956 47207210.26806741 49645382.69034274 49606367.22484097 35930763.18124038 18396815.009463344 49092956.25697446 34871611.46440141 57939162.176445685 46311387.45211029 43776590.71714788 48750862.665614136 24227793.964274537 48770328.12189552 43635149.59051301 36515064.63751863 47225277.03550534 39949316.41911666 48209879.50980632 27563506.913028814 47937624.75583312 120523621.96277425 48160213.17644747 73922381.81432872 28581191.1336294 48498880.97793744 55362841.817291476 36839876.87550289 40830950.45475268 50555194.29802128 45068661.985932395 47959891.63038149 54971944.00147702 47531827.40433892 32810609.020944737 28051099.93703509 45480939.82650281 27003516.13230154 52004696.34231322 39088568.152016886 48652189.5723374 41194440.15856003 48318192.74660717 35373462.96858332 50324611.551469035 51132091.87581053 35412088.39107621 19495329.41070557 19558219.131619148 106069209.99321692 37268018.28161619 42869279.46394802 40608616.35030775 19009531.26199601 41593486.11394521 46722547.038988605 47969983.68665513 48581367.341568194 36234964.09535388 48270552.762917265 41675446.04898658 81659538.29303038 32775379.47837496 22670944.173640084 19302896.982182123 33929172.46098136 49041688.85533031 43100269.60317848 103287053.84812742 47431170.783835776 37027771.16188608 41867170.931017235 46361296.54773354 47023849.87875672 39815677.736057736 84836934.8626074 87852788.79555635 36282651.328094415 46396095.801895626 17275103.228696596 48519770.52917327 43495637.966442026 32719474.31278391 50796311.16207258 78673709.005767 37643939.9130369 18744626.19625491 53920651.588352524 5056782.115020615 46168467.1629011 56148421.245265275 49120447.95964781 40485823.835903764 18260287.639905915 4923478.638126932 42428985.81859975 43865073.71567658 41325900.296894416 49228113.52902625 19239530.167758692 48138120.33573223 147484729.1643341 48845674.00325225 37253096.9599076 85773125.58710654 48415301.26675574 58211230.302876025 23375955.306935742 13201211.041905176 1308827.0922018157 50706816.509687334 41334024.08619417 19732122.9210522 14192654.892643945 42104889.77354621 49010395.3541599 35621102.11162553 46523272.77398334 48265696.32406206 48748412.47310099 82213599.29199697 59834895.658545345 54045505.94616024 55563066.209092334 39013391.808384016 48610065.94661706 17804155.541559864 41523585.974863626 60986308.836479194 99935263.63119805 47454290.25713743 11425291.561572464 25304556.3061855 13613147.303599065 21300004.74069973 37372203.737711534 32019883.82699324 32351593.700050678 49075477.25828633 42396198.17092544 47965612.09562652 55161085.15824078 60663097.2802298 48078506.5003955 46514080.72182968 50887857.99078496 15475939.675189188 35776488.02608735 24443847.364417225 75352903.92351535 46526862.89052729 34458297.87166306 45130774.488362774 11383152.188688215 61221974.042480975 33123196.292383406 46425984.72216168 50699369.33436641 59974560.96467171 54160001.77990291 53045578.96015363 33824885.14544867 51820606.74972272 41382428.708183475 36955830.10029478 39543154.81148484 46978795.97556773 39561561.857868865 21003403.17536815 28978972.652488656 48005527.86623345 54825462.98108233 46047663.86071142 126759954.85946985 47757055.95731831 51670591.95856933 39821758.343616635 38135044.12908082 47321344.69591073 27311477.455612678 48159806.77646171 30681072.767356195 51682661.0217778 66818855.57972685 46603377.57689204 8170402.017855751 47957059.572486036 36833538.104853466 49047864.72591447 38750236.31065013 48028028.203068145 48783600.884521596 19813997.85473702 48569585.25881187 47908625.164527096 48635494.08496869 43800727.5740781 49053194.4819512 13599042.17362268 50497301.5082775 31087016.050713032 44109497.438212655 29006220.972505823 13552914.331570135 49089655.198818 32944206.22865786 49927738.799935326 48132769.16137604 130979534.1753993 48029202.340235084 3742391.934168151 11429108.838984603 107758030.79688238 32009986.47058369 48559864.173823595 37349498.390906855 47420154.559598364 48069838.89874941 46171742.43961779 8353651.325071805 15458155.850172171 47811613.498799756 45223537.64022728 47432413.855291754 47132862.68037087 48414805.24835794 27223912.707599077 47035357.50330738 47642190.219674066 48288300.89726353 48511070.671411075 15987085.074092807 9445955.377247756 44327731.59555571 47699492.94143038 48282147.67725444 36933096.15409656 56739238.84669502 60690416.61325226 48346191.770373784 48127335.20818192 42571742.2907015 58111838.57999833 19890053.311384693 62562351.84539523 47493513.08767413 50252427.286253735 47454972.498735465 50742465.13700137 24845435.95669718 51835635.427093394 47847444.18470076 64596797.865923196 47794049.45918119 70982600.97835885 68348148.27597977 20045360.461691495 47815725.44914957 47711123.12761084 50984366.196076855 160999778.63073555 46327556.47782555 49376702.676800795 46050620.13851797 18004067.717844713 18003394.609531038 34963979.981453635 33654357.4056245 26139743.13055904 19200618.517840866 44588467.51554751 19944103.79881239 40423664.271011956 49232964.79339248 48512532.184223615 20255788.33360579 23490357.12422836 58166700.718145415 51507891.95139328 27704299.786137745 45644300.259306945 63448408.199808605 46321906.49480648 38720089.70389605 74635561.60582623 22918732.333711803 48529392.37156602 48707839.622596525 16038799.1069143 32240744.081381842 48933569.31291287 48994840.31673257 140059474.95038846 48849508.33038317 33527554.849493127 35294723.15050849 35479658.55182908 3801081.70894082 49479885.15385261 61500894.82359735 3815946.3285858748 60074282.559675 64399140.77523182 10399871.799975164 4539377.605178562 43766350.99748465 69066764.92663234 56487871.94584248 21315329.571275722 36942848.77283698 48053861.91910181 39676874.453918755 48197028.91012123 55369592.49593821 20681805.297634244 103053248.51339468 36884196.98756967 47843783.17175234 13590411.1305699 61386127.512946814 49400877.58403942 48528861.923819326 50379271.48619293 51827286.67852513 49841640.813747905 20079312.137613382 12963094.018861884 49031793.86051363 47643473.38811158 48302401.42132583 41868547.10355817 48882116.00209651 26844426.522245366 50507687.569996335 36107069.43663045 24511375.98664484 36259795.311562195 50928347.588588886 30389074.710370876 13691695.9544423 47433612.972718224 42784077.096303195 22608031.781023677 72525095.81258199 123305256.34772436 48706552.102623686 35880865.79604664 48457373.20537658 54666639.49221064 43856848.712583564 32232083.135400668 47462535.277489096 11466675.77276329 48981525.528110966 49060677.05890354 37696050.27641167 47674983.46147235 48453202.53234131 48529947.19005327 16566051.684164621 42226036.00762897 44292441.919763066 35737044.91538055 21548692.084094286 44068934.335517384 24011061.740850367 23820180.77419527 12519089.540994715 12787152.810286302 24161474.02992027 24113022.14660986 40206868.07797581 22660595.097918816 47309830.15168189 48782245.41943753 48607084.01553014 37161228.22495996 24504230.711808585 12644556.049839623 46742119.247613735 57802633.192711845 55368996.44952156 47793862.97368839 1999310.6609570587 12651863.22651134 18934769.110880543 48093841.20518689 47287200.546805225 68749680.77675314 49823909.861000925 27868970.904843416 65187692.118650235 45793158.518747814 51614012.063076325 59521985.37253629 41056424.79211612 28287972.19230816 24264844.88664226 53280897.20682101 21178860.905628987 22611011.474613376 7686572.233786144 40019281.1646541 48795508.57789929 59063572.65422611 31814748.283812497 50715603.045929 18811907.206439447 53667240.314790316 28346503.595073666 48418244.54675201 19444223.798258748 19901289.127542812 47516207.90733782 25060291.581412654 36041856.11892731 23768956.131535012 48205961.24510695 4963666.057543149 48114926.304243945 48297730.49580492 62421517.48346713 1496123.3909627378 47291569.17818067 25995284.061748933 25679192.281318847 13389720.025425619 13317955.098511389 53920942.31636223 26125707.45508704 26074099.9454231 13264814.958043272 47282334.569716804 13274119.434880007 54717393.58095774 48076147.97762981 47585581.45821442 17376465.05887995 42436709.475939855 9203766.239354301 39892436.78082606 48490609.71060891 18557972.0374507 40744206.567503564 22881599.865876645 53011378.176332265 63040551.6159302 34540497.29496139 42698902.19280268 72050062.72466518 23412906.379123587 38683094.6777049 33314221.79085622 42655042.73448403 31484935.463457126 49312381.21772117 39789448.610877216 48135888.9076416 21544388.635534056 60134808.37278915 50043546.39616439 19732508.59634353 59582159.56855588