# vtk DataFile Version 2.0
Really cool data
ASCII
DATASET POLYDATA
POINTS 2100 float
10.0 25.0 0
9.749999999999998 2.5 0
15.25 2.5 0
15.0 12.5 0
20.0 12.5 0
19.75 2.5 0
25.25 2.5 0
25.0 20.0 0
13.421875 5.0 0
12.5 5.921875 0
11.578125 5.0 0
12.5 4.078125 0
23.421875 5.0 0
22.5 5.921875 0
21.578125 5.0 0
22.5 4.078125 0
13.421875 21.5 0
12.5 22.421875 0
11.578125 21.5 0
12.5 20.578125 0
23.421875 17.5 0
22.5 18.421875 0
21.578125 17.5 0
22.5 16.578125 0
12.5 15.5 0
20.0 15.5 0
20.0 14.5 0
12.5 14.5 0
9.995967741929068 24.63709677361624 0
9.99193548384352 24.27419354591668 0
9.987903225752747 23.91129031774724 0
9.983870967693909 23.54838709245178 0
9.979838709643776 23.1854838679398 0
9.975806451588815 22.82258064299319 0
9.971774193518987 22.45967741670884 0
9.967741935433088 22.0967741889779 0
9.963709677331826 21.73387095986437 0
9.959677419249761 21.37096773247854 0
9.955645161201263 21.00806450811359 0
9.951612903119845 20.64516128078604 0
9.94758064504518 20.28225805406609 0
9.943548386962053 19.9193548265848 0
9.93951612887461 19.55645159871496 0
9.935483870792845 19.19354837135627 0
9.93145161272193 18.83064514497369 0
9.927419354633525 18.46774191701725 0
9.92338709656502 18.10483869085204 0
9.91935483848279 17.74193546345097 0
9.915322580408823 17.37903223679417 0
9.911290322326463 17.01612900938176 0
9.907258064267786 16.65322578410088 0
9.903225806182238 16.29032255640144 0
9.899193548092457 15.92741932832128 0
9.89516129001441 15.56451610129687 0
9.89112903193036 15.20161287373247 0
9.887096773848848 14.83870964639635 0
9.88306451577868 14.47580642008116 0
9.879032257707456 14.11290319367111 0
9.874999999632388 13.7499999669152 0
9.87096774157541 13.38709674178694 0
9.866935483520326 13.02419351682927 0
9.862903225484896 12.66129029364055 0
9.858870967443991 12.29838706995923 0
9.854838709394688 11.93548384552203 0
9.85080645134599 11.57258062113923 0
9.84677419328547 11.2096773956924 0
9.842741935225352 10.84677417028196 0
9.838709677185804 10.48387094672252 0
9.834677419124317 10.12096772118856 0
9.830645161077069 9.758064496936328 0
9.82661290301319 9.39516127118734 0
9.82258064496042 9.032258046437814 0
9.818548386911868 8.669354822068383 0
9.814516128856654 8.30645159709885 0
9.810483870799494 7.943548371954425 0
9.806451612739686 7.580645146572026 0
9.802419354698465 7.217741922862086 0
9.798387096668439 6.85483870015975 0
9.794354838615694 6.491935475412687 0
9.790322580551589 6.129032249643185 0
9.786290322498939 5.766129024904508 0
9.78225806445883 5.4032258012946 0
9.778225806418291 5.040322577646533 0
9.774193548368817 4.677419353193986 0
9.770161290304422 4.314516127397968 0
9.766129032236005 3.951612901240819 0
9.762096774198463 3.588709677861742 0
9.758064516136995 3.225806452329888 0
9.75403225807409 2.862903226668307 0
10.11666666610577 2.5 0
10.48333333385953 2.5 0
10.85000000105818 2.5 0
11.21666666867316 2.5 0
11.58333333336224 2.5 0
11.95000000131839 2.5 0
12.31666666820478 2.5 0
12.68333333056934 2.5 0
13.0499999971377 2.5 0
13.41666666013254 2.5 0
13.78333332331241 2.5 0
14.14999998971309 2.5 0
14.51666665948202 2.5 0
14.88333332845008 2.499999999999999 0
15.24107142855263 2.857142857894746 0
15.23214285711795 3.214285715281784 0
15.22321428568154 3.571428572738167 0
15.21428571423432 3.928571430627341 0
15.20535714279942 4.285714288023047 0
15.19642857135995 4.642857145602022 0
15.18749999993289 5.000000002684433 0
15.17857142846358 5.357142861456524 0
15.16964285700679 5.714285719728339 0
15.16071428553705 6.071428578518076 0
15.15178571407274 6.428571437090492 0
15.14285714259704 6.785714296118296 0
15.13392857114501 7.142857154199406 0
15.12499999971972 7.500000011211233 0
15.11607142832301 7.857142867079478 0
15.1071428569088 8.21428572364799 0
15.09821428549156 8.571428580337546 0
15.0892857140937 8.928571436252073 0
15.08035714273443 9.285714290622575 0
15.07142857134667 9.642857146133258 0
15.06249999994795 10.000000002082 0
15.05357142854956 10.35714285801773 0
15.04464285713485 10.71428571460605 0
15.03571428570876 11.07142857164946 0
15.0267857143025 11.42857142790003 0
15.01785714286502 11.78571428539929 0
15.00892857142013 12.14285714319497 0
15.3571428591223 12.5 0
15.71428571719138 12.5 0
16.07142857423201 12.5 0
16.42857142974857 12.5 0
16.7857142846084 12.5 0
17.14285714112862 12.5 0
17.49999999772317 12.5 0
17.85714285297952 12.5 0
18.21428571083795 12.5 0
18.57142855939082 12.5 0
18.92857141386655 12.5 0
19.28571427430228 12.5 0
19.64285713574168 12.5 0
19.99107142854329 12.14285714173175 0
19.98214285710808 11.7857142843235 0
19.9732142856822 11.42857142728799 0
19.96428571423453 11.07142856938133 0
19.95535714282337 10.71428571293464 0
19.94642857136245 10.35714285449797 0
19.93749999989375 9.999999995749876 0
19.92857142839276 9.642857135710214 0
19.91964285692271 9.285714276908246 0
19.91071428546458 8.928571418583031 0
19.90178571404575 8.571428561829856 0
19.89285714258144 8.214285703257598 0
19.88392857110147 7.857142844058753 0
19.87499999962442 7.499999984976929 0
19.86607142823917 7.142857129566706 0
19.85714285687816 6.785714275126081 0
19.84821428547457 6.428571418982778 0
19.83928571407323 6.071428562929247 0
19.83035714264225 5.714285705690037 0
19.82142857123506 5.357142849402467 0
19.81249999981376 4.999999992550225 0
19.8035714284025 4.642857136099819 0
19.79464285702924 4.285714281169751 0
19.7857142856151 3.928571424604182 0
19.77678571422344 3.571428568937625 0
19.76785714281399 3.214285712559351 0
19.75892857141964 2.857142856785682 0
20.11666666646139 2.5 0
20.48333333599902 2.5 0
20.85000000037297 2.5 0
21.2166666666204 2.5 0
21.58333333661485 2.5 0
21.94999999805711 2.5 0
22.31666666291099 2.5 0
22.6833333246655 2.5 0
23.04999999031157 2.5 0
23.41666665336712 2.5 0
23.7833333158213 2.5 0
24.14999998189816 2.5 0
24.51666665379502 2.5 0
24.8833333260793 2.5 0
25.24479166666316 2.864583333578429 0
25.23958333332243 3.229166667430228 0
25.23437499998316 3.59375000117879 0
25.22916666664224 3.958333335042977 0
25.22395833329952 4.322916669033526 0
25.21874999995567 4.687500003103358 0
25.21354166662136 5.052083336505047 0
25.20833333328796 5.416666669842317 0
25.20312499994325 5.78125000397244 0
25.19791666660968 6.145833337322924 0
25.19270833326647 6.510416671347334 0
25.18749999992573 6.875000005198308 0
25.18229166657996 7.239583339402762 0
25.17708333322847 7.604166674006945 0
25.17187499988757 7.968750007869894 0
25.16666666654491 8.333333341856315 0
25.16145833320392 8.697916675725455 0
25.15624999986355 9.062500009551652 0
25.1510416665306 9.42708334285754 0
25.14583333317543 9.791666677719402 0
25.1406249998306 10.15625001185779 0
25.13541666647126 10.52083334701201 0
25.13020833313536 10.88541668052437 0
25.12499999979433 11.25000001439681 0
25.11979166647349 11.61458334685533 0
25.11458333315809 11.97916667893395 0
25.10937499982347 12.34375001235711 0
25.10416666650693 12.70833334451501 0
25.09895833318476 13.07291667706603 0
25.09374999985275 13.4375000103075 0
25.08854166652795 13.80208334304352 0
25.08333333324327 14.16666667297151 0
25.07812499994489 14.53125000385754 0
25.07291666664035 14.89583333517551 0
25.06770833336538 15.2604166644238 0
25.06250000006882 15.62499999518263 0
25.0572916667336 15.98958332864792 0
25.05208333341046 16.35416666126748 0
25.04687500010878 16.71874999238476 0
25.04166666678705 17.08333332490666 0
25.0364583334479 17.44791665864697 0
25.03125000011321 17.81249999207509 0
25.02604166678298 18.17708332519102 0
25.02083333345432 18.54166665819793 0
25.01562500008643 18.90624999395011 0
25.0104166667187 19.27083332969072 0
25.0052083333458 19.63541666579472 0
24.65909090697006 20.11363636434331 0
24.31818181387862 20.22727272870713 0
23.97727272112545 20.34090909295818 0
23.63636362933978 20.45454545688674 0
23.29545454074166 20.56818181975278 0
22.95454545175678 20.68181818274774 0
22.61363635870555 20.79545454709815 0
22.27272726938004 20.90909091020665 0
21.93181817642107 21.02272727452631 0
21.59090908415283 21.13636363861572 0
21.24999999070893 21.25000000309703 0
20.909090898365 21.36363636721167 0
20.5681818062032 21.4772727312656 0
20.22727271532826 21.59090909489058 0
19.88636362288735 21.70454545903755 0
19.54545453222531 21.81818182259157 0
19.20454544067146 21.93181818644285 0
18.86363634917439 22.0454545502752 0
18.52272726008306 22.15909091330565 0
18.18181816691119 22.27272727769627 0
17.84090907624678 22.38636364125107 0
17.49999998161302 22.500000006129 0
17.15909089129634 22.61363636956789 0
16.81818180107666 22.72727273297446 0
16.47727271035784 22.84090909654739 0
16.13636362113641 22.9545454596212 0
15.79545453028867 23.06818182323711 0
15.4545454400335 23.18181818665549 0
15.11363634812483 23.29545455062506 0
14.77272725866684 23.40909091377772 0
14.43181816866006 23.52272727711332 0
14.09090907805834 23.63636364064723 0
13.74999998745307 23.75000000418231 0
13.40909089754563 23.86363636748479 0
13.06818180839043 23.97727273053652 0
12.72727271853859 24.09090909382047 0
12.38636362812021 24.20454545729326 0
12.04545453791708 24.31818182069431 0
11.70454544876188 24.43181818374604 0
11.36363635991656 24.54545454669448 0
11.02272727049761 24.65909090983413 0
10.68181818161208 24.77272727279597 0
10.34090909059876 24.88636363646708 0
13.29836716804519 5.460937501850858 0
12.96093749805554 5.798367170236416 0
12.03906249886036 5.798367168455805 0
11.70163282969542 5.460937497937477 0
11.70163283195481 4.539062498149142 0
12.03906250194446 4.201632829763584 0
12.96093750113964 4.201632831544195 0
13.29836717030458 4.539062502062523 0
23.29836716853658 5.460937500999747 0
22.96093749805866 5.798367170234614 0
22.03906249972091 5.798367168952648 0
21.70163282978201 5.460937498087458 0
21.70163283146342 4.539062499000253 0
22.03906250194134 4.201632829765386 0
22.96093750027909 4.201632831047352 0
23.29836717021799 4.539062501912542 0
13.29836716891448 21.96093750034519 0
12.96093749723044 22.29836717071278 0
12.03906249968323 22.29836716893089 0
11.70163282943968 21.96093749749452 0
11.70163283108552 21.03906249965481 0
12.03906250276956 20.70163282928722 0
12.96093750031677 20.70163283106911 0
13.29836717056032 21.03906250250548 0
23.29836716933758 17.96093749961236 0
22.96093749736115 18.29836717063732 0
22.03906250038764 18.29836716933758 0
21.70163282936268 17.96093749736115 0
21.70163283066242 17.03906250038764 0
22.03906250263885 16.70163282936268 0
22.96093749961236 16.70163283066242 0
23.29836717063732 17.03906250263885 0
13.0357142863834 15.5 0
13.57142857334916 15.5 0
14.10714285783675 15.5 0
14.64285714470339 15.5 0
15.17857143070267 15.5 0
15.71428571720997 15.5 0
16.25000000702564 15.5 0
16.78571428904744 15.5 0
17.32142857412979 15.5 0
17.8571428511085 15.5 0
18.39285713616606 15.5 0
18.92857142211578 15.5 0
19.46428571101452 15.5 0
20.0 14.99999999601014 0
19.46428571160309 14.5 0
18.92857142040583 14.5 0
18.39285713577575 14.5 0
17.85714284336419 14.5 0
17.32142855637984 14.5 0
16.7857142655791 14.5 0
16.2499999775787 14.5 0
15.71428569556309 14.5 0
15.17857141150299 14.5 0
14.64285712475407 14.5 0
14.10714284117721 14.5 0
13.57142856006613 14.5 0
13.03571428124737 14.5 0
12.5 14.99999999867727 0
20.87926174419512 19.5696034411492 0
10.76693579849485 7.960845734708126 0
14.34561271765185 22.85433860613167 0
11.47962633612475 7.337292949106814 0
10.46542708359594 11.16018448720019 0
10.75347400406053 10.26941061948403 0
23.64708963593545 16.44389520932235 0
14.04676332873744 9.24035931789883 0
24.49299744728386 16.58039413547067 0
10.91763068722984 3.735177334207842 0
24.73642135345678 13.28265634513896 0
11.16050392556688 11.34185087003754 0
10.64378009783683 16.10641305648312 0
11.19654435308302 8.294277055828092 0
10.52012016792054 12.84862770477801 0
23.1307429520899 10.76151008912228 0
12.26855302895588 17.90027633081917 0
22.52487306508581 14.19885007275848 0
21.92821098491749 8.20461052148426 0
17.92660767235383 20.93964780225291 0
10.34037549360721 21.54821176900124 0
13.41114023473177 12.88575353729392 0
12.90305305797102 23.16921798342003 0
12.48598302615891 8.683873902104045 0
20.74510319330777 4.579063468560645 0
11.54190688686175 10.14665323963807 0
14.13462996741164 17.15726187501028 0
11.37214324221081 16.45547526684016 0
24.19301233846699 7.805414537154686 0
21.45575204264994 9.699731514915591 0
11.18583050578719 23.34195982442194 0
20.36451079589184 6.752899291285527 0
15.22207231461517 16.09938744945503 0
20.93692025170374 3.632325648595895 0
23.81851121351307 19.13690347653731 0
12.11661702016564 6.735811099187758 0
19.74910211334971 17.33105835599163 0
11.1402503009983 8.985375481130404 0
10.6891289828577 19.75264819231983 0
14.62216278454085 17.76926002388215 0
16.21449520927434 19.32408146557795 0
17.54247913630972 17.66647690971214 0
14.06307974735431 3.632325650527945 0
14.88942394758317 21.85017070417955 0
12.82339158391127 3.671279982166754 0
14.3188369590314 11.33388682014325 0
10.37351614563573 22.52032664513835 0
21.22690908305351 15.81475980062771 0
12.55979081749386 8.175466058265254 0
24.37242991132509 10.25882503066229 0
10.86243969339617 16.50094560840136 0
20.70596577369831 17.80673344813175 0
23.66553045081253 12.47726421352702 0
14.16769648133712 9.743421202592383 0
22.53259553031958 15.44633174782315 0
21.62115299936832 11.50753291818655 0
14.24494299380497 18.65717572143202 0
18.5623658460766 16.84830992640798 0
13.38440823838485 10.10732064809205 0
20.68804083569888 9.386559990894044 0
21.72832633649768 8.894435114476352 0
15.30526626161381 22.36440156537989 0
10.49565688826162 9.050443022233708 0
12.80426449419483 23.76778445474842 0
21.10066586066611 10.78510938188255 0
15.65061532012061 18.27889490108614 0
11.12232793422428 14.28806565625022 0
11.11282653076565 17.91014868200437 0
10.92281663126531 15.36798270801327 0
16.37815975264748 22.35029651623865 0
21.39949901137902 7.642352638214108 0
13.7394611756943 8.969448826953684 0
22.48617707222847 7.602667767664386 0
14.34013090633012 13.43624783386841 0
24.17608906893214 18.34727001410604 0
14.54214674628955 6.808463058308689 0
23.79037485481678 11.70860297380536 0
13.24843609410481 10.82183476386151 0
20.74769722874075 5.571661925320683 0
18.49548740429852 21.19521869937873 0
22.21774654354407 10.95711158239571 0
23.37735539992017 14.65726546905671 0
22.47505227668926 9.765096230332599 0
18.69220024875286 13.58837935758354 0
13.0623316942254 12.03201009164595 0
11.26983870332245 9.871710738091563 0
19.83596418223357 13.52224729080208 0
13.38906983829211 16.94798806782369 0
12.45323251385473 9.6933140474104 0
23.23333332183941 3.362742717253947 0
10.75910755561325 9.695943428299632 0
24.66144691512787 7.540798318312698 0
24.54046571236307 12.93180048642188 0
24.26670349746453 9.451849311168715 0
15.18457580633796 13.13884481082663 0
24.51835544626014 8.835311862288576 0
21.95277399109247 9.914884100463611 0
17.12091052419849 19.72514880563243 0
23.98981158658151 12.0309379617865 0
23.63657263825695 19.81761683950153 0
22.46758594920977 11.96058876042335 0
23.28236474819067 13.90033383023441 0
18.12377473809206 21.70044138123217 0
24.16303573632417 14.09371110546193 0
24.69350680553799 19.77891750136157 0
11.76666666734029 3.362742718445123 0
16.45144088254715 13.12429434978326 0
24.07767547702142 3.734478453418761 0
17.40067439163198 20.94427629634663 0
14.58419390032873 12.91045310352058 0
10.95360089956115 20.43953776999934 0
21.66604176600204 14.69062446013161 0
12.49142632874331 7.599141086568945 0
15.33118105570774 21.16599781101696 0
11.63166888880439 14.94830995422192 0
20.79839325857316 10.52277086586273 0
21.5149320297899 6.358324578501974 0
24.73804612995142 10.3792626507155 0
19.19305859026527 19.05644854043653 0
10.41941012571405 10.10539477117827 0
21.3895835165527 20.28280805051011 0
21.44017455353203 12.20121885537073 0
23.53628309018573 9.951001972269669 0
18.68595203767202 17.53389514250043 0
24.7630678587939 14.28724942945577 0
21.00140277640579 13.43946604202484 0
20.33696634113437 5.72970911543534 0
15.18568196291927 20.2177226411598 0
22.47166215698562 8.672700241532624 0
23.89996181885861 3.045827980538791 0
21.45098976254417 9.001217081912344 0
19.27174352207084 20.46897891957615 0
17.88283261615297 13.34754481112354 0
16.03914002520277 17.03513852214081 0
15.85158496963045 18.96682761488129 0
20.74570242300587 10.1553279317561 0
23.9765094771106 4.938735122356055 0
14.60529262533178 7.7734128712759 0
10.53799095210939 14.65760445881975 0
10.31992818520318 9.459045954024258 0
23.83398968325283 15.7592862940985 0
22.00633054110961 20.33295050298936 0
11.53814456701295 22.7457269589241 0
14.65705954707989 21.38559208567312 0
16.11549192443213 20.42196740688504 0
12.09965683162524 23.22674390000467 0
21.89264412162236 6.866200624362901 0
24.05643717288027 6.320266923287722 0
10.76740231927251 12.23540759067344 0
23.75200537909198 8.112200481142276 0
11.47166286973301 12.91387470121627 0
14.25489680155023 4.579063476235258 0
13.65053521550159 7.666928091490941 0
14.47854128654378 19.57251521592995 0
24.01843201815491 10.96535274533259 0
12.95605953831913 19.20067007481594 0
23.47007627674908 11.95861263532219 0
21.95436550190286 15.96162617456297 0
20.29821155287116 18.45193731689386 0
17.58820052548336 21.53588378940034 0
23.55966343878145 7.467883185681804 0
19.74427444401963 21.014508823471 0
17.02208545153932 13.5883793562974 0
10.57504674923764 4.424705022863098 0
11.39013063361545 19.32095785712218 0
13.73650145160208 11.58588562937332 0
13.70591603132103 13.52921635848485 0
14.48844536040823 10.20905501766529 0
14.17584751629183 12.30071315236202 0
16.20739301211704 18.62537595271789 0
24.59874141899597 2.766862068096364 0
14.35129830559922 7.28644346419942 0
21.78684613747726 2.789987429931423 0
20.73723373060445 12.67737174623776 0
24.60610542207726 6.54242530311991 0
16.68143916258201 21.03041318580351 0
15.90010015940529 13.43516146779568 0
13.51602782971774 18.15609710685709 0
23.00849860239654 19.64428256688759 0
11.60166491849357 15.74029418786047 0
22.4893409787785 13.15732631373419 0
19.48125203075644 18.27352666026022 0
23.7867280389534 13.16268647699916 0
10.71817280099789 10.58769530748553 0
17.75091653346641 20.42313801966715 0
12.43996485225578 11.54258394224151 0
10.78996735251077 13.45157320427472 0
15.63599388401891 20.61709640510469 0
14.39401224823897 20.71504027807638 0
12.17166169726722 18.81905466812785 0
11.71326174251189 12.00183929941013 0
13.19126205572783 8.340528546581796 0
20.39546999394495 20.94625790189691 0
14.14423767976582 10.73657168597919 0
21.70743789147033 10.40556637576474 0
24.17439963707973 16.88861492726902 0
12.57402603630074 10.58854653257664 0
22.87909221070177 6.707716764292158 0
11.72338123258225 8.216975724366273 0
13.64499581510276 22.86680566945595 0
10.38521795394286 5.940948287246996 0
19.82602511840427 16.40026973804153 0
16.04126771277219 21.94556181360532 0
14.5471439821359 22.16415926842161 0
22.9830473447004 11.46274686282929 0
24.72898360602961 15.07113801280784 0
14.6655946948493 20.27029943843479 0
22.06819498133222 19.72731223052073 0
17.78247533506791 19.02994995053739 0
20.42330119725824 20.474449084161 0
18.52300789510665 19.79637104306948 0
11.78640285603806 10.86151358875746 0
20.8682158772193 14.36807125311124 0
11.51365179597161 13.51254311982644 0
20.93113618058547 6.590722841714864 0
19.70394306050059 18.92028411499266 0
13.89066792111396 22.27666247883954 0
14.03522151993681 6.56824142578128 0
11.13857525721878 17.41201466018981 0
23.79891515952715 8.734826104824572 0
22.59617112282524 20.13752925375162 0
16.69328970387328 21.33363241878971 0
15.63810317665389 22.15650152457088 0
23.16037543359111 12.71269697296794 0
10.70699279459683 21.53418222579697 0
21.00464153941633 8.649595666488615 0
17.83898926321109 17.01184485552723 0
17.98006384517337 12.97713982583745 0
13.12338702217663 11.14971369163239 0
12.23623787537429 8.247583171410799 0
12.32071720314686 12.04157104843 0
12.38126208978371 16.90266388154755 0
19.8675449196238 19.71394432980479 0
16.73221968701639 17.63056157063046 0
23.18247071792871 8.154463792186556 0
22.5015322354362 19.15211785179649 0
14.48172821810246 11.85498881911507 0
11.15403525733403 4.373229117968603 0
18.68844274488901 21.48997797652389 0
14.54703120726459 6.247023436147492 0
20.45082310968033 6.238725165962605 0
10.77245277735322 23.97400269980002 0
11.35045208567221 9.517097381132533 0
19.11988031607901 21.23770354480194 0
13.93602195905128 7.369774015175084 0
12.41490748085309 11.80321704286344 0
14.14656049300497 16.35209588229334 0
10.72947953193557 18.56591900637744 0
24.28058021257259 7.143296131371907 0
20.71167996194922 16.80860324074423 0
24.23125225081849 12.46021183720453 0
24.35252906862623 19.52739520400661 0
23.18762753916039 9.180919555944367 0
18.57105816420878 20.50427039876475 0
15.72321782773324 19.77884123018412 0
11.48288283601023 6.679621580847893 0
24.43473979535708 13.20570331300682 0
14.42560733440443 10.63398772078447 0
11.44765789866697 8.135272936065489 0
24.36716988303974 16.19194371244003 0
12.21287952446277 19.73084346417367 0
15.37421177198899 19.10816525270233 0
10.38680140326267 3.117255783968248 0
24.58809755224586 10.7488408800161 0
24.5574432818133 17.24448477544303 0
10.92140632295867 22.4685494876171 0
23.65112897351846 10.51517611368053 0
24.61143746679569 3.117718346410273 0
10.70275444309333 5.403875982756275 0
22.75187950347916 14.84715282266213 0
14.626077576089 4.041915668495021 0
24.45899781090877 14.54679298766728 0
24.40191661157142 13.50132359721802 0
10.92178275574912 6.2979344842372 0
17.08264389442253 16.61185750634084 0
16.93309364422369 20.59718179147318 0
22.98349692333714 10.00346413819387 0
21.1810507478061 20.55526472838746 0
11.10437052996226 13.78903726535069 0
12.44189546489803 12.58020680621002 0
13.08695692110766 9.182410882384666 0
11.00953190706777 23.65710842008977 0
22.28376044501181 9.221839163524795 0
10.19694886130395 13.22269792862497 0
24.44034824712502 15.55550761969819 0
21.74495579705244 13.00419039731602 0
13.54101476565207 19.93723445993837 0
18.72948096523697 17.93046363564187 0
13.73796800972159 8.31801239864984 0
12.66381063825767 11.91418050315591 0
10.36190840171662 12.40292558380801 0
13.42423646701128 23.3408912593692 0
13.10425565343783 6.866060339105649 0
21.0231240813423 12.78199113072585 0
22.65872797561473 8.134357748800717 0
13.03696809389894 13.6436393372874 0
20.46760993681048 8.773190964935974 0
17.87545601640494 18.3040087247486 0
16.71925096808157 18.87961149786032 0
10.5342767452132 17.91718745232819 0
16.79264513439217 22.04675840300608 0
14.66300164100546 5.729787107748638 0
24.63259771680549 9.812348927859798 0
22.87673024403394 2.981297508422183 0
23.90361940921983 14.5454735468545 0
17.28269021038436 13.02203855497645 0
13.99688826018262 23.07191324992813 0
24.15534663541772 15.04525210656935 0
23.39356239920827 6.149392233195145 0
11.93986138931626 7.668576288092624 0
11.00773775701251 10.10799527315977 0
18.32017670063122 13.89343365893288 0
10.76203281505812 17.22152602840843 0
10.98556301553288 20.81898347359201 0
22.84548438309879 8.912816960603905 0
14.42565171558632 9.166686811838971 0
15.95076795869629 21.30030255244571 0
14.2522777273472 5.571634612524507 0
11.14780161005278 16.91278747592914 0
20.40007579389652 5.057579655061069 0
10.62048827715618 22.9934329948271 0
24.63535508679728 13.98182654626073 0
20.39977481284692 13.8677695522701 0
23.58730925537924 11.36152882617045 0
21.60751394959025 13.79589274062449 0
13.95890055651756 4.963096320263851 0
19.20118702257015 19.76668124456841 0
11.21791493014912 21.90276721312273 0
11.17055093576062 21.19641116302612 0
12.25094497453714 13.59067760316269 0
10.28157088548216 15.72739336312697 0
22.21821957683994 12.59642468143763 0
17.02648555203663 20.97489526899251 0
14.98560794961119 16.66638074429319 0
18.89955624358838 20.27892015483477 0
16.11908100996322 17.79703824506483 0
16.90601908802575 18.44204530796844 0
17.86907828186183 16.29514585272607 0
16.44563250694691 20.73727422208382 0
24.67805551664544 9.206373537402364 0
20.66486994093782 17.28770915185664 0
11.57252747366195 20.11447398505315 0
13.08753355202219 11.46697476905054 0
13.46683109088509 13.9703194636552 0
13.49147935915501 9.211077352395073 0
21.16641084874287 18.68967902777757 0
16.96627131093164 14.04672706222914 0
12.59810438895455 17.68579692530848 0
14.25103409787601 8.179984152033143 0
11.44185808454485 18.59966126058672 0
24.60782086863097 5.931409460526664 0
20.31540438686178 8.274257182124586 0
11.17182438999785 15.88632025277699 0
12.15610236435551 10.20969586423185 0
22.58981331468517 10.39504815394453 0
20.79297335325624 11.64984698435671 0
21.28732233556197 12.71975467070083 0
21.37184820056144 11.71650314650196 0
18.41916817833627 13.03664624275589 0
17.82295449274671 19.74116655211461 0
13.23264111045154 3.376875513306443 0
24.61571097420902 12.11464182250659 0
11.56383225407374 17.18412800046062 0
22.50000612661307 3.199763632981709 0
23.88530630954046 17.28829476496747 0
13.94981647780751 12.86346279671821 0
21.76735888464624 3.376875510802452 0
24.33787067832739 17.62134370217739 0
11.13585863844378 7.946849800002285 0
13.48748773901709 3.918880601358112 0
24.41573801013828 4.430977913092484 0
24.31402347204473 5.38196775802522 0
21.40062953432725 4.250088442997109 0
14.01780711262477 21.17929043435206 0
10.34833284287219 10.74410964618219 0
12.7478567069111 7.815336820259517 0
13.65325986667666 10.58988671880089 0
11.18390185340312 24.02793943542197 0
24.76436722809466 7.953721478992594 0
10.90995346121325 12.66009514772855 0
12.49999386641629 3.199763635395851 0
20.33096975635486 9.155518447715473 0
12.81298609001582 10.11588465348912 0
16.68673264546278 19.31316553374894 0
10.53095931901053 23.46957554659719 0
13.79077493172361 19.255001881552 0
10.50654671752539 14.01922060259199 0
10.41042442514368 24.31221700142012 0
21.06775286102048 18.11843235730042 0
11.19807339063138 11.88225392418236 0
12.3613996065681 9.188133699599693 0
21.88100703357611 11.15261768516265 0
10.48879075677532 16.65347193091739 0
20.38302963574585 19.90287712447864 0
21.36053859554197 7.042753708975077 0
12.17665444312436 3.670641991401484 0
10.68861367323647 7.186443157029647 0
21.75533274513088 12.54525273262587 0
13.9162357944935 10.18333964040509 0
24.74782970132589 5.577035514503446 0
21.25473713363539 5.964120028717853 0
11.09957724131594 3.046739053588813 0
23.76650618285101 5.390160921238457 0
22.7015837796314 11.01968751007005 0
11.97974567730396 14.53526922451096 0
20.06063787120137 17.87896317873941 0
15.39107878283276 17.5061471147866 0
23.52955403850548 10.9311768803509 0
24.70832086130929 3.827625218124136 0
12.79922102869324 13.12138731595164 0
20.30446326553214 19.1585578980278 0
15.87815632832502 13.02675040025321 0
20.35618141327402 7.611564127599117 0
14.60252249905159 10.86131845170056 0
11.29608459069026 10.64272518106105 0
11.84440012470012 9.18643158130406 0
12.97293342975639 12.55516280066617 0
24.02174455839972 9.877391802958595 0
21.31552264363617 16.46464083083937 0
20.3952764657288 9.772928070093998 0
21.61070699681227 10.91301607668491 0
23.09123214084991 13.30534041154196 0
12.24982670609206 16.15370128530917 0
13.483882463206 8.044768797542604 0
19.70871556346285 14.00616305938509 0
23.7057896501429 9.415048454409344 0
24.6650642612031 4.98020203950755 0
21.51251226027303 3.918880601550224 0
10.39935142407112 11.73222652645093 0
20.58817274449777 7.234167024120827 0
21.46860422491423 19.68708762828425 0
18.42426275003635 18.74103074391518 0
22.59681258724578 11.59674103720264 0
10.53350990976408 20.92426832515625 0
20.67593266975224 7.930768536093856 0
10.57083284583439 19.16894003927808 0
24.32945004421642 11.62375721704693 0
17.37664245539163 18.09192346893921 0
14.62364374731086 22.60206273650225 0
15.8412279602155 22.50366035229838 0
13.63598247088508 7.041857041545531 0
13.67563428314773 9.901754703419979 0
24.15530369024296 13.25719564467715 0
19.63472387157777 21.42658151102797 0
12.2083630738554 17.38871772533421 0
12.47679138270461 22.93031517193654 0
22.54189468177903 15.9967112420822 0
15.52997385963769 13.97194395475461 0
17.14072608198283 17.57317152677103 0
11.39394385849044 3.450679912186682 0
11.13480556464756 14.80173331060404 0
11.10193310985598 13.07671014530384 0
20.18121752773326 7.306368456846871 0
13.58406582759885 9.536004076347682 0
23.78718200260307 13.7474807786197 0
13.47382424502877 11.2583259283824 0
23.59649714457111 18.56058699536566 0
13.10917021438786 7.905765123912142 0
11.49535482529001 3.896723295723064 0
13.16578372831622 22.75821204438834 0
20.2575227441742 4.425141791012239 0
24.64370951396271 8.296801328177516 0
11.80756149702063 16.7330133756612 0
14.76083406648931 3.566938858744729 0
20.4209658830355 3.163797661961449 0
14.83980014215756 2.90134433824531 0
14.29341150041347 2.852107427901662 0
14.57903411438084 3.16379766354659 0
10.28556331275889 3.823402244922978 0
23.34475112534598 12.29969999021819 0
15.53841929353955 12.84711277378617 0
12.04926061967052 18.3327781022091 0
22.16140657483433 12.20732633531181 0
21.33406045738679 10.58601661611245 0
12.79114956432204 8.458979337369854 0
11.67536094740844 23.77608286442673 0
13.96461542850299 9.897648738353796 0
22.75371937276485 13.68835136010676 0
21.25377592158191 19.18978114289774 0
16.86073147696559 12.96249038891501 0
10.83847848116456 21.82805875491564 0
23.11503077620486 15.94832077183022 0
17.32940309899395 22.03121420268425 0
21.28961546298395 15.15355983578651 0
12.17981654808159 11.35115335430286 0
20.56316984918842 12.16969608110631 0
13.05890787398243 7.459855513560638 0
24.55071549341681 9.529521874056229 0
21.25964061228884 10.16632391652077 0
21.94066265658903 11.93450459102575 0
24.05897708266295 10.52821448527939 0
17.56187817958043 16.7227267549101 0
11.87446380127901 14.12334955473303 0
18.17127992282717 20.14287651241161 0
21.13300273219427 7.94174930506315 0
13.96660344574935 17.71289897152285 0
24.89688308099574 7.053113096892329 0
23.87481199607492 19.5182739947139 0
20.25694176472838 13.09970361331808 0
10.9055978564591 11.94602117979919 0
20.5572652136749 11.11516499289742 0
20.02745319692377 20.0216441157555 0
13.77797848096369 11.0812823354403 0
21.93759103574983 7.403947059108988 0
21.79348188562138 19.063442094511 0
17.13774716388249 17.11018371403301 0
21.72895398069547 20.01482214052311 0
20.7731034598129 15.14978638700382 0
21.29946601849316 14.65989550114752 0
12.06745264510233 20.197517509829 0
20.59966911958347 8.201573266755911 0
11.39887464539214 7.858836745078384 0
20.37392242158257 4.041915662035088 0
10.15467830369543 2.900617988265799 0
24.18507325359369 8.370723159915126 0
16.02631230846849 13.95627706002097 0
24.43971405193641 8.511353487574919 0
11.68302052316871 8.900674093170739 0
15.72418945458434 16.32135300040886 0
11.91309709579325 8.713630702603592 0
20.83582282130072 11.34474596289582 0
11.00073570090679 10.90877140752026 0
23.61643486956496 6.742660331355156 0
12.89107997793428 17.06369020582012 0
14.74552006464461 10.54918478327385 0
20.41597938593678 12.54214663048261 0
23.15944948814144 18.99695871682296 0
14.25165528121738 20.04391924325338 0
18.22633429154601 17.50453479335865 0
14.93316505440613 22.79492233111536 0
11.45845975665217 11.64664426404317 0
21.4373365093397 13.4586510386766 0
10.84066921336538 20.11906738908597 0
20.49474507871962 5.387628105761054 0
10.38163337533651 8.45556152410696 0
23.74797561336633 17.86430916983405 0
10.37992691589478 13.58507247426447 0
23.11794102433289 7.144313727382928 0
24.17808920913973 19.20555629948978 0
20.30124215208776 10.88011229855381 0
10.39329664126064 24.00279712315732 0
13.89769526843118 3.042562520493212 0
10.26272468370361 15.0255843231267 0
21.05511197758512 2.720702495433098 0
21.10230472577457 3.042562516191082 0
13.6938117581889 3.418503520979631 0
13.75297706043097 4.5976540922308 0
13.47539986951361 3.064704994416053 0
20.44858055908026 14.29152744727221 0
11.763371471478 20.48133300544178 0
21.92503771126626 10.71264544936699 0
22.60210411747386 12.29537419923621 0
10.3881805738861 18.34000550132264 0
14.9637900766214 18.44386176127292 0
21.0716482398495 17.19358063655156 0
12.92903982232314 16.29666327089898 0
19.01464261921447 16.63497351533535 0
24.18166613128539 8.694576058451316 0
21.60256753000296 15.53580110579546 0
10.72624183541528 8.518783350477499 0
10.39136724201047 18.78373094161521 0
11.80726598348176 11.42343397218303 0
24.40286419730096 18.91661729254312 0
13.14625612850023 23.53487325584317 0
14.73431898857873 7.377678104270821 0
14.08380327028836 11.53733342532007 0
22.74928702081777 7.327290598569871 0
10.38815859156563 6.606654168970893 0
20.08157355636207 4.09985797826096 0
23.15155895885541 11.82068606321173 0
14.61176279029455 8.185324597684858 0
22.17660841199784 3.671279982059186 0
12.20299234985886 10.68289355282972 0
20.32441555934763 10.12446939449004 0
23.99442191363236 9.148702487350887 0
22.12454654555758 8.578241676132402 0
23.9097436376061 7.017584917086958 0
23.38908674062267 15.33088424655567 0
12.58236111428123 23.58658896377599 0
18.74563737173835 20.90408978616357 0
10.38504746240718 17.49212633657774 0
12.42176312766117 12.92328688122165 0
19.26535978934235 13.12330121110195 0
24.83818519760588 6.275102446184503 0
24.39708056639757 19.91024712993081 0
14.6945065872114 12.63187341071544 0
21.07085967098969 13.05425755589506 0
23.60505784452062 3.448985921172027 0
23.84752775869772 4.374253176085865 0
23.01159654155939 14.30152503082807 0
20.97109904048126 20.7624255788748 0
18.03571428190872 12.69818993561667 0
11.80753499987188 18.0038093288088 0
24.0491387883242 15.39529744826345 0
22.42310098685905 7.060042053252822 0
15.56666998992154 22.81444915658233 0
14.36105349492368 6.526581615954423 0
10.45505611172537 20.16888969597561 0
21.0410988453507 4.963097869828813 0
12.82963349613152 18.48369471079448 0
12.8611346136044 11.01227953932765 0
14.15465008597144 5.953703378409747 0
13.7452787978418 5.963827495122928 0
10.96822151469684 7.542578150914489 0
21.36000768125438 8.253282652905405 0
24.29773246206064 2.848420457328041 0
15.36724325618731 21.76456796649141 0
11.41990778015038 20.59556428206989 0
22.80770134932107 9.659869854247065 0
12.97081528043929 17.5403978335958 0
12.27640480422117 7.889793035919863 0
13.62279885192528 12.18042393073828 0
10.23823845838365 7.008214013452551 0
10.96326215467753 5.627210940567753 0
17.43030149830418 18.61591726054158 0
23.39784670106291 9.402302347980548 0
21.25516977253489 9.202483453959154 0
14.98550114453217 21.08062434056137 0
13.95449181596219 19.68601040290577 0
21.22250520713413 13.9694117745171 0
23.04860849615496 20.14263226713118 0
14.14094750172157 6.924971490669582 0
14.83473324773583 17.23456899226829 0
11.47327913772193 15.33941999571284 0
22.98633034700491 12.17788641775924 0
22.02493904679632 14.1293971626677 0
14.73640262492634 9.853481303741138 0
13.48425319337639 22.44573452380644 0
10.87583736046041 4.288765493255157 0
20.48677804303081 16.04859344296299 0
22.14463015977366 9.562354742910564 0
22.14747899930494 10.30411847870985 0
11.46093314806018 9.156010692870002 0
19.5564049724325 20.05470105387122 0
12.12768603616963 15.76044933806384 0
21.57404809498862 7.339388990522133 0
11.89283693587704 9.734349958274226 0
20.54077335502713 13.44835669296818 0
10.71592667694406 2.84665058120986 0
22.49987111133695 3.541623914679581 0
21.89837385809468 6.587023757659997 0
20.94498614336884 8.267318866834506 0
14.59992104070625 5.057582856112984 0
23.76650217404701 11.11583886629731 0
14.866550852866 4.824638955296234 0
11.52375303781427 3.065347539623613 0
19.08799733401486 16.23853087257603 0
20.18310451308081 17.24060218438854 0
12.85305200476007 19.92684253325874 0
18.29227483760144 13.4282846813149 0
16.87974574654385 16.03613558999397 0
11.23756604667247 5.338846412868168 0
20.36322424369376 11.60626932037498 0
24.43477411482712 14.18389955660586 0
14.6352169210914 19.03157294654344 0
24.8437749760597 2.900691012589324 0
20.51274496996448 10.61372870139897 0
10.20109358632763 9.796014633339148 0
13.40904442726438 19.14360497019382 0
12.12147065630885 9.47825666093712 0
16.55630033821114 18.59124201066174 0
23.9108684487857 5.798656368296344 0
10.51833235073056 15.3787042408289 0
15.41891827077396 18.65781046328866 0
15.57663145908554 15.87382664046227 0
24.06687381738712 16.49138703324311 0
16.03446952342711 20.8758897525362 0
22.80446216376174 9.292062197746034 0
17.32067721319655 20.18219802079654 0
19.03320167257922 17.32943290297407 0
18.41870575230073 16.15788686761582 0
12.07427045501724 23.81788559580384 0
14.88238421694917 13.86631184620737 0
23.25191113671652 10.34465005318165 0
20.95036570347445 6.991195247684017 0
16.62869420961474 16.98034109624533 0
19.8462946106326 20.37033628552593 0
16.04403837831557 15.94839275244745 0
14.74267508023864 13.25201381610404 0
17.12112162884206 19.06297127070749 0
22.54178206785416 19.66853931953022 0
13.06255587731837 6.234643452629414 0
10.3473648075114 7.620423864061912 0
20.28687498904571 11.24888197884366 0
24.56028087902621 18.51097917775647 0
23.53997299887065 16.05509619785967 0
14.84045348439012 6.95671866140504 0
23.07309565652975 8.6931444709101 0
14.4406932227242 16.81924519587723 0
11.48848101033047 17.66666295236957 0
10.30765414179506 23.65686561370742 0
22.27629318204773 11.47723082477753 0
23.23888478293817 11.16483743110747 0
10.26991163066375 4.234601435737639 0
15.016007169086 17.64740419091199 0
23.04041521105533 7.618505780629738 0
19.39283571939776 18.70002323294735 0
24.05044482039577 19.89465569485497 0
16.48200203973344 19.89530950596378 0
10.73578763782784 9.964881528133592 0
14.12455862693599 8.933759370028346 0
13.49097647319968 17.4674836522376 0
22.31533783003386 10.6089057239965 0
19.37335336474627 17.71366617090349 0
14.57809750762474 8.58840082928516 0
14.07534685522619 13.87705094069552 0
22.10214146674901 7.806261501084204 0
24.88166940182798 8.931795052400558 0
12.29144405961599 11.0480657286368 0
14.7825104636448 6.531102336334451 0
12.49480118979122 20.15735114003348 0
10.28434030359152 22.22695403977113 0
10.32519031405815 4.969864124522485 0
10.74668594506417 13.78162093658846 0
17.33884222821435 16.08530947440339 0
12.01577970541845 15.32821830943816 0
19.46738642239179 12.83953191013956 0
16.45145441771111 16.18022700610652 0
21.30618823759919 3.418503515032489 0
11.99764279308703 22.79931390659807 0
11.02303632296652 22.9106454762928 0
11.1753580680611 19.80117543351674 0
14.77479670386496 9.21410204085982 0
12.03127791489107 12.97236627737159 0
24.20598541532754 15.81573323108897 0
15.26380249738165 18.04964040061358 0
18.9337090181704 20.59117220556729 0
10.94138702875131 6.757676622850683 0
15.48933303802615 16.93674269611232 0
21.00818408802956 4.221540504768284 0
11.62289987555871 18.97473003614331 0
11.47283465083949 16.82135102972278 0
14.42272609790916 9.78911369982137 0
23.43224657452868 8.837696562456117 0
23.5199695887037 18.92098907909782 0
10.19540980936193 8.126354002785861 0
10.53593101398927 21.32763154852628 0
11.5774709488834 6.114384004470421 0
16.40333290518563 21.62504799953632 0
20.09492734664717 7.66066448033602 0
23.50195225679641 3.894870232409398 0
13.99181590883234 4.221540508891644 0
21.63849768471471 15.02851841498786 0
16.15855142604693 16.60901157746177 0
21.95358867059247 15.25167382495419 0
22.21194050439027 11.78604691786623 0
21.40667624970518 8.658589066416678 0
20.20430225258876 8.548479378499527 0
12.5455638897921 16.44900380998841 0
20.71422699530199 9.065005821209361 0
10.52421742388077 22.04966464083546 0
13.09998408025434 9.695676377506516 0
18.32302532854169 20.88086896042806 0
11.85408473008632 13.71344881241249 0
11.02387938216918 10.47871015207119 0
10.77991719065545 17.63212070461185 0
24.73148673841679 11.76935850514146 0
19.41509426600449 20.85231572392902 0
19.28571427745271 13.87244897806818 0
22.34826273787305 20.48289788745081 0
15.02756847199135 19.66927413454464 0
22.22721702574656 20.05953613844555 0
15.37297471525249 19.51425427790551 0
10.26012759995009 21.17679103740973 0
24.00462309337608 18.74540287318474 0
16.42857142937082 13.87244898555863 0
12.45630180974884 18.39824446613635 0
22.16554154881641 15.60626269312214 0
24.60979940325666 11.23633705532616 0
20.85041187838578 15.87340850022033 0
10.27764899307121 14.32552243281959 0
23.72342192395867 16.88836606491307 0
24.88145753829832 10.71467246373411 0
20.99062293795977 20.2257334116265 0
21.1127791102414 12.40822378364627 0
11.80327689512292 18.61346916338597 0
13.71606320199966 20.60311112340207 0
22.24903318587641 6.464867102919745 0
11.78592048007211 12.80157458530237 0
12.82081547103723 10.4104729468566 0
12.80028377893037 6.79639137107502 0
24.23729378971722 3.179027345444315 0
13.92774209319887 8.021876841251823 0
12.69060759870233 9.001797385112717 0
23.83748627105849 7.711974942465792 0
21.76635203121352 16.35169498653731 0
12.62721628956885 7.063482097929174 0
10.18826432657904 16.7596504744379 0
22.51650434257628 6.724112836093973 0
11.77097995656582 10.45518749807547 0
22.52445828546734 9.04925477213218 0
10.81436554106437 8.842701709383533 0
12.46104771501811 19.32361917920197 0
10.24026840863733 5.569798019127036 0
12.74756169542585 6.468608606082269 0
13.19392352356077 3.79573848286117 0
10.52106921402318 8.732005707802804 0
14.63737378703207 13.65768554020224 0
11.01659992811087 4.927199127970513 0
20.17290712248455 12.76950418759626 0
23.52432170868772 15.67848102131831 0
10.93250428741054 24.2833466465859 0
13.34659038055328 11.72741086877333 0
17.44164963496835 13.89008620859283 0
10.78116649699946 14.99537023012432 0
13.29708381668397 13.26822121419476 0
22.17943340771868 13.41911084326994 0
22.81541250061716 8.496970867029885 0
20.07490511747076 5.121873059691689 0
16.78330104770188 21.68095517566379 0
18.5483777355793 21.80821628897759 0
21.82014691018533 9.413008456093115 0
11.02282939792549 9.523787993182577 0
14.0237925578608 7.699993670954834 0
11.71834485454565 19.67512264554065 0
21.37388002933713 17.89759873570592 0
11.91248791847696 12.46877902208184 0
10.31123523514682 16.30198913410853 0
24.82512678423308 16.54640623202961 0
10.70465557424272 23.672928154202 0
14.85194508273088 20.72585802516975 0
12.45463755433179 8.415628618527037 0
14.58190785610157 9.499754157934122 0
10.59440875212627 3.514737515361506 0
14.90197899911475 12.91483005792326 0
13.48370067294044 6.358537471103932 0
15.8442991551935 18.5771372553334 0
21.46009512646996 18.2629133449334 0
11.32245550210378 22.33676367633056 0
16.86653387492154 20.0788993624728 0
21.12396330787277 11.31621697426371 0
10.14652836227295 12.77287438317784 0
14.29859850898581 9.460034887688598 0
13.09032709024031 10.52376385690391 0
21.60359468795005 11.90420515955397 0
13.80098912758379 23.42075179483872 0
11.44690097868421 5.738488524552629 0
17.30951622056869 12.70626016574502 0
22.91528360209488 10.33974656256314 0
21.09128764881653 11.64906227814749 0
16.04787298825697 18.26922619786631 0
20.25748648383093 7.966169839921458 0
18.32110557342407 19.22753076087921 0
13.33228639199311 5.979799925831338 0
13.92424748844609 5.71257367043345 0
12.54110358973175 23.29960473046161 0
23.05645504956166 20.41936516118796 0
10.74956888744937 5.98056353238635 0
13.21071820545819 19.63230625765149 0
19.85638780905158 12.89746363887912 0
20.75581649551853 21.00320282865715 0
13.43548775725786 18.72525591931121 0
20.63422063506751 6.853889375994663 0
16.5099748926057 20.30606330322446 0
24.90533543864926 5.256778435442738 0
12.88261193624482 8.74520995794677 0
24.14904375150437 12.90525151671646 0
21.70203704191435 7.888074231571094 0
15.01387847928259 18.85860040816448 0
19.19397599089591 14.20644755397148 0
22.67340639554179 12.73562477848538 0
23.43954701631487 7.784026802264425 0
12.79303793446768 19.56343565863845 0
11.42865973003293 12.33491573623738 0
10.8683577985118 22.13020740936022 0
23.6795394877357 4.646601184733086 0
24.05451927811195 7.440395661931307 0
10.17474574987935 18.55657608655727 0
16.73158273287407 13.7778991087021 0
20.74124357824729 10.83673675801912 0
11.41431700983129 11.01842915658762 0
10.86170243792963 14.61210013938243 0
23.21399158097396 18.61982994476356 0
23.74746757628822 9.685269594125838 0
20.98031740654397 9.689911165212166 0
20.56033676748525 19.47891039701252 0
13.66520699012036 13.10014570070955 0
14.74247725397426 4.425141799049356 0
18.05262275055551 21.99674433021627 0
20.36839624807042 15.16860040835689 0
14.42001776092197 17.41785040621963 0
13.765882533476 17.21383232305969 0
11.60286659128072 9.796503156708223 0
22.45859625700978 11.20459351275913 0
10.89836259176673 9.217505047800712 0
10.1651272961615 12.09122597284134 0
20.57741987401846 11.87832670532501 0
18.0429690718195 15.86314082104515 0
20.29122585406946 16.47774844516258 0
13.97246292181148 15.94800503358367 0
11.27058576328337 10.29894266369067 0
21.29606514508164 11.07920839792315 0
22.20227053667356 6.792660710271557 0
22.27703495495761 14.62441385871209 0
24.75201335521996 13.6819116035234 0
10.38937005573929 17.03544510642969 0
13.80981418072858 5.374203088675699 0
19.11351670696761 12.78263621036604 0
10.89142714440736 19.43394238379751 0
23.01717936283652 6.29046895882854 0
20.9875283126241 7.624925640784729 0
14.10377925031069 21.73419482845833 0
12.14331105342785 3.30419069116136 0
11.54593890221198 14.45721584062004 0
20.87078556443354 12.01718699134889 0
13.37283004529121 9.803595536027439 0
13.5535249281184 16.06105505290957 0
22.1981535072271 18.80858655846241 0
22.12391264160386 19.31624525308828 0
11.62897956518106 7.595468024173699 0
22.94354991161398 7.945915176513882 0
11.79105629053397 16.2037287166971 0
21.62727059162847 20.6772663405956 0
13.18548539246634 17.2548899398693 0
24.35063850898019 12.01733984514262 0
14.5262639465229 18.25717794616511 0
12.48682603383328 10.27000618876765 0
12.87662656287078 2.981064613149163 0
11.80255425125773 24.09509799434383 0
22.12337343159123 2.981064612450992 0
20.04399096005087 15.97727186627317 0
19.43585414038027 16.83634520631167 0
24.32695531645897 11.23004779997881 0
21.78127081165084 13.35878518779901 0
9.985927891679584 5.582436816452881 0
23.29659053087696 11.49945163119963 0
17.92409500706865 19.35822031769643 0
10.62955674662535 22.32959218992056 0
10.57656144578879 16.3907049324776 0
23.2436947167046 16.34358639161733 0
21.46286190151281 18.92172907704498 0
10.55195408177786 6.272137505258764 0
10.7242870495663 18.22206577741574 0
16.28464225422475 13.50797194154154 0
20.23916593119849 3.566938854957623 0
22.7875678188217 13.38709955650188 0
14.90193742606884 3.275796809746558 0
14.40085051002466 3.517930767083727 0
10.64815934439751 12.52075655137195 0
18.98795062567747 17.70929869687872 0
20.1305416027195 14.10448611437663 0
24.4903333687745 12.36180174600931 0
12.12327795936169 2.981317095119207 0
22.8666666574885 2.707075356945328 0
15.12951567957619 21.45061503467565 0
24.50992712476208 18.04797090275251 0
24.32614627178865 4.026111227111719 0
12.98012322962105 14.0717373589464 0
12.49999999938706 2.838497432823054 0
14.5975837886814 2.765605413629482 0
21.6639041588867 18.6246294071758 0
21.24702283869087 4.597654348252044 0
21.37240135939993 10.81476338400143 0
14.37966935753003 4.233807121218366 0
24.72233065573742 4.241037794019439 0
13.79313365799136 3.84741610377175 0
13.83563569496226 12.44051128693776 0
10.22547316642963 4.624447863860069 0
10.1161772730001 3.439706795609286 0
17.65774804073878 12.80089785230248 0
20.17121501450756 20.32263438127335 0
13.35674710680654 8.906849162206237 0
24.56865379643842 5.323133897841904 0
10.15610020929822 10.36999576181751 0
20.640528731489 18.14587743397188 0
10.53013281645598 5.647821202905732 0
21.52460012553414 3.064704991578499 0
13.6156115445229 2.752283277431387 0
13.2131538577502 2.789987430805611 0
16.84243477616187 17.96942149721839 0
22.86013403952996 13.93905602791738 0
11.78669173874018 2.790246593341564 0
22.74887219151253 7.71006581053139 0
13.32577172952 7.670574498183656 0
11.00993092191516 19.08217125383759 0
13.43107869607194 7.344149463326319 0
14.19374647734232 10.03129101624235 0
11.82999453603401 3.739084551192791 0
10.23032771381324 19.3717463437692 0
23.47607578512977 3.064683472857066 0
22.5594006399394 8.404923843718286 0
11.38410192144644 2.752884843358762 0
18.31824864242022 21.45119843859409 0
23.21329482559884 2.790143283116407 0
19.03826982435916 18.07852332795891 0
14.15106737363727 8.635469132707957 0
13.80518733683866 14.21184260108768 0
20.4636759515562 12.82756723261981 0
16.79058300816787 19.72123614122268 0
24.76155639946227 18.26422902140292 0
10.08462486189609 5.245796303708295 0
21.84745154860528 3.093702330346537 0
18.97947980961827 21.44637162620935 0
15.89277329726172 22.79195630607625 0
20.62033063921423 4.233807114689733 0
22.26540557495352 7.355556535958931 0
23.22240202387177 9.709174046231123 0
18.93188471207922 21.71225612596342 0
21.72710456242202 9.69848184007412 0
20.30387479095208 21.2747861354352 0
11.2762017140009 6.414243774528888 0
12.56391297945842 19.82021781288306 0
11.38098993270465 23.03461317306036 0
23.6154613350352 14.18642174626335 0
18.20035083341119 17.10579753613084 0
23.19814500755928 15.60424437781961 0
21.78367939560418 19.47943826558964 0
20.58446132072191 6.529834320978855 0
17.10077220275747 21.57582004127212 0
22.3682463184939 15.07190424784706 0
12.71778126718349 6.171768376534965 0
11.87464131177867 7.185439481919834 0
16.20173086150499 12.84036002704091 0
14.23445291797766 3.243160361589593 0
11.53127069646393 8.554343473499438 0
18.85355422900524 12.9624903908972 0
17.35079501581342 21.72036347751683 0
20.83860800170213 18.44787998547772 0
24.97777070780695 4.090224418990786 0
11.16005885544117 13.43656528487085 0
13.66624326698982 21.05527354043401 0
22.8233146963893 3.670595438507555 0
22.85669666074658 3.304170526658142 0
12.71783660983954 11.57273740845217 0
22.42190991751289 10.09047770550842 0
17.72531105170089 21.94431497222324 0
10.16300367231297 13.89319842395512 0
13.15869838893656 15.91894447186337 0
23.05285873442284 13.63269951221122 0
10.43041784701596 7.874841247973209 0
23.95650273343519 9.520692333963774 0
24.1320057848793 13.76428803089578 0
11.62977447065023 23.35245626280192 0
14.83361023020366 8.440612167778115 0
21.05133361092292 16.74257045356356 0
13.91802536797072 10.49666256505117 0
11.36575776866151 23.66265285603492 0
23.63827496028071 14.46971073148007 0
24.44919993868641 5.64640954505856 0
14.609397458871 12.3115519009265 0
15.23118926520399 20.75479510921429 0
22.18281311930759 8.064092924486228 0
14.28307924720432 3.901374153420551 0
10.30711693347839 24.58563374023764 0
24.72776438920184 12.53247643173943 0
21.99618493452545 9.153008383646096 0
14.32016972710735 7.893170861143317 0
20.05048087739832 13.78385240420501 0
15.39544144231434 16.53945981521455 0
23.28656933323375 19.8521273304498 0
14.04603488769241 11.88381024495172 0
15.20637390344076 22.97473051113732 0
10.71440669544849 11.6895143532887 0
14.7153473432168 19.89903032879254 0
12.81291175968636 9.759451492984757 0
11.01236351237691 3.40773760350738 0
18.24796456535993 17.95000469680339 0
11.59774166932722 6.431482730756031 0
17.474148111683 19.79730720721552 0
14.67185191610396 16.15165618895669 0
21.42224685041784 5.701091522876178 0
10.20412282829959 11.41670700445201 0
15.37749955084472 19.86247749377947 0
12.89866025821149 20.29172462125489 0
11.00824404129683 16.15667841195624 0
24.43127992995263 15.22168246407124 0
23.99519514539634 11.39424771804044 0
10.82378555117018 15.74353782271571 0
23.40303463315977 19.3971533405254 0
16.5971420033102 12.78279107774694 0
18.99904692389609 18.57378556292758 0
24.89474763818403 6.686208784051719 0
13.34474983296812 16.47453453402505 0
23.76154641148722 15.09178887230703 0
15.75972954214996 19.38112123359046 0
12.53630685826646 13.90394709658927 0
10.60856089753653 7.58860240569795 0
21.74343745626692 8.5188689010917 0
13.95475672849115 18.22746042074963 0
18.75169086521105 14.0596511401029 0
21.59653384341328 6.807734797853325 0
22.27556783697095 13.80982975688504 0
19.08851304403309 20.89259898910214 0
24.69810154264106 17.62541185930182 0
17.93724453937922 21.37146576103272 0
21.56546927945006 11.19703585414946 0
20.75007271348429 19.88424952290923 0
24.76505490977154 14.72412072076356 0
14.79290931251214 5.370035604606954 0
11.42801675671991 12.06116966617092 0
11.93483301122854 19.29471915313269 0
19.98259635335466 21.35056781705378 0
23.54604334617712 12.89683189173409 0
12.70172759579462 12.29607383081181 0
11.2798130697417 7.584220228351947 0
20.85466712024544 19.17444098196458 0
16.46398991298216 19.57341505396814 0
24.23673335876642 17.26019620214646 0
20.63867087810887 18.79433656434844 0
21.66694362874993 5.97608884170606 0
12.19757133009831 8.894669952586327 0
18.93692298833662 19.42318094308791 0
14.86124849561554 7.94697296105783 0
18.13736790479215 16.67292043371733 0
16.1036604560066 20.02073789531772 0
23.58977330463501 8.442334602712313 0
20.9193533541225 11.06509894977482 0
13.37669975819726 13.60284909340555 0
11.4086704107335 8.853828328658437 0
24.81551900968768 11.03900876040257 0
10.14885004429915 6.293345655659124 0
10.81979087213342 17.95334305452199 0
23.29585342997826 7.423057522942118 0
22.16033494350685 16.31795804650903 0
12.71198929628912 9.385339634663039 0
10.6663515675475 4.022699264441856 0
12.35518034308538 6.313221853126318 0
20.53314467978597 10.37022418635438 0
16.43583571843496 18.15890098816407 0
11.92405030533091 6.311012861514589 0
18.98306268266921 13.77887582608448 0
20.24244696666472 10.51113345352341 0
12.86666666385349 2.70690795192986 0
17.63598677857632 21.15421011973032 0
23.49013283851562 13.5416972374858 0
19.6072353868112 19.30627473888925 0
20.16019985773186 2.901344337682643 0
17.40010754068849 20.56350165009787 0
20.2006043913207 19.57712973977924 0
21.00239270573919 9.349077533998749 0
17.46521947136638 13.42129834321541 0
13.89751761664822 9.577884014927024 0
12.10140588198245 9.207040723680743 0
22.10633260429722 13.01636729189443 0
24.58714885819708 6.891870718970705 0
18.5749903870431 17.2045257898826 0
23.87776384515968 8.381444185302795 0
17.47353039256558 19.39426957841624 0
20.47712529404275 14.71713049301781 0
12.65031627074081 15.93224810265647 0
14.28633382802722 22.45113877057618 0
21.33119849652785 16.89027929958723 0
24.75130464450787 16.20231330368279 0
21.19264459388069 7.318570293056609 0
20.68259888737615 7.56597773423165 0
14.85837411984519 6.038887434746503 0
20.84522126400815 5.953696373984182 0
23.78259889515579 10.77936312325199 0
10.66423097869238 5.092021161362037 0
13.20998607963307 18.39173365696337 0
21.04328285951293 15.46338227077819 0
21.43006257478704 7.931847495546292 0
12.26890468685186 7.288742275293727 0
18.19251679613636 19.61534663846242 0
22.51728377981344 10.8288506789001 0
12.56148045934811 10.89976534198737 0
10.62050098386533 4.7685069585486 0
12.87040029299649 11.29028014254166 0
16.67196806831305 13.42979870806988 0
21.74306333015617 7.616004884100106 0
21.19007256865275 5.37426043494215 0
10.16275419916647 17.2812479184121 0
21.9348294311926 6.232354732050495 0
10.63625228331579 20.46725055466703 0
10.18744843003811 8.792538932812324 0
11.05643411780181 2.720464201628956 0
10.36249630309084 20.60180533313673 0
18.2001227173987 21.16767993233731 0
18.66011844747729 13.26484978379194 0
21.2366662402043 13.66127372990072 0
24.88035210252291 3.442602260715002 0
23.37598253498315 10.60675365136078 0
22.93036748856732 15.24304804196049 0
12.21145516182711 14.18592275817353 0
15.69970717875433 17.86845866896992 0
13.63358571774525 10.26676337222869 0
20.57038311912458 20.20135464143981 0
20.05005835794606 3.813134758568622 0
13.58828543991821 10.89927471336008 0
20.70658849354004 2.852107426278459 0
11.48247455720824 11.31403754425657 0
12.71841841603437 12.73832323795767 0
20.32107938486588 17.64323326279321 0
20.40241620713061 2.765605411045125 0
11.04852483793891 18.30034968871491 0
18.06035136849266 18.69661589581026 0
23.94620551264657 2.720639026670644 0
14.55097009215349 4.760472540379687 0
17.03649586208853 22.14274838384922 0
21.5050575073876 9.37711407519103 0
19.55134435632745 15.98715786339352 0
24.81044830929567 8.546565082194965 0
11.99701722830038 12.14682817703869 0
11.50241663495153 23.97733965932606 0
19.82559163167467 18.56001212586401 0
13.05465513140339 8.907449234562709 0
12.70871214963184 7.37303727811801 0
14.44683905331178 21.77993284140251 0
10.16666674639612 20.1013900476064 0
23.45981535407434 12.63043689455717 0
14.8489785797948 9.499181787858182 0
24.84281007871493 11.41313011944375 0
10.02136848864806 3.142485443135764 0
14.66962860214321 22.98876373165935 0
19.22542079541746 20.13029451999349 0
11.19303905277254 22.64024793576987 0
21.56708063553524 14.29621751268562 0
21.87318112965902 10.1749870485709 0
24.76563397790245 4.632971133934659 0
10.92841604670837 5.24636885740987 0
11.70184921215531 12.27050081804915 0
11.17456550488458 9.279955319223246 0
10.27884553908444 19.76357727091564 0
17.66198246120499 20.75349954764673 0
10.75543928274046 13.0902145254339 0
10.60705284936269 6.821443280156062 0
24.2480952652226 6.676132333456988 0
23.58224260103411 17.17893083312985 0
21.58714177096117 10.03847691840168 0
13.37818036673502 12.48345199451603 0
16.07604276573766 22.28333437746749 0
14.02857429199121 20.85447892419033 0
14.67013143752752 11.55045199779435 0
14.81728789569534 10.193772792956 0
13.50913636899378 23.59329765570028 0
24.66955441778496 15.83535681306236 0
12.36229771332989 13.25986412140032 0
10.21267837542522 20.87121809692047 0
10.09484934185458 11.74964479408111 0
21.19620364611941 19.50645965051153 0
14.95997829950088 22.35905371110936 0
19.96887535388025 16.85765547899747 0
24.97560563283274 3.144546466947609 0
19.26944777122649 21.54600626706807 0
22.2917999265401 8.31566651750992 0
24.63323231345911 19.16051390931441 0
18.08319666636748 20.60011655158893 0
11.95213657621112 13.36366576577505 0
12.86885897088792 10.70596241644857 0
20.20707543136006 5.370009090533159 0
19.04357651017961 13.43027511242224 0
14.50523911260364 5.387642317923749 0
23.49920393890514 11.68101489587989 0
21.28989558901652 20.90339982825807 0
11.69906587093823 7.913612073932395 0
20.94150522251041 14.80968869401338 0
14.39159492923214 8.791580408033253 0
14.94994164079577 3.813134763500771 0
11.12712444812692 7.177891296676526 0
23.37339554641766 16.68327740720928 0
12.20472148190153 8.557881251006693 0
23.83801775971309 10.21097783343601 0
13.35115055648289 20.36668807573822 0
14.69826011785802 11.1715286824985 0
24.56810031621276 11.45452613938742 0
14.21771277144945 19.15869619611019 0
13.09606818569376 10.25840432986459 0
22.4999999937882 2.838497431444076 0
24.96875833695357 4.399441563350322 0
24.12337758440481 5.573422237402874 0
12.79080645160296 18.02739861167612 0
20.49071620129406 15.55483831907933 0
24.37962482924173 10.54519308621879 0
11.12996457247198 12.24684171381694 0
10.48883076501346 9.781255056276443 0
13.97897943079814 22.66061627001368 0
10.75174361709192 16.85620424236599 0
20.73531775402683 13.04910998546432 0
23.51895705652415 4.276480731863647 0
24.07773869105386 4.578396363821899 0
24.06642459984461 11.76066982630305 0
15.76990919743847 21.70432343910381 0
24.28596430965884 18.63006733939759 0
18.81298666118484 21.23453049612224 0
16.10940696148836 19.65414037652846 0
22.76518112865398 18.78342913332773 0
21.00634414974325 10.01880512733586 0
20.09322705446811 20.69738076244699 0
16.89292849273465 22.3772285751397 0
21.24216154392435 9.534796746436713 0
10.73222124166745 14.3177270411138 0
19.76851086866302 17.82015328076262 0
11.19864925622931 15.53962346199296 0
24.33046996672111 5.096410094513917 0
24.44410505746211 14.88897864309627 0
10.76423333311532 3.179208001647731 0
11.47903442642847 4.276755749881574 0
23.28534452438723 10.05444908641354 0
11.69088228483501 13.12301762802227 0
20.7819105984664 5.209180742455017 0
15.16031122847408 14.12548478622284 0
21.97422062417721 8.806088760511102 0
12.61715068159075 13.48235481731505 0
14.0801476819796 11.06033327081355 0
14.00660348035788 13.23773371339717 0
16.12309026664453 13.21363664062219 0
11.0428029247613 18.74672353483112 0
11.85332639203334 10.03276837069904 0
21.10077201609611 10.36589796343027 0
18.5668352999714 20.13512696912878 0
10.5772419092637 8.194786502136132 0
13.88691775353046 11.33879595989421 0
12.08646805872869 11.74296147303055 0
20.8168455468454 13.86369664172348 0
20.13344579104843 4.824633710911524 0
14.74935865544833 11.95907309049254 0
14.32010695452843 11.63209426146489 0
10.04611184660322 10.66304049138673 0
23.51879491751021 10.25509458463177 0
11.86874009133686 3.100768927538174 0
11.19852490872706 15.16018580487852 0
13.60330110233281 22.13739163725111 0
23.80886740679142 6.108966507256845 0
20.29694635952037 11.94863414943817 0
14.7380612261744 8.819531425034034 0
11.19539002158086 20.18742446408853 0
10.08699385992737 7.758034978449276 0
20.01494093773645 17.56746115785646 0
13.73991612592638 21.86623204601325 0
24.40042912609217 8.115316905462137 0
13.20084624699706 20.02544847505152 0
10.12750121940289 9.196354486555002 0
23.38742315472586 20.19606642665954 0
22.13333333048408 2.706907951332952 0
14.18698907004749 22.07544736913733 0
21.18472999172107 19.9270180085351 0
20.82661871265185 16.35574826009541 0
22.80050259566413 10.71249617842337 0
23.06532260553592 9.443760224213506 0
12.17519389565315 9.864234424009052 0
16.99107966446314 21.29648471335245 0
21.08277428827998 17.63134110167201 0
20.57669053251928 21.21490722433631 0
14.27858815539838 17.95225089033052 0
10.33171528476641 23.24313936728386 0
20.08593685801704 6.675442290191558 0
15.69017532656068 20.14961051457509 0
20.14437132750381 6.027974166464117 0
10.79399120608407 23.30540701215201 0
16.3308621316728 21.2149137166884 0
11.19205176575038 24.35493247266233 0
10.12558512164696 11.00674886586591 0
20.19868472799253 9.533781711919007 0
24.31312934270352 10.84260559772137 0
23.71277652035445 15.42699840358256 0
23.81745593928257 12.70022671545293 0
12.56210966733967 11.24969530424554 0
20.65249800605821 8.45802901875308 0
25.00329058183712 5.596066357124759 0
20.59914948866484 3.51793076748861 0
23.66918663423742 14.75078660400751 0
10.5284805160741 13.23963716747521 0
20.76554707996219 3.243160363037479 0
15.02269063666066 2.718149024145996 0
11.70883854391753 9.476439252413918 0
20.09806257315509 3.275796806242058 0
22.89151562377597 19.27597414112648 0
10.11417491405834 7.378855056726828 0
19.93564392542716 18.19459639752107 0
18.73568510870205 19.08364780100672 0
11.20118196285227 3.714530915671243 0
13.84813294272719 16.78352904870405 0
14.06857786162795 20.45927114565508 0
22.88673872763772 15.62431655118541 0
13.87091307968312 12.14595045005885 0
14.91842644259544 4.099857984677158 0
19.52248327105363 19.64838840294646 0
13.62897684194138 17.83279609629491 0
18.57919259669482 19.49015459700566 0
13.05319341270672 18.80502840166768 0
17.85792537111586 17.86272521000177 0
22.93871204912471 13.02057592750318 0
22.72368095798095 14.48892436604598 0
11.95573089098588 17.12400141875821 0
21.39878988398641 13.11563926656999 0
22.7990970030085 11.88688443895934 0
24.40293721279843 3.514286470784757 0
10.91735815749174 8.227735842385508 0
10.81284041596418 11.31827497092693 0
13.58120882921209 19.53083159444829 0
21.98853257655825 20.64957174961521 0
10.67376006524073 24.4726221745824 0
20.24182839223899 6.452150283643162 0
16.195333694646 22.61358116357574 0
13.67424844754381 11.92429363530445 0
11.17021307040021 21.54069767478301 0
15.5522312528594 13.28528210705005 0
10.27217283324323 21.90171486121818 0
12.15271365711914 24.0717773612956 0
13.85948305043892 10.80990766418644 0
10.65387491005833 10.89467157638947 0
24.74124643212718 15.43386745865002 0
24.36498633311744 9.144389188453014 0
14.17955865010019 10.38061731105143 0
13.40034140613836 6.805574228752118 0
21.77069763474857 12.24055677328267 0
11.49381728896165 13.96075151762147 0
14.37179255842518 23.18642912520117 0
17.11223886817869 18.77061915844195 0
14.45348742589112 5.96674817268836 0
24.85376490240503 9.577649846607711 0
12.91576412772218 7.105242777763236 0
20.88026204837063 7.346967187975567 0
14.63599973998861 21.00192859782917 0
17.30814535416499 21.30477675712864 0
13.15018020806358 8.649989921279587 0
12.62789556486498 18.82626437319141 0
14.97562112680667 19.28564632263203 0
21.43928988985078 10.35644054571238 0
20.16307638905288 8.795437754312772 0
10.64666450948467 9.429109486167178 0
20.73829238769361 6.262959628874086 0
24.23196382260791 5.982117711368535 0
12.13333333476162 2.707075357576736 0
24.75383691599302 16.90230528039517 0
13.85888011886232 8.630322084083687 0
15.6520554766628 21.04857298063859 0
16.62597654635063 22.26683840198261 0
19.43946545269754 13.51363380930148 0
23.68621145189728 12.19094982576044 0
12.48287544289981 9.985431111815473 0
21.95861191808613 11.56894278379047 0
13.81279150428964 18.79658691005474 0
14.58534164111043 14.08255945305467 0
18.24536442084775 18.39636063004232 0
11.42494189144874 16.10633342944744 0
22.71689273531451 7.016290789145099 0
12.60436455592022 17.33601639540086 0
10.51275517951212 12.04073738806481 0
10.68206706144132 6.55116921229472 0
9.981070785510568 3.786838688181753 0
22.91812006851049 12.48537801352255 0
22.76961320281287 20.44328288322791 0
24.53070012487054 11.019368018689 0
10.07295468606753 6.656521659036217 0
13.27431566873631 9.457623763052084 0
13.96948980007901 3.345157452499794 0
12.85658321057497 3.306499930415617 0
11.11947264903638 4.044462957315147 0
22.27860784803843 8.88588972720896 0
15.60990787883748 13.63911250800859 0
10.688310744854 22.6955853071796 0
24.06770364145314 5.241221120430136 0
13.48008239443352 8.548979311959677 0
11.38897562500663 20.9600588553285 0
23.87679349782152 4.044707605784116 0
11.68574664742967 11.14516363146543 0
22.22836906887464 9.927386251585009 0
22.86146316464106 16.31290651975651 0
15.1961831067679 22.06744186881309 0
22.74558424419656 11.25409470947645 0
13.62510659642936 23.16018244811183 0
21.69799368720592 4.146792113243433 0
23.58781298823568 9.119026700991727 0
18.61878740394485 18.29014308893415 0
16.8158171811149 17.29675424059999 0
12.27203753653068 23.54117016852592 0
24.37185906402157 4.776282111204427 0
13.12618351239166 6.573035699095731 0
20.66024730547115 9.81104570019183 0
14.38566024202707 11.01569541701782 0
24.12818819049627 17.96328796838423 0
16.50801447995082 15.80803826091624 0
24.89541562606313 12.15836458078227 0
13.76612959702097 16.35449137540827 0
20.17222976233322 13.41021089997663 0
16.52138470103058 14.20368018803475 0
11.88323478203058 17.59025186754036 0
10.05614620026824 5.880281675505621 0
14.95171466761603 23.08308784402037 0
11.5186505418752 7.000984370527131 0
14.02681258111873 8.350279916948082 0
17.68197436899293 20.07384133112319 0
24.16709713249732 14.40735918474201 0
21.8060764736546 3.795738481124137 0
24.96544880569915 9.242103147240337 0
13.30200631204212 4.146792110471148 0
13.59937045674909 4.25008842111728 0
14.91384863545444 5.629056824194548 0
23.16949750184441 3.738318150294381 0
17.85714285031339 14.06498105623528 0
16.35891970609052 17.40704382236887 0
10.16970518370235 14.66464545624871 0
24.36362916837147 9.876122615593136 0
15.16015337437093 13.61150538648296 0
20.11798795960166 6.957876181920242 0
11.38551121687292 13.22002802490145 0
23.94351357230222 16.12622361300877 0
12.42984935359602 23.87079497985643 0
23.26059471726857 14.96357147642248 0
17.24784501671872 22.31171692864038 0
13.36679482278095 10.42561292590171 0
20.14166350109492 18.81970503256887 0
11.94390846320378 8.96055979569105 0
23.89008189930902 6.634282591168371 0
24.84528717429717 12.88696393471123 0
22.94010767711539 8.220903555477506 0
10.07951122610102 8.470052175774475 0
23.78477166643309 7.3300539530359 0
15.52816671793375 21.42042737201172 0
10.19683391852377 17.91979878586497 0
20.25343340463777 12.26066680055177 0
12.75551080132669 22.69594676198476 0
10.30028596241519 22.83674445882559 0
15.82503092227618 17.41949205269037 0
24.8515601948584 10.0168932779857 0
10.74029813387603 18.89168084340764 0
23.7599631236635 18.24886393732321 0
13.75185746156676 9.306954717704459 0
15.19642339162291 12.78015752850721 0
19.67149701660578 20.66194716642902 0
11.42286122421041 18.14249068840883 0
14.31655486647494 4.913877320323489 0
20.44902860087689 4.760470846108674 0
20.68344340637966 4.913878516402844 0
18.70535817844063 16.45059305876015 0
24.73897863753757 19.47461532203361 0
24.43710033519051 6.2502082498477 0
24.93302800265879 5.884449519939122 0
23.75193839579228 20.11799611170677 0
17.52869364505467 22.23472195018559 0
16.44332804043764 22.02890198121708 0
23.3487049702211 13.12508775790345 0
20.67270390768017 20.7332581108099 0
11.60536947102555 12.56136347900804 0
10.42453363713888 5.321529465730309 0
13.89712418060481 6.301324504816773 0
15.55420336436229 22.49900580536933 0
21.09674122320586 6.304853476171582 0
23.30235504823943 6.644921557774762 0
10.51922968947586 11.46338146846375 0
23.91073704374304 12.36139675898192 0
14.27801799155743 21.43871960137976 0
24.70756372290747 18.8120852173392 0
23.50038594188223 7.09325984717589 0
11.31834111612992 4.644440287625016 0
24.38588547885898 7.494148881581802 0
16.45996603847438 17.80495978917486 0
18.30040236554333 21.99222783952267 0
25.01408939289965 3.791991934374318 0
24.11327228619366 4.29158901608377 0
13.10107740170341 9.967370947944149 0
11.99415619490756 11.10170496747118 0
14.88634871385065 7.692282943217404 0
12.99132936888566 9.482988740675445 0
13.36714014215281 12.11222999867838 0
22.40910009902378 7.929833157866534 0
12.45494739337703 9.432065334388298 0
13.11869111193411 12.32578947109221 0
21.97598464431601 14.86377856698868 0
18.14358486931601 13.19740389025794 0
11.9300218240227 23.55393290090431 0
22.8441680806932 19.91242736519593 0
23.95887816112763 13.49577862764927 0
13.94488801471853 2.72070249698896 0
22.27670889862265 6.164722935465653 0
19.27014077590469 19.42598801543728 0
23.06543058861635 14.61809997673737 0
13.73502165515672 6.688373843018242 0
12.07355432269807 14.94206555143419 0
23.53077904294989 5.767247854275306 0
21.2570153286411 6.691961547070358 0
11.76636388534362 11.70371975216672 0
14.56279942147637 7.090210012298521 0
19.96958106964929 19.28312631176504 0
21.03518040281805 21.05653292121974 0
11.7505592239528 6.71745043707114 0
14.31140373403276 12.64737123883369 0
10.19217013728187 20.36625329448185 0
21.51624755526251 16.0322540328899 0
10.02405239493522 4.391593993031389 0
11.10329710479856 8.59592407739613 0
20.14362146099429 9.81579039578904 0
22.14341678410452 3.306499928739248 0
21.03051019783108 3.345157444960766 0
21.97312566404371 12.45669575591214 0
11.3015244880791 18.94484878850418 0
19.62918169398364 13.19712017544956 0
12.15505409464449 16.48842221384069 0
11.45748905752405 24.25883082477518 0
10.84243047368871 14.03913430037903 0
21.91137756808998 14.51747958416879 0
12.46531882689557 6.777124118811082 0
18.80962408641118 15.91215003235728 0
22.48353619363074 9.437499766698448 0
22.50350353170181 13.56238236531053 0
24.91455267380512 7.402711223707595 0
14.53674460119525 3.756201678766034 0
15.88424786660236 12.73320045312522 0
12.97562057497962 11.74266272821558 0
24.60544703297136 7.251606389739978 0
14.67681848346465 18.6496777567156 0
10.49016678778891 10.387945416907 0
23.34571709094711 14.36502935974549 0
20.10388852734789 21.05670028806078 0
11.70035808624744 22.43875416586984 0
20.71692074897704 3.901374147072409 0
11.56941075765119 10.68130032635242 0
16.96428571286854 12.70836442144616 0
21.69076860886087 20.37016441075544 0
22.69641007233069 10.02064897664961 0
16.65486499362526 16.52465855210859 0
18.34684734363695 12.73903449149991 0
16.57325222907086 22.56066583482184 0
10.21189265703458 19.06972216819849 0
24.90975694397414 8.201596039128914 0
10.85046012334064 21.22369573514677 0
24.83004119757474 17.26263897316914 0
10.96586975718355 9.828309959999011 0
14.92509052689617 5.121880056031426 0
11.97872334941906 8.055308349044486 0
17.86205730779817 17.39264941789127 0
24.90549170780315 7.695634990555078 0
12.87984587176854 8.13921517727771 0
14.03199931830881 13.52006221161149 0
24.95366506886637 4.92190698969867 0
21.90136247017907 12.74883851580855 0
24.43541335155055 12.67207304791831 0
20.74255452255789 12.37334169644543 0
10.03754153943419 4.911570044586274 0
22.64027194002265 6.289570013410239 0
22.07042620486371 7.101854699008973 0
13.25842331226637 23.10055026696715 0
10.16978364837222 15.37956218042238 0
21.06435338805434 8.954567716323425 0
17.64072423634522 13.13902318219911 0
14.35401914366716 7.598562024907934 0
19.41419175663783 16.42846397145904 0
18.86066626752136 19.81943681683645 0
14.85057466901518 18.05150693723699 0
21.23231709505945 14.32223877475041 0
14.37067475959328 15.82346970781115 0
13.26696728119892 17.89697578770811 0
22.37182488886436 12.8764357663879 0
21.18930915455261 8.46113139558324 0
24.04785489784654 8.084264370631281 0
15.23784764522315 22.65608740075692 0
17.05659488639314 21.86798386924288 0
21.63951439966452 8.157348077785622 0
10.10156446707926 10.05680773596069 0
12.15532262205035 12.68444096665537 0
23.13122616746971 3.100607501661549 0
13.07456445323802 12.87079731931704 0
10.39939055014528 7.356507699393778 0
10.5200804779501 19.48519932529136 0
21.15263077718724 16.12565028508137 0
23.89993372452155 14.29319703810164 0
17.84709891547182 21.67891368374661 0
10.06115621100479 9.520928168408416 0
19.36281650693201 17.2151683347614 0
11.9466018381298 8.391733354616775 0
17.68336909749352 15.85270555970606 0
12.23306547955098 12.35287012405148 0
20.56723212419427 11.39298184787372 0
14.3971565664875 12.12476937040127 0
23.64942197715266 6.424282008487328 0
10.91646476666332 4.572804450713399 0
11.24957849915286 6.868620215406483 0
16.09922798115308 21.55802990427592 0
23.36595130318146 18.33771710954042 0
11.70495836468412 18.33844170867988 0
14.88518725036674 15.81204954871795 0
21.07560980840199 5.712703313710675 0
23.44072448699139 8.146731131421825 0
14.3167704103171 13.09904119724428 0
10.1610739249231 16.04400769293995 0
10.07657804578038 12.45453226374278 0
24.58406380840604 10.07894334534132 0
22.58355956921068 13.83969391659564 0
23.86210579255126 14.03012231307192 0
13.84354079846392 21.47170634417641 0
11.15773509326227 6.046627328093095 0
13.6505911331957 12.71235338160485 0
19.16836458197676 15.82756775366536 0
21.20686633775139 3.84741610393799 0
10.40069007694124 2.767320319427987 0
13.24090184752596 7.085419312510036 0
23.20736317016947 8.425883991543039 0
17.41353325274958 18.96109213283972 0
21.25427982869053 9.890462735343599 0
14.84047017692818 10.8878644332654 0
21.75413573011497 7.083299773896847 0
13.62265004299716 18.43827396839468 0
11.05844417544252 11.63421485146362 0
20.37992339903705 7.022033627219415 0
15.20233766930351 17.17424216072604 0
14.34769475000407 8.439549314065648 0
16.33775106253282 18.97025945951798 0
12.24414930228315 7.61156317146879 0
21.63075370093577 16.68946208934285 0
23.98619823466933 3.406326299822752 0
17.07944823285919 19.39404678618789 0
11.73607276145805 23.01036952840978 0
20.34106383180551 16.88707904472338 0
12.97724975735766 16.6628342118052 0
23.98723561046105 17.61430899473158 0
14.95449461544167 20.44479771978659 0
23.79601709168875 3.713059020348713 0
12.13406310832964 13.88001738339173 0
17.52847852067854 17.27182544762285 0
15.79254242179282 16.70875954404215 0
10.01614807440147 4.083760898418758 0
23.16729085478939 8.91517564006268 0
13.57726844337406 5.701328630380861 0
21.48949549742026 12.47800316816772 0
13.15254844702895 3.093702331611635 0
17.05874442239196 13.26169686509717 0
21.38438844922483 2.752283275762426 0
13.39920382613577 20.71577536723481 0
18.74999998662868 12.70836442437949 0
23.61613546124383 2.752710218136933 0
11.48979359101047 10.44496178176354 0
24.46843974421967 16.89307863588878 0
11.27244852461996 12.62422278243881 0
13.8017186406854 20.22828165607485 0
12.50012888077918 3.541623918881215 0
10.5467466407183 21.76121039156109 0
10.10976309843774 17.55834580135603 0
21.58891173596039 12.76415571610725 0
24.88701770469226 13.98153329664765 0
24.42063882285969 13.81611138559075 0
10.14455857934663 16.5139620442002 0
14.13847943858199 23.36763701754571 0
20.31418398888815 18.06727290363548 0
20.74963692315852 8.7296295951948 0
17.92057795891661 13.71082779404279 0
14.24558977391283 6.259453066553283 0
21.59554868412227 10.64718222285455 0
24.81810372632953 17.98953790108721 0
23.50114791505308 9.645174071291613 0
22.17563236268141 11.22046138996064 0
14.21808584144716 5.20917140862566 0
21.97374501054541 13.70260313824923 0
19.40020430126062 21.14138466002512 0
19.94228773658539 13.22475979133402 0
18.93216432695548 17.00703805529687 0
22.96008007763763 11.02540743352642 0
20.81783281119785 20.47995516045967 0
23.58265839072575 13.90023269647331 0
12.80129504431699 23.46841620562532 0
17.1900902821452 20.76996375172755 0
24.52927259874424 7.784939975788844 0
19.55029115058724 20.37852442454853 0
20.54389527646017 5.964121062673501 0
20.08612440682677 5.62899748463733 0
14.31840062270394 21.10794629084668 0
21.36124317451053 11.44880838903601 0
24.07963408574162 14.7550756290174 0
23.17839239121322 7.881037274215447 0
12.28907974201419 22.6669969701144 0
13.46679704091381 3.64797342321304 0
21.5332029543749 3.647973421078047 0
21.24841162758916 11.98273336909488 0
10.11782761467436 18.28415225516716 0
10.63648763928176 24.20899712910915 0
20.46235538395793 9.531210051990795 0
21.70014109022804 9.167756622263788 0
24.12150057802141 10.11809909234695 0
18.10245800681793 19.0106695337677 0
9.969956066190242 2.716032582776398 0
20.46325539352276 3.756201673876605 0
19.97730936323916 2.718149025616464 0
25.02934346235018 2.716713109757448 0
21.54197885773276 19.27919777301757 0
23.23817917698884 12.06422127662784 0
10.08651164154468 13.56728704035478 0
POLYGONS 3874 15496
3 423 921 1813
3 142 4 1183
3 1154 522 540
3 1059 399 997
3 887 1059 997
3 631 948 771
3 783 439 1311
3 730 937 1410
3 602 947 1299
3 629 743 1139
3 594 843 1148
3 420 758 1752
3 947 1181 1299
3 1194 665 885
3 382 563 944
3 461 521 1374
3 411 934 1572
3 542 948 1519
3 721 29 874
3 898 471 1960
3 411 1167 1825
3 749 993 1688
3 1107 454 611
3 1167 411 1572
3 855 748 1204
3 73 1069 1831
3 1345 1804 1900
3 345 855 1204
3 1757 1006 1624
3 947 602 1543
3 1200 362 1118
3 874 1024 1153
3 906 1042 1876
3 73 74 1069
3 228 229 1569
3 648 462 1141
3 452 549 1459
3 448 784 1237
3 530 906 1250
3 710 411 1825
3 906 687 1250
3 1705 557 1856
3 18 293 661
3 372 931 1546
3 402 996 1138
3 113 1043 1479
3 357 1117 1434
3 582 1200 910
3 808 525 1739
3 119 1648 1367
3 1147 486 578
3 921 1074 1813
3 843 675 1148
3 168 169 1460
3 103 104 799
3 276 1071 1170
3 751 427 1817
3 1189 808 1739
3 545 906 1876
3 456 751 1585
3 586 1001 648
3 996 402 1401
3 22 888 1475
3 348 713 1548
3 792 783 1311
3 827 693 1487
3 1117 724 1434
3 1211 485 1287
3 358 794 1328
3 514 1194 1705
3 820 791 709
3 1042 906 1489
3 324 1137 1814
3 645 322 1814
3 784 400 1237
3 603 1506 1343
3 500 1039 677
3 18 661 1719
3 907 753 1793
3 713 482 1597
3 1021 648 1141
3 469 907 1793
3 578 486 1309
3 52 53 664
3 584 1190 1679
3 559 1080 1958
3 1740 523 1100
3 839 825 2033
3 537 377 1564
3 1860 551 1892
3 840 454 1659
3 906 530 1489
3 614 1295 678
3 122 960 1534
3 593 342 999
3 1080 464 1958
3 548 1862 1895
3 770 1400 1256
3 228 1569 1867
3 948 631 1519
3 1865 584 1679
3 382 944 709
3 1404 1788 1318
3 302 22 1475
3 514 1140 1467
3 361 652 384
3 245 246 777
3 1071 276 1453
3 584 432 1248
3 575 711 1135
3 871 1863 1868
3 609 666 509
3 1237 400 1730
3 1080 938 1411
3 672 609 509
3 521 478 1000
3 937 730 1582
3 1024 718 1153
3 232 233 1031
3 1039 407 1131
3 751 456 1207
3 164 165 794
3 107 108 1211
3 521 461 1670
3 1393 667 1022
3 432 584 1865
3 525 791 757
3 8 659 1230
3 932 14 1494
3 735 979 783
3 34 380 1837
3 646 652 552
3 769 1308 1232
3 527 591 1794
3 743 629 1626
3 283 642 1233
3 586 1067 1787
3 486 1147 1116
3 742 1288 1280
3 993 970 1688
3 1313 463 921
3 369 1345 1900
3 417 645 983
3 1137 496 1464
3 1159 1860 1892
3 409 955 930
3 1027 802 1449
3 580 1393 1022
3 564 623 1427
3 443 1158 1012
3 642 283 1894
3 1862 450 1895
3 1200 582 1870
3 389 1755 1168
3 885 665 806
3 31 1668 1024
3 645 417 1413
3 496 1137 680
3 528 965 884
3 549 452 1030
3 485 1211 1521
3 794 358 1847
3 881 875 879
3 878 1300 1052
3 586 1787 949
3 762 1386 1762
3 1001 586 1662
3 652 696 552
3 1090 695 1248
3 715 630 1083
3 865 459 1708
3 770 1090 1248
3 393 715 1083
3 18 662 1778
3 643 1486 2022
3 1463 1083 1958
3 168 1460 1689
3 799 104 1270
3 711 575 615
3 664 53 1957
3 687 906 1123
3 459 920 1708
3 839 608 825
3 1458 516 1887
3 1506 388 1343
3 1154 540 2030
3 1402 512 1690
3 159 160 1671
3 742 1280 1710
3 405 1295 1777
3 842 817 1579
3 239 240 1246
3 298 869 1841
3 112 113 1479
3 667 1393 366
3 920 459 1601
3 746 768 1175
3 794 846 1328
3 604 1211 1287
3 693 827 1806
3 393 1083 1463
3 885 434 1709
3 665 1194 1967
3 351 1227 959
3 820 709 1530
3 1058 593 1821
3 1901 1373 919
3 735 1499 1315
3 757 622 1777
3 958 885 1709
3 1524 25 1254
3 557 1426 1856
3 525 757 1777
3 1520 463 2044
3 624 348 1165
3 659 485 1846
3 358 932 1848
3 658 865 1257
3 764 840 1659
3 1716 159 1671
3 985 947 1543
3 393 1208 1793
3 1295 614 1529
3 540 522 1696
3 758 1092 1752
3 948 670 771
3 536 556 1605
3 335 937 702
3 33 34 1837
3 770 1256 1588
3 119 120 1648
3 336 640 1599
3 861 487 1387
3 780 491 1101
3 279 792 1311
3 1449 802 1157
3 720 870 1047
3 569 1014 1242
3 788 1458 1887
3 1190 426 590
3 869 20 2029
3 526 543 1857
3 1788 621 1318
3 524 1636 1526
3 826 1237 1730
3 523 805 1100
3 1411 938 1972
3 1345 369 1486
3 937 335 1410
3 151 152 715
3 817 841 1579
3 564 1427 1986
3 1140 514 1919
3 1074 288 1813
3 791 525 1947
3 873 990 1203
3 451 597 1596
3 342 529 999
3 742 1873 1352
3 130 131 804
3 631 771 1704
3 543 526 1611
3 730 1410 1977
3 408 1279 1018
3 556 940 1605
3 776 1190 590
3 1762 1386 833
3 248 1144 1331
3 1764 802 2035
3 1107 611 2071
3 427 751 1364
3 768 1234 828
3 1636 524 1896
3 329 1757 1624
3 861 540 1696
3 1888 875 1301
3 878 877 2041
3 1094 461 1387
3 1486 369 1916
3 906 545 1123
3 555 1072 1673
3 1424 523 1126
3 443 1012 1998
3 1564 377 1783
3 122 123 960
3 730 1061 1582
3 658 1257 2066
3 154 685 1081
3 298 20 869
3 785 713 2047
3 643 1345 1486
3 1159 936 1860
3 926 350 805
3 468 374 1408
3 1007 349 1172
3 825 560 2033
3 1288 704 1280
3 608 839 1009
3 792 279 1620
3 461 1374 2030
3 734 450 1862
3 1014 541 1242
3 322 645 1413
3 1137 324 680
3 594 1424 1126
3 471 898 1877
3 462 909 1568
3 685 154 1175
3 497 1027 1449
3 979 735 1315
3 715 152 1743
3 796 361 1245
3 774 578 1309
3 485 659 880
3 932 358 1285
3 463 1313 2044
3 554 954 1766
3 784 448 1644
3 533 961 1599
3 1227 351 1706
3 1288 742 1352
3 357 1189 1117
3 591 747 1794
3 575 874 1153
3 689 1238 1220
3 544 827 1487
3 459 971 1601
3 803 557 1765
3 288 1074 1602
3 609 672 1187
3 802 1027 2035
3 411 710 1512
3 834 873 1203
3 487 988 1741
3 979 439 783
3 999 529 1105
3 875 881 1301
3 1300 878 2041
3 676 789 1136
3 870 520 1047
3 789 499 1136
3 525 808 1947
3 1268 167 1689
3 105 797 1270
3 984 608 1935
3 1407 641 927
3 298 1841 1993
3 1238 819 1220
3 769 1232 1978
3 524 864 1896
3 923 435 1927
3 362 1200 1870
3 217 218 539
3 1734 203 1839
3 413 572 1316
3 501 1310 1066
3 1348 532 1984
3 960 1156 1534
3 691 389 1168
3 389 691 2080
3 694 881 879
3 1300 700 1052
3 455 1108 2086
3 478 672 1000
3 423 1313 921
3 410 432 1753
3 572 413 1607
3 434 885 806
3 399 1508 1174
3 1280 441 1710
3 444 941 647
3 14 932 1285
3 659 8 880
3 864 524 1423
3 1043 114 1020
3 677 332 1281
3 484 785 2047
3 1114 1128 1792
3 318 25 1524
3 1627 379 1635
3 210 211 1378
3 1238 689 1173
3 940 377 1278
3 565 1082 2028
3 670 948 1732
3 1817 427 821
3 1111 1226 974
3 993 749 1466
3 1078 1343 1101
3 1104 720 1614
3 857 565 2028
3 505 898 1960
3 658 953 1503
3 1094 487 1741
3 1104 57 1360
3 490 410 1753
3 144 145 986
3 934 411 562
3 1508 669 1174
3 76 77 946
3 860 1402 1690
3 379 899 1635
3 853 1348 1984
3 713 785 1548
3 960 501 1066
3 640 533 1599
3 722 679 1351
3 748 855 1088
3 29 721 1377
3 865 658 1503
3 855 517 1088
3 370 1255 1565
3 1673 1072 1992
3 597 451 1106
3 385 722 1298
3 603 1227 1706
3 1055 498 1148
3 541 840 1340
3 346 1401 1398
3 679 722 1161
3 478 521 1670
3 1012 1818 1131
3 482 713 1272
3 804 131 1922
3 672 478 1187
3 405 1777 1749
3 331 332 677
3 1190 516 1679
3 704 1288 1542
3 502 1373 1901
3 585 1031 831
3 385 1298 2057
3 855 1712 1724
3 967 566 835
3 360 829 1215
3 343 1449 1157
3 294 941 883
3 1027 497 1291
3 614 678 1769
3 619 1467 1257
3 1048 608 984
3 56 57 1104
3 1069 868 1831
3 675 1055 1148
3 1176 765 1693
3 713 348 1272
3 593 999 1821
3 1120 1486 1916
3 1014 554 1095
3 569 1241 1609
3 349 1661 1172
3 27 1409 1281
3 472 1104 1614
3 388 780 1101
3 54 55 876
3 871 531 1863
3 1229 726 1600
3 563 382 1155
3 111 112 1479
3 1516 385 2057
3 1415 351 959
3 713 1597 2047
3 350 926 1801
3 829 1214 1667
3 781 327 1624
3 514 1705 1269
3 661 293 1162
3 160 161 1671
3 1132 10 985
3 396 473 1655
3 662 18 1719
3 340 999 1105
3 394 1080 1411
3 955 774 1892
3 1127 534 1802
3 1408 374 1608
3 964 430 1332
3 961 550 1599
3 1075 485 880
3 358 1063 1285
3 199 1525 1939
3 1343 388 1101
3 458 216 1421
3 779 479 1053
3 809 1005 1252
3 1037 370 1615
3 1757 1039 1131
3 1014 569 1690
3 523 1424 1064
3 129 3 1373
3 840 764 1340
3 1870 582 1924
3 1255 535 1565
3 12 470 736
3 473 396 1744
3 323 324 1814
3 322 323 1814
3 1401 686 1398
3 955 409 1897
3 245 777 1425
3 671 1004 1437
3 664 346 1999
3 1118 362 1969
3 679 812 1429
3 346 1151 1999
3 829 360 1214
3 768 746 1478
3 1067 1021 2011
3 407 1039 1948
3 1308 769 1840
3 838 1284 1241
3 1214 373 1667
3 636 1734 1839
3 687 1663 1754
3 111 1479 1812
3 1145 964 1332
3 1671 161 2078
3 1031 233 1853
3 649 1156 1166
3 1218 371 1545
3 538 1784 2070
3 827 518 1806
3 517 708 1926
3 923 351 1304
3 1156 649 1056
3 1108 455 2038
3 1147 578 1960
3 1078 892 1076
3 491 780 1447
3 1010 967 835
3 802 1292 1157
3 393 1793 2089
3 646 1229 1600
3 741 657 1026
3 1250 687 1754
3 469 1610 1632
3 1496 1111 974
3 946 901 1549
3 1337 435 2072
3 512 1014 1690
3 578 505 1960
3 578 774 955
3 1128 1015 1792
3 280 11 378
3 15 287 905
3 400 784 1205
3 445 842 1540
3 1090 209 1797
3 682 1116 1380
3 1061 1334 1991
3 1936 561 925
3 450 734 1433
3 717 374 2021
3 516 1426 1679
3 11 279 729
3 288 15 1355
3 763 746 786
3 20 698 2029
3 429 673 1726
3 487 861 952
3 701 598 1417
3 722 385 1665
3 1668 718 1024
3 708 338 1675
3 454 1107 1659
3 435 1337 1927
3 1504 742 1710
3 936 1159 1177
3 868 1069 1634
3 944 446 709
3 1061 607 1334
3 862 1390 1704
3 460 412 2077
3 651 635 1733
3 1049 513 957
3 448 1049 957
3 1439 1067 2011
3 540 861 1387
3 904 682 1380
3 708 517 1724
3 338 708 1724
3 390 988 1589
3 449 469 1632
3 1404 765 1788
3 1954 531 1122
3 744 1432 1429
3 988 487 1589
3 1234 404 828
3 522 1154 1737
3 553 1067 1439
3 673 429 1041
3 1437 1004 1849
3 1238 1173 2086
3 953 658 1540
3 29 30 874
3 1039 500 1948
3 892 817 1076
3 746 763 1478
3 461 540 1387
3 148 149 907
3 1004 316 1917
3 1432 679 1429
3 208 209 1090
3 1032 1187 1438
3 462 1568 1314
3 632 717 2021
3 532 1348 592
3 482 624 1762
3 870 720 1360
3 1234 768 1478
3 958 803 1765
3 667 956 1022
3 971 459 1637
3 862 1704 1945
3 394 1411 1625
3 1251 714 1282
3 697 1253 1591
3 1292 596 1157
3 547 1622 1571
3 646 914 1229
3 815 780 1697
3 1656 235 1180
3 1108 1238 2086
3 1255 370 1983
3 219 1559 1725
3 1615 370 1651
3 1074 921 2031
3 557 1194 1765
3 714 1276 1282
3 637 697 1591
3 855 345 1712
3 1187 478 1438
3 1648 1038 1367
3 1407 1823 1684
3 1077 852 1011
3 142 1183 1050
3 777 246 1567
3 59 60 617
3 617 348 1685
3 780 388 1697
3 294 18 1778
3 1284 300 1241
3 1467 1140 1257
3 541 1014 1095
3 1712 338 1724
3 342 593 1476
3 1464 466 2059
3 1051 1077 1011
3 1540 842 1964
3 433 1402 831
3 601 1504 1710
3 471 904 1380
3 1726 908 891
3 1432 492 1351
3 1009 467 1077
3 1189 357 808
3 1127 1802 1258
3 1627 527 1794
3 1595 963 1254
3 1092 758 1193
3 886 581 894
3 1570 353 1547
3 384 652 1600
3 295 294 883
3 1546 931 1532
3 730 946 1549
3 585 831 872
3 1194 557 1705
3 31 32 1668
3 520 870 1685
3 1672 718 1668
3 725 754 884
3 1279 701 1417
3 1863 856 1868
3 1183 4 1133
3 988 390 1925
3 1349 916 1574
3 1022 956 1214
3 1026 538 2070
3 316 1004 1221
3 914 633 1834
3 633 886 1834
3 461 1094 1396
3 723 864 1423
3 435 923 1304
3 920 690 1708
3 829 1035 1215
3 475 840 1095
3 1144 572 1331
3 391 1437 1849
3 624 482 1272
3 274 8 1230
3 14 285 1494
3 272 1377 1715
3 765 1176 2092
3 280 378 1129
3 905 287 1808
3 277 276 1170
3 1766 954 1180
3 414 725 884
3 975 768 828
3 248 249 1144
3 965 430 1781
3 199 200 1525
3 684 733 1852
3 67 68 1297
3 251 1359 1212
3 1172 688 1934
3 1241 21 1609
3 32 33 1837
3 1670 461 1396
3 371 1218 1125
3 1780 895 1514
3 789 836 1635
3 499 789 1635
3 1218 396 1125
3 931 372 866
3 1137 1464 2059
3 369 1450 1916
3 757 486 1116
3 783 792 1694
3 1194 514 1967
3 900 406 1329
3 917 194 1405
3 54 876 1957
3 895 864 1514
3 687 1123 1631
3 729 279 1311
3 288 1355 1813
3 348 624 1272
3 1668 32 1837
3 641 1407 2081
3 1334 589 1991
3 884 965 1036
3 727 1209 1420
3 940 1278 1833
3 819 1238 1952
3 657 1400 410
3 1823 603 1891
3 952 861 2048
3 25 1595 1254
3 1863 642 1989
3 1348 347 592
3 647 767 1497
3 1233 642 1863
3 327 781 849
3 356 779 1836
3 621 1390 457
3 1506 603 1823
3 1012 428 1818
3 582 910 1550
3 1116 1147 1380
3 654 1054 1672
3 625 897 1956
3 766 538 1709
3 759 908 1364
3 210 1378 1797
3 647 941 1778
3 538 903 1709
3 495 777 2067
3 1634 1069 1363
3 652 646 1600
3 518 1570 1547
3 264 265 897
3 690 920 627
3 536 1072 1855
3 908 427 1364
3 1162 599 1198
3 1755 823 1168
3 440 813 1492
3 120 121 1056
3 195 196 830
3 164 794 1638
3 1211 108 978
3 1349 692 2043
3 909 352 1568
3 1556 128 1639
3 777 495 1425
3 1407 911 1823
3 654 1672 1668
3 1246 240 1577
3 767 1500 1497
3 1345 643 1243
3 468 595 997
3 650 1605 1833
3 1349 1574 1502
3 955 551 930
3 219 220 1559
3 778 565 1761
3 59 617 2099
3 793 291 961
3 692 1936 2043
3 1087 547 1571
3 794 165 902
3 107 1211 1699
3 348 1548 1685
3 553 908 1787
3 1818 1006 1131
3 1402 433 1383
3 840 541 1095
3 326 327 849
3 1171 639 1932
3 523 1064 1109
3 620 952 2048
3 927 618 1058
3 1750 650 1833
3 1227 603 1343
3 639 813 1932
3 1175 768 844
3 817 892 1484
3 928 900 1329
3 156 786 1073
3 692 561 1936
3 1093 238 1714
3 1589 487 952
3 1173 691 2086
3 237 238 1093
3 291 290 961
3 1233 531 1954
3 1054 364 1672
3 204 205 451
3 738 27 1893
3 793 356 1836
3 153 154 1081
3 10 1132 1869
3 552 401 1089
3 736 1776 1593
3 1061 730 1549
3 1648 120 1056
3 327 328 1624
3 658 959 1540
3 953 546 1637
3 1492 813 2040
3 349 741 1026
3 791 820 1307
3 1404 452 1693
3 1390 862 457
3 430 965 1541
3 996 664 1957
3 518 827 1570
3 337 1345 1243
3 113 114 1043
3 1637 546 882
3 827 587 1570
3 1462 727 835
3 314 1048 984
3 1330 610 942
3 71 72 1498
3 529 342 2046
3 1208 393 1463
3 1297 68 1973
3 1018 1279 1323
3 908 553 891
3 1823 415 1684
3 965 528 1541
3 19 295 843
3 981 370 1565
3 623 418 1427
3 405 341 1842
3 239 1246 1714
3 390 1412 1249
3 719 1589 952
3 406 1040 1329
3 257 258 929
3 473 1744 1598
3 1009 839 1789
3 995 736 1593
3 584 1248 1275
3 1708 690 2052
3 487 1094 1387
3 677 1039 1320
3 771 375 1704
3 1245 513 968
3 1409 663 1626
3 492 1826 1528
3 686 1401 1616
3 1402 368 831
3 396 1218 1744
3 398 449 1632
3 1359 816 1350
3 966 749 1688
3 744 1429 1209
3 167 168 1689
3 104 105 1270
3 1123 359 1631
3 576 966 1688
3 499 1384 1718
3 260 261 1731
3 529 698 1105
3 765 1404 1693
3 1240 307 1223
3 656 971 1637
3 369 1453 1450
3 2081 1407 1684
3 1415 959 2066
3 1411 909 1625
3 364 615 1672
3 286 14 1285
3 8 281 880
3 897 356 1956
3 1241 569 1242
3 332 27 1281
3 1393 580 1965
3 380 34 1045
3 664 996 1401
3 566 1462 835
3 353 1086 1501
3 353 1570 1086
3 758 320 1193
3 888 22 1665
3 838 1241 1242
3 1597 1197 2047
3 470 12 1199
3 1040 837 1329
3 635 651 1575
3 492 1298 1351
3 412 460 867
3 341 649 1166
3 333 24 1049
3 371 966 1545
3 1098 896 872
3 614 1448 1117
3 489 1126 1740
3 695 1090 1797
3 914 1834 2051
3 1834 886 2087
3 512 1402 1383
3 383 451 1596
3 797 105 1581
3 167 1268 1511
3 1295 405 678
3 115 116 898
3 1067 553 1787
3 610 1330 1621
3 508 1550 1851
3 1330 456 1621
3 351 923 1706
3 1672 615 1153
3 1424 594 1148
3 649 341 1034
3 27 333 1893
3 1681 630 1081
3 1553 945 1290
3 609 1002 1461
3 1013 717 632
3 757 791 1307
3 685 1681 1081
3 62 1219 2000
3 70 1655 1982
3 16 1354 2004
3 583 888 674
3 156 157 786
3 661 1162 1198
3 667 366 1382
3 372 1055 866
3 1139 743 1976
3 26 320 758
3 628 1880 1306
3 986 145 1017
3 699 1901 1998
3 127 128 1556
3 624 1165 2000
3 807 398 1632
3 443 1901 919
3 780 815 1782
3 1744 424 1598
3 1002 609 1163
3 996 876 1138
3 605 458 1421
3 513 686 1616
3 485 1075 1287
3 1063 358 1328
3 565 857 1761
3 987 437 2054
3 1726 673 821
3 594 1126 1335
3 234 235 1656
3 745 510 1720
3 409 1043 1020
3 954 554 1886
3 1378 695 1797
3 341 405 1034
3 1022 360 1695
3 493 1359 1350
3 656 1637 882
3 633 914 1089
3 1432 744 1826
3 901 946 1768
3 1029 871 1446
3 516 1190 776
3 688 965 1358
3 959 658 2066
3 1366 809 1370
3 36 37 354
3 361 796 1065
3 474 927 1058
3 1665 385 674
3 1718 1384 1698
3 300 1284 1161
3 459 865 1503
3 1415 1140 1919
3 1377 721 1715
3 539 218 1725
3 1098 368 1068
3 360 1022 1214
3 756 1245 968
3 533 793 961
3 517 855 1724
3 326 849 1800
3 536 1855 1554
3 750 1553 1976
3 965 688 1036
3 193 194 917
3 755 1705 1856
3 1550 481 1851
3 1537 260 1731
3 551 955 1892
3 426 1190 1951
3 1401 402 1616
3 412 1480 2077
3 368 1402 1068
3 1190 584 1951
3 935 651 1733
3 144 986 1647
3 909 462 1773
3 696 652 1065
3 727 1510 1294
3 1412 390 1756
3 640 336 1731
3 832 1183 1133
3 871 1029 900
3 1252 1005 1722
3 849 1099 1800
3 941 444 1649
3 583 1222 1660
3 307 1240 1361
3 1483 1594 1966
3 1040 352 1191
3 1384 570 1988
3 846 794 902
3 1211 604 1699
3 7 231 438
3 907 149 1906
3 1801 696 1707
3 638 2081 1684
3 686 513 1759
3 888 1665 674
3 836 789 1512
3 404 1234 1477
3 626 1114 1792
3 946 77 1768
3 230 7 438
3 789 411 1512
3 364 1366 1370
3 486 757 1307
3 16 297 1354
3 629 1409 1626
3 954 1656 1180
3 652 361 1065
3 790 1098 1068
3 283 282 1894
3 682 904 2020
3 431 1002 1163
3 933 1594 1483
3 797 801 1270
3 798 1268 1689
3 429 1726 891
3 212 213 344
3 352 909 1411
3 914 646 1089
3 888 583 1368
3 264 897 1558
3 368 1098 872
3 1255 1983 2069
3 580 1022 1695
3 427 1726 821
3 154 155 1175
3 570 1384 1640
3 849 510 1267
3 492 1432 1826
3 1308 498 1232
3 28 273 0
3 720 1104 1360
3 436 1418 1316
3 1257 1140 2066
3 876 472 1138
3 351 1415 2002
3 479 779 1179
3 408 1098 1841
3 938 975 828
3 1222 963 1660
3 370 1037 1983
3 1636 564 1526
3 835 727 1294
3 64 65 1395
3 71 1498 1655
3 740 1062 1838
3 1025 766 1079
3 975 559 1681
3 712 795 1653
3 1518 1266 1445
3 766 434 1079
3 892 1078 1101
3 1744 1218 1146
3 796 696 1065
3 424 1744 1146
3 910 1200 1832
3 1384 499 899
3 330 1039 1757
3 586 648 2036
3 666 442 1738
3 313 314 984
3 971 656 1799
3 510 745 1629
3 1072 536 1992
3 685 1175 844
3 646 552 1089
3 1072 555 1143
3 1037 515 1318
3 456 1330 2063
3 401 1023 1845
3 346 664 1401
3 151 715 1676
3 552 696 1023
3 1426 516 1856
3 1176 1693 1702
3 502 1384 1988
3 801 797 1271
3 1268 798 1683
3 129 1373 1639
3 668 465 1060
3 1443 207 1535
3 301 300 1161
3 948 542 2012
3 636 1817 821
3 1026 657 1259
3 549 1826 1898
3 76 946 1691
3 347 1348 1905
3 319 26 1472
3 1776 705 1593
3 321 322 1413
3 324 325 680
3 892 381 1484
3 1525 795 1939
3 250 251 1212
3 1316 1418 1501
3 1427 613 1986
3 550 1652 1658
3 1062 740 2019
3 1091 495 2067
3 1293 137 925
3 1195 494 1118
3 675 941 1649
3 378 11 2049
3 15 905 973
3 1126 1196 1335
3 1553 355 1976
3 745 804 1922
3 786 746 1073
3 1402 860 1068
3 1062 467 1838
3 617 870 2099
3 587 668 1060
3 1037 1003 1983
3 1055 372 1232
3 1601 507 627
3 401 552 1023
3 607 1061 1763
3 1424 498 1064
3 1852 733 1682
3 465 1091 1416
3 1692 492 1528
3 796 1245 1912
3 498 1055 1232
3 933 1740 1100
3 824 600 1585
3 11 729 2049
3 1355 15 973
3 1652 1235 1658
3 1098 790 1841
3 535 1255 1961
3 491 892 1101
3 1478 763 1736
3 651 1230 2065
3 1494 412 1623
3 581 886 1266
3 422 1448 1388
3 842 445 1076
3 350 778 681
3 1655 473 1982
3 1031 433 831
3 904 1038 2020
3 712 1653 2075
3 695 1378 1275
3 498 1424 1148
3 694 378 1771
3 905 700 1907
3 2013 1208 1613
3 1244 628 1306
3 1815 669 1838
3 217 539 1421
3 1453 276 1450
3 401 1518 1445
3 62 63 1219
3 793 533 1956
3 505 578 955
3 540 461 2030
3 413 913 1607
3 804 428 1843
3 779 356 1179
3 1496 450 1433
3 1444 534 1265
3 1143 634 1855
3 715 393 2089
3 212 344 1829
3 753 907 1906
3 1467 619 1950
3 377 940 1783
3 1140 1415 2066
3 1226 480 974
3 1458 435 1362
3 1159 1015 1177
3 614 1117 1529
3 1359 251 1854
3 704 1542 1791
3 1018 227 1867
3 479 1366 2026
3 778 1801 1707
3 1051 984 1935
3 1002 518 1461
3 778 350 1801
3 650 1673 1992
3 383 824 2091
3 650 1000 1673
3 570 1556 1639
3 1400 488 1256
3 956 667 2019
3 942 416 1918
3 868 893 1130
3 618 1559 1058
3 1111 1954 1122
3 1855 403 1554
3 1001 942 1918
3 1378 211 1829
3 370 981 1651
3 1983 1003 2069
3 328 329 1624
3 1080 559 1968
3 729 439 1236
3 423 1355 1356
3 940 556 1783
3 881 694 2039
3 700 1300 1325
3 1291 497 1490
3 1905 1348 1442
3 283 1233 1954
3 663 1409 2032
3 1080 394 464
3 1000 672 1673
3 427 908 1726
3 23 780 1782
3 1093 475 1095
3 505 955 1897
3 608 1048 825
3 1219 624 2000
3 1348 853 851
3 337 1582 1804
3 766 1025 1217
3 963 1222 1254
3 1412 1756 2016
3 667 1062 2019
3 1559 618 1725
3 426 1378 1829
3 1448 724 1117
3 373 956 1028
3 28 29 1377
3 986 689 1220
3 709 446 1530
3 86 87 1292
3 689 986 1987
3 920 1601 627
3 557 803 1533
3 616 964 1379
3 400 612 1730
3 554 1093 1095
3 1609 860 1690
3 1714 1246 1933
3 90 91 972
3 1138 784 1644
3 964 1145 1379
3 52 664 1999
3 817 842 1076
3 990 449 1203
3 1048 671 825
3 1450 1128 1916
3 1559 593 1058
3 598 701 1431
3 780 23 1447
3 185 186 1504
3 587 827 1633
3 377 477 1278
3 181 182 939
3 1222 535 1254
3 841 817 1484
3 1595 841 1484
3 755 1458 1362
3 938 1080 1968
3 950 1463 1958
3 456 1585 1642
3 428 1158 1843
3 1183 832 2068
3 366 310 998
3 569 1609 1690
3 516 1458 1856
3 1099 849 1267
3 70 71 1655
3 876 996 1957
3 1279 408 1795
3 546 953 1964
3 333 1049 1893
3 19 843 1044
3 548 1008 1186
3 1072 1143 1855
3 1230 659 2065
3 932 1494 1623
3 826 738 1237
3 1043 573 1479
3 433 1031 1853
3 1313 423 1975
3 439 979 1643
3 893 868 1634
3 1004 671 1221
3 688 1358 1934
3 365 1716 1341
3 908 759 1787
3 622 757 1116
3 100 101 800
3 171 172 1513
3 272 273 1377
3 152 153 1743
3 714 1251 1771
3 1253 697 1907
3 419 359 1224
3 1784 737 2070
3 886 633 1266
3 545 1204 1931
3 521 1750 1374
3 1336 1054 1539
3 1225 1164 1440
3 644 419 1224
3 556 395 1783
3 435 1458 2072
3 727 1462 1209
3 1204 748 1931
3 701 1279 1795
3 454 1246 611
3 378 694 1129
3 700 905 1808
3 1345 337 1804
3 244 245 1425
3 515 1037 1615
3 804 745 1720
3 1138 472 1205
3 837 1040 1493
3 1276 714 1236
3 697 637 1356
3 1341 548 1186
3 1005 809 1885
3 733 684 1372
3 956 373 1214
3 518 1002 1806
3 1209 334 1420
3 387 1465 1166
3 232 1031 918
3 688 1661 1488
3 809 1366 1885
3 534 1127 1299
3 816 1359 1854
3 1118 494 1832
3 554 1014 1886
3 1182 992 1713
3 566 967 1700
3 696 796 1707
3 690 1108 2038
3 402 1138 1644
3 669 1452 1174
3 610 1007 1172
3 1031 585 918
3 1675 66 1641
3 533 640 1785
3 467 1009 1815
3 698 529 1431
3 1036 688 1488
3 1229 914 1495
3 356 793 1956
3 702 937 1428
3 508 917 1405
3 1008 728 1477
3 300 21 1241
3 68 69 1973
3 344 213 1228
3 69 991 1973
3 1358 965 1781
3 666 1738 1664
3 784 1138 1205
3 1256 1102 1588
3 371 1905 1442
3 153 1081 1743
3 576 419 1146
3 1569 585 872
3 1458 788 2072
3 488 1400 977
3 78 79 1444
3 467 1815 1838
3 856 910 1868
3 588 1396 1096
3 446 1486 1530
3 565 778 1707
3 1716 574 1341
3 937 1582 1428
3 1465 341 1166
3 136 137 1293
3 776 606 1887
3 1383 954 1886
3 806 823 1079
3 195 830 1405
3 452 1404 1030
3 1400 657 977
3 439 729 1311
3 1007 610 1621
3 1069 74 1650
3 1053 479 2026
3 1355 423 1813
3 1091 465 1844
3 434 806 1079
3 1284 679 1161
3 1249 1412 1667
3 148 907 1455
3 879 1289 2084
3 2008 1052 2085
3 971 832 1601
3 292 1053 1929
3 1195 1029 1446
3 1437 560 825
3 1009 1077 1935
3 127 1556 1587
3 24 306 1473
3 773 556 1554
3 374 468 2021
3 1901 443 1998
3 418 623 1923
3 124 125 858
3 580 1223 1965
3 1029 1195 2082
3 941 294 1778
3 830 196 1920
3 489 1740 1703
3 41 42 1546
3 21 299 1609
3 1408 588 1096
3 352 1040 1375
3 371 1125 1905
3 521 1000 1750
3 916 1349 1231
3 1102 1443 1535
3 583 674 2027
3 1680 519 818
3 606 1365 1887
3 1042 1680 818
3 896 1569 872
3 1378 426 1951
3 785 520 1548
3 1695 421 1406
3 377 537 1531
3 655 987 2054
3 1755 725 2064
3 1400 770 1604
3 1182 489 992
3 349 1007 1505
3 1246 454 1933
3 1162 293 1929
3 475 1093 1714
3 1386 762 1864
3 389 725 1755
3 1067 586 2036
3 1002 431 1392
3 1304 351 2002
3 1693 1435 1702
3 1359 493 1981
3 310 311 998
3 595 468 1408
3 785 484 1820
3 827 544 1633
3 1422 635 1575
3 600 741 1505
3 460 1573 867
3 796 565 1707
3 1404 515 1030
3 1395 65 1675
3 367 1052 2008
3 879 376 1289
3 1125 893 1905
3 741 349 1505
3 1582 337 1428
3 711 615 1370
3 946 730 1977
3 843 594 1044
3 623 564 579
3 1373 502 1988
3 1455 907 1451
3 943 1035 1966
3 1043 409 930
3 475 1714 1933
3 1599 550 1474
3 1014 512 1886
3 1053 476 1929
3 520 612 1047
3 1021 1067 2036
3 483 1195 1118
3 824 1585 2091
3 451 205 1106
3 334 1659 1420
3 477 1737 951
3 1406 889 1361
3 1826 744 1898
3 276 9 1450
3 945 1718 1698
3 282 12 736
3 363 2013 1613
3 1595 1484 1103
3 671 1437 825
3 1567 577 2067
3 1023 926 1845
3 1804 589 1900
3 344 426 1829
3 342 1476 1152
3 741 600 1481
3 126 127 1587
3 886 894 1201
3 929 258 1385
3 588 1670 1396
3 10 277 985
3 477 377 1531
3 813 440 1403
3 468 503 2021
3 1054 654 1775
3 115 898 1020
3 1609 299 1206
3 1040 1191 1493
3 945 1553 1879
3 1234 1478 1736
3 777 1567 2067
3 1799 656 1381
3 13 283 1954
3 556 536 1554
3 612 520 1353
3 448 957 1644
3 227 1018 1323
3 1459 549 1898
3 1117 1189 1529
3 1384 502 1698
3 1407 927 1678
3 1795 408 1841
3 630 715 1743
3 538 1026 1259
3 1003 1037 1273
3 1060 465 1416
3 1373 3 919
3 904 118 1367
3 386 1865 1679
3 118 904 1436
3 472 876 1816
3 863 1537 772
3 1695 1406 1798
3 898 116 1877
3 1146 419 1942
3 610 1172 1934
3 354 37 1097
3 531 871 1760
3 262 1169 2056
3 476 1336 1539
3 913 413 1086
3 257 929 1327
3 749 966 851
3 361 384 1398
3 1523 950 464
3 617 60 1165
3 573 1043 930
3 534 1444 1802
3 1417 598 1941
3 657 741 977
3 414 884 1036
3 1116 682 1805
3 1240 1406 1361
3 307 308 1223
3 1523 464 2090
3 1518 581 1266
3 1001 1918 1124
3 1750 447 1374
3 213 214 1228
3 1473 756 968
3 1569 896 1867
3 581 1630 1840
3 907 469 1451
3 913 587 1060
3 449 398 1203
3 515 1404 1318
3 437 1365 2054
3 728 1008 1895
3 273 28 1377
3 1486 1120 1530
3 1204 545 1780
3 1366 479 1885
3 678 405 1842
3 1804 1582 1991
3 739 1516 2057
3 1278 477 951
3 674 981 2027
3 901 1444 1265
3 200 201 1041
3 1366 364 1336
3 708 1675 1641
3 65 66 1675
3 2080 1225 1419
3 255 1717 1937
3 910 856 1828
3 467 1062 2034
3 859 4 1835
3 789 676 562
3 1388 1448 1878
3 246 247 1567
3 1200 1118 1832
3 1412 511 1701
3 465 668 1538
3 512 1383 1886
3 520 785 1353
3 927 474 1678
3 875 800 1347
3 1513 878 1686
3 364 1054 1336
3 1556 379 1587
3 1343 1078 1883
3 275 274 1177
3 990 1455 1451
3 1008 548 1895
3 758 420 1381
3 1537 336 772
3 262 263 1169
3 398 1225 1440
3 1032 1163 1187
3 539 1725 1399
3 519 1680 1357
3 95 96 1282
3 176 177 1591
3 474 1058 1821
3 1427 418 1882
3 1772 792 1620
3 929 773 1327
3 1525 200 1041
3 1055 675 1649
3 345 1204 1514
3 993 422 1663
3 279 278 1620
3 775 787 1465
3 970 993 1663
3 224 225 1417
3 1409 629 1281
3 897 625 1558
3 498 1308 1910
3 1126 489 1196
3 1126 523 1740
3 1553 1290 2006
3 829 1412 1701
3 1123 545 1931
3 553 1439 1470
3 628 1568 1880
3 240 241 1577
3 1498 396 1655
3 24 1473 968
3 798 1460 1517
3 799 801 1283
3 285 284 1433
3 359 1123 2045
3 778 1761 681
3 612 547 1730
3 345 864 2017
3 390 1589 1756
3 1089 401 1445
3 206 207 1443
3 1251 1282 1456
3 863 1564 1970
3 1591 1253 1657
3 600 824 1481
3 494 1195 1446
3 587 913 1086
3 824 488 1481
3 606 344 1228
3 452 1435 1693
3 1010 1611 1844
3 1611 495 1844
3 215 216 458
3 1586 1397 1654
3 1719 558 1940
3 613 1427 1515
3 1282 1276 1747
3 637 1591 1277
3 1565 535 1222
3 629 677 1281
3 1104 472 1816
3 662 1719 1940
3 1472 26 882
3 847 596 1536
3 1069 1650 1363
3 1164 1225 2080
3 1238 1108 1952
3 449 990 1451
3 859 819 1952
3 605 1618 2081
3 146 147 873
3 848 891 1470
3 227 228 1867
3 1374 1154 2030
3 611 924 2071
3 469 449 1451
3 1229 49 1121
3 329 330 1757
3 831 368 872
3 561 1293 925
3 1659 334 1563
3 1460 798 1689
3 801 799 1270
3 891 553 1470
3 36 354 1721
3 1506 911 1339
3 1032 1438 1608
3 289 288 1602
3 1639 1373 1988
3 1550 910 1828
3 338 1395 1675
3 411 789 562
3 941 675 883
3 771 670 1303
3 660 1435 1890
3 708 1297 1926
3 1319 1034 1749
3 738 448 1237
3 692 1349 1502
3 500 677 1441
3 1956 533 1785
3 1163 609 1187
3 1074 1779 1602
3 1581 604 1921
3 846 1511 2094
3 1062 667 1382
3 972 735 1619
3 1628 699 1998
3 1034 405 1749
3 463 939 1115
3 966 371 1442
3 601 989 1566
3 662 647 1778
3 961 290 1645
3 812 679 1264
3 736 995 1894
3 1712 345 2017
3 1019 815 1134
3 565 796 1912
3 1409 27 1507
3 1439 483 1470
3 1435 660 1962
3 479 1179 1790
3 1676 715 2089
3 1650 1016 1363
3 813 639 2040
3 596 847 2009
3 75 1691 1650
3 735 972 1499
3 1427 750 1515
3 939 463 1520
3 599 1054 1775
3 668 587 1633
3 989 601 504
3 864 723 2017
3 1866 1235 2004
3 1279 1417 2062
3 596 1292 1536
3 547 612 1353
3 1008 1477 1736
3 800 875 1888
3 878 1513 877
3 334 1429 1563
3 766 1217 1784
3 1426 557 1533
3 878 1052 1908
3 879 875 1770
3 1660 1103 1979
3 577 1607 1416
3 1637 459 1503
3 1564 395 1970
3 361 1398 1759
3 1386 1712 2017
3 1012 407 1998
3 1038 904 1367
3 566 1459 1898
3 255 256 1717
3 711 1370 1527
3 726 384 1600
3 1053 292 2083
3 670 1452 1303
3 1540 959 1915
3 890 1255 2069
3 1513 798 1517
3 801 800 1283
3 143 144 1647
3 537 1564 772
3 399 1059 1508
3 507 859 1952
3 253 254 1612
3 1184 526 1857
3 1589 719 1756
3 1504 601 1566
3 1384 899 1640
3 204 451 1839
3 876 55 1816
3 742 1504 1873
3 911 1407 1678
3 546 1472 882
3 3 1158 919
3 1278 447 1833
3 306 307 1361
3 1473 306 1361
3 679 1432 1351
3 972 596 2009
3 1807 605 2081
3 1032 1608 1430
3 1342 1143 1664
3 1194 885 1765
3 1158 428 1012
3 869 1795 1841
3 601 939 504
3 904 471 1436
3 1630 1308 1840
3 632 670 1732
3 1292 802 1764
3 581 1518 1630
3 503 468 1160
3 571 1772 1620
3 488 824 1677
3 395 1564 1783
3 348 617 1165
3 1429 812 1563
3 1136 499 1718
3 141 142 1050
3 311 312 1011
3 608 1009 1935
3 319 1472 1213
3 1025 1755 2064
3 335 1634 1363
3 735 783 1389
3 677 629 1441
3 1410 1016 1977
3 501 858 591
3 316 317 1917
3 1397 982 1654
3 823 806 1729
3 1151 726 2055
3 1460 170 1517
3 102 799 1283
3 514 1467 1967
3 966 576 1545
3 1232 372 1978
3 75 76 1691
3 1157 1619 1389
3 132 133 1346
3 150 151 1676
3 921 463 2024
3 303 1119 1447
3 451 383 2001
3 1271 376 1347
3 367 1683 1686
3 130 804 1843
3 1607 913 1416
3 1177 274 2037
3 1453 369 1900
3 885 958 1765
3 490 903 1576
3 756 1473 1082
3 1063 1930 2008
3 1376 1075 1289
3 671 1048 1985
3 773 929 1861
3 1290 502 1901
3 375 771 782
3 44 894 1938
3 202 203 1734
3 960 123 1557
3 4 859 1133
3 163 164 1638
3 108 109 978
3 819 859 1835
3 1479 635 1812
3 860 1609 1206
3 947 985 1170
3 1705 755 1269
3 798 1513 1686
3 800 801 1347
3 1779 922 1602
3 676 1136 1923
3 1015 1159 1792
3 1115 1710 2024
3 460 1671 2078
3 1059 740 1508
3 88 847 1536
3 847 89 2009
3 1773 616 1379
3 513 1049 968
3 468 997 1160
3 1435 452 1890
3 612 400 1914
3 1918 616 1124
3 989 184 1566
3 183 989 504
3 665 1467 1950
3 37 38 1097
3 1559 220 1476
3 1028 956 2019
3 1474 550 1658
3 972 91 1499
3 1879 1553 1882
3 857 943 1761
3 86 1292 1764
3 1681 559 2058
3 1357 1680 1491
3 216 217 1421
3 824 383 1596
3 181 939 1520
3 782 839 2033
3 384 726 1262
3 1143 555 1664
3 285 1433 1394
3 1504 186 1873
3 1013 632 1732
3 198 712 1946
3 464 950 1958
3 78 1444 1768
3 413 1316 1501
3 668 1962 1538
3 237 1093 1766
3 56 1104 1816
3 1040 406 1880
3 355 1139 1976
3 1546 42 1312
3 957 513 1616
3 618 927 1399
3 100 800 1888
3 1513 172 877
3 428 1720 1818
3 1773 1379 1625
3 598 1431 2046
3 1134 815 1339
3 450 1496 974
3 721 874 2088
3 1769 787 1239
3 1119 752 1903
3 1054 599 1539
3 1039 330 1320
3 531 1233 1863
3 1460 169 2095
3 103 799 1687
3 896 1018 1867
3 1050 1183 1911
3 421 857 2028
3 291 793 1836
3 1661 688 1172
3 585 1569 1850
3 1966 1035 1701
3 49 1229 1495
3 1113 716 1590
3 1444 79 1802
3 678 787 1769
3 39 1500 1561
3 1448 422 1881
3 1725 618 1399
3 724 1448 1881
3 1542 760 1791
3 510 849 1774
3 894 44 1201
3 897 265 397
3 1021 1141 2011
3 871 900 1760
3 1347 376 1770
3 367 1686 1908
3 927 641 1399
3 375 782 2033
3 858 125 2014
3 559 975 1968
3 953 1637 1503
3 1844 465 2076
3 2011 1141 1830
3 747 858 2014
3 1787 759 949
3 693 1471 1260
3 648 1001 1124
3 561 692 1884
3 740 1028 2019
3 535 1524 1254
3 1136 418 1923
3 1195 483 1997
3 596 972 1619
3 346 384 1262
3 1868 910 1832
3 1610 822 1632
3 1756 719 992
3 864 345 1514
3 417 983 1502
3 476 1053 2026
3 1046 1291 1490
3 1464 496 2040
3 1431 529 2046
3 60 61 1165
3 859 507 1321
3 1169 640 2056
3 1660 963 1103
3 1071 1453 1391
3 939 601 1115
3 1962 660 1538
3 1471 1013 2012
3 1048 314 1985
3 1699 604 1581
3 846 902 1511
3 343 1157 1389
3 915 743 1560
3 1413 1454 1193
3 874 575 2088
3 1185 1756 992
3 430 964 1781
3 743 1626 1560
3 624 1219 1762
3 503 1452 994
3 434 766 1709
3 768 975 844
3 519 1357 579
3 967 660 1700
3 1990 1132 1490
3 712 198 1939
3 527 1627 1723
3 1574 417 1502
3 1158 3 1843
3 366 852 1382
3 1627 836 1723
3 975 938 1968
3 1472 841 1213
3 170 1460 2095
3 799 102 1687
3 648 1021 2036
3 873 147 1455
3 1202 680 1800
3 1710 441 2024
3 438 585 1850
3 1880 1568 1375
3 483 1118 1969
3 203 204 1839
3 1000 650 1750
3 903 958 1709
3 619 1708 2052
3 738 826 1507
3 374 717 1430
3 495 1091 1844
3 1454 1092 1193
3 208 1090 1535
3 574 1716 1671
3 290 16 1652
3 453 1033 339
3 1452 670 994
3 1395 338 1864
3 1035 829 1701
3 478 1670 1438
3 441 1280 1779
3 1449 343 1772
3 280 1129 1810
3 1808 287 1786
3 1500 39 1902
3 220 221 1476
3 1119 491 1447
3 1717 403 1937
3 1245 756 1912
3 1110 1586 2048
3 146 873 1017
3 1459 566 1700
3 496 1492 2040
3 769 894 1840
3 418 1136 1879
3 717 1013 2025
3 428 804 1720
3 1354 707 2004
3 1691 1016 1650
3 698 20 1551
3 866 1055 1649
3 983 692 1502
3 1473 889 1082
3 639 1464 2040
3 1023 696 1801
3 832 971 1799
3 762 1395 1864
3 1586 620 2048
3 396 1498 1130
3 242 1184 1899
3 670 632 994
3 513 1245 1759
3 873 834 1017
3 49 50 1121
3 1049 24 968
3 1930 367 2008
3 376 1376 1289
3 462 648 1124
3 1099 1202 1800
3 64 1395 1562
3 1837 380 1775
3 353 1457 1547
3 654 1837 1775
3 1471 542 1260
3 745 1346 1629
3 282 736 1894
3 864 895 1896
3 41 1546 1532
3 1472 546 1579
3 1132 985 1543
3 1452 503 1174
3 1519 765 2092
3 1390 621 1788
3 1444 901 1768
3 561 466 1959
3 474 1134 1678
3 1498 868 1130
3 990 873 1455
3 1395 762 1562
3 1052 367 1908
3 376 879 1770
3 425 1870 1924
3 572 1144 1316
3 429 1525 1041
3 1926 453 339
3 775 732 1509
3 392 775 1509
3 483 1439 1997
3 736 470 1776
3 847 88 2093
3 1474 537 772
3 1289 703 2084
3 761 2008 2085
3 363 1523 1332
3 542 1471 2012
3 1182 982 1196
3 286 1285 706
3 880 281 1811
3 1471 693 1392
3 657 410 1576
3 675 843 883
3 519 1636 818
3 1448 614 1878
3 1357 623 579
3 570 1639 1988
3 726 1121 2055
3 894 581 1840
3 1523 1145 1332
3 775 1465 810
3 244 1425 1333
3 1738 493 1350
3 699 1290 1901
3 1132 1482 1490
3 470 1603 1791
3 1085 1769 1239
3 1158 443 919
3 384 346 1398
3 683 1518 1845
3 184 989 2096
3 1018 896 1606
3 1704 375 1945
3 431 1471 1392
3 23 303 1447
3 609 1461 2074
3 1567 247 1331
3 489 1182 1196
3 89 847 2093
3 1151 51 1999
3 643 944 1944
3 236 237 1766
3 539 1399 1618
3 1013 1471 2025
3 501 960 1557
3 989 183 2096
3 1670 588 1438
3 911 1506 1823
3 917 508 1851
3 1413 417 1454
3 916 1050 1911
3 1498 72 1831
3 1659 1107 1420
3 1525 429 850
3 585 438 918
3 699 1210 2006
3 1342 1738 1350
3 1090 770 1588
3 57 58 1360
3 787 775 1239
3 1015 275 1177
3 496 680 1202
3 315 316 1221
3 170 171 1517
3 101 102 1283
3 588 1408 1608
3 707 1866 2004
3 1586 296 1397
3 1636 895 818
3 89 90 2009
3 110 1422 1943
3 943 857 1247
3 1573 162 1142
3 795 1525 850
3 797 1581 1921
3 1511 1268 2094
3 1826 549 1528
3 182 183 504
3 165 166 902
3 106 107 1699
3 694 1771 2039
3 1907 700 1325
3 388 1506 1697
3 991 473 1598
3 184 185 1566
3 87 88 1536
3 419 576 1216
3 444 647 1497
3 1422 110 1812
3 716 1388 1875
3 162 1573 2078
3 868 1498 1831
3 271 1135 1674
3 1049 448 1893
3 353 1418 1457
3 226 227 1323
3 1037 1318 1273
3 1458 755 1856
3 253 1612 1824
3 284 1496 1433
3 482 1762 833
3 336 1599 1474
3 1452 669 1871
3 684 917 1851
3 189 1542 1592
3 1388 1085 1875
3 1291 83 1904
3 631 1390 1758
3 1075 880 1811
3 1285 1063 706
3 140 141 1231
3 805 523 1109
3 1246 1577 611
3 268 269 1252
3 840 475 1933
3 123 124 1557
3 1230 651 1178
3 412 1494 1996
3 241 242 1899
3 903 1259 1576
3 795 712 1939
3 145 146 1017
3 830 1920 1924
3 858 747 591
3 133 134 1403
3 347 702 592
3 849 781 1774
3 1467 665 1967
3 764 1563 2097
3 452 1459 1890
3 1085 1388 1878
3 484 1622 1820
3 699 1628 1210
3 363 1552 2013
3 238 239 1714
3 293 292 1929
3 1471 431 2025
3 124 858 1557
3 42 43 1312
3 1595 25 1213
3 985 277 1170
3 1552 822 2013
3 970 1631 1216
3 1135 271 1715
3 1550 508 1468
3 839 782 1789
3 1697 1506 1339
3 1663 687 1631
3 858 501 1557
3 1614 400 1205
3 970 1663 1631
3 898 505 1897
3 903 538 1259
3 1771 1251 2039
3 1253 1907 1325
3 1248 695 1275
3 26 758 1274
3 1184 242 1666
3 1399 641 1618
3 4 143 1835
3 870 1360 2099
3 423 1356 1975
3 140 1231 2043
3 1236 439 1643
3 410 1400 1604
3 1282 96 1456
3 176 1591 1657
3 1298 722 1351
3 857 421 1247
3 1284 838 1264
3 95 1282 1747
3 1591 177 1277
3 1035 943 1247
3 779 1053 2083
3 665 1950 1909
3 528 1552 1541
3 25 319 1213
3 1417 225 2062
3 481 1828 1989
3 218 219 1725
3 83 1291 1953
3 1612 254 1937
3 1057 915 1560
3 1542 189 1949
3 582 1550 1468
3 233 234 1853
3 706 1063 2008
3 1075 1811 1289
3 1836 779 2083
3 1059 887 1963
3 224 1417 1941
3 143 1647 1835
3 1403 134 1932
3 808 382 1947
3 466 561 1884
3 1631 359 1216
3 836 1627 1635
3 511 1483 1966
3 1330 942 1662
3 382 709 1947
3 51 1151 2055
3 1727 501 591
3 1086 413 1501
3 1418 493 1457
3 110 111 1812
3 683 1064 1910
3 161 162 2078
3 454 840 1933
3 841 1472 1579
3 668 1633 1962
3 874 30 1024
3 117 118 1436
3 1552 363 1332
3 408 1018 1606
3 1356 637 1975
3 109 110 1943
3 162 163 1142
3 1570 587 1086
3 1276 1236 1643
3 870 617 1685
3 815 1263 1782
3 38 39 1561
3 430 1552 1332
3 43 44 1938
3 710 1509 1369
3 1044 594 1335
3 689 854 1173
3 852 366 998
3 1310 387 1066
3 967 1010 2076
3 649 1648 1056
3 1390 631 1704
3 1614 720 1914
3 622 1116 1805
3 1880 406 1306
3 1903 752 1979
3 623 1357 1923
3 576 1688 1216
3 1917 980 1849
3 845 702 1428
3 1093 554 1766
3 694 879 2084
3 1052 700 2085
3 118 119 1367
3 1531 537 1658
3 900 928 1760
3 438 231 918
3 702 845 592
3 986 1017 1987
3 1150 1974 1112
3 854 1164 1173
3 737 1217 1488
3 275 1015 1344
3 1518 683 1630
3 231 232 918
3 1019 340 1263
3 1571 1057 1560
3 1280 704 1874
3 105 106 1581
3 166 167 1511
3 803 490 1753
3 1217 414 1488
3 959 1227 1915
3 386 803 1753
3 843 295 883
3 922 1199 1602
3 1518 401 1845
3 197 198 1946
3 926 805 1994
3 1585 600 1642
3 27 738 1507
3 815 1019 1263
3 709 791 1947
3 726 1229 1121
3 1617 470 1791
3 1365 437 2003
3 497 1449 962
3 788 1365 2003
3 894 769 1938
3 234 1656 1853
3 421 1035 1247
3 536 1605 1992
3 679 1284 1264
3 1346 440 1629
3 528 884 2061
3 1035 421 1215
3 1480 734 1862
3 1435 1962 1702
3 936 935 1860
3 856 1863 1989
3 1083 630 2058
3 455 1729 2038
3 884 754 2061
3 1457 442 1547
3 270 271 1674
3 251 252 1854
3 1405 830 1468
3 398 807 1286
3 644 1088 339
3 194 195 1405
3 1653 362 2075
3 1008 763 1186
3 997 399 1160
3 366 1393 1995
3 1752 1092 1574
3 481 1989 1646
3 1103 381 1979
3 55 56 1816
3 952 620 1713
3 445 1540 1915
3 1552 528 1742
3 1077 1051 1935
3 188 189 1592
3 83 84 1904
3 1208 1463 1613
3 448 738 1893
3 1235 1652 2004
3 775 392 1239
3 805 350 1100
3 782 567 1789
3 1958 1083 2058
3 1633 544 1962
3 895 1636 1896
3 740 1059 1028
3 593 1559 1476
3 543 1510 2071
3 644 1224 1088
3 386 1679 1533
3 1003 457 1469
3 1869 571 1620
3 754 725 1419
3 1156 960 1066
3 114 115 1020
3 1564 863 772
3 1587 379 1794
3 158 159 1669
3 1250 716 1113
3 242 243 1666
3 192 193 1852
3 530 1250 1113
3 1679 1426 1533
3 259 260 1803
3 725 389 1419
3 1962 544 1702
3 1496 284 1889
3 193 917 1852
3 222 223 1748
3 559 1958 2058
3 1729 731 2038
3 39 40 1902
3 997 595 1192
3 992 719 1713
3 1777 622 1749
3 258 259 1385
3 949 1330 1662
3 1418 436 1981
3 1746 481 1646
3 786 157 1819
3 304 23 1782
3 761 706 2008
3 1811 703 1289
3 190 191 1188
3 406 900 1306
3 586 949 1662
3 1007 1642 1505
3 44 45 1201
3 81 82 1324
3 1642 600 1505
3 30 31 1024
3 77 78 1768
3 415 1891 1927
3 1822 1005 1790
3 271 272 1715
3 48 49 1495
3 17 291 1836
3 1167 1113 1590
3 1891 923 1927
3 900 1029 1306
3 1500 767 1561
3 999 340 1821
3 931 866 1497
3 1648 649 1580
3 1946 712 2075
3 310 366 1995
3 205 206 1106
3 34 35 1045
3 1038 1648 1580
3 1480 412 1996
3 763 1008 1736
3 651 935 1178
3 1663 422 1754
3 896 1098 1606
3 838 1242 1340
3 1462 566 1898
3 577 1416 2067
3 425 1946 2075
3 1235 1531 1658
3 718 1672 1153
3 1243 845 1428
3 1206 790 1068
3 1509 732 1369
3 90 972 2009
3 1292 87 1536
3 1437 391 1338
3 1199 289 1602
3 1245 361 1759
3 1647 986 1220
3 391 1469 1338
3 1818 1720 1774
3 860 1206 1068
3 1814 1137 2059
3 750 1427 1882
3 132 1346 1922
3 1256 488 1677
3 1015 1128 1344
3 1552 430 1541
3 887 997 1192
3 1099 1267 1492
3 442 666 2074
3 607 1181 2005
3 939 182 504
3 185 1504 1566
3 260 1537 1803
3 660 967 1538
3 359 419 1216
3 546 842 1579
3 82 83 1953
3 189 190 1949
3 1730 547 1087
3 995 1746 1646
3 1510 543 1294
3 1578 643 1944
3 97 98 1302
3 174 175 506
3 93 94 1305
3 79 80 1802
3 178 179 1317
3 969 404 1477
3 493 1418 1981
3 803 386 1533
3 171 1513 1517
3 800 101 1283
3 51 52 1999
3 654 1668 1837
3 1111 1496 1889
3 615 364 1370
3 828 404 1485
3 931 1500 1902
3 1004 1917 1849
3 1164 854 1440
3 1569 229 1850
3 1630 683 1910
3 379 1556 1640
3 1594 933 1100
3 278 1869 1620
3 889 1473 1361
3 1815 1009 1789
3 1252 269 1913
3 1729 455 1168
3 1416 1091 2067
3 1050 916 1231
3 823 1729 1168
3 842 546 1964
3 1647 819 1835
3 606 1228 2054
3 1242 541 1340
3 1227 1343 1883
3 198 199 1939
3 734 1480 1996
3 935 936 1178
3 311 1011 998
3 893 1125 1130
3 1179 912 1790
3 17 1836 2083
3 314 315 1985
3 530 1572 1489
3 507 1601 1321
3 1019 474 1821
3 947 1170 2005
3 938 828 1485
3 336 1537 1731
3 1656 954 1383
3 1212 1359 1981
3 501 1727 1310
3 9 275 1344
3 764 1659 1563
3 893 1711 1905
3 481 1550 1828
3 1727 732 1310
3 669 1508 1838
3 321 1413 1193
3 538 766 1784
3 1228 655 2054
3 725 414 2064
3 1572 934 1489
3 1346 745 1922
3 141 1050 1231
3 1611 526 1928
3 1263 304 1782
3 266 267 1822
3 680 325 1800
3 1139 355 1210
3 732 775 810
3 426 344 590
3 447 1750 1833
3 265 266 397
3 1249 887 1925
3 1412 829 1667
3 350 1594 1100
3 1228 214 2053
3 436 1212 1981
3 887 1249 1963
3 760 1188 1296
3 390 1249 1925
3 344 606 590
3 1324 1046 1859
3 1265 534 1181
3 1688 970 1216
3 1556 570 1640
3 882 26 1274
3 1468 830 1924
3 349 1026 2070
3 1868 494 1446
3 1195 1997 2082
3 1360 58 2099
3 415 1823 1891
3 35 36 1721
3 1719 661 814
3 912 1822 1790
3 903 490 2098
3 811 1304 2002
3 252 253 1824
3 556 773 1861
3 599 1162 1539
3 558 1719 814
3 157 158 1819
3 924 1184 1857
3 1611 1010 1294
3 1346 133 1403
3 1098 408 1606
3 376 1271 1376
3 1683 367 1930
3 1162 476 1539
3 211 212 1829
3 12 289 1199
3 495 1611 1928
3 74 75 1650
3 440 1346 1403
3 1063 1328 1930
3 1287 1075 1376
3 46 47 1834
3 1170 1071 2005
3 340 1105 1583
3 1176 1487 1260
3 72 73 1831
3 150 1676 1906
3 822 1552 1742
3 278 10 1869
3 1393 1965 1995
3 1003 1469 2069
3 728 969 1477
3 284 13 1889
3 1020 898 1897
3 720 1047 1914
3 1181 947 2005
3 491 1119 1903
3 774 1309 2010
3 1806 1002 1392
3 352 1411 1972
3 1565 1222 2027
3 666 609 2074
3 159 1716 1669
3 365 1341 1186
3 474 1019 1134
3 453 1297 1973
3 465 1538 2076
3 1184 924 1899
3 1676 753 1906
3 655 1228 2053
3 958 903 2098
3 964 416 1781
3 854 689 1987
3 684 1746 1372
3 292 17 2083
3 1197 1423 1544
3 806 665 1909
3 892 491 1903
3 607 1265 1181
3 841 1595 1213
3 268 1252 1722
3 1255 890 1961
3 1965 309 1995
3 895 1780 1876
3 1045 35 1721
3 1622 484 1112
3 1553 750 1882
3 1574 1092 1454
3 818 895 1876
3 1398 686 1759
3 1577 241 1899
3 331 677 1320
3 1077 467 2034
3 444 866 1649
3 866 444 1497
3 640 1169 1785
3 924 1577 1899
3 1894 995 1646
3 1997 568 2082
3 1219 63 1562
3 296 1586 2042
3 964 616 1918
3 620 1182 1713
3 1223 580 1798
3 969 728 2015
3 734 1996 1394
3 416 964 1918
3 1191 352 1972
3 834 1203 1440
3 577 1567 1326
3 1950 731 1909
3 476 1162 1929
3 1211 978 1521
3 1638 794 1847
3 453 991 1598
3 1240 1223 1798
3 1524 535 1961
3 128 129 1639
3 91 92 1499
3 3 130 1843
3 1178 936 2037
3 1538 967 2076
3 180 181 1520
3 762 1219 1562
3 355 1553 2006
3 944 563 1944
3 1661 349 2070
3 1793 753 2089
3 823 1755 1079
3 1084 1045 1721
3 1577 924 611
3 582 1468 1924
3 436 1144 1872
3 1219 762 1762
3 1755 1025 1079
3 737 1661 2070
3 266 1822 397
3 871 1868 1446
3 1165 61 2000
3 1841 790 1993
3 22 301 1149
3 1045 1084 1261
3 395 556 1861
3 297 296 2042
3 854 834 1440
3 186 187 1873
3 1740 933 1703
3 1500 931 1497
3 85 86 1764
3 305 304 1583
3 116 117 1877
3 1006 1818 1624
3 63 64 1562
3 739 1615 1651
3 826 1730 1087
3 99 100 1888
3 172 173 877
3 1099 1492 1202
3 1692 515 1615
3 716 1250 1754
3 466 983 2059
3 1176 1260 2092
3 494 1868 1832
3 1064 683 1109
3 1580 1319 2020
3 953 1540 1964
3 625 1956 1785
3 613 915 1974
3 548 1341 1745
3 760 1542 1949
3 1711 347 1905
3 1691 946 1977
3 511 1412 2016
3 1542 1288 1592
3 1027 1291 1904
3 243 244 1333
3 1291 1046 1953
3 930 551 2060
3 1773 462 1124
3 527 1727 591
3 1231 1349 2043
3 558 354 1070
3 926 1023 1801
3 792 1772 1694
3 1105 698 1551
3 431 1163 1322
3 340 1019 1821
3 354 558 2050
3 477 1531 1866
3 771 1303 782
3 1818 781 1624
3 653 1848 1623
3 1846 976 2065
3 633 1089 1445
3 356 897 2073
3 1303 1452 1871
3 747 1587 1794
3 1181 534 1299
3 982 1182 1654
3 890 980 1961
3 269 270 1913
3 615 575 1153
3 489 1703 992
3 1210 355 2006
3 500 1139 1210
3 726 1151 1262
3 206 1443 1106
3 963 1595 1103
3 1182 620 1654
3 1302 1251 1456
3 1253 506 1657
3 813 1403 1932
3 867 653 1623
3 976 1575 2065
3 1298 492 2057
3 1464 639 1959
3 1057 1622 1112
3 304 1263 1583
3 299 298 1993
3 229 230 1850
3 1703 1185 992
3 1297 453 1926
3 719 952 1713
3 207 208 1535
3 1563 812 2097
3 1135 711 1674
3 1163 1032 1322
3 980 1524 1961
3 516 776 1887
3 642 1894 1646
3 1365 788 1887
3 1318 621 1273
3 1406 421 2028
3 1191 404 1493
3 196 197 1920
3 147 148 1455
3 733 1372 1296
3 404 1191 1485
3 575 1135 2088
3 663 1087 1571
3 1664 555 509
3 1996 1494 1394
3 1006 1757 1131
3 1188 191 1682
3 380 1045 1261
3 222 1748 1152
3 418 1879 1882
3 1418 353 1501
3 81 1324 1258
3 330 331 1320
3 432 410 1604
3 526 1184 1666
3 1494 285 1394
3 1317 637 1277
3 402 1644 1616
3 666 1664 509
3 1276 1305 1747
3 1017 834 1987
3 433 1656 1383
3 1293 561 1959
3 1221 671 1985
3 1299 1127 1859
3 1748 223 1941
3 507 1108 627
3 1422 976 1943
3 653 1573 1142
3 1230 1178 2037
3 917 684 1852
3 508 1405 1468
3 1721 354 2050
3 247 248 1331
3 653 1638 1847
3 978 976 1521
3 469 1793 1610
3 389 2080 1419
3 1858 1150 1112
3 981 1565 2027
3 1303 567 782
3 1108 690 627
3 1144 436 1316
3 1340 764 2097
3 1249 373 1963
3 372 1546 1978
3 767 647 1940
3 102 2 1687
3 5 170 2095
3 1064 498 1910
3 915 1057 1974
3 1793 1208 1610
3 303 302 2023
3 543 1611 1294
3 1370 809 1527
3 274 1230 2037
3 126 1587 2014
3 674 385 1516
3 493 1738 1457
3 1587 747 2014
3 138 139 1936
3 416 942 1934
3 254 255 1937
3 1105 305 1583
3 929 1970 1861
3 1151 346 1262
3 1802 80 1258
3 1302 98 1301
3 174 506 2041
3 755 1362 1269
3 1239 392 1875
3 942 610 1934
3 135 136 1171
3 410 490 1576
3 1434 724 1466
3 481 1746 1851
3 803 958 2098
3 1567 1331 1326
3 1568 628 1314
3 93 1305 1315
3 1317 179 2044
3 1680 1042 1489
3 1127 1324 1859
3 1188 733 1296
3 598 1748 1941
3 97 1302 1456
3 506 175 1657
3 819 1647 1220
3 1429 334 1209
3 1085 1239 1875
3 1305 94 1747
3 178 1317 1277
3 1038 1580 2020
3 1779 1074 2031
3 1656 433 1853
3 373 1249 1667
3 934 1680 1489
3 1434 1466 1827
3 655 458 987
3 981 674 1516
3 1475 888 1368
3 1665 22 1149
3 1188 760 1949
3 490 803 2098
3 1605 940 1833
3 975 1681 844
3 1531 1235 1866
3 296 19 1397
3 256 257 1327
3 169 5 2095
3 2 103 1687
3 1256 1677 1767
3 1997 1439 2011
3 1822 267 1722
3 1046 1324 1953
3 337 1243 1428
3 1862 548 1745
3 632 2021 994
3 53 54 1957
3 1920 425 1924
3 308 309 1965
3 1051 1011 1796
3 1712 1386 1864
3 1524 980 2007
3 1175 155 1073
3 551 1860 2060
3 40 41 1532
3 1005 1822 1722
3 568 1997 2011
3 1708 619 1257
3 942 1001 1662
3 1443 597 1106
3 1297 708 1641
3 1834 47 2051
3 1594 943 1966
3 46 1834 2087
3 1 89 2093
3 1568 352 1375
3 67 1297 1641
3 458 605 987
3 1857 543 2071
3 236 1766 1180
3 1097 38 1561
3 1309 486 1307
3 978 109 1943
3 163 1638 1142
3 1737 1154 951
3 1546 1312 1978
3 357 1434 1584
3 1486 446 2022
3 183 6 2096
3 1125 396 1130
3 635 1422 1812
3 1585 751 2091
3 1573 460 2078
3 1578 532 592
3 943 1594 681
3 2024 441 2031
3 343 1389 1694
3 381 892 1903
3 1822 912 397
3 1333 1425 1928
3 2021 503 994
3 1362 811 1269
3 1717 256 1327
3 1586 1110 2042
3 88 1 2093
3 6 184 2096
3 287 286 1786
3 281 280 1810
3 435 1304 1362
3 249 250 1872
3 320 321 1193
3 620 1586 1654
3 1499 92 1315
3 180 1520 2044
3 683 1845 1994
3 929 1385 1970
3 921 2024 2031
3 309 310 1995
3 1873 187 1352
3 1372 705 1296
3 1728 774 2010
3 1376 1271 1921
3 1683 1930 2094
3 1389 783 1694
3 325 326 1800
3 583 1660 1368
3 833 1386 2017
3 85 1764 2035
3 787 678 1842
3 1309 820 2010
3 763 786 2018
3 99 1888 1301
3 877 173 2041
3 716 1875 1590
3 991 453 1973
3 1644 957 1616
3 312 313 1796
3 567 1815 1789
3 1169 263 1558
3 1425 495 1928
3 209 210 1797
3 837 969 2015
3 1660 752 1368
3 733 1188 1682
3 419 644 1942
3 317 318 2007
3 1304 811 1362
3 1192 988 1925
3 1434 853 1584
3 1119 303 2023
3 1324 1127 1258
3 1737 477 2079
3 1097 767 1070
3 1612 1937 1751
3 602 1299 1859
3 751 1207 1364
3 1129 703 1810
3 761 1808 1786
3 1970 395 1861
3 69 70 1982
3 1166 1156 1066
3 746 1175 1073
3 20 305 1551
3 1636 519 579
3 387 1166 1066
3 767 1097 1561
3 1011 312 1796
3 567 1303 1871
3 466 1464 1959
3 644 1033 1942
3 1594 350 681
3 692 983 1884
3 1033 424 1942
3 944 643 2022
3 1192 595 1741
3 845 1578 592
3 550 961 1645
3 446 944 2022
3 230 438 1850
3 252 1824 1854
3 723 833 2017
3 403 1717 1554
3 983 645 2059
3 121 122 1534
3 820 1309 1307
3 1661 737 1488
3 1748 342 1152
3 473 991 1982
3 991 69 1982
3 1144 249 1872
3 1756 1185 2016
3 887 1192 1925
3 1535 1090 1588
3 606 776 590
3 728 1414 2015
3 976 1422 1575
3 1573 653 867
3 765 1519 1758
3 1683 798 1686
3 801 1271 1347
3 338 1712 1864
3 1746 684 1851
3 235 236 1180
3 336 1474 772
3 1717 773 1554
3 66 67 1641
3 1431 701 2029
3 988 1192 1741
3 514 1269 1919
3 61 62 2000
3 149 150 1906
3 881 1302 1301
3 506 1300 2041
3 1465 387 810
3 1974 1057 1112
3 472 1614 1205
3 865 1708 1257
3 125 126 2014
3 915 613 1515
3 1775 380 1261
3 710 1825 1509
3 1508 740 1838
3 1034 1319 1580
3 1033 453 1598
3 770 1248 1604
3 522 1737 2079
3 400 1614 1914
3 1358 416 1934
3 1082 889 2028
3 1601 832 1321
3 701 1795 2029
3 1313 1317 2044
3 1305 979 1315
3 1248 432 1604
3 1582 1061 1991
3 1626 663 1560
3 1729 806 1909
3 155 156 1073
3 488 977 1481
3 1597 723 1423
3 1388 716 1754
3 497 1990 1490
3 647 662 1940
3 977 741 1481
3 850 848 1653
3 1603 704 1791
3 1605 650 1992
3 1157 596 1619
3 263 264 1558
3 537 1474 1658
3 1409 1507 2032
3 214 215 2053
3 832 1799 2068
3 1088 517 339
3 1628 500 1210
3 1222 583 2027
3 201 202 1809
3 187 188 1352
3 221 222 1152
3 84 85 2035
3 414 1036 1488
3 1476 221 1152
3 1108 507 1952
3 173 174 2041
3 98 99 1301
3 432 1865 1753
3 744 1462 1898
3 795 850 1653
3 601 1710 1115
3 431 1322 2025
3 1227 1883 1915
3 913 1060 1416
3 1510 1107 2071
3 773 1717 1327
3 179 180 2044
3 714 1771 2049
3 92 93 1315
3 1907 697 973
3 1484 381 1103
3 691 1168 2086
3 215 458 2053
3 634 1143 1971
3 676 1357 1491
3 422 1388 1754
3 223 224 1941
3 901 1265 1763
3 136 1293 1171
3 422 993 1881
3 993 724 1881
3 1236 714 2049
3 697 1356 973
3 976 978 1943
3 1638 653 1142
3 1168 455 2086
3 1290 945 1698
3 1390 1788 1758
3 502 1290 1698
3 267 268 1722
3 191 192 1682
3 1081 630 1743
3 80 81 1258
3 1462 744 1209
3 96 97 1456
3 175 176 1657
3 1936 139 2043
3 752 1119 2023
3 50 51 2055
3 94 95 1747
3 177 178 1277
3 564 1636 579
3 139 140 2043
3 1479 573 1733
3 899 499 1635
3 131 132 1922
3 1824 816 1854
3 574 1671 2077
3 492 1692 2057
3 225 226 2062
3 202 1734 1809
3 58 59 2099
3 134 135 1932
3 135 1171 1932
3 261 262 2056
3 190 1188 1949
3 824 1596 1677
3 673 1734 821
3 1269 811 1919
3 138 1936 925
3 1082 565 1912
3 1224 748 1088
3 635 1479 1733
3 1324 82 1953
3 1671 460 2077
3 983 466 1884
3 1578 845 1243
3 47 48 2051
3 45 46 2087
3 899 379 1640
3 1734 673 1809
3 1252 1913 1527
3 1622 1057 1571
3 382 808 1155
3 1738 442 1457
3 1858 1197 1544
3 379 1627 1794
3 1752 916 1911
3 1652 16 2004
3 852 1077 2034
3 464 394 2090
3 1197 1858 2047
3 409 1020 1897
3 1780 545 1876
3 192 1852 1682
3 458 655 2053
3 1197 1597 1423
3 511 1966 1701
3 1919 811 2002
3 416 1358 1781
3 1042 818 1876
3 1322 717 2025
3 605 1807 987
3 1521 976 1846
3 653 1847 1848
3 756 1082 1912
3 1312 43 1938
3 447 1278 951
3 1143 1342 1971
3 137 138 925
3 1869 1132 1990
3 1011 852 998
3 1365 606 2054
3 1622 547 1820
3 1487 693 1260
3 1807 437 987
3 1628 407 1948
3 1555 1110 1696
3 599 1775 1261
3 1423 524 1544
3 1824 1612 1522
3 1555 522 2079
3 630 1681 2058
3 739 1692 1615
3 1895 450 1414
3 1692 739 2057
3 571 1869 1990
3 625 1169 1558
3 891 848 850
3 1883 445 1915
3 568 2011 1830
3 1159 1892 1728
3 1788 765 1758
3 1548 520 1685
3 1477 1234 1736
3 1415 1919 2002
3 656 882 1274
3 1515 750 1976
3 916 1752 1574
3 1612 634 1522
3 724 993 1466
3 429 891 850
3 1537 863 1803
3 698 1431 2029
3 1703 933 1483
3 1224 359 2045
3 1134 911 1678
3 923 1891 1706
3 421 1695 1215
3 1463 950 1613
3 1858 484 2047
3 1212 436 1872
3 1263 340 1583
3 928 1955 1226
3 1652 550 1645
3 305 1105 1551
3 318 1524 2007
3 1795 869 2029
3 1310 732 810
3 1372 1746 1593
3 732 1727 1369
3 442 1461 1547
3 1438 588 1608
3 1185 1703 1483
3 500 1628 1948
3 420 1752 1911
3 743 915 1515
3 902 166 1511
3 106 1699 1581
3 407 1628 1998
3 1061 1549 1763
3 634 1612 1751
3 769 1312 1938
3 649 1034 1580
3 752 1660 1979
3 424 1033 1598
3 1461 518 1547
3 1734 636 821
3 1354 1110 1555
3 1414 450 974
3 549 1030 1528
3 1357 676 1923
3 1102 1535 1588
3 1771 378 2049
3 905 1907 973
3 950 1523 1613
3 1695 360 1215
3 1033 644 339
3 1632 822 1742
3 1259 657 1576
3 404 969 1493
3 532 1578 1944
3 470 1199 1603
3 1139 500 1441
3 807 1632 1742
3 628 1141 1314
3 1016 1691 1977
3 1217 737 1784
3 729 1236 2049
3 1356 1355 973
3 477 1866 2079
3 1260 542 2092
3 597 1443 1767
3 1141 628 1830
3 1443 1102 1767
3 604 1287 1376
3 1328 846 1930
3 1159 1728 1792
3 1266 633 1445
3 1267 440 1492
3 722 1665 1149
3 1199 922 1603
3 1198 1084 814
3 820 1735 2010
3 1030 515 1528
3 1421 539 1618
3 605 1421 1618
3 1610 1208 2013
3 387 1310 810
3 1102 1256 1767
3 1955 837 2015
3 1618 641 2081
3 639 1293 1959
3 834 854 1987
3 1167 1572 1113
3 693 1806 1392
3 1010 835 1294
3 1891 603 1706
3 1727 527 1369
3 1041 201 1809
3 1204 1780 1514
3 1944 563 1984
3 848 1969 1653
3 1141 462 1314
3 485 1521 1846
3 1847 358 1848
3 848 1470 1969
3 1366 1336 2026
3 576 1146 1545
3 1371 1337 1980
3 1146 1218 1545
3 1084 1721 2050
3 407 1012 1131
3 1572 530 1113
3 544 1487 1702
3 673 1041 1809
3 1969 362 1653
3 1470 483 1969
3 1056 121 1534
3 532 1944 1984
3 1251 1302 2039
3 506 1253 1325
3 702 347 1711
3 2061 807 1742
3 743 1515 1976
3 1420 1107 1510
3 1206 299 1993
3 424 1146 1942
3 753 1676 2089
3 893 1634 1711
3 456 1642 1621
3 1681 685 844
3 354 1097 1070
3 1735 1120 1114
3 528 2061 1742
3 928 1329 1955
3 616 1773 1124
3 1642 1007 1621
3 897 397 2073
3 1769 1085 1878
3 629 1139 1441
3 816 1971 1350
3 542 1519 2092
3 1062 1382 2034
3 335 702 1711
3 1203 398 1440
3 1680 934 1491
3 1549 901 1763
3 1005 1885 1790
3 19 1044 1397
3 1748 598 2046
3 290 1652 1645
3 1044 982 1397
3 614 1769 1878
3 2012 1013 1732
3 981 1516 1651
3 851 966 1442
3 637 1317 1975
3 1133 859 1321
3 767 1940 1070
3 1305 1276 1643
3 1845 926 1994
3 1293 639 1171
3 980 890 1849
3 805 1109 1994
3 1084 2050 814
3 440 1267 1629
3 1207 759 1364
3 555 1673 509
3 838 1340 2097
3 1265 607 1763
3 1374 447 951
3 1530 1120 1735
3 1268 1683 2094
3 1271 797 1921
3 731 1729 1909
3 621 457 1273
3 420 1799 1381
3 660 1890 1700
3 936 1177 2037
3 595 1408 1096
3 1433 734 1394
3 1396 1094 1096
3 589 1804 1991
3 1825 392 1509
3 1487 1176 1702
3 1348 851 1442
3 471 1877 1436
3 457 1003 1273
3 1777 1295 1739
3 527 1723 1369
3 758 1381 1274
3 1290 699 2006
3 1723 710 1369
3 1382 852 2034
3 984 1051 1796
3 628 1244 1830
3 980 1917 2007
3 573 2060 1733
3 948 2012 1732
3 1223 308 1965
3 727 1420 1510
3 731 1950 2052
3 1196 982 1335
3 457 862 1469
3 808 357 1155
3 1507 826 2032
3 1185 1483 2016
3 522 1555 1696
3 313 984 1796
3 1156 1056 1534
3 525 1777 1739
3 1955 480 1226
3 826 1087 2032
3 723 1597 833
3 759 1207 2063
3 969 837 1493
3 1745 574 2077
3 1761 943 681
3 1839 451 2001
3 1971 1342 1350
3 1483 511 2016
3 515 1692 1528
3 669 1815 1871
3 1046 1482 1859
3 526 1333 1928
3 1353 785 1820
3 1890 1459 1700
3 1267 510 1629
3 1110 1354 2042
3 1597 482 833
3 748 1224 2045
3 1312 769 1978
3 1319 1749 1805
3 1738 1342 1664
3 1815 567 1871
3 1608 374 1430
3 1319 1805 2020
3 1779 1280 1874
3 1128 1450 1344
3 1673 672 509
3 1385 863 1970
3 1154 1374 951
3 1865 386 1753
3 1749 622 1805
3 749 851 1827
3 517 1926 339
3 815 1697 1339
3 1805 682 2020
3 820 1530 1735
3 503 1160 1174
3 1336 476 2026
3 1449 1772 962
3 1160 399 1174
3 1950 619 2052
3 1461 442 2074
3 1466 749 1827
3 1519 631 1758
3 1772 343 1694
3 1406 1240 1798
3 1016 1410 1363
3 1354 297 2042
3 790 1206 1993
3 851 853 1827
3 560 1437 1338
3 1731 261 2056
3 1329 837 1955
3 1716 365 1669
3 1453 1900 1391
3 315 1221 1985
3 853 1434 1827
3 809 1252 1527
3 1028 1059 1963
3 2060 935 1733
3 1617 760 1296
3 1892 774 1728
3 1029 1244 1306
3 663 1571 1560
3 1974 1150 1986
3 441 1779 2031
3 437 1807 1980
3 373 1028 1963
3 1817 636 2001
3 392 1825 1590
3 638 1371 1980
3 383 1817 2001
3 1825 1167 1590
3 1596 597 1677
3 728 1895 1414
3 1207 456 2063
3 626 1735 1114
3 1244 1029 2082
3 1480 1745 2077
3 1482 602 1859
3 710 1723 1512
3 580 1695 1798
3 1885 479 1790
3 949 759 2063
3 1381 656 1274
3 934 562 1491
3 1378 1951 1275
3 1410 335 1363
3 707 1354 1555
3 613 1974 1986
3 414 1217 2064
3 1951 584 1275
3 982 1044 1335
3 1469 862 1338
3 1677 597 1767
3 1244 568 1830
3 589 1334 1391
3 562 676 1491
3 832 1133 1321
3 1954 1111 1889
3 1523 363 1613
3 1819 365 2018
3 1465 787 1842
3 640 1731 2056
3 1169 625 1785
3 568 1244 2082
3 1807 638 1980
3 250 1212 1872
3 397 912 2073
3 341 1465 1842
3 1331 572 1326
3 1877 117 1436
3 547 1353 1820
3 705 1617 1296
3 1302 881 2039
3 1300 506 1325
3 1136 1718 1879
3 573 930 2060
3 1828 856 1989
3 863 1385 1803
3 1334 607 2005
3 471 1380 1960
3 1087 663 2032
3 1217 1025 2064
3 1341 574 1745
3 365 1819 1669
3 1475 752 2023
3 1526 564 1986
3 645 1814 2059
3 979 1305 1643
3 816 1824 1522
3 1317 1313 1975
3 403 1855 1751
3 1720 510 1774
3 922 1779 1874
3 1145 1523 2090
3 1584 853 1984
3 1811 281 1810
3 286 706 1786
3 1094 1741 1096
3 425 1920 1946
3 751 1817 2091
3 1385 259 1803
3 1071 1334 2005
3 1911 1183 2068
3 1817 383 2091
3 1450 9 1344
3 1718 945 1879
3 1772 571 962
3 1634 335 1711
3 391 890 2069
3 1121 50 2055
3 636 1839 2001
3 1855 634 1751
3 1380 1147 1960
3 1308 1630 1910
3 484 1858 1112
3 1900 589 1391
3 1741 595 1096
3 563 1584 1984
3 1972 938 1485
3 911 1134 1339
3 480 1414 974
3 342 1748 2046
3 1883 1078 1076
3 1482 1046 1490
3 1109 683 1994
3 1225 398 1286
3 889 1406 2028
3 572 1607 1326
3 909 1773 1625
3 1728 626 1792
3 890 391 1849
3 1191 1972 1485
3 760 1617 1791
3 1150 1526 1986
3 643 1578 1243
3 861 1696 2048
3 1379 394 1625
3 381 1903 1979
3 1333 526 1666
3 1746 995 1593
3 912 1179 2073
3 786 1819 2018
3 1129 694 2084
3 700 1808 2085
3 812 1264 2097
3 1173 1164 2080
3 1607 577 1326
3 703 1129 2084
3 1808 761 2085
3 781 1818 1774
3 1161 722 1149
3 1186 763 2018
3 1937 403 1751
3 357 1584 1155
3 691 1173 2080
3 1264 838 2097
3 862 1945 1338
3 1379 1145 2090
3 13 1954 1889
3 394 1379 2090
3 788 2003 2072
3 1931 748 2045
3 302 1475 2023
3 1860 935 2060
3 1870 425 2075
3 365 1186 2018
3 1189 1739 1529
3 1989 642 1646
3 415 1927 1371
3 1480 1862 1745
3 1739 1295 1529
3 638 1807 2081
3 1225 754 1419
3 301 1161 1149
3 1799 420 2068
3 1040 1880 1375
3 1945 560 1338
3 752 1475 1368
3 1584 563 1155
3 602 1482 1543
3 1619 735 1389
3 711 1913 1674
3 2003 1337 2072
3 1179 356 2073
3 445 1883 1076
3 463 1115 2024
3 754 1225 1286
3 1971 816 1522
3 706 761 1786
3 703 1811 1810
3 420 1911 2068
3 1819 158 1669
3 1917 317 2007
3 924 1857 2071
3 1920 197 1946
3 875 1347 1770
3 1686 878 1908
3 1927 1337 1371
3 1617 705 1776
3 1047 612 1914
3 1337 2003 1980
3 362 1870 2075
3 1150 1858 1544
3 1322 1032 1430
3 707 1555 2079
3 1084 1198 1261
3 822 1610 2013
3 1913 270 1674
3 1940 558 1070
3 1123 1931 2045
3 1334 1071 1391
3 1532 931 1902
3 1010 1844 2076
3 1945 375 2033
3 226 1323 2062
3 1723 836 1512
3 717 1322 1430
3 928 1226 1122
3 1875 392 1590
3 1330 949 2063
3 604 1376 1921
3 1930 846 2094
3 2038 731 2052
3 1198 599 1261
3 243 1333 1666
3 690 2038 2052
3 1735 626 2010
3 560 1945 2033
3 1482 1132 1543
3 626 1728 2010
3 40 1532 1902
3 1913 711 1527
3 480 1955 2015
3 1990 497 962
3 1114 1120 1916
3 634 1971 1522
3 1226 1111 1122
3 704 1603 1874
3 1414 480 2015
3 1848 932 1623
3 659 1846 2065
3 661 1198 814
3 48 1495 2051
3 470 1617 1776
3 417 1574 1454
3 524 1526 1544
3 1201 45 2087
3 1696 1110 2048
3 415 1371 1684
3 1492 496 1202
3 1715 721 2088
3 1135 1715 2088
3 1469 391 2069
3 1128 1114 1916
3 1323 1279 2062
3 1526 1150 1544
3 571 1990 962
3 1603 922 1874
3 1495 914 2051
3 2003 437 1980
3 412 867 1623
3 1575 651 2065
3 705 1372 1593
3 1516 739 1651
3 807 2061 1286
3 886 1201 2087
3 2061 754 1286
3 1866 707 2079
3 1122 531 1760
3 928 1122 1760
3 1352 188 1592
3 84 2035 1904
3 1371 638 1684
3 2050 558 814
3 1288 1352 1592
3 2035 1027 1904
CELL_DATA 3874
SCALARS Von_Mises float 1
LOOKUP_TABLE default
7883732.992846978 185955309.90228564 43909912.213434055 36698914.15802992 38457927.07239291 38033941.265707724 7913450.472726907 44348599.414917596 32833963.810397428 69477953.94583361 58601534.725146964 126238533.02971481 39927073.25441204 47830481.23568699 46553197.8919279 39534425.66726593 47311055.08863791 36396179.33387677 1474385.2867307256 46305120.24432236 47002206.75469547 44859036.36699677 37416586.87142205 47103092.921206616 45035406.62914951 44172671.7741293 52148616.35129462 44854362.81069747 20319227.91070786 38005240.33283111 45715606.516048856 2678438.122084863 46935974.683437936 44375484.00557864 19902208.53221488 44469075.38617347 33186508.98616621 29330304.72412841 46304174.1960014 46910878.11333122 45891751.50667828 42449880.26182103 39873240.09940237 32286936.12029012 23648334.780919846 34056910.96971512 45536239.21513474 46754305.591210276 46616999.511622116 48227675.61988345 47523725.80390588 7265534.0638145255 56448344.64624945 655659.7441881105 655918.7759662027 63522128.43828744 45591324.21322095 46129064.67208812 46533772.17434543 44676481.71917501 43725053.63512542 14352030.598054284 24192847.978200227 39541676.97314464 7263494.841414014 37766017.74128863 45509032.02438938 17924041.61124803 17918420.73213479 44004594.84005999 48094289.790280215 47030927.29589669 16119661.624310933 14540409.77389601 29060482.028769173 6892035.152892285 51847997.9608295 25421709.912389178 51288624.37623687 42408292.407484375 44468988.27230016 49262370.74422811 48984870.4952589 27121494.842831485 46118607.03648293 46696251.91503593 43194704.983542845 39902347.72061106 22933811.04606531 53230819.79980474 28146088.190533422 46861891.0049116 46154380.62906331 49303438.28891828 41541410.26148722 45667370.39291345 52958890.95946984 47769178.53799193 7357103.619978203 42135351.09148103 44124091.44032587 47274868.728984915 44968596.70838128 56113217.04844689 46750088.34310798 9486999.509681486 75501827.51506928 58847647.569561094 47028423.98811137 6804694.869619178 52282149.11622222 40934621.85080028 33855790.423884615 46192511.28192396 35200859.508679435 33606187.78742886 46404701.61780334 4998094.667512087 12685675.40787682 42666319.82301696 44338521.165822916 7383289.435715759 7438064.489438753 36532682.44114139 31766953.359395433 46338573.10402426 47198962.74943554 46475053.5337999 46503302.2926324 8655984.660495654 15439272.062584728 16126219.316230277 37310386.56111738 48383803.19533598 66494334.384151 58689456.340813346 44113750.413700424 47700352.40476033 12059912.866469445 45003428.904843576 8635182.910555612 52677098.1924112 37178501.21290681 24040031.21144995 55498241.10437862 44790830.15938254 11924779.828915114 31493399.79731188 53653170.652944624 44630685.086865395 63608200.28772244 55173787.68977231 44844371.52592711 46603391.85199843 47374124.15720677 7391582.859900202 22374866.31141944 16235213.640969742 42050973.617282555 39289240.438197955 18377147.279623117 18343633.403314516 8843364.347898355 8826386.2533644 44021706.07454519 42670574.07241266 43566008.17249429 16386433.099424042 50686047.19510343 48599481.82800021 74680279.63497344 48230080.82915584 48263601.39178557 68729182.33207087 47900842.23351058 46823627.86231742 2614824.663142509 2615882.852622091 5814393.826697071 24981187.054482423 45850703.09408633 81196117.93776743 34059932.75585968 39795121.59584499 6824145.0507519785 42236137.70544001 31701831.17898509 30556502.00648862 12159510.091229184 46416879.30105704 40322365.21759374 61509269.99609958 36397864.841069706 30662882.09311228 28916573.193023186 90154033.8251021 46331844.670944795 13262069.800452625 13277157.301520387 42100790.57872894 47987761.55752579 44469760.066443436 45092748.39967602 26510561.420010675 48491869.145169765 30031573.432315446 54434655.60588637 13092055.79507394 46771422.389915064 44895282.83111837 240422414.1915945 39163391.948379196 46975112.11382561 13008193.992349222 40605125.993480965 22583564.17917187 22570893.3572175 60404802.36076016 30061239.36150128 33189811.658433862 37769720.01692929 48392445.76610947 46096885.40413835 48965933.29741245 67858403.2036878 38389556.41229495 34426923.081586644 45134385.835010864 17862660.12745837 47532554.022002146 49421927.51932141 25258778.67357828 49520114.639556184 2399003.359102059 15086560.129319388 12135306.96224673 34177699.47687025 24402083.357931435 36115719.69300854 47052747.54310668 40764136.91305359 54592570.50746589 51395528.08865248 49708536.93331421 32757754.4893989 41394631.05928231 46128370.626274765 50088908.286508255 44835073.54942758 50799723.91733293 22490812.111560244 53395072.67332628 45466923.717687584 15141025.716879278 47203494.85003509 51859582.22863755 48151289.223194264 27855855.137056146 7851843.20090624 44238891.85704332 41428511.48600725 51108318.28162571 44037960.76066198 13766656.95068088 27163616.597868636 44211268.81625758 43433290.63571623 60766018.48289817 7767365.76297223 46813927.45159502 45196359.20918587 46888016.21012097 47903918.03682722 23387596.319931954 52161781.433477886 12966735.644805295 12960495.269698992 42838442.91053553 50820969.774299696 45885781.046572305 37459092.31761157 45697327.77565593 45510757.77436846 27142507.090552844 50366924.78796989 46551698.097927816 53263136.19218669 48632258.39005414 61926730.16388544 41693792.37134478 49076226.18059273 58678067.78405902 37197030.24663059 39549103.11345216 42704935.421827756 40452111.33774555 18009038.692774918 34911362.425249554 6746913.474189491 38625445.560138345 58649285.35961553 12470286.909683285 13838086.58656951 16118484.108362477 50197939.317013994 45093115.21937498 45020408.6902105 47180237.02139422 17807716.539210483 8485986.371902797 49184097.73991288 20187959.64441442 49973773.15434379 33440770.800369892 33460407.621573873 8455172.133359864 12252813.827010415 22115028.474387564 23613613.810013697 25328408.968847293 12083075.120465018 45945912.098432444 48317982.18020608 2788469.2787327585 52365272.719372004 40432850.08535969 96718413.75871745 42417837.46028998 6739127.0001236955 39900563.77491233 11974613.42792631 47492211.86145344 51360094.7097106 46012186.978161916 6018047.085408932 34080459.09283164 8705264.337424926 8687407.346222756 49565326.21368315 34986858.778551005 49304037.67448877 46538275.21712856 4194215.7939180103 4196378.685729345 32208172.387079902 19381262.3300682 75149273.04971667 59043186.97042828 32572869.49324074 47641921.48808463 25276394.384886157 45506879.19287445 61743193.52635565 47409197.31912185 55909721.76120629 48571441.54679275 45525436.47818122 49301935.806930766 47470690.541941084 47011594.629575744 4857012.440958864 4826829.6243099235 61655496.97245435 38721217.90262362 5978647.149164099 44753582.097528115 53578464.71990401 47910434.81937612 36128820.0410482 14175954.851106184 42258743.258964576 28933565.046538226 28919927.595346835 46566421.46313023 40613732.85791995 64237953.69570359 43376469.37009012 52802268.846539706 121140186.28658079 47843070.196176596 55607054.22315947 50069176.99746399 29865300.691711377 43814861.380750865 35732023.83738422 45927783.11927663 52506851.09010654 45165064.32082358 10162199.604307136 33396125.892866153 42585343.807212286 46370310.13094477 61722855.20342555 44537843.721633315 34753315.54962869 44992106.89773695 71378672.99343877 48101653.227094315 33591912.53603395 39323604.94664903 51475351.605859324 47047616.331374906 45462091.947428495 40800984.03492489 48631071.54097182 23488806.828198113 11292071.853514189 44595124.82443063 553536.863640641 65544249.66155115 44463541.94472279 88466694.19506723 35117338.25878761 48255620.81534353 23344330.403363496 17160130.318990808 46756536.39818468 17310145.88196384 10971685.279763611 25417547.469134886 39201167.40787975 33569105.58462264 42366813.71881091 33646364.52492252 34636507.84459206 46860433.03956853 48584986.46097441 41856547.432329364 13326151.516422087 48697174.42583018 5434524.165142238 23418207.0674933 44200739.81311202 41712630.63724201 38412488.97677224 14044546.557987899 78915712.75405419 13173635.27667906 46200331.58176811 57360455.59330958 32489984.37214654 36055620.92692942 43918101.78577365 56768422.824189715 42006463.99305277 41093150.41018931 19304896.827021606 49635715.87987588 21046495.237655986 29974415.065969873 42754209.21725923 98896799.34229429 29663645.271383442 17368268.131994452 33934208.97346279 52822154.1223459 905750.5418851322 46463901.28075739 24033439.285568077 36386576.52972017 36076796.03378499 43719814.55701989 33850859.35182872 38721785.9275955 2473151.709791121 41081918.239895895 11199488.95777631 23836259.329223122 47531222.37381241 44415087.87708702 36812526.87663446 18097855.059283312 45342612.12880836 51320453.565616995 27708100.822087046 36530680.2598086 43056881.18912357 29488155.5463344 19516272.821866676 19529443.02865236 45164540.37893753 3338817.8692362225 49754719.09310272 18742328.930863462 19672459.957565445 63498906.02049947 31009873.10519734 24884574.71428319 45562545.581687465 54652908.14958323 21258159.845944233 44565619.975915276 120031608.85942082 48016007.647790626 44332514.825200826 16549300.619573679 16549300.619573679 8385349.163360915 44747752.935709454 65739747.80331671 48371408.83661824 19836544.474686615 45656734.54653629 22788983.742765687 12179558.816632008 38747130.38741717 46661449.02251855 44631043.63492126 48033271.74543694 31870187.010724545 5197216.950413014 38974275.64144247 47457419.61534386 45426447.01352867 26993227.572301496 43955860.21466756 26722040.986496445 3521395.9929806325 47968066.179039836 44396960.99114264 43185370.5531961 40095664.83467092 44302028.814566344 28514344.47677495 48499079.88610557 66571709.86748552 47400614.34216011 16779740.29838886 2245241.842442683 38760444.24823324 8413354.668745177 48595120.154151835 7395665.735034735 44345387.91142624 45852537.44063671 46447653.924856216 57500876.41651906 40563808.169333905 30479971.171098743 36630307.40373305 47085104.69587049 49494145.929863855 57592810.94492429 27100778.767785955 27163471.655764405 27565078.57740863 40891040.65889201 52197592.604920715 47254924.97007505 51368792.03053643 83475835.56536366 60692922.927303754 38757444.18291917 42546303.70606525 26456941.842200298 26505338.47434539 45805673.80537996 6181911.7111411365 45536409.744312234 50984425.69420123 22780057.11833031 16628210.597559124 7975376.344106612 43981296.02553002 39390238.71986072 23112008.178118143 8499797.050600173 60697630.36047877 44217735.557644576 47309499.03480098 49905603.84193851 48114663.22285172 37373628.262186825 37451967.190732054 8946146.43983005 19266081.007296853 44899791.34815848 46888812.50351047 46646505.59386615 44127623.32734907 43929198.64891306 45660588.92809742 48396887.00661107 45806588.24031368 50110272.38542726 26266329.75629552 45611962.30750079 47800682.94641299 40423860.86164554 44613696.66083106 46010392.843346156 58705872.6376844 56622338.22639298 53092971.889918365 1431557.8244918995 47736042.74612006 21109525.69848562 45558985.304859884 45854651.511761114 55060663.40131998 54244523.6355654 10640793.501357982 53814365.62334672 35966175.115289114 45179368.39047854 35484612.90461504 45625238.15916444 42378522.42645324 35394906.13645286 47012409.98068171 43684148.844312824 32027713.41867769 91002479.82220355 44202642.996806934 45269651.20467652 29332919.563541967 29311350.005859174 4591557.065448704 46440534.892453 5877950.0733724935 25716119.47337455 9496391.260555228 59303618.19026955 89900822.72668119 50034520.98720574 62877503.024472006 6307117.900565456 44783869.006021015 29363846.55270968 29335871.99920875 44670005.81837069 38167208.44303569 48548554.96393595 14913899.598581385 28347012.068285786 114733008.62640838 64046514.33590132 38346780.2766969 38798750.101397805 20073841.98701818 82326178.61015734 13493413.090498112 53023810.72482613 14711419.980039682 44148951.96905432 40514058.70527887 34592216.9123667 27884206.924474243 47223417.388259135 17799769.33935828 4602095.821323339 47050346.48327804 44956097.397057176 13800601.171543524 30745763.17273132 45996823.77630969 24552644.07428183 47760845.327892214 84689998.56820905 55312423.63596372 25717829.030532885 41673501.10088726 3037854.4823515024 71602340.16168505 29796459.255373746 43094639.58545453 11297034.055685189 41189234.0602606 10476350.605685998 37510748.707233235 6480916.601241496 42503976.833755404 9391193.032269806 52349049.7525337 101037835.64851332 42486324.6519916 90581706.21150881 35479045.45403952 42733505.322579645 55208742.69458077 12685835.545469316 19981283.626501437 41760511.59199425 46083375.70980041 23761608.821050838 82239541.69164729 40822951.05196385 22282665.650712386 63501593.269865945 61144941.74040135 41431527.34530249 87088235.19745907 87191581.79984759 784188.669441494 38517811.8173127 31284295.154319514 31275361.910147518 83807825.11966887 15627993.7079284 42893973.165854245 47226616.14840096 66553169.35395189 42333788.71645606 46099248.685598 27897497.281916108 44628005.501315735 54131307.665781274 42483959.84732676 39072016.353581816 15582175.427314749 41149086.73454935 44446171.592415385 46435445.972555906 48052678.49474317 47845757.95541021 44221893.89877103 35523789.75257881 24131796.62372013 50273808.738013044 47321670.861416616 6313504.228077621 44933418.98720545 48540056.54126318 35768998.11225161 26720372.102309365 46117038.42765007 45248543.22415751 28238192.412112385 28214582.095894028 40173197.689434245 12117627.55863075 25449794.030995335 52739979.473044105 42727898.778780065 35002195.33044584 27827016.32207247 66922921.03760329 44931500.42953329 10912206.673063241 55240092.243309304 218927077.48586372 58873020.26565351 45313628.93995498 29819078.733110737 59012379.39442593 7343750.052167499 24392107.35334987 53907886.49694118 5530169.459594782 26147898.63169762 45876271.06540564 47015153.21396797 8138121.616444306 6209535.926117322 43560939.7275105 44830041.629318304 52359611.03762161 57959716.083291054 44053295.992479965 57862452.55809098 43556878.61952839 7528652.903549552 45000423.73861641 31889196.019990373 84660102.84323429 34529466.97707351 44793225.168135 22455083.07687828 48797731.42840937 31691862.628384046 49768840.402950816 39948794.120834544 14246026.842161749 14302486.725463688 83728295.53522266 45648192.26208159 48182781.94423185 68022994.69006391 5884012.944540394 9965107.516392162 58161531.78582718 28839093.52686643 48478607.99124297 39802481.32337094 29313636.452368677 62843220.757781886 48287040.79586274 69354539.61335778 39261375.30282035 37100167.12234714 5927392.560530085 98113337.26216325 48145107.500152834 9778954.536196265 9805393.184264159 38857802.90906966 44523107.52126847 28150725.181043807 29223504.781401854 22893414.55000736 5142462.512299275 51271647.97248042 40800780.220422134 57258623.66603037 20191622.77824579 35051605.19900574 10886750.344073705 42437345.08893994 47085496.88038102 9942921.85679048 48578542.57294063 45406172.11802552 69275715.52700835 39733696.961911604 49814663.99658659 50690789.26119377 38740872.24421484 15052853.002393346 56200788.31035221 5853537.965883969 49319865.59227166 39570461.27843526 9893743.38645195 49147087.923558116 32784702.47999647 21295535.659283914 35550026.07820221 44805166.001502104 48688531.838744394 8802409.861153604 45943034.75558576 72189200.27836263 32947058.079236537 43006509.788364135 48188158.56948781 42773633.598193936 48921135.061757855 42898236.06994373 21694031.455363188 40528517.51093471 48876832.959464945 36915055.19418586 84818519.15128228 46251401.394461 38768861.86040287 34483770.286643766 42886015.048736304 44958957.6317148 42097648.71112662 47029662.42358314 44469524.8632705 1655979.8348899893 45014927.48357948 11076061.580035472 43105669.688968524 69486018.6697631 91822397.99439672 54279890.32219539 46631928.6160284 45898104.55747499 41653614.74616847 49159913.06665932 47835974.18258661 31881717.419471644 44371531.201937295 32014403.041505698 50511559.37895979 47700335.51860986 69975779.25259502 45683476.496966176 45729906.17391571 41353917.85649566 14772248.608946454 77340905.83396125 25885439.148073707 8611516.774900183 22169272.304452743 44421085.720562674 45634576.27592229 50582546.84964547 44882142.27434986 20421272.84525577 2210315.648258884 2211754.2110304907 45198147.75128582 44583063.45833963 49730190.27459271 15360970.571055971 32155183.720321 37213078.50585251 35199784.39872801 97422641.93196036 56053806.07994858 12339698.36132759 39733356.76011336 45233901.98238921 1345910.422367168 54998898.87463312 54928154.695953034 2210520.970358669 9168317.497204702 63270023.06942666 31194025.275215764 17581139.875482712 20653658.365424402 32366454.046077184 45324185.12809445 48365959.57407775 81832843.08571713 33786327.12788717 8978856.637906328 44501872.286735214 33059215.195062358 48348730.329392366 28025959.503007077 23024259.38253187 27940496.652999 47907493.338393845 4523624.882423314 44518447.11014261 12062241.861720085 45628221.468317255 46286414.32446566 51073261.562360615 13242248.204819556 17774778.450684294 23168046.18569256 46897096.85545173 7414344.686371036 7401806.779663946 46457009.10574475 44832286.06622045 44575846.10398474 43347851.42684242 41528309.223238796 43335025.26925825 17351083.102688495 4102086.094820177 50645499.39618341 47125782.34217192 11547250.722584935 48243856.05792828 55000365.643126115 40989578.484333515 37324478.66220946 47762755.41540707 47727411.10506281 41116524.07966421 44632063.33314202 52643158.264255464 65519506.73550711 44786808.2170969 22734640.591387857 29250175.57839867 40939757.14375207 62991981.42991701 96102451.14354044 46524715.77377644 56593555.702452555 52228977.09327967 52776134.85203546 40172163.28282421 45812581.23076164 48227273.05836631 61305587.937575385 44339716.44859667 37998267.40335359 23213912.297442872 50047002.54813211 13034586.865502015 23499056.037066344 23503073.98247267 39521440.58862573 42873701.723345906 46120076.46797863 49172901.82663864 8167866.764238596 17817325.646986708 40182828.15587887 19364440.901271824 51303214.07029185 47278926.14298614 35438660.28591794 46574227.7819497 96951140.00138457 15936267.802550463 19851479.428475514 40102018.28679226 48757039.85641515 44656561.12425537 42448427.96954562 47783966.97579977 13862057.407597363 12590151.081629554 15318683.710290913 19216407.707201432 35470322.11081988 49915262.550328225 48500534.135666855 72121449.02793805 40801308.768290505 1518640.3505529272 49448890.966861635 19651259.294021297 35613947.821433045 31701745.624870267 24961630.082662918 44343086.9238243 9443842.84830191 35930452.60189222 59951779.45686147 41866725.04157002 30399228.57582339 37807561.58115458 45023194.26407747 14038649.0904198 50309474.7344577 48466603.54354205 17548741.227464966 39103591.81156995 41155683.75882473 45971355.00660021 39190900.42905977 54755961.7006996 44749445.08504028 18510959.252365746 42973795.311832935 44662728.28205217 17536312.63483727 131417065.81456429 48874139.89936106 25581901.274878483 9708302.719488036 48210564.657829046 72078603.93196747 35216102.59956938 42571586.67392966 46951420.153475344 45807887.03560364 14156900.16317904 14185745.287982777 2745292.0361565095 52273410.4409202 29749729.39378303 24811815.14019202 6527953.594883434 40435935.0141162 47534776.07572734 47947328.98856982 53540484.14395515 37034424.80375933 4582363.759060529 47513931.094574 5698570.554468644 48096760.914773695 87772818.38376914 73869785.60525183 9337177.885917889 12171087.7801334 43219022.59210314 83772821.05654483 47221052.4307479 38777621.630535394 43146176.78934319 6027480.019595427 6022954.24632125 45384494.36110743 56457055.3651773 45482504.21175125 13327314.012217266 60703126.64077321 13395762.630022345 19727321.274031576 81677028.50928304 35369787.69671017 45619281.08448384 48185276.01214275 48235359.12685219 17597135.469435085 28178166.853756633 38406917.04672557 75085.55153644743 33676065.89942319 51385537.00034187 47627961.739264496 28760842.600882404 31128528.487961605 28798208.203864146 21414548.714519165 46586009.84902668 91191489.13921972 73381936.97482382 50188511.59815857 36430334.24196176 43522108.566517405 44533584.82471848 32639177.702301092 44418356.98495471 46676378.48041592 44961182.09434366 22625822.059752494 44665865.78813043 13237225.652848925 44277702.895282865 21425616.426006883 44389553.17964428 47561748.01207075 47507912.55690803 37690978.35275985 44148331.626069434 39882125.87723709 30732014.9051199 117097016.57381418 25481686.857733265 36376347.504304394 47695503.786468044 14276981.19847686 37685600.27384821 54102855.98020517 43883910.23534193 28469899.179738306 11342217.780760534 50736712.37031932 24824765.40931622 41395305.674455166 36353457.15751824 48391521.68732041 5420187.245061048 5423865.297423006 48195300.75083295 47065863.958666764 50440744.01788833 55836385.19970992 39936294.542696394 46321964.954345636 43357040.046390496 28031648.40424519 41381025.39498683 44848419.408255875 64139006.90515467 37996974.42883166 274513.5114022531 13585178.04854443 9725853.933209259 45529473.944002606 59587700.10902894 50590222.36038204 55924262.43981399 28059098.462276656 31950188.959922735 58785442.199533194 74787268.12254663 47046542.58370596 60421755.31843332 37633295.60433294 37612938.54602886 49544993.33272965 59471352.15901772 29556331.923142802 44893031.445619166 34735196.34827578 30201352.078491915 37475293.22677637 45604224.729033805 70487762.32081607 38394939.260213874 94458642.18273684 21919934.642327346 48383972.21855527 43557413.01468348 25002317.60955372 53841343.477241255 35940532.466441914 21284497.23638838 45638658.91194993 43293430.37920752 44883888.98179403 37528287.31685189 37511880.25288328 24921883.96976053 29167985.517701104 105556788.3104558 12652264.297435356 46848850.636447385 32948239.32269774 32900300.594677858 24372928.949765738 45610141.90754616 32934870.97586176 37290354.27870831 44633896.413421065 15555535.193550456 47539274.26332363 44179764.54972732 50924734.426368386 51069892.47982075 21964312.24791066 21950568.63991925 45657673.926337525 46496844.93221654 31580056.968416885 49567132.259281896 60402243.96784033 25661725.350868125 41898894.166641556 12724344.251111588 47320447.4047696 41807881.14066541 53646508.75247019 33555376.66443693 21259628.2902073 66761014.36415459 34267627.69533383 39401980.15374119 49840596.98662384 52222874.935930066 51759293.70245708 58322920.3726094 22650273.739221152 46380291.03006766 53356481.530553386 31237091.393862065 66627690.569156975 46053120.0502486 52108120.88759689 19449730.499088053 8897544.149251128 16391039.649605963 31083467.023351796 29995818.513832245 41025257.50580126 36396520.9312741 32538781.35599314 45580597.79761563 37116032.20846394 49107724.55496683 45832030.720943145 32770954.443583723 42981036.28250769 44372715.48359993 38582758.008243315 51644717.08911914 34138009.17093863 43149629.14572808 52318337.91314663 68514914.0020957 68652742.91205578 8802409.861153604 46207770.54016494 22330135.579501916 22294291.480543144 29138923.020715144 17305243.322219156 17288230.300009888 19167449.622274034 44901505.15603979 60227067.035194226 63892079.26512834 45734287.21415291 33551363.81236212 45508828.66608075 32274132.508711103 29142308.16842316 46717821.800825536 37337318.12860423 41579608.1010345 45152707.029166095 49348258.03053293 44046476.01425056 109990475.53821634 43552953.53618359 30941417.40217171 50006839.52312625 51242732.895007715 45647716.62778043 36217067.55323952 312748.47108695953 50623689.128780946 48272862.73279774 2304416.4866008135 52596781.49411501 92966175.31447364 43372059.08759211 43587062.11256514 32327062.081785984 15402785.698128687 43551799.81645769 44346865.346459754 3840372.327013748 22986686.67289265 43716921.84537577 16872433.05521167 26960879.676022675 48565954.4423574 36989596.28206746 51661670.061748795 32077141.75163907 23673302.089854192 45646242.09834081 2321627.85012952 40609112.57094682 27567416.892885286 3777364.396964561 168603398.57074943 16095361.277614722 21659138.615458984 35408820.70571353 46055889.28716607 46604421.63945446 43892381.33246828 27524635.251614515 110114408.56447352 26953117.623155553 52294620.44774775 36368524.71425533 10504230.267558834 45013997.94215241 28156464.92588447 10662209.17370739 57777674.36802248 13900499.310380496 54224479.446166225 48697717.81878865 38129944.62824536 36584280.741834424 36589873.10802059 40957473.3338808 36219036.85721058 8368033.451998284 18844403.88224258 18892563.756046977 43969140.65060443 46422988.24267585 42114984.78539648 41549369.083938204 44468902.00116962 47383317.22123953 3616178.6693960493 3618288.484961369 269669.3356701347 50301629.302018024 25495298.991058704 25472041.6372417 44668306.628477015 42492278.78410707 19780038.655393124 45572032.09394149 33389267.362165906 8254233.630067248 44792696.225357905 44595026.8923766 28828463.84853025 33971181.71371645 28611953.33707965 45206430.46645557 15669268.134936886 47296862.677788705 7618892.160408072 7588727.524981411 50092279.79705587 77605781.72040628 50028280.00333318 28333014.151135497 24607831.412405014 48076531.87188326 25634376.830181 25603361.581538193 45544539.04284232 22324693.401836697 31136010.483274087 35634530.2595422 39114755.048007876 25435957.40493868 47759902.11850408 2645547.727688343 42413461.213538304 16257311.097445406 30821471.722365998 47648484.35954507 47197253.82890195 15782643.388198618 50481375.69212828 35855995.32953265 27313356.114731055 69398659.25112288 20689485.054526106 35317514.32167069 42833170.7062418 3831226.2338905176 44130876.673345 17031724.00144862 30158871.05227842 29177390.152870264 42113831.760494225 6424105.704176851 2128172.638145886 46229300.95869467 35125411.31881201 49930837.26388 33346677.35507201 44812510.12359349 50905327.40838272 44560663.59296992 42536446.54059219 42671466.22121117 27555039.832716282 49103251.09783136 44574006.30162182 49081461.46950232 44536178.258878276 3220970.7253927677 32105654.503107194 45960250.2818398 29801072.688737333 32613875.329468966 51086152.001663215 41381700.99931866 48879970.518356964 35647152.34786417 40093681.67716082 46789240.47335817 47097229.391640455 71363253.36201647 43204655.480353415 12880532.24162278 47903096.77876366 39000037.48189358 35170199.70508952 45246392.971867085 9419412.81762249 43115917.916745394 43206871.96706198 26334822.04452359 9377933.214692483 49739251.44942387 46869543.77913891 20658236.668215536 41803855.95408117 53737097.45667279 9401254.392730733 9430945.66551336 114928626.49531883 27313950.347506955 47541907.80919779 42569826.017843515 30500008.139819566 49386440.16821592 52009137.06330619 31940747.37409124 35499438.13604327 55775248.25312988 52281622.25566308 51092222.72538937 31252375.160155937 46910176.03917572 59470588.85359332 41509818.07389982 44939623.03725697 29341232.47569229 54343520.64742804 38355602.561089136 46592261.595373236 44409971.96166324 36691292.435933575 88681868.24688908 50448327.72352594 70396596.81631954 49026734.18260554 40284007.20815134 47910866.68168111 5372589.80165649 49595240.0104817 37833481.99240482 40483983.00013674 26525270.060723603 42625791.902163334 43416486.48908367 46058601.74982185 47414793.34127138 43134042.35749882 34931650.290508926 9776877.931181513 29446134.083131753 43503396.67913331 45216653.188278295 44182848.19986318 36285789.26237987 30009014.657731973 41181458.99207012 50186171.67815476 26491873.643796917 37633858.14721543 42711327.74221168 42542785.3907476 27703151.352141626 43926101.62829604 27605702.632980805 30066055.00738444 40057964.01353441 43725925.82353542 10850068.55085225 10830046.595887639 44508990.46770706 43881899.48046643 47818332.76575182 6991233.36995367 42852484.42313589 57321823.26988835 51596496.570448615 50539601.65351041 52863656.307841614 41516406.902937815 43166746.97829375 33976145.86439247 27055280.651058458 20167723.465902936 12683401.701511836 35726773.317726776 44252089.05101304 46230280.59372283 45609793.18710554 49177687.476843365 33735174.113956206 35474663.56384802 43007197.52836438 30897092.40407179 62009365.320051506 52261653.60698663 87957708.92519164 45682760.18056776 37050056.87840461 45969778.685014516 57057998.69550415 29151333.24535523 53305808.29543051 51688320.02442335 53462811.158037156 44210995.526268825 52078288.72186465 24827441.485751294 23752585.40546277 38002287.711711176 89104400.21284519 27496176.636298534 37671660.4790546 37865197.25751282 14437841.902602525 42913131.19957557 74433391.77682257 47634328.8980515 55180004.07927018 47156630.71709045 67256292.88323304 122145551.31598221 62208358.86064114 30213481.720179 36002107.698475346 12226644.91076229 8728941.725634392 36413532.64994325 45803471.56576187 50229117.054826476 9548195.003362387 25167052.79024824 49453060.648410045 43929710.907778844 64708326.48096299 45693260.79539922 50535123.57823825 48106798.25106318 44102504.749805555 47239061.11916799 29112191.55049334 24795499.922878616 36847686.47159427 45949163.42738568 44394781.08141605 42534802.40639861 18480473.236639015 50677700.71192381 4181715.625500156 10937546.831555685 48414274.29569483 29190685.656817567 44759719.52319203 1736952.145554128 45174195.94653674 39157416.90148071 39901503.90009235 31132730.73543753 22221076.732465643 43999032.59765065 41834682.343466684 47012555.545293845 38826426.240718514 30966319.44825392 45214418.73667795 25521768.377628416 43514297.185523175 35257573.79542042 56491516.5626834 36958581.186324105 10845301.601962678 29685391.22479437 50970529.38436976 46095578.233593754 48429448.92373337 46348522.44869181 38386259.71948164 51396646.62876181 203826.07716201316 49091258.93988827 46075931.145217836 14708678.16843228 46719663.53912906 50098117.90600875 40635995.23254651 30129014.47442165 79329715.00880241 38797772.241809815 46641103.16721576 5586797.350380888 44039983.96701149 44042437.649051055 44648682.58304581 36490052.87388927 50482228.14220568 30769911.97852995 126272449.51475042 48613752.117728174 45728973.95961273 73302546.00682749 46843964.4562573 43181213.208990544 43673543.80984927 28585314.780123945 38956459.70890364 4741615.722388487 5837613.651417961 5827956.795592819 6624512.762924162 49337325.56023796 14486440.695854668 77834017.6037407 51398379.2116019 50113397.831309795 119548127.55140793 21165692.645484693 7522449.48974982 46005189.43152726 38132895.90264874 49586027.112381764 49410656.49556523 49849355.73772908 49832669.24813233 6234977.480443704 55213689.575497165 8989191.757471103 31089472.73626303 45950274.25797742 51219592.91261347 45619732.956828974 45219962.56284157 1543302.0393485695 46702850.68371287 45157588.327832945 14872433.005769862 75287053.49727271 13354245.342754252 39288698.54389014 46107307.30026423 45135093.8259759 56175388.413568035 41200736.84148121 45741370.99679032 45049269.54265132 46005778.25816144 70173909.82412803 44549174.80539297 81350872.83381559 1643153.5398063008 1643628.9736928723 77922082.94731446 45055735.46479328 39613076.111184694 38035346.493756846 45197871.90575805 44772800.643043816 20187277.984694406 51723123.95139875 32778300.47854374 27147352.998757735 32756927.018447917 44661947.495103724 47755163.252761856 50041972.093339846 45818107.341160424 51076812.470838666 35750444.86689482 52468365.69117237 51807568.804000586 57571188.530628264 61950767.78520604 29352114.011985727 57651220.41996277 32897544.67423647 32868611.56085669 114810418.64111637 67505835.07644361 32900931.15214556 37255180.32635385 163056458.70266142 1125432.2029023124 43844970.63862558 45186126.23498065 75421098.56363593 51148169.54366028 85861684.77282497 39132378.28779335 61603409.28403423 45145207.63930981 24192653.492190648 39307667.830417745 45862216.565300375 48355240.80798802 4410735.380683391 22597813.27669833 17783680.562202603 67316009.6690613 24850581.96434752 1815484.8521663514 1816791.7282743393 44741550.77919601 17902654.336182877 20742257.936745483 38684581.561105415 1543097.8814242475 44288605.85675392 49312599.802857846 43605197.51832338 48059050.46291202 59529921.5823327 35106238.2474635 35790054.87258421 44166094.69346566 47241805.97356859 30252999.29474808 81961114.8291754 60513170.9706177 14793975.125764482 36481792.208270065 9003755.477415923 12481267.79164405 12471171.45403619 29789870.148925632 5786415.283123229 56222002.704512544 46657400.0398015 5763610.791087565 44631281.14419004 1134758.4629843768 40571496.537267886 12187308.586023957 14452038.114848064 57699657.5096225 44555103.41865408 17559189.216801636 33986465.928233765 110428577.61908041 45062412.11409052 41023787.740089856 18294014.186032645 49749507.41850245 42919098.55232443 43712267.305710614 1556628.0366497436 42539186.83284142 5535054.663869537 58297715.59991829 5417910.3238764405 14573200.950501937 44156190.87129141 1554221.9499702104 45078252.637665324 29479856.048765715 12209292.319607764 4355719.125980592 37375728.66938285 48000961.08013874 5283883.910647637 5277778.721376032 26428319.717775006 42596516.48927964 43729756.449848466 3550992.3008090174 3550376.2221327787 50962835.61157173 56708234.87706049 78593531.58270624 23442144.67005704 7336576.589706633 44185364.05824951 49294067.36427355 47198899.72202397 31133057.24563102 39391107.986486144 12998250.691857245 4234193.04809475 32067575.97400661 35823103.22825012 38925281.59335127 85489685.76388076 3960866.4095595614 3964619.965131261 81213899.3867243 27251826.196579725 35168855.91710612 99197060.87245534 47233319.205720775 60011708.95129937 48105898.93864149 4384406.283863028 47278949.09578556 47902094.157946356 30782445.306216795 5798267.734048184 6951119.943334047 96843503.07098845 38817172.949159965 31999669.751082163 38865427.79677151 43774426.06568266 16788742.061521165 3755299.592019804 31900317.796658106 36507788.23645809 42925975.20791937 44286048.84846185 38050507.91198614 33839233.08803769 3721419.590796505 46743400.87288735 33374986.345656995 39134297.65265849 5752031.43375471 29791744.195946023 36615288.463521175 20892966.571946975 45774139.03531345 26171113.809877206 38894303.05004404 16654414.220889682 49808002.27079398 175950800.50465363 26948457.094511487 30509166.042247977 26252466.023588307 44443915.19301557 44307772.25355713 4161278.0770907253 60308852.88024374 42811887.974452585 48722054.04764822 65933814.363424286 51867747.50337084 51127279.37699392 9472517.201570986 1808405.8411720796 1809673.667048644 50374502.0516169 44578534.24860197 36064535.261794075 41879916.187564805 5665982.545863039 42872114.158068806 52028866.73619114 4153453.924679501 18643525.676683985 47355257.12564213 7655101.613622427 7667142.467518733 27124568.75679204 51176233.425494425 73901965.76013173 55757873.549271114 44588041.48174448 44285421.97932098 49589466.57745886 20682179.58444124 20655561.442761835 41476339.39893145 29649919.302724022 52066472.87963351 35838388.285467885 28499472.626713265 47810059.82902727 49679560.03042629 108968090.66652507 7337720.410688527 7432625.141059377 74587191.44472754 27831402.5861361 55589024.84561179 58239405.749339685 40134145.42167004 2174766.9351120507 2173322.027766373 20795084.843030967 50772435.86360812 57761187.70551977 5730603.757642019 27663847.313929006 35281560.913382165 2030671.1889411137 1724039.2943334396 43842755.31681863 7335575.763238083 36669463.11782197 40335009.39691535 32447743.667947218 43480554.27502119 2035591.0612211516 1705409.5097851902 53453877.20648566 11684932.316049872 52033507.738461845 33239278.358390387 27170883.45227052 9576892.51724151 55528352.73262926 42667491.93609435 5940469.298672448 47557733.992331676 49542903.09297581 59745978.04341756 46881138.21625 9419186.36248272 36200899.93865614 6123209.80678881 38006368.22159986 73986056.29168741 5986912.564852159 36244329.66887023 43667188.59228966 46149920.929613486 35412819.044122025 51086820.23707485 43163683.582633846 24209035.560048386 32040448.82498916 47118950.3518197 63016457.34375577 29875228.263152245 10607103.47216127 35830850.81177711 9344309.373857787 9339867.611728083 27727334.859722856 44530829.95607369 32753392.69172959 29063698.786955256 57802412.85066408 2506390.477038593 46283837.92906293 24293127.646943863 15278190.49947846 35940294.44352997 55528796.3296398 332112.9433294283 333132.3922464301 1412798.3700088838 119288216.84050177 44131841.73478243 21923808.58553763 42246140.96455354 3191489.3461738103 42683522.39009789 3760725.7583275232 46210166.01293184 28526880.719865948 46374258.863747016 20824758.920358498 45440820.676785514 35528969.32202236 45366703.643292025 17556065.99037328 10467004.54468239 24874468.775704604 24114765.435065515 44855474.51496833 49605218.9113195 7778079.5322568705 7785901.7920359075 24360428.75058576 40099781.94576505 50221154.39535843 46960273.84349126 70868194.06814872 47194957.886669464 45171761.13551263 49920228.137124486 44151088.46611813 36257986.042081535 43740141.55790742 69319311.41959327 34388121.84512956 145993776.79134735 52155597.05315451 45901308.83165363 2060999.7792837461 7051900.87003987 48888644.31733012 46235205.08571481 47485904.39127532 45844221.56123285 47152757.81339229 8693979.691486323 17301826.457395803 31909529.604016118 32780838.168552496 39521833.50149189 104661287.10256968 11753651.69936811 53123127.895709954 60110805.40174836 1971628.5326704707 38844189.700117685 37059612.552283734 34103597.75847575 8903127.414309843 8885850.53398903 10495803.406857837 61658013.07934858 27685844.03129215 1918334.2157625186 45909657.46236345 42986798.43973274 69626015.75430785 41597034.81475716 37223424.43373876 44940835.5848612 46593789.21953442 50065109.31168155 37491864.28164439 25043831.208170246 44911537.44729977 47707789.380590074 58919713.68503944 46773638.168107055 28188803.92731651 47494411.93809388 46751847.08684836 12290381.56227856 187267.10753574554 187273.70477875747 44202878.644027084 54928334.45436055 11833628.798623186 10524082.640132045 4522131.812014696 46107895.41072641 45617374.62298574 48604985.44322121 31456909.048668846 43670205.29994944 65765602.69066159 36049590.88955441 35588194.28525872 54105348.66663751 58146352.931472175 50893758.309186585 35996292.45194179 65360921.79211788 44304887.494722664 35641503.11246057 43726673.71301175 41207300.350096256 36082227.70675915 14930442.79884962 14842873.75792132 9548111.081548948 9528026.347971689 24092273.46120571 74808232.97295262 16048412.727054333 39088341.648403294 31212084.019782543 66156712.08009563 56298962.61267941 38333802.45180403 26177804.313679088 31527860.50236315 52580707.870340854 36502116.224651106 20294182.865594413 48146408.289989404 42620416.08105861 21521487.071676333 47212131.78326006 56365150.01251735 56095715.63430367 33467005.52527491 25836879.188336626 110791611.9322176 43080865.147071496 60326867.23937048 44282353.21182279 64471896.62010798 34759249.42074714 4756443.971770177 56358032.419294804 7007790.57860698 17003507.512468696 12912049.779385587 12884278.505538607 44173986.26197039 13759504.02962111 42843539.34121578 17226332.5265559 46836280.85116389 12096795.38006665 39618594.01389921 27614255.049867902 59619786.00874519 47397012.41290634 27982008.150886428 69306380.08231117 33804410.81733601 34297326.7905572 39929127.166654915 45497206.63451676 34661593.25053568 49810839.83580865 4368147.645333215 44156277.814478725 55108182.458445586 43212236.88173884 6185503.008886494 6176835.915688438 43077378.6101264 55417543.72660674 45725091.615496054 44324092.58840516 46795169.18714876 46889992.734736174 45491671.473341115 35502659.52409364 98146.74326701438 24349018.770161174 7530766.4713398395 7563270.553702905 44635090.41839881 36668090.3373776 49023756.92131566 13244098.486289488 13233252.207142236 39467421.90301742 44651901.04997609 71563367.02110766 48760548.97896937 45958884.313402615 51670225.06226278 46701918.334550306 6772410.406418545 28192275.11418816 44050681.50224336 47051337.36817748 67964284.85668412 48424129.03924783 55986666.97794833 24123024.110542808 25298805.485745113 46206926.12856037 50814549.619496025 3728175.780672958 31924973.95864834 97896.35269275852 9503043.904912516 43441712.746022195 37775070.510108516 36617365.15717264 37826883.2336292 63616992.03021555 48680499.8032263 235158.9438636103 19018855.3070373 47014453.3218696 25115907.497442987 38029757.00320597 39040701.953709655 49411768.272459514 236413.80623911342 39452692.100387655 6117078.739239876 39034483.15979846 33890224.90431 90010632.00683333 44333953.364919886 30755203.425147504 45447637.453707494 2375018.4874827834 59156805.38161362 42844748.259050086 49743227.75719773 36871985.8954111 46620967.14394577 59593688.88085864 16133345.015563099 45286329.49166129 858258.9402611181 859095.7109298725 39770009.58907796 38552664.75294683 61091019.79309178 48439040.75124492 823868.1201432135 16885247.920276586 41673090.04080719 16788833.097559728 44981323.70827728 6669483.765204724 6669014.487761776 34428919.73590996 810241.9011522908 4955627.617814279 4986756.631961603 14463195.241235416 14433073.143783046 13514128.813332792 44467459.46802841 497273.9488948398 501380.44466570334 44574064.00481121 41818525.62354853 22552422.229873046 45883007.66740533 22434392.186341133 44408583.69797981 7696720.280493682 14852677.080940923 44326185.20111299 20750565.39638092 54572539.00539882 39403997.78448221 44241338.65379385 59676674.3948724 42566482.1125494 25301180.42991752 33135648.072506238 34305741.597223364 9467064.094709994 46102686.26892098 9392484.609661167 43721510.72314236 29481724.960516036 29528265.363953564 157567376.04912156 39932074.90009353 47245366.559397705 23047185.07374455 32724757.595045935 50815309.59196413 49269605.22612505 49258520.07146146 77032280.50099196 43694807.77614588 44332704.23147231 67319287.406377 41675649.099981226 49395564.76619601 45663451.95724041 45360347.17551632 8895951.304231651 50772051.431261435 21237484.222384486 35834380.2334998 45843071.68556847 44250282.011594556 54973041.38673537 44442654.62057098 52518698.74757627 14268566.581830882 36817871.868046045 49757871.07170917 30168770.550349202 93742018.693824 57271773.32978878 45192310.7039385 45015400.09844944 3039914.5941728475 41684746.7547944 35842600.497147284 14883614.266834918 45430418.352231055 49767471.65431304 27876176.48856342 45043923.08687751 44433716.46581209 43042629.50979348 22599960.133358147 22582155.85756146 48785657.91394262 253333224.47830677 71385348.91137558 37652245.62877116 76538678.05414467 35868474.83872117 14872238.97972857 112741128.88106692 14920197.60285343 46373796.783047594 33778754.19003894 33762396.59489869 13450533.404024124 41674610.36720272 17886149.22983063 33984550.02807123 33950894.02430209 42647471.19744547 45864410.85916925 53129095.27934097 43049343.743716165 5448645.035945581 5737707.570041478 51486587.15515586 67224211.85887142 13304386.028513344 40170076.527666256 60727852.356700405 13494532.61186342 45063032.23011105 14590061.822193725 15620886.966296924 15584169.77163853 15628839.967813926 37463102.48919174 29685262.64255457 49775919.45591944 45741383.10493737 46807360.08767434 53152048.519170046 44862951.57550155 47372451.11036547 43213497.48302138 43286827.95881429 46920320.62138054 11192573.441345975 48745509.67719506 52064065.25885794 49935143.26285865 15785024.42100022 37256255.30223679 15621999.438721256 35305292.81618255 42611254.78342424 42067908.949030384 4238955.546020947 48379652.53403215 43996440.37232271 10127681.308230003 22803339.816861995 10497141.279680265 10362012.880182773 42400127.34529991 22832928.300567783 36567959.31913487 31738856.59630922 14465476.670181537 43840067.789749496 28730161.86713382 46937297.1994379 51608703.70901048 50263555.68275958 27420531.81291851 47794806.23090407 46272341.62703636 48595550.98414741 41786617.80904271 30327593.988622516 46898910.28784288 47141532.824369416 17583596.133971278 51449712.800941564 44748469.024766386 74309338.65950006 46270982.0836036 23512986.503083788 4479970.781040315 4451325.3907316765 48958425.351593584 25423138.14741879 49602783.22542287 3295962.3034959165 45953288.30190744 56161225.7765554 50982053.53441356 45631040.971675165 42532119.126149945 60524578.505653925 31332439.53127098 8834449.255905744 17941153.448489733 54915623.168738954 15785322.52512909 3345008.719094471 3336115.580106239 43750954.70802836 42298679.97800484 34780672.89534581 44366293.11376701 62748301.31076272 30130799.959697135 26706386.66490735 44576979.480632536 34918400.3207212 44212565.67692922 76801960.22901832 45956153.94826355 47422324.16349394 1660883.2445086332 24434771.96258023 38341838.4125338 15610361.400339784 34237198.89089265 27686358.086409714 1964121.3605717744 42599326.99921396 29503192.99183444 8209400.931857408 29247465.024301413 43298130.46535092 40641379.20592377 52233255.2947546 36706830.76276404 52362848.925130524 54908143.260230295 47692141.530396335 59022768.109864324 43072174.07752797 41321994.59656377 6675782.32108741 56157424.87310856 39334953.783805005 44321142.383578286 44451538.9311214 35745301.08200296 44988827.173297964 46379588.25061607 38170788.99897688 28590272.842403233 74941417.48106459 56449882.72942502 20084486.12055053 36094265.47289752 53169970.174400754 33883276.66082083 43645381.30501816 30115901.184062794 6380454.947723991 6336255.0725902505 46885839.268241756 35839649.21775293 37973681.105294906 46367729.5257249 39447934.343412966 35153715.94306405 47516513.48841571 39678139.90742605 47687269.41571023 34383678.87633629 50306399.57127108 47762869.19812712 44539302.0813332 43997977.07025016 58597675.69308915 29981842.94436677 44366618.720330805 48755107.572637916 41622490.3016455 20834425.838386547 48037146.089596614 36056005.285654165 46256918.743280105 76689142.65533867 23599634.774327114 46350091.43340331 41393940.423891254 22607254.660968095 44128516.15830172 41827528.16772134 60732692.78966743 28652414.170003667 62488247.076027095 46517344.14491933 60431646.65624997 19896448.659234237 39032269.741003424 48954912.830941066 46773483.44687263 27917608.95886182 43471323.95427355 53052548.91180275 47727186.86242182 42718304.4853816 58432341.092581935 16022034.38303067 15981181.571212158 10742981.900084447 47659094.76237588 43638181.00468172 43444219.56388628 26201643.107898958 10580838.595988179 43788490.8668799 5183343.224980119 35093034.06534451 16529181.483253904 27414563.64887236 2471358.6045349254 1095520.488073483 33154578.260461137 46608770.25311893 16757355.125566537 47649923.653205 25306637.01039796 26182766.283090193 34594423.76666528 47863368.09724962 44669905.92564449 26988647.573279254 50662466.55036457 18081459.905025642 47732807.60664909 41618125.760523744 47543562.170301795 41713620.16352729 45540510.008314796 12960623.932772253 13358066.276529029 34842435.21992413 58884886.464140266 43324701.414407015 25423635.239380326 3170344.458867272 46996249.852823935 38798650.12531062 47362577.64139538 2606652.2438557344 2969008.397855099 51876249.94355419 13655254.746326426 6131264.127009849 58721051.74371258 61227236.917644106 13212775.704862809 62906176.32215893 18066404.506043296 57834906.6562432 35606918.381125875 47300155.72764741 54332691.51101908 42830547.237872735 39921312.910671525 20320715.227786344 42321111.55483498 46987658.851786405 2492740.1260631788 2994617.7064876887 19925367.116826955 41963238.98333007 44783546.43846238 48836392.990212485 6454215.764629998 6541741.824419825 39100684.98961136 52166863.14767462 41525422.710853495 46884513.48450012 35209762.47703438 35213000.02994254 35752139.23007875 23095234.530527253 35697637.014487885 49038188.380185805 46527044.393132746 42206005.42648062 2268351.463459177 2270760.2733178586 21880127.107936263 12372475.170377774 54405461.939956 6278780.455556892 47212643.80279057 27553577.046941254 69097210.23086764 48065797.020631365 5877713.392022267 36535613.082225434 47484987.1919946 42791795.34567999 13556912.960649446 43987463.408562176 33842758.42617521 14063803.717491876 56539359.08128364 52005720.04100203 121235148.05448858 50107299.666444875 55097201.698329374 67282364.4383791 45056167.72256806 15685612.375709724 19298320.987292394 45422060.68090464 53425234.13387142 53459206.02517412 26767561.7307036 44197178.08721989 25615536.883745108 47118461.12469691 38868400.02744244 46857034.1232822 112465471.75294764 8343037.32095835 51550426.75898888 47113317.315291345 22429865.8948394 17788119.10045118 53163594.08865295 47791134.66480257 66474810.16017885 25969952.38098468 44381081.86356537 49163137.61707549 47919737.714998804 34229674.93593602 13105667.712636972 43305598.15088473 48743676.07120352 42973382.59443372 47498181.71774306 34664064.42865516 116474321.83783242 60240214.69254864 71533690.45784861 38970131.40558581 13708623.054547142 61670448.09667248 47256994.53718984 49211778.587744676 29608910.225118402 41559125.783951305 40797133.39721742 41259780.570200175 40344475.32150094 52620273.80666572 52566794.361140214 39355255.78061952 20770452.081412353 42768962.39578898 46365112.28260495 20509216.506521087 38860599.47105517 44773870.68275028 46921051.4753907 199633061.20816734 42257124.611053266 43481438.98182114 49148619.69700137 46266324.97170104 36467566.38719616 4955463.523774134 14953330.210552284 29636576.802036393 20691764.6517066 43083475.10862791 34444378.68439724 51841856.650426656 31092386.095353257 13518398.7643205 21374025.658839155 41384353.17492596 54306785.313613385 44384084.46328865 38850770.18059131 14094264.519582523 13838799.068496041 13850663.941178098 13237590.09175306 56964737.61587785 59067219.28382361 58662007.19790067 43661886.639008954 37032651.477971636 15652522.899958745 15641319.447300665 14947581.101333285 66927797.2011225 39415297.270427495 37143693.92122856 44933496.34153661 51853569.47256745 43793022.31597206 58710511.48400373 28508241.931529347 72599724.52320859 49997844.853107326 66497010.992082186 44639503.97187352 34127648.127582096 47907005.26197941 12269171.72409497 50914354.428297475 40964652.28567939 46298056.29286733 102537557.80446 39888080.85890114 38300223.37876661 44153669.12601545 17860487.99383933 44438983.14708913 45899159.0953963 63657207.62098868 51366201.983418174 50539203.64286322 44190339.59774572 42846700.91973201 47996441.08560938 34751601.86990565 42892988.1445697 46367026.60321087 51544247.90441735 4198122.96807832 43789893.02255737 55977856.092770375 21663411.200039532 101776455.68143125 28038204.298552964 46810503.39007786 17750720.99938409 47841302.94301481 57422136.03602364 45884991.11731872 47487828.185202695 5985461.750819426 64699352.5502504 48506760.83145824 29337884.97630666 43599931.111954495 38475440.131458595 13255890.710734833 58340107.66333046 53980113.29321762 45833005.50816921 42487284.68245916 73990843.57583776 43472461.09719499 52322850.065143816 33933602.25491225 50774968.27612094 55101690.071149305 42930573.49356098 46569527.522818804 49674356.047844246 61664790.40084804 56062941.68822306 9781521.929468784 13077021.181160957 13037811.333829502 44380427.10166186 33876316.34534572 134839894.27252135 55428497.58789716 10656691.095961528 48774187.551823944 55079612.3339249 41852490.615394644 10620731.587195996 42285298.239939325 59725472.59239093 46680909.75684126 42425273.078773715 49878756.13374522 47202422.99058363 17999688.642307997 55155426.16783449 42823861.21591999 58233665.329458684 42721416.5205997 44452536.02417306 42765434.885825135 27367099.025592033 50155787.775935024 40486903.42223035 39385413.215552375 46943251.20573494 19878324.593720555 25526471.502075303 77066844.33708149 47162243.1547651 3859752.4209656627 44419378.99643396 28299987.669649962 3825370.323598273 84956536.3469332 46972225.37783931 15725039.977678742 42889739.23262108 54373914.191368826 43182452.76791931 10505833.663645541 10509195.006206784 15306668.81139546 48312021.43199764 45808851.00312948 40953590.91595505 41641050.967741214 48821034.686102666 39656723.62033172 47363043.80868998 52909525.209047124 10379872.910800815 57940983.16567486 45547717.88093626 15038619.052069366 44935925.170323916 40829614.83717909 42950763.893756405 14558335.344351267 14395923.495290542 78329462.99063064 14813741.453770025 46036619.9807183 44163599.2348154 47802872.87362545 116195209.8064063 22113806.452729285 31947847.30970982 14918000.37282209 15744424.769373436 36133525.97484297 16782127.84620895 19857756.083821215 26785306.697261196 38344981.05935754 16622760.633517073 25483221.26203697 25511752.225850802 18451982.90103864 21087856.07650391 34436402.001947105 49463468.69645695 33934268.90607384 52846928.120079465 92990107.6919646 14407335.810333818 2014085.4867388038 46939875.768052846 58164180.629145116 58130612.25548769 4023356.077488489 49511807.71424761 80080927.68209167 54769427.74192175 29853466.031281006 29842797.249579005 42708468.19172352 25449645.612749428 25517487.70512353 25271248.47180002 47008148.82832296 49456570.77683592 51910058.12164952 95857290.05231163 14428735.265712915 45276468.55000173 44337416.72008378 50946887.782481894 53218779.021543555 21179970.780818373 6991691.265291423 36929807.67350999 110983283.00281999 39227545.28985921 66786134.10589822 39999141.14017824 55148018.42786035 41849027.06185233 47870946.72595245 42865120.13662195 58407080.15656906 27413514.909542676 47427998.19248285 3573843.877747159 51181217.182407334 40466448.9364052 54824761.95220024 33268523.17991247 20313621.698827926 17661367.721276216 51890855.02022583 54950890.831645384 49964868.3221552 19944961.7698956 38663332.89442092 45586267.06480782 60524690.70719151 60612659.23140481 30260684.831118636 15077220.19291157 37586952.631720714 30298485.380706847 51418700.75636777 13318487.68371374 59734873.474835314 42133032.952899866 27501839.660313863 36672640.30451448 90439006.73919767 22329619.610121414 22242556.111908466 54835596.656109564 31553834.621165596 40571218.85718509 18089682.59056725 71078334.4911798 21011414.936847396 21061900.302553378 49201276.23874266 45449300.8459106 49604132.70538267 84048022.253886 33309746.81893172 81120590.88676445 56761151.5471866 20589884.30479665 39277204.31461394 32394867.063069783 31226918.968657147 186006.30836854962 185434.2093004539 41965866.99479413 55274557.65537249 46880399.40926974 71060432.77503818 48689118.8869873 14553713.663773706 60601099.591510616 50384293.97953746 42255814.65476672 42855115.879599616 49581628.30277373 107403822.2070801 42620685.99047103 44125099.555656545 56533730.65073777 25424128.382795125 5475351.03571783 22321244.61422716 19977577.236529134 19968604.65969932 36844355.602570996 46459447.43800571 42840271.42570608 59664777.34788589 43835039.518082745 45194983.28710141 44380551.61833832 44569684.339607276 65001868.64659642 45400679.67725929 20189451.55660313 20147139.523977913 47935615.46245862 23002640.483513508 23458409.679732922 40311983.80228257 32010101.23242765 31997501.41464492 53329754.61098413 27964510.02930812 46025259.984672636 32350723.227167025 32310761.597759947 47292525.11057997 14981501.75147939 14954340.106145883 38896811.41740708 47936447.53332805 45272802.3480461 48095973.278628744 62379392.76571823 78460959.21932071 33751939.24356751 16209480.811787896 43344004.183985464 32423817.48238927 47610507.46829224 28550336.699927006 77385996.36040288 36105552.138735205 224571.53868799066 225250.97858038114 47215584.56823475 45163199.97046867 26790071.77025423 15923349.015707348 48035846.90118221 49224681.758591466 37771729.78024844 32475298.31446537 43086435.57755927 28632753.37966122 28593821.157873977 43734133.18017111 94479412.78939047 46234148.767943524 49628600.27183921 25080162.202189464 26172492.99009672 45585364.371084295 64927480.4411833 43193038.14925242 49622521.44004465 44298386.193189114 10957412.462707717 42799384.661270045 18987787.37849593 117435.93609859892 45932201.73585579 44236064.36769141 42092328.63759875 45740365.55107331 15133851.885441493 20165669.836272404 48811643.41695133 16468525.960988017 16384995.146413757 36415337.20610558 30652604.17427558 45578849.46772618 47932460.882100075 117597.58465277494 44356441.529757805 24437726.757001825 45016215.04892876 24325815.481098462 46047187.00011352 41170614.583618306 9781255.876188789 9715338.928560987 3697401.9647202916 31807434.477570526 69510745.43454511 34743672.373208545 35146838.68110842 32358350.075844012 67791523.00818415 73244.5277613224 73622.67292955385 1656876.8898872572 1620489.3602036966 31931598.581231434 64164920.30138804 21450333.186588034 59749534.52887701 12453694.923174128 12395133.332321044 33601891.90326852 28574625.814713456 8513972.69928511 27046218.8306645 7246646.530493615 30201676.82375041 52521132.57328525 11137619.387374608 11144738.048033921 8522385.25036283 11446856.540570492 74617088.18724129 43794067.329413 7195989.8714811085 46477995.52110626 50207369.99182524 43923151.605716035 12351131.33313627 12345076.074003514 46306639.6567543 44517141.15353142 17020163.027020868 28578598.20987682 32875327.106316 11963029.435907459 58966151.75629126 55782499.63392292 50158455.69722105 56764468.31715358 19192664.18528154 44448537.2326275 84203966.05903564 31170268.538815655 43033169.02496046 45557262.882845595 67079459.71083007 18886495.329679895 33218203.238319986 23921327.043957908 43532836.56438283 30120825.493765 45003654.73350762 2581138.069629139 2586572.490219804 29185785.334552422 44983153.759509355 48220295.90410764 46732627.9718955 27280620.60509407 50240302.01734086 47872749.223646455 19070833.6380122 27581863.51803517 35174322.57522657 39045147.795709714 44380117.34501386 40808180.217718646 58378764.44961423 44366318.37890344 47833442.55859251 42292194.02926033 46241814.56139364 27921504.52953162 47854808.94312012 4726594.790831491 48012365.6902392 44615120.08252837 35464181.219360255 26086203.33267577 50292895.51126588 49324305.12380784 42281191.26157908 50941697.22355487 44508527.7861183 44653458.874539845 58502809.24473751 45325151.246675424 40733045.14578575 50772108.81446595 46310628.558926664 52373937.74225359 23323668.42801467 23253640.18601827 43067874.56527954 7565184.109387965 7565517.37949523 43740150.59091851 38955243.22044125 9150169.439497044 26610221.642807256 32450674.617571846 44447496.223166876 19288690.764003776 41961375.21815671 40668314.70752587 40814061.82413396 53888912.213281214 21468881.584153052 21460257.39517965 47129565.71434409 53556123.20922398 30703640.855103984 64746611.23581882 51995892.510261975 58778349.862823755 17932752.46124449 47094483.09888857 32453550.452549383 47035796.89072881 44409828.83225909 48531777.83013026 42549573.048521444 32675656.52080087 42627872.02186157 47924280.33069282 111650687.38612735 12372643.921886962 21597382.222464554 21638864.264666457 46324771.72104653 49011342.01334825 63849608.14365798 51613463.85245585 47203785.943727866 44744416.79898588 44994573.50360877 45946960.56696163 20023240.524126846 34753254.13053814 44919505.3833908 44938944.63199079 20258914.190969646 35617712.11647561 6983714.58730291 22974237.816566255 26110804.199622806 66496653.27688056 58442205.57593677 124963309.31933439 44412501.37153979 59269788.21454894 98613661.30178325 47257021.14556194 5030305.044093131 74544209.89560583 5012146.108362731 42461432.39054041 53726171.207591735 82044313.67917758 22413516.08774804 22409524.961756587 45899106.38615132 28022851.93847424 44897122.64078055 6994171.598107698 38153508.87355502 24872570.15856038 52797633.996654175 38330192.3597926 34566516.380291246 22598587.05481969 27949623.546513334 22670453.88012542 27927843.00038152 19067738.61927614 52857971.60051456 52408611.80702745 43521591.08122347 49580686.31805208 45558320.92327764 41502573.02776497 40410834.15657281 56738383.05844698 45445007.34385674 45255317.05408 28016267.610236842 27991482.600877024 15252395.305869233 15175386.68308517 53783916.81967933 52308276.005949415 44593555.00451594 52551426.77404622 34309432.59911656 15213618.743360016 48772256.03730505 14890565.769793471 31440899.087351423 48900171.98693971 48899670.45146651 99118300.70945737 22311550.70133979 16774667.688716263 49331715.2227349 49295611.55964268 51049892.314479046 135272136.09051317 38339285.88713003 48218294.244665824 45088619.032495454 50338553.10863969 38095641.6652321 29457115.435009886 11093661.51146743 46786080.78396388 37589133.49391126 51773690.959419325 51277848.19987985 7729016.264080572 15709199.1502158 46884865.35794026 46314701.075195216 37269197.7572377 82361811.60618024 37316968.09536589 44751924.816397734 30352337.391383465 15473926.021496024 30251675.487058222 42084550.21155657 46943636.597140126 7097337.572828769 21559653.853059072 48027998.442268565 46837721.18777212 19097540.765189707 52907965.8920838 46229608.493386984 46211632.34641568 47466978.839820996 47853218.3683547 100370248.2461451 35207346.048842125 28635932.34935196 44821604.34394489 45963046.26444919 44129677.29327777 46261476.831608884 22608493.127189524 50182705.53434196 45860692.29370915 42029052.864877746 34285460.245779686 42486022.73064678 47714374.23526219 36315394.10559064 42127838.537739426 19862767.555018704 19814935.581882827 35872002.70942168 29266942.029791865 31789492.073327508 39310870.69062125 86979175.68646929 30880659.33910615 26977702.04002332 45107726.596698426 42874687.95678071 41457797.10400086 35438122.16230906 51554674.16475274 58687999.90021646 19698172.608991478 47725629.548960045 47068768.28898589 43345157.7534704 47250608.074259594 42457923.73734778 56555157.28244485 39727773.375335656 20736096.66453581 6156937.053332184 44969049.05692296 31277830.70553404 45555004.00231033 56590345.67816809 39306503.9952632 37982956.40428843 48053991.533468 37869431.66458968 106124908.32189356 59468064.0093688 66001166.40500684 43720767.29153386 45198165.395579405 45221516.3175728 18083554.090072576 31932483.010266345 43509582.609649755 44931396.01321924 11089224.689701183 19343278.264316093 38964340.2627274 45794676.26334225 45580277.52670398 57998310.64381311 50813215.71375196 49840109.138952196 34631172.84187855 29082295.43548671 119734221.91449538 19786588.417016163 47209084.29000077 39852866.30283629 47244958.932202 43777308.095261626 36923665.31303626 45114831.78192372 50371324.83908515 90631080.6147321 61757601.58484083 8165756.71009062 8182445.303123025 47828220.585897356 44494080.96624675 40811671.94239007 29991213.187096607 47853246.182241835 40228173.60930988 44309267.81214186 39235007.90788943 46702975.0759014 61862208.851742014 56843370.23793108 33003527.927210398 50834244.74039955 49171074.994948305 25628860.331948504 25613655.110948034 45804419.22138349 39277011.19117949 44363432.43360835 45230416.686925076 44276375.4091374 48681019.23575332 46287483.30546214 31082241.0972184 61803180.529975735 44243796.85365755 45279648.8159064 42715490.49509145 43103612.64382625 25648952.12482575 25617206.18138168 35363948.41908553 36355279.40217776 48410279.36728145 45473483.046161026 48984030.24100452 17684562.44310059 17687594.65715897 56933785.78169896 22393025.480323564 22700086.77039703 28374800.449846525 20785792.56256392 21312402.211735833 50396121.19706004 41802214.148426235 49535160.91746042 39401642.34086972 46864128.39732484 47826288.13153847 48464531.48050459 50176235.84080576 25798835.369371783 47064947.124916844 52061333.54539645 46716697.022601135 36438916.978867896 46588680.38533906 11337253.098533532 47882863.94668588 46607354.5613139 45760703.12397747 46119132.05527549 45147776.043724105 45056418.01383357 24516308.34960606 24500584.073542733 44932119.190328985 6930446.295315494 44415817.96149712 23718128.29741935 44437254.9214646 19502418.093256887 34521704.4151736 46778250.075665645 37807233.571769044 46315783.92885375 44848567.62474311 45410401.032370344 49312537.9456223 46142606.70629343 24572288.099296123 24553427.886075463 44999719.34892478 44121002.96778781 64082859.202485144 40693260.25250702 59348159.66009629 44363563.6664624 50646797.96482584 44469598.36333534 43813035.60969158 47158840.58302263 17332556.916064095 50123733.29883361 43172904.82890438 49598065.562323645 43959213.35539755 43250121.81567244 18229864.006561402 46054062.28663643 61457264.90527897 43914666.044399984 41443580.26633401 29228191.16047161 45033953.73510529 46145663.00511615 48631908.00840966 43453893.964055605 19275600.083361458 61146348.02230435 33863481.325049065 19102871.93089782 53262409.480225824 45825300.00296215 37433165.30540188 68572245.70344073 44800406.84901689 25693488.963342596 127707560.05030929 22741110.02680722 25735179.080018148 33551817.639997106 58171620.14070918 83088644.73891723 37376499.68551368 19658804.494421296 25379953.91478427 44378389.47040268 35755536.51255114 14549545.889284236 43976514.758457415 33198460.650478456 49728225.236592025 10841822.022089418 10845421.841918139 56764201.24264327 54039283.61216397 132777418.51083143 39220568.34847112 65579707.65089012 41015877.99424298 65559193.94659921 40979894.565925375 52167102.698879495 46556924.821360976 41682376.61202074 44830149.751292355 46870446.75767574 60721784.15425735 46607139.936901405 47371871.345740505 148269087.58151516 55431361.558354564 47384103.930674955 29126208.816388305 28659551.180234846 45794879.987221144 86297816.9598162 39163433.025184676 37672919.79921044 30819345.01824892 32580481.869376108 61115415.48258697 49590244.64487759 60781194.8202766 46085106.90116679 58920291.92207114 43948916.496820845 53455400.94723496 30541763.306229983 48999613.826985195 46370928.618687 51316465.14102103 44057586.56675638 44402809.35287714 44245986.30009116 49200150.916454464 38955531.63231978 40348646.22672464 48100984.411083005 46501199.56647443 43884274.14056074 35843657.76927619 34378792.69897202 22658237.117373627 60118047.58683702 38879536.01221096 34031299.58648445 15925827.169205844 71304197.85000958 43635928.927725084 44868088.87550375 31758366.20321256 46868903.6861017 41495845.85941616 32939047.175518565 39272920.93553646 47134968.88184353 22215960.083684806 51982629.400907576 39708518.04804109 20903755.37968822 36760336.763492115 43874469.1473597 47002421.7408146 45064189.474671 44288083.9946037 38916773.28741373 46926783.81111339 49375766.33780777 37186630.83419553 4048406.600763356 22089939.233824678 34820940.1492334 59795063.907315 39961620.84503575 45030569.040357225 38223630.58877953 16354743.63493602 38209586.39993507 43744433.96490846 63038974.27017658 74302293.68060689 45144189.40263773 52137227.822921626 7985701.963325779 49114188.85444508 38354362.54240529 56225441.371095635 42276738.27428549 45205758.6100491 17916731.53334121 37519396.45683797 44048002.09634038 22958283.858628724 52716370.90815386 47102859.06477863 61816310.85246157 53117921.672402985 16368491.31457891 35413249.581936166 36356139.29498293 47029243.44946507 46681878.2165259 28106972.48686991 46382978.97418135 46520828.665804565 46959557.45326192 52763742.52265016 43924365.4898591 51449636.306298874 46741772.260523975 43596988.12220723 28172669.32777291 47245693.214915365 35325318.8641337 27668779.320697334 44003575.49411168 162617432.78402364 48436238.619517125 48583444.03223421 43791257.86767432 46633046.536919415 54037868.72826427 43180473.44091216 49039680.64120297 53336350.2846274 50902460.91503348 48365689.36762741 45768146.10578484 55482372.31345353 48914243.55558523 117129826.97656097 52345987.85583467 44755578.15566627 42539691.416727476 46740246.07199317 15795293.769287491 9391287.883704806 46141082.621073015 28074346.75964363 56793013.93529373 20224136.709471993 47163595.7093779 58213894.4779223 46523867.16911178 41658702.343668975 29043769.248134997 15438960.701611832 15419187.519284047 52192873.67929372 44005826.63589103 54154746.93881653 24698682.211233824 54896828.276674844 46372300.59166246 59291917.063099355 43003909.33046638 42879595.082953036 41069780.28545474 63396930.22221729 52689634.68717783 19008875.051093925 16054816.591123872 44595085.071671106 16013906.57993002 40409754.013551675 20933869.93478984 18463755.21449389 44404369.93818322 45501931.80132999 1747447.1780267 1720058.7567369232 43474018.968657926 43210961.48936915 45543320.23024575 20087329.465659417 56855753.264716566 101757382.35455304 46395110.72079725 51270320.98519388 52400094.51159898 18230504.49162166 44268094.36486181 74514078.01510574 8452389.505424786 46993682.630126536 38712119.68932376 47106692.218039624 34597679.83929344 47241636.101184346 56547523.47465416 40659987.79097967 46017157.024163485 46858606.03831333 9107630.851525214 53229330.37488863 38862256.73252171 20708904.50442097 23333202.824994795 36393021.71295828 43954715.53643106 44081136.40329557 60184317.84303386 44674906.018989705 53512171.55566657 70712108.43694721 46927756.34838724 23710157.23820785 51120292.751070365 47486485.50232735 56330675.708490685 44495232.32109964 20786756.47682508 69207909.92518437 41594985.54573664 21416245.407422088 43961284.08142972 5729118.290933655 5710085.608020487 21034590.55553072 46943471.210689366 55490417.9225004 6971755.188023807 7009768.837053733 13311055.029593207 17129205.341378827 45815933.51072157 36861374.37530811 45975419.547273256 48048566.95247207 13977655.577408731 50356496.85429639 44271686.41644496 51081859.418468885 44718538.56432989 35011389.10509172 45143182.63678489 31142929.345435698 47330911.87436796 44432609.99888846 43377631.772756815 46292637.7962952 57449116.58694086 15350178.497686118 47230614.783643365 46116248.59307235 29220491.842572816 43584245.88985108 39415879.10228441 106533550.81914 46795951.43597219 44706638.02632744 47820887.17799417 45993552.98653306 28298074.336885482 5747237.798275701 12109120.689995958 28183291.59980085 13666362.059687048 26606631.60479469 5725627.582636845 44539490.101650044 47460450.93973667 8812244.6070995 8771691.726095978 119972603.66572109 40083772.873185806 72393583.64258891 54832065.9330537 42897224.949756585 4725993.222429399 4728955.139171947 24663418.388686147 28919903.53732058 32334979.41164481 31526293.65748038 44342836.17012212 48551898.74005983 37871307.063391075 46730023.50273247 18514303.923325125 45185136.56277794 8792405.42998371 22863448.16522689 45237933.900773555 59506510.407778025 26431301.23841842 44246370.45108068 40191869.7434411 749071.893384943 47361748.19046665 37855292.423688665 50578900.75266307 46214550.265803255 43732990.37138653 11159908.492078552 11162372.820637016 62076735.24922194 21420958.923943754 68885760.7525301 70313889.47154856 51630970.160570264 44461867.217832215 34338093.38432195 52532766.90451744 26500550.856844198 11536494.688101705 51431483.67583075 21906131.58414756 50995914.228234865 41055757.24203398 51115955.78340749 22190238.507692516 52385004.72453095 29329836.46934865 29354965.264276337 19448361.71691249 7897214.966082546 35223803.882936105 53478300.06186079 48433339.21071983 21426438.626183223 60525395.921541475 19386465.689163517 23689161.099962685 1536236.3539928684 4707971.133681404 63507351.316885576 51207963.86246052 7510455.058509702 50203299.97828604 23940275.46738585 23911608.13276448 6810570.133644976 31196985.757420994 34976063.59266067 35023634.38518347 31638899.292699598 53007146.49254268 44035515.26048589 22849861.52443771 43194117.44290382 35454719.484539054 51234267.26539876 49470696.43618702 8959042.798411535 8895728.438656295 18336911.57665946 24918090.385605313 8964007.975597084 8890285.296465904