# vtk DataFile Version 2.0
Really cool data
ASCII
DATASET POLYDATA
POINTS 2232 float
0.065625 0.14 0
0.099375 0.14 0
0.105 0.12 0
0.099375 0.1 0
0.065625 0.1 0
0.08 0.085 0
0.1 0.085 0
0.12 0.105 0
0.1849999999999999 0.10703125 0
0.28 0.11 0
0.295 0.095 0
0.315 0.095 0
0.33 0.11 0
0.33 0.13 0
0.315 0.145 0
0.295 0.145 0
0.28 0.13 0
0.1849999999999999 0.13296875 0
0.12 0.135 0
0.1 0.155 0
0.08 0.155 0
0.32 0.12 0
0.305 0.135 0
0.29 0.12 0
0.305 0.105 0
0.06773437500881972 0.14 0
0.06984375000205406 0.14 0
0.07195312499393314 0.14 0
0.07406250000004236 0.14 0
0.07617187500005296 0.14 0
0.07828124999599778 0.14 0
0.08039062499566955 0.14 0
0.08250000000584456 0.14 0
0.08460937498620397 0.14 0
0.08671874998350404 0.14 0
0.0888281249648799 0.14 0
0.09093749994625577 0.14 0
0.09304687494626636 0.14 0
0.09515624995949065 0.14 0
0.09726562497881361 0.14 0
0.09993750000645325 0.1379999999770552 0
0.1005000000119831 0.1359999999573933 0
0.1010625000196837 0.1339999999300135 0
0.1016250000145517 0.1319999999482605 0
0.1021875000213853 0.1299999999239636 0
0.10275000001583 0.1279999999437157 0
0.1033125000205607 0.1259999999268953 0
0.1038750000192149 0.1239999999316805 0
0.104437500006432 0.1219999999771307 0
0.1044374999951352 0.1179999999827028 0
0.1038749999863589 0.1159999999514984 0
0.1033124999747795 0.1139999999103271 0
0.1027499999727838 0.1119999999032313 0
0.1021874999709059 0.1099999998965543 0
0.101624999972217 0.1079999999012159 0
0.1010624999680368 0.105999999886353 0
0.1004999999776939 0.1039999999206894 0
0.09993749998824233 0.1019999999581949 0
0.09726562499248259 0.1 0
0.09515624997412314 0.09999999999999998 0
0.09304687496321759 0.1 0
0.09093749996112119 0.1 0
0.08882812493598546 0.09999999999999999 0
0.08671874992372468 0.1 0
0.0846093749223059 0.1 0
0.08249999991478847 0.09999999999999999 0
0.0803906249286163 0.09999999999999999 0
0.07828124993871717 0.1 0
0.07617187493933128 0.09999999999999999 0
0.07406249993859013 0.1 0
0.0719531249466581 0.1 0
0.06984374996285761 0.1 0
0.06773437498922152 0.1 0
0.06706250001289711 0.09849999998654217 0
0.0685000000133428 0.09699999998607708 0
0.06993750002783088 0.09549999997095908 0
0.07137500002361508 0.0939999999753582 0
0.07281250001751066 0.092499999981728 0
0.0742500000171228 0.09099999998213275 0
0.07568750001356 0.08949999998585043 0
0.07712500000675039 0.08799999999295613 0
0.07856250000445138 0.08649999999535513 0
0.08200000000315096 0.085 0
0.08400000000745389 0.085 0
0.08599999998316096 0.085 0
0.08799999996401804 0.085 0
0.08999999995273554 0.08499999999999999 0
0.09199999995121087 0.08499999999999999 0
0.09399999993491398 0.08499999999999999 0
0.09599999993196628 0.08499999999999999 0
0.09799999995619146 0.08500000000000002 0
0.1015384615440715 0.08653846154407151 0
0.1030769230707984 0.08807692307079837 0
0.1046153846014542 0.08961538460145417 0
0.1061538461355046 0.09115384613550463 0
0.1076923076739466 0.09269230767394662 0
0.1092307692141739 0.09423076921417389 0
0.1107692307468821 0.09576923074688211 0
0.1123076922736742 0.09730769227367417 0
0.1138461537886207 0.09884615378862076 0
0.1153846153245868 0.1003846153245868 0
0.1169230768683846 0.1019230768683846 0
0.1184615384317815 0.1034615384317815 0
0.1221666666682225 0.1050677083333819 0
0.1243333333369366 0.1051354166667793 0
0.1265000000040562 0.1052031250001268 0
0.1286666666814812 0.1052708333337963 0
0.1308333333140446 0.1053385416660639 0
0.1329999999726141 0.1054062499991442 0
0.1351666666401568 0.1054739583325049 0
0.1373333332945467 0.1055416666654546 0
0.1394999999698329 0.1056093749990573 0
0.1416666666405056 0.1056770833325158 0
0.143833333281017 0.1057447916650318 0
0.1459999999598918 0.1058124999987466 0
0.1481666666337889 0.1058802083323059 0
0.1503333333216364 0.1059479166663012 0
0.1524999999927106 0.1060156249997722 0
0.1546666666555291 0.1060833333329853 0
0.1568333333214746 0.1061510416662961 0
0.158999999967339 0.1062187499989793 0
0.1611666666313629 0.1062864583322301 0
0.163333333278774 0.1063541666649617 0
0.1654999999187791 0.1064218749974618 0
0.1676666665876264 0.1064895833308633 0
0.1698333332481752 0.1065572916640055 0
0.1719999999019854 0.106624999996937 0
0.1741666665715005 0.1066927083303594 0
0.1763333332500076 0.1067604166640628 0
0.1784999999387337 0.1068281249980854 0
0.1806666666271161 0.1068958333320974 0
0.1828333333127391 0.1069635416660231 0
0.1871590908930736 0.1070987215904086 0
0.1893181818021256 0.1071661931813164 0
0.191477272700166 0.1072336647718802 0
0.1936363636182067 0.107301136363069 0
0.1957954545312932 0.1073686079541029 0
0.1979545454459874 0.1074360795451871 0
0.2001136363587739 0.1075035511362117 0
0.2022727272621838 0.1075710227269433 0
0.2044318181621305 0.1076384943175666 0
0.2065909090717572 0.1077059659084924 0
0.208749999958918 0.1077734374987162 0
0.2109090908703832 0.1078409090896995 0
0.213068181776376 0.1079083806805118 0
0.215227272685777 0.1079758522714305 0
0.2173863635958269 0.1080433238623696 0
0.2195454545073772 0.1081107954533555 0
0.2217045454294248 0.1081782670446695 0
0.223863636339363 0.1082457386356051 0
0.2260227272489988 0.1083132102265312 0
0.228181818160514 0.1083806818175161 0
0.2303409090875042 0.1084481534089845 0
0.2325000000052597 0.1085156250001644 0
0.234659090902737 0.1085830965907105 0
0.236818181813508 0.1086505681816721 0
0.2389772727244384 0.1087180397726387 0
0.2411363636346515 0.1087855113635829 0
0.2432954545371028 0.1088529829542845 0
0.2454545454246329 0.1089204545445198 0
0.2476136363213812 0.1089879261350432 0
0.2497727272138938 0.1090553977254342 0
0.2519318181089134 0.1091228693159036 0
0.2540909089904152 0.1091903409059505 0
0.2562499998901056 0.1092578124965658 0
0.2584090908050114 0.1093252840876566 0
0.2605681817047688 0.109392755678274 0
0.2627272726135497 0.1094602272691734 0
0.2648863635312589 0.1095276988603518 0
0.2670454544447627 0.1095951704513988 0
0.26920454534516 0.1096626420420363 0
0.271363636270729 0.1097301136334603 0
0.2735227272203026 0.1097975852256345 0
0.2756818181551134 0.1098650568173473 0
0.2778409090647967 0.1099325284082749 0
0.2815000000053745 0.1084999999946256 0
0.2829999999854226 0.1070000000145774 0
0.2844999999510034 0.1055000000489966 0
0.2859999999473654 0.1040000000526346 0
0.2874999999299716 0.1025000000700284 0
0.2889999999075633 0.1010000000924367 0
0.2904999998900509 0.09950000010994908 0
0.2919999999015493 0.09800000009845061 0
0.2934999999339102 0.09650000006608975 0
0.2969999999888869 0.09499999999999999 0
0.2989999999509398 0.09499999999999999 0
0.3009999998509222 0.095 0
0.3029999998570209 0.095 0
0.304999999834998 0.095 0
0.3069999997763834 0.095 0
0.3089999997820753 0.09499999999999999 0
0.3109999997982706 0.095 0
0.3129999998537684 0.09500000000000001 0
0.3164999999896195 0.0964999999896196 0
0.3179999999876418 0.0979999999876418 0
0.3194999999544932 0.09949999995449318 0
0.3209999999280954 0.1009999999280954 0
0.3224999999086687 0.1024999999086687 0
0.3239999999074617 0.1039999999074617 0
0.3254999998556276 0.1054999998556275 0
0.3269999998556995 0.1069999998556995 0
0.3284999999182233 0.1084999999182232 0
0.33 0.1120000000092327 0
0.33 0.114000000011418 0
0.33 0.116000000010283 0
0.3300000000000001 0.1180000000050822 0
0.33 0.1200000000058445 0
0.33 0.1219999999961714 0
0.3300000000000001 0.1239999999598676 0
0.33 0.1259999999371502 0
0.33 0.1279999999316105 0
0.3285000000000424 0.1314999999999577 0
0.3269999999852616 0.1330000000147384 0
0.3255000000065136 0.1344999999934863 0
0.3239999999714211 0.1360000000285789 0
0.3224999999562507 0.1375000000437493 0
0.320999999981433 0.139000000018567 0
0.3194999999689393 0.1405000000310607 0
0.3179999999718277 0.1420000000281723 0
0.316499999966449 0.143500000033551 0
0.3130000000024226 0.145 0
0.3109999999822801 0.145 0
0.3089999999004058 0.145 0
0.3069999998641698 0.145 0
0.304999999832711 0.145 0
0.3029999998062666 0.145 0
0.3009999997901222 0.145 0
0.2989999998023702 0.145 0
0.2969999999079275 0.145 0
0.2935000000021515 0.1435000000021515 0
0.2919999999638825 0.1419999999638825 0
0.2904999999183969 0.1404999999183969 0
0.288999999888937 0.138999999888937 0
0.287499999892681 0.1374999998926809 0
0.2859999999005244 0.1359999999005244 0
0.2844999998693198 0.1344999998693198 0
0.2829999998882086 0.1329999998882086 0
0.2814999999457052 0.1314999999457052 0
0.2778409090667482 0.1300674715916641 0
0.2756818181547314 0.1301349431826646 0
0.2735227272275098 0.1302024147741403 0
0.2713636363001987 0.1302698863656188 0
0.2692045453720377 0.1303373579571238 0
0.2670454544500072 0.1304048295484373 0
0.2648863635170122 0.1304723011400934 0
0.2627272725983786 0.1305397727313007 0
0.2605681816881735 0.1306072443222446 0
0.2584090907635002 0.1306747159136406 0
0.2562499998214266 0.1307421875055804 0
0.2540909088840544 0.1308096590973733 0
0.2519318179684614 0.1308771306884856 0
0.2497727270782118 0.1309446022788059 0
0.2476136361661084 0.1310120738698091 0
0.2454545452542267 0.1310795454608054 0
0.2432954543341854 0.1311470170520567 0
0.2411363634195992 0.1312144886431375 0
0.2389772724997386 0.1312819602343832 0
0.2368181815834744 0.1313494318255164 0
0.2346590906712883 0.1314169034165223 0
0.2324999997502527 0.1314843750078046 0
0.2303409088459517 0.131551846598564 0
0.2281818179438135 0.1316193181892558 0
0.2260227270493727 0.1316867897797071 0
0.2238636361452709 0.1317542613704603 0
0.2217045452432536 0.1318217329611483 0
0.2195454543486293 0.1318892045516053 0
0.2173863634319631 0.1319566761427511 0
0.2152272725238697 0.1320241477336291 0
0.2130681816059222 0.1320916193248149 0
0.2109090906977595 0.132159090915695 0
0.208749999784733 0.1322265625067271 0
0.2065909088903817 0.1322940340971756 0
0.2044318180176934 0.1323615056869471 0
0.2022727271223141 0.1324289772774277 0
0.2001136362212114 0.1324964488680871 0
0.1979545453303449 0.1325639204584267 0
0.1957954544424632 0.132631392048673 0
0.1936363635538681 0.1326988636389416 0
0.1914772726499719 0.1327663352296884 0
0.1893181817674281 0.1328338068197679 0
0.1871590908777728 0.1329012784100696 0
0.1828333333197326 0.1330364583337584 0
0.1806666666588533 0.1331041666669108 0
0.1784999999806451 0.1331718750006049 0
0.176333333325314 0.1332395833335839 0
0.1741666666524256 0.1333072916671117 0
0.1719999999714214 0.1333750000008931 0
0.1698333332770125 0.1334427083350933 0
0.1676666665926179 0.1335104166689807 0
0.1654999999323584 0.1335781250021138 0
0.1633333332804841 0.1336458333349849 0
0.1611666666187107 0.1337135416681653 0
0.1589999999417365 0.1337812500018207 0
0.1568333332535275 0.1338489583358272 0
0.1546666665804924 0.1339166666693596 0
0.1524999999043363 0.1339843750029895 0
0.1503333332400059 0.1340520833362498 0
0.148166666592718 0.1341197916689776 0
0.145999999925337 0.1341875000023332 0
0.143833333259243 0.1342552083356487 0
0.1416666665788727 0.1343229166694102 0
0.1394999999022081 0.134390625003056 0
0.1373333332440338 0.134458333336124 0
0.1351666665820143 0.134526041669312 0
0.1329999999399998 0.134593750001875 0
0.130833333280463 0.1346614583349856 0
0.1286666666306296 0.1347291666677928 0
0.1264999999629256 0.1347968750011586 0
0.124333333305479 0.1348645833342038 0
0.1221666666612996 0.1349322916668344 0
0.1184615384595186 0.1365384615404814 0
0.1169230769061363 0.1380769230938637 0
0.1153846153621364 0.1396153846378636 0
0.1138461538141099 0.1411538461858901 0
0.1123076922739543 0.1426923077260457 0
0.1107692307406402 0.1442307692593599 0
0.109230769203182 0.145769230796818 0
0.1076923076534224 0.1473076923465776 0
0.1061538461196391 0.1488461538803609 0
0.1046153845977794 0.1503846154022206 0
0.1030769230735349 0.151923076926465 0
0.1015384615365199 0.1534615384634802 0
0.09799999999525662 0.155 0
0.0959999999804166 0.155 0
0.09399999998244947 0.155 0
0.09199999997540216 0.155 0
0.08999999997763833 0.155 0
0.0879999999619174 0.155 0
0.08599999994402806 0.155 0
0.08399999994457016 0.155 0
0.08199999996401805 0.155 0
0.07856249999896403 0.153499999998919 0
0.07712499998300557 0.1519999999822667 0
0.07568749995070147 0.1504999999485581 0
0.0742499999253974 0.1489999999221538 0
0.07281249993542989 0.1474999999326225 0
0.07137499994361259 0.1459999999411609 0
0.06993749993862594 0.1444999999359575 0
0.06849999993599548 0.1429999999332127 0
0.06706249996285524 0.1414999999612402 0
0.3198473216292297 0.122134722567035 0
0.3193923946068828 0.124225988343544 0
0.3186444799285026 0.1262312251990029 0
0.3176188029834471 0.1281096122758703 0
0.3163362436085249 0.1298229110170142 0
0.3148229110027077 0.1313362436209215 0
0.3131096122485859 0.1326188030009817 0
0.3112312251441051 0.1336444799535736 0
0.3092259883166732 0.1343923946147728 0
0.307134722565326 0.1348473216294754 0
0.3028652774366347 0.1348473216297573 0
0.3007740116796483 0.1343923946136927 0
0.298768774820623 0.1336444799374655 0
0.2968903877134655 0.1326188029765937 0
0.2951770889634484 0.1313362435915956 0
0.293663756362382 0.129822910983439 0
0.2923811969952001 0.1281096122426447 0
0.2913555200594798 0.1262312251726883 0
0.2906076053878821 0.1242259883257148 0
0.2901526783702834 0.1221347225636485 0
0.2901526783705479 0.1178652774345119 0
0.2906076053922365 0.1157740116594551 0
0.2913555200665677 0.1137687748117914 0
0.2923811970095883 0.1118903877349668 0
0.2936637563925353 0.1101770889817623 0
0.2951770889882518 0.1086637563869121 0
0.296890387746834 0.1073811970019617 0
0.2987687748495377 0.1063555200493296 0
0.300774011671852 0.1056076053885965 0
0.3028652774284714 0.1051526783714164 0
0.3071347225709618 0.1051526783713349 0
0.3092259883604691 0.1056076053980868 0
0.3112312252339432 0.1063555200874541 0
0.3131096122891014 0.107381197025056 0
0.3148229110495219 0.1086637564196432 0
0.3163362436429237 0.1101770890226841 0
0.3176188030080819 0.1118903877624623 0
0.3186444799432703 0.1137687748333339 0
0.3193923946043726 0.115774011647907 0
0.3198473216288105 0.1178652774300495 0
0.1646177487901116 0.1199997228152068 0
0.2443700960138338 0.1228646619909082 0
0.1043382884340366 0.1440409353482762 0
0.1103408496183729 0.1008452827492116 0
0.2734182091622024 0.1145422473472216 0
0.2635827157077507 0.1197763207511392 0
0.1786812614761128 0.1134437204849398 0
0.1671718214615362 0.1233304599149 0
0.2179632202421473 0.1197938653274171 0
0.1501792362798627 0.1270041505514134 0
0.2552010562963816 0.12272546144998 0
0.2529724905050408 0.1146011321375952 0
0.1643973450759858 0.1134507686701384 0
0.2422145800645485 0.1200515714080586 0
0.211521471620195 0.1219164009440258 0
0.1194170797302695 0.12034304288396 0
0.1712966127427445 0.1147041197149562 0
0.205320219174948 0.1262111529611605 0
0.1355772255889459 0.1198743533059108 0
0.1125 0.1202200550190908 0
0.2342166802634264 0.112502865944466 0
0.1921589243696648 0.1200000000021243 0
0.2014406397463591 0.112014366272299 0
0.2051160490880624 0.1200035013160657 0
0.1849689393164515 0.1244913178325671 0
0.2053202193377044 0.1137888470486679 0
0.2243333244896095 0.1160968643252484 0
0.1273246701940456 0.1147550171354836 0
0.1278985595532149 0.1252667981730959 0
0.2839428073681106 0.1155860389156911 0
0.1182563693128265 0.1314449868329329 0
0.1270456672578568 0.1218236457834755 0
0.08643502548411748 0.08886101784761066 0
0.1713014210693375 0.1252953301178125 0
0.1131699695520329 0.1276933116727041 0
0.08881750085273474 0.1525141791789496 0
0.263717984354799 0.1254179573036507 0
0.2476829372916466 0.1241689619232769 0
0.2244416914549424 0.1240818524812952 0
0.2562982559764296 0.1129348020595975 0
0.07932725007948545 0.1458287459211776 0
0.1954221010314919 0.1278999841088205 0
0.08118156542982977 0.09015962445703501 0
0.1777789542642578 0.1200000000004923 0
0.132944497520033 0.1166736168616382 0
0.1016311043395794 0.1005198425241094 0
0.1514791477109628 0.1202099055623537 0
0.1982182109566204 0.1218949469705883 0
0.1211004870797735 0.1275487061091066 0
0.1548887132502979 0.1137959957945757 0
0.1304623099849499 0.1103783619399081 0
0.09182782985392587 0.1470883229242506 0
0.2264416778076229 0.1205408016636214 0
0.2122228352352328 0.1134449970257207 0
0.1129317631379339 0.1297514974386817 0
0.1054108256320389 0.1320750501649749 0
0.1568370146021467 0.1179222067694745 0
0.2980743805519086 0.1392920983211971 0
0.2154537674152101 0.1169912926593553 0
0.1985639353352676 0.1146221160575838 0
0.2366814625632886 0.124346869541646 0
0.2301560818689301 0.1142580035526058 0
0.2780302013200003 0.1156612965011494 0
0.09496568920453356 0.09257132357663789 0
0.1697286169502311 0.1198295800708566 0
0.2117342082241324 0.124565804341956 0
0.09496568921310804 0.1474286764348082 0
0.1824500382434923 0.1205838935957434 0
0.2267311761312909 0.1275891253555529 0
0.1983412254496272 0.1247280511622528 0
0.1981854016458097 0.1182849824545872 0
0.2676739670938146 0.1199999999998564 0
0.2116266066498148 0.1158207218449334 0
0.3162476927370105 0.10339428868856 0
0.2138032540112035 0.1207270910380774 0
0.3120645281139137 0.1392363546298179 0
0.2668494509139722 0.113651534962481 0
0.3009087966564406 0.09829178476879145 0
0.2421319251794416 0.1256335438882875 0
0.218455588150941 0.114051121188748 0
0.3256494686744463 0.1169786938608699 0
0.2814645089680755 0.1260697378237295 0
0.3080213059662686 0.09935053132099853 0
0.09020683129813672 0.09046672120956258 0
0.09152300160047222 0.1525491266784777 0
0.1606785901118177 0.1287214846475753 0
0.1872694885307117 0.1200480784821663 0
0.1578748025162058 0.1253721011268499 0
0.1786812614763306 0.1265562795143037 0
0.23665820649848 0.1157045854627905 0
0.2301560818882597 0.1257419964366029 0
0.1250459379647692 0.1190112471893433 0
0.106128584093217 0.1239528518682211 0
0.09020683128869457 0.1495332787804268 0
0.09182782981079518 0.09291167711112304 0
0.2329993899068324 0.1167100103152982 0
0.1143542827079651 0.132990204870758 0
0.1460278483658461 0.1131733927345483 0
0.3242363546347457 0.1129354718900509 0
0.287438850015431 0.1172741788827744 0
0.3080213060304396 0.1406494686366811 0
0.3120645279478342 0.1007636453150087 0
0.3216057112032298 0.108752307153257 0
0.2840607742077386 0.1097083758814066 0
0.2888742043128829 0.1315444348681355 0
0.1821680249826528 0.114947815712126 0
0.1434966291955307 0.1251953992542003 0
0.1433878580073097 0.1148864270375604 0
0.1067322783455533 0.1138555382485627 0
0.3242920983840012 0.1269256192497596 0
0.1348975045495675 0.1274153014362617 0
0.1072889736198339 0.137414152629756 0
0.1059486488174533 0.0999062135236836 0
0.3285886539249607 0.1169775369099122 0
0.184968939317471 0.1155086821683415 0
0.2307708324116081 0.1200969342510704 0
0.1093716093297818 0.1235956290112463 0
0.3038509356482076 0.1399392325553237 0
0.2101719516119529 0.1178568680898021 0
0.1923236036872607 0.1175386763421081 0
0.2867368932728102 0.1233984440294896 0
0.1715501866558808 0.1099100425466761 0
0.1072707453598576 0.1221090441414804 0
0.1821892940235162 0.1184087589542203 0
0.2183220268574921 0.1259638576224879 0
0.3038509356316814 0.1000607674332551 0
0.161759060265588 0.123322645541186 0
0.319891337255807 0.1049939834125385 0
0.2774667001043659 0.1244400990929842 0
0.1591485700848533 0.1199999999990028 0
0.3249392325482885 0.1211490642145004 0
0.08499999994429915 0.1475282470713856 0
0.08499999999530745 0.09247175293239837 0
0.2688407576608071 0.1163713350269819 0
0.1348975045530087 0.112584698565197 0
0.1131247968731742 0.1124338472768439 0
0.274284501469631 0.1199999999999797 0
0.2584014214936794 0.1158575000041598 0
0.1303756345750807 0.1200552562534639 0
0.1251056351033711 0.1101432856675773 0
0.07932725010400374 0.09417125407108097 0
0.258355093610943 0.12395507678167 0
0.157782977723048 0.1147354413962063 0
0.1386242234644881 0.1159322819825605 0
0.1499712627533782 0.113003822312435 0
0.1546413518779158 0.1290202792539764 0
0.1070383137032875 0.117417811298766 0
0.2946451610074255 0.1398775085529667 0
0.2900733370982614 0.1067437756356996 0
0.1427168061171452 0.1280071813251772 0
0.2906395137564184 0.103659264870164 0
0.09203581854544977 0.1491077661852054 0
0.2689694917160104 0.123804980508558 0
0.1091779340961594 0.1346799085812464 0
0.2572904606590874 0.1199999999993752 0
0.1130049041232734 0.1365687038916317 0
0.2142235044623191 0.1124084909890048 0
0.2220097527877529 0.127550017276532 0
0.3248775087166829 0.130354838806744 0
0.194195435891484 0.1187872612618703 0
0.0811815653867265 0.1498403755293581 0
0.1415781875792999 0.1202192170301548 0
0.1206560466294458 0.1127527192943257 0
0.1094257756096939 0.1160205948421058 0
0.2358866079029763 0.1262246440471915 0
0.2531099751775148 0.119999999996836 0
0.2279608522448554 0.1171063228968002 0
0.08914735290334669 0.09491235406856166 0
0.2853889126778359 0.1271565209497414 0
0.1250867711554534 0.1298251503555115 0
0.2476138344537319 0.1157939916960413 0
0.1172190136410827 0.133368587538522 0
0.1715501866634835 0.1300899574525522 0
0.2980743806603338 0.1007079016436813 0
0.1164683313298166 0.1165427997764781 0
0.1047612699520583 0.1125333537470447 0
0.2820683006109183 0.1221845169172563 0
0.1329611761482851 0.1233916655451223 0
0.2210613183627324 0.1232834517659871 0
0.09301570510901937 0.08864440032416229 0
0.200170035143026 0.1197655588616153 0
0.2151802522138183 0.1242350355100685 0
0.1674271353743036 0.1257723229481492 0
0.1911253757893434 0.126346180052501 0
0.3013195325138628 0.1380022980916827 0
0.09845957495850188 0.08913714700065889 0
0.1091779340343014 0.1053200913111718 0
0.2198051483012858 0.1187283219776328 0
0.2025130967811605 0.1234015901299678 0
0.2785890719667378 0.1197526412158217 0
0.08914735286332347 0.1450876459430026 0
0.1142272822311235 0.1069264347977541 0
0.2636358474101555 0.1144341377317001 0
0.09298779042198406 0.1440347951683195 0
0.1059486488663269 0.1400937863863086 0
0.110340849680851 0.1391547171587841 0
0.103492171948642 0.1335340981764631 0
0.1669652624007737 0.1163038148905426 0
0.286658664921338 0.111025169489842 0
0.2143101661600242 0.1277761383460372 0
0.1947296901730554 0.1303827320745638 0
0.1534318040579799 0.1163250230416459 0
0.1256988697793313 0.107608811861907 0
0.1080032031350943 0.1106849654162168 0
0.104875330354738 0.1043626588221944 0
0.2872084395467112 0.1145843084390023 0
0.2074202773869017 0.1230493085831995 0
0.1744775307049111 0.1114596773506046 0
0.1164233725644773 0.1237436327784608 0
0.10071025655615 0.09404917544222001 0
0.2386768633498019 0.112384474458717 0
0.1007102565878503 0.1459508245366612 0
0.108142383502214 0.129609620043819 0
0.1179850341211865 0.1183695641747315 0
0.09845957497199123 0.1508628530073941 0
0.1043382883960466 0.09595906458710801 0
0.3060413150253544 0.1378650970708628 0
0.1237389046380382 0.1154889840510768 0
0.1077826442762332 0.09738610424983991 0
0.1536670280947918 0.1239477364217303 0
0.2306596024042753 0.1285759219606472 0
0.1400831537226954 0.1290702819998895 0
0.209841373084135 0.1200000000086469 0
0.1550635834977053 0.1199250475103376 0
0.0835678057115229 0.1518535988072524 0
0.1964174908451711 0.1200000000037811 0
0.1173372860912743 0.127347082709215 0
0.1053358613376054 0.1020139384119079 0
0.1234848792345879 0.1236335633468252 0
0.1546413518733425 0.1109797207486235 0
0.1640452937341377 0.1268726099963709 0
0.2551651365028477 0.1172232663901926 0
0.1618643790055374 0.116784647686772 0
0.3009087965956886 0.1417082151829542 0
0.1605344855840313 0.1107197205153074 0
0.1744775307100266 0.1285403226444866 0
0.2508644054489571 0.1173437362494821 0
0.07259185121168737 0.09690338572068272 0
0.08356780573559355 0.0881464011715012 0
0.112692525901414 0.1166901568558695 0
0.2487885068601845 0.1200864365810839 0
0.1048753303974204 0.1356373410677031 0
0.2423312353583251 0.1145548087724961 0
0.1012075318573978 0.0908562522166933 0
0.1752947099159643 0.1237237564605944 0
0.1944371194071638 0.1164019442109915 0
0.1390822795448805 0.118590286239334 0
0.1954221010460839 0.1121000158936785 0
0.1911253757929026 0.1136538199488261 0
0.2086337689926466 0.1282628906512439 0
0.2614188967356991 0.1226784513684108 0
0.2606799976101519 0.1188796376438399 0
0.1333554240498657 0.1144268111826612 0
0.08292229875474873 0.09611542842478989 0
0.08195655954829727 0.09285282469221949 0
0.121739693995982 0.1313442077476182 0
0.1218083873537253 0.1088474922063564 0
0.2571372850412901 0.1221325618087863 0
0.2617236838540502 0.1286817056618564 0
0.1364381365289834 0.1307440423858387 0
0.2831003764183177 0.1119996964692183 0
0.2703372934974586 0.1130544923162271 0
0.1400831537264065 0.110929717998612 0
0.316424236346231 0.1062693765318841 0
0.1333696388369943 0.1087041836605471 0
0.2870050002649776 0.1077612628056492 0
0.1223622037330171 0.1180769144443738 0
0.2856213940756518 0.1307863907408945 0
0.2226381825923422 0.1200000000053091 0
0.1428218281300047 0.109058879449933 0
0.1773872582317035 0.1245240680373603 0
0.1110237085497472 0.1314205353498169 0
0.3216057112418251 0.1312476928177572 0
0.09301570510163289 0.1513555996803611 0
0.2366023913459889 0.1115639099705266 0
0.2220097528892034 0.1124499827349662 0
0.27514834441451 0.1250803878960899 0
0.1034921719009424 0.1064659016854515 0
0.1311794030049489 0.1137326002751692 0
0.3186132528277132 0.1081416758126017 0
0.09872563352665724 0.1454809239964705 0
0.3186132528594504 0.1318583241652409 0
0.086435025484012 0.1511389821467138 0
0.2207073607008928 0.1169563526839415 0
0.1304623099806849 0.1296216380599046 0
0.1944371194045218 0.1235980557929325 0
0.2799025367023135 0.1133050948653726 0
0.3153548388563256 0.1398775086655222 0
0.1811764886323739 0.1162499960162407 0
0.2530746316508048 0.1254404134279245 0
0.249564100872745 0.1274142424017047 0
0.1814232556895949 0.124112909190126 0
0.1279775480982434 0.1082956026814333 0
0.3267082152224282 0.1240912032127006 0
0.1668470877235621 0.1089462512720097 0
0.3013195325548247 0.101997701898857 0
0.2637291310372019 0.1280200522798851 0
0.2969545214531741 0.1421245389383171 0
0.2914766479682154 0.1381666729254406 0
0.2969463278299306 0.1036535443772661 0
0.2657994068655626 0.1227612938531693 0
0.1674436319357508 0.1140519306600769 0
0.3248775086828769 0.1096451611373738 0
0.2937523071180485 0.1033942888213729 0
0.1807750666588103 0.1101049969397555 0
0.2946451611043706 0.1001224913530363 0
0.1827559757033801 0.109211797277148 0
0.1171654651062985 0.1128260188487984 0
0.1121635138252214 0.1145488578149588 0
0.2198676242959992 0.1109763368814149 0
0.3162476928647674 0.1366057112037121 0
0.313032542402112 0.1363226461976942 0
0.1466543157001805 0.119323326970035 0
0.1535774362506686 0.1083788329583755 0
0.293602887522293 0.1365284888431457 0
0.1663904280760019 0.1213564409211527 0
0.2755186276472744 0.127054497662854 0
0.297077615132202 0.1363096670759087 0
0.1054108255785612 0.1079249497176965 0
0.2344321627453972 0.1203083091167195 0
0.1459134462156601 0.1292866552619452 0
0.1738275594023123 0.1198206327246375 0
0.1110942605913051 0.108692275426029 0
0.1140518760020269 0.118627018370318 0
0.1804756223352839 0.1302156287128109 0
0.2884968920107356 0.1284163629317193 0
0.1459427288007597 0.110862502137344 0
0.09152300159938281 0.08745087332182226 0
0.1428218281351604 0.1309411205434632 0
0.1358808068919719 0.1170418720522739 0
0.1429123356112663 0.112006516204457 0
0.1387580205423746 0.1237736576274543 0
0.137596908340271 0.11283431913138 0
0.1721442708569215 0.1180904923841766 0
0.08292229872104324 0.1438845715756047 0
0.1364381365271227 0.1092559576081276 0
0.1750417103443213 0.1089815140957274 0
0.1248436095569855 0.1265030358685429 0
0.1776056297870104 0.1101629109062982 0
0.2387829720825247 0.1274682947065366 0
0.2029040042373158 0.1167808906803256 0
0.205013488954214 0.1229492072052935 0
0.2075420924929345 0.1207451772126477 0
0.2604720344878593 0.1160313940502197 0
0.07822151422387155 0.09698105192660196 0
0.189660038057557 0.1203297333000994 0
0.2719542389847732 0.1222061984066314 0
0.101207531859156 0.1491437477756963 0
0.1685136555426281 0.1110355604826316 0
0.1892873075144404 0.1103996450035038 0
0.1433878580083901 0.1178633882602101 0
0.189287307508674 0.1296003549982815 0
0.1685136555394608 0.128964439517539 0
0.2786549198541287 0.1272140345545162 0
0.1983162847084081 0.1107110572909679 0
0.1035270689848352 0.1313274734530864 0
0.15748372542551 0.130641847389212 0
0.08615578262522411 0.09675611891369759 0
0.09983427170136154 0.0970345066938554 0
0.3275669832706783 0.1220141075405869 0
0.08065306921241079 0.1426499109014163 0
0.09899999997809608 0.08716729044112234 0
0.2390157527957359 0.1149854705470174 0
0.1032216637618459 0.1016187885434032 0
0.1834447747784405 0.1282781797598538 0
0.192535618954832 0.1295723778634346 0
0.07542999973181815 0.09582993826316222 0
0.1876123687147691 0.1113138905688525 0
0.1830645940476244 0.1115216116465797 0
0.1100343468086805 0.1419373364684211 0
0.1925219734098262 0.1223932648466749 0
0.08615578257701637 0.143243881057687 0
0.1474629568350251 0.1233585362520174 0
0.3277105983388182 0.1261257244163578 0
0.217968026910324 0.1232151643279408 0
0.3056447735228253 0.1422710452500287 0
0.2377732225452344 0.1202141859873542 0
0.2969545215612455 0.09787546103866966 0
0.2400324498243473 0.1227692058533603 0
0.2856793930105003 0.1198562586981826 0
0.2994776335686329 0.1364768267111618 0
0.3153548387096624 0.1001224911988164 0
0.1226793839141962 0.1208271969824379 0
0.2617236838662497 0.1113182943393447 0
0.319579334572472 0.1105490232131251 0
0.131229526396981 0.1262900889921166 0
0.1876123687114174 0.1286861094339641 0
0.2897439152017708 0.1099763524095256 0
0.0980611785633188 0.09257869866265868 0
0.265579951792238 0.1248462157845048 0
0.272893029243896 0.1258767125955903 0
0.2793692860717608 0.1172160451126216 0
0.2026793997719181 0.1192073381677982 0
0.2614039189838317 0.1205637816697074 0
0.2455216884668349 0.1251227468679817 0
0.2657994068712555 0.1172387061481675 0
0.3092193109983797 0.1023402776460147 0
0.1182370217231728 0.1252763683696003 0
0.3092193111415084 0.1376597223256384 0
0.1410348083382834 0.1075313393578173 0
0.2509525835827255 0.1226839192680974 0
0.2752517705799381 0.1170488400620823 0
0.2303290234854892 0.1226514295648376 0
0.3080224629904343 0.1435886539080369 0
0.1983162846391735 0.1292889427488089 0
0.3272710452734258 0.1193552263663511 0
0.2013752361721039 0.1280743790322477 0
0.1782530050541427 0.1169260182330582 0
0.1515262602268773 0.114882382439217 0
0.2889616120342139 0.1125474353520473 0
0.2045712775757549 0.1107588959626764 0
0.1512836773869632 0.1305056538918231 0
0.1130049040481534 0.1034312960296757 0
0.175760720712579 0.1136926181846729 0
0.1572602866807469 0.1119556643377731 0
0.1753070732963329 0.1162918266629713 0
0.1088995693537615 0.1195734002477486 0
0.3213226462044401 0.1119674576108481 0
0.1501127361769135 0.1167472785516705 0
0.07259185118306315 0.1430966142774602 0
0.1299279048452404 0.1231500668122272 0
0.07542999972076227 0.1441700617164977 0
0.07822151421236138 0.1430189480664936 0
0.1484399881890321 0.1309619441330942 0
0.2045712774492178 0.1292411040367433 0
0.2456339941304462 0.1200697043461219 0
0.2659667365093418 0.1283805574772174 0
0.1482377788651205 0.1088851493040149 0
0.2037866613076921 0.1214045949560111 0
0.2495169665953267 0.1127856561237343 0
0.1151048622448781 0.1100056287738215 0
0.1182349347776157 0.1085790910777803 0
0.3056447734621436 0.097728954729301 0
0.1514635148559431 0.1247205778411549 0
0.1757586959889682 0.1263128131443234 0
0.1606732309862938 0.1261238442561589 0
0.3105602186510897 0.1420084234602114 0
0.3188777867225047 0.1027011782248695 0
0.3198913373576201 0.1350060165246104 0
0.2225312120238858 0.1300079884490798 0
0.1672843751737641 0.119135212287221 0
0.2118458916605866 0.1106063384921679 0
0.3038070996291666 0.1369098039913599 0
0.1077826443231353 0.1426138956879844 0
0.2086337691259484 0.1117371093537398 0
0.2138726662529129 0.1101990682583476 0
0.09572362267757398 0.09059039310504406 0
0.1101544882256916 0.1271275196712586 0
0.1893761626290602 0.1122309123136614 0
0.0969282898234384 0.1438598067396329 0
0.09092633156448603 0.09708255557033232 0
0.2583692743904235 0.1117926640059503 0
0.3219098039744664 0.1211929003189803 0
0.1848046830781762 0.1267977684430113 0
0.09298779046252949 0.09596520485546448 0
0.09692828987384523 0.09614019324390888 0
0.1991360879069301 0.1270347075483701 0
0.09983427164833701 0.14296549331551 0
0.0949812719015979 0.1451140071621403 0
0.2390287915747258 0.1247029753746029 0
0.2791493090820427 0.1226112126513335 0
0.1530200680566461 0.1265034094316667 0
0.2923439324846583 0.1343149667194359 0
0.1358808068907487 0.1229581279530342 0
0.2339725992865682 0.1274345725699636 0
0.2335196368513207 0.1104664360811272 0
0.1482702583891123 0.1286067053626717 0
0.2603542439171969 0.1129610728391577 0
0.2265681234075228 0.1123433382740972 0
0.3138755382624738 0.1383252267360129 0
0.2988742753476807 0.142710598314442 0
0.1668470877277228 0.1310537487304545 0
0.08017474569478894 0.092086229045795 0
0.3219793362834428 0.13568907989418 0
0.3222128284532169 0.1061441717222561 0
0.2604250861852463 0.1248368003082868 0
0.2184911350907688 0.1173831399600025 0
0.207785406312869 0.1168276440551128 0
0.1783985271997713 0.1231215861673081 0
0.2551437367264159 0.1250415685186923 0
0.320465806542819 0.132726284141516 0
0.1072889735712765 0.1025858472666723 0
0.1103703702104549 0.1219120372893054 0
0.0782870278201926 0.0912281368005562 0
0.1390080231976501 0.108305027776929 0
0.2330136152459261 0.1232498638933313 0
0.2421325393997925 0.1114870771136568 0
0.2157887709319911 0.1192967739689544 0
0.232385775979553 0.1253981474912677 0
0.1199214680909693 0.1162099940309793 0
0.0752076876517745 0.141947345187409 0
0.2027421070378186 0.1140652743441628 0
0.2771726939901886 0.1213247783501702 0
0.14686617554506 0.1152786813226856 0
0.1694481787953551 0.1269796686257373 0
0.1897129611024784 0.1225852521611788 0
0.1896600380584613 0.1171497197670298 0
0.1105816909317978 0.1179423759445326 0
0.3059871518671556 0.0998522781612982 0
0.08789868771113446 0.1477579352959315 0
0.2455381919101121 0.112708058047283 0
0.1119514963262467 0.1258687173914775 0
0.2550330451947685 0.1111577971594752 0
0.2457541644596952 0.12757461537623 0
0.1152232027299034 0.1300364517540444 0
0.2443959149456583 0.1169539348022931 0
0.2138138616705443 0.1165816218813842 0
0.1360414952657587 0.1252813838106359 0
0.11273464600518 0.1389932672622602 0
0.290096483922198 0.1351782723450798 0
0.2637291310519199 0.1119799477202422 0
0.2001667339449534 0.1230147499799427 0
0.08881750086122077 0.08748582080777441 0
0.240293851479055 0.1293052365705274 0
0.2947130985544569 0.1342660725614278 0
0.1937951138621304 0.1259898041073012 0
0.1229019234876984 0.1292610473097293 0
0.2718545662693966 0.1163833158994484 0
0.08438902382738458 0.1455385311745022 0
0.2659803498593202 0.1116505684270042 0
0.2723098359231589 0.1281067572399401 0
0.2682814294507989 0.1283325233480664 0
0.2819125135154981 0.1142417451775641 0
0.24762422505576 0.1285064210720374 0
0.1483841195740281 0.1201559827734167 0
0.2584036575335075 0.1261329197076643 0
0.1118666086175294 0.1339715040398985 0
0.2562982559693528 0.1270651979401047 0
0.1278985595541331 0.1178232955274652 0
0.2814069127188843 0.1240870190167874 0
0.1922642591522704 0.1246095305803923 0
0.112746209609458 0.1238236618688738 0
0.1759970139678281 0.1187245234018554 0
0.1513440870783102 0.1095116193175096 0
0.1413409947969161 0.1160242640669329 0
0.2529762449724181 0.1286994346988186 0
0.1505544250351906 0.1229891124323872 0
0.1528611106367994 0.1187625829869522 0
0.3230022981112068 0.1236804673531051 0
0.2529762450651822 0.1113005652992276 0
0.08728396875524025 0.08692676253742897 0
0.2668026774354198 0.1263759473213797 0
0.1491860901671569 0.1149675613591894 0
0.2308901912314747 0.1113089659730406 0
0.110127529489715 0.1129583698010527 0
0.2881738271007195 0.1252990409453053 0
0.2583673417426051 0.1282353158561646 0
0.260203452915636 0.127245994310723 0
0.2326820748714137 0.1189721007177784 0
0.08728396874402262 0.15307323745737 0
0.2910398344027216 0.1303743878829737 0
0.1026439775020195 0.09865758944167283 0
0.2932234072203168 0.1063576733439836 0
0.1032216637900237 0.138381211360836 0
0.1026439775446915 0.1413424104764929 0
0.1047223558933723 0.1419136817714847 0
0.1570381685622571 0.1223041357010262 0
0.2364557927298549 0.1181412358893797 0
0.1540626258657077 0.1315931720756872 0
0.08600968348363039 0.1453727224944663 0
0.1158258502695294 0.1201221937958412 0
0.1260494748211896 0.1131131075686698 0
0.2819915165754226 0.1189104281393862 0
0.1026544248032466 0.1357278596854163 0
0.2421325391903602 0.1285129228785558 0
0.291609778606583 0.1085981964829899 0
0.1035768945034388 0.09289963239213787 0
0.1198357725896126 0.1239529068127861 0
0.2440288538158806 0.1107779280545445 0
0.20121481101415 0.1304225839560428 0
0.07952826648625638 0.08859917978610607 0
0.2400182240541386 0.1172889909462086 0
0.2012241544852338 0.1095900939538808 0
0.2476021911587718 0.1115388558705291 0
0.085007332594158 0.08705775019637638 0
0.164345180197754 0.1097997626134011 0
0.1628431842510694 0.1286372843342543 0
0.2886344625573521 0.1233768444552222 0
0.1643451802030119 0.1302002373888797 0
0.2763748238216989 0.1190510263514509 0
0.1662568254741408 0.1110325148230754 0
0.09498127191851136 0.09488599285583364 0
0.08438902386882309 0.09446146883204821 0
0.1100343467738253 0.09806266349138698 0
0.1080719569504152 0.107978548238466 0
0.08065306922738819 0.09735008909979997 0
0.2285782409866406 0.1291189203584203 0
0.1694498485445748 0.1129951461523197 0
0.2709792342817421 0.1190023403996766 0
0.1866069175247698 0.1229659981014031 0
0.3226597223435507 0.1157806888550643 0
0.306041314938985 0.102134902951531 0
0.2123694985939032 0.1183770155312077 0
0.3228650970210031 0.1189586849278039 0
0.1449783969728368 0.1082442907706306 0
0.1172145678203687 0.106635698121281 0
0.1776056297906661 0.1298370890983968 0
0.1232337809624076 0.1329794059854245 0
0.2747892126013155 0.1230170492607585 0
0.3240146631226451 0.1073714384535036 0
0.1442599514714833 0.1216860372660454 0
0.1065044417361249 0.1263419333883632 0
0.1245200660783363 0.1214266180575306 0
0.220139831111877 0.1290537171895655 0
0.2359626681261214 0.1137064151309195 0
0.1405463346651347 0.1138908258323697 0
0.2955539076314653 0.1054193841019947 0
0.1925356189635463 0.1104276221405735 0
0.1255921099796359 0.1323700333785703 0
0.236553447045551 0.1284118182474056 0
0.1466877694526683 0.1263087089981476 0
0.08500733256701132 0.1529422497896201 0
0.1026544247666412 0.1042721401898226 0
0.1181030283528965 0.1149317305756992 0
0.3212508605484148 0.1256602445089947 0
0.2335196366069674 0.1295335638904441 0
0.3109714161103198 0.1039462833316521 0
0.1209188241460983 0.1220043125780357 0
0.2959350693829694 0.1380944851927159 0
0.3130325422887623 0.1036773537211576 0
0.1622953680678107 0.1087084079002346 0
0.3213463284357251 0.1280541794992762 0
0.162195260387876 0.1312165256454034 0
0.1694773647831892 0.1091321930621027 0
0.1805943426059631 0.1141999575092633 0
0.2759254567208106 0.115135292709563 0
0.1596068201455764 0.1233001403064584 0
0.2725325338627599 0.1122083367858865 0
0.15728152949921 0.1092115292235112 0
0.2881378018164608 0.1335006958706783 0
0.1645019015809776 0.1159048782059665 0
0.1127346459358763 0.1010067326689432 0
0.09203581853952678 0.09089223381910533 0
0.1052722223758759 0.1292383984368518 0
0.1333696388421035 0.131295816338897 0
0.135117540728903 0.1080240189113609 0
0.2748856815326451 0.1115803600352944 0
0.1810808652874223 0.1266584539111976 0
0.1327310304761986 0.1291572206569613 0
0.1102244088709242 0.1293478673386921 0
0.07624985518089904 0.1467477988039198 0
0.07828702778232206 0.1487718631812328 0
0.156031314940996 0.1320691811944418 0
0.1115577388544652 0.1111033466230928 0
0.2497863735150758 0.1249058239990532 0
0.2026765496819271 0.1259088209408291 0
0.1759998469729677 0.1212171514115862 0
0.1947296901883529 0.1096172679092621 0
0.08969450877071121 0.1467717862523524 0
0.1941813336936717 0.1212545327169755 0
0.1131150661007495 0.1094818801550321 0
0.2279630143030678 0.1234724254746839 0
0.2245053085009611 0.1286288685001056 0
0.09806117858374584 0.1474213013428617 0
0.2160864943691514 0.1211880990632552 0
0.101631104371901 0.1394801574156861 0
0.1464775341533986 0.1214777288319097 0
0.2925239555003638 0.1398649613063283 0
0.2763352872879494 0.1129577842735339 0
0.3204658064685151 0.107273715815088 0
0.1279775481147797 0.1317043973230042 0
0.2700850756329585 0.1272781788582215 0
0.2424765826421416 0.1166430846309796 0
0.2362191409622804 0.1218759204616879 0
0.2860313984355968 0.1328332532753264 0
0.2920825664782477 0.1323628760631277 0
0.1719718584074869 0.1124192692398601 0
0.2226313888489715 0.1250583148991155 0
0.1869971695785543 0.1172362949159566 0
0.2160427010587038 0.1263243942699584 0
0.2284880735554373 0.1133941687702861 0
0.2475447712813607 0.1136386556963551 0
0.07077074987373885 0.09779764040574906 0
0.1595324567494294 0.1085075632219576 0
0.20664788670437 0.110769018254144 0
0.1893761626283935 0.1277690876915704 0
0.2656393868179704 0.1151150685746561 0
0.103576894553975 0.1471003675374769 0
0.2833713970265522 0.1307873252261215 0
0.1826290562549666 0.1305556405711743 0
0.327050280789795 0.1116643499769458 0
0.3267212521760668 0.1096283859426055 0
0.3133356500283098 0.1420502807830832 0
0.2833373677273603 0.127044286154328 0
0.3271245389748849 0.128045478342956 0
0.2381603600433212 0.1225079619120695 0
0.08791011811592095 0.09794562491329743 0
0.313335649846941 0.09794971917531727 0
0.1385560055155765 0.1210988383826154 0
0.08195655950928175 0.147147175303396 0
0.1057951198612271 0.1162341535557774 0
0.3029858923022548 0.1425669832376824 0
0.1626337565255085 0.1146697575501109 0
0.1650855176355581 0.1249837050528452 0
0.1879324030447948 0.125437179810339 0
0.1628712582957788 0.1217748630483529 0
0.1879324030460423 0.114562820191568 0
0.07520768762574187 0.09805265479918168 0
0.2877571188708009 0.1211835044738269 0
0.2635180169145882 0.1177012420090779 0
0.1655478974285429 0.1178919886235748 0
0.3038070996000726 0.1030901960169801 0
0.3059871519016655 0.1401477218374939 0
0.2043549050990138 0.1154568579335926 0
0.2699382463713011 0.1213693631828494 0
0.1390080231935552 0.1316949722186854 0
0.2066478865780392 0.1292309817475085 0
0.2828053086052228 0.1289874984186876 0
0.2244388889220392 0.1135561584977288 0
0.2243973228826591 0.1265112841989563 0
0.3020062974466603 0.1398864193605727 0
0.2265419242389623 0.1298313675524687 0
0.2176560542502691 0.1109438850537334 0
0.08079861914850558 0.1532620603486343 0
0.2322334560253767 0.1141880950985078 0
0.217867088551346 0.1287215433658108 0
0.195956256681145 0.1254853628555743 0
0.08017474565740448 0.1479137709436852 0
0.08789868773333256 0.0922420647003711 0
0.09826933364907263 0.1419585796282838 0
0.08791011809333428 0.1420543750730791 0
0.1067427363315414 0.1341792029984893 0
0.09826933367602414 0.09804142036607699 0
0.2529987578156808 0.117768767442289 0
0.08415211606431812 0.09795121493676905 0
0.2550330451073448 0.1288422028197461 0
0.1608420868002284 0.1138232673043779 0
0.1188878484629907 0.1111085031854128 0
0.1846282873062421 0.1184556228364177 0
0.3138755381319112 0.1016747731672109 0
0.3270084234741675 0.1144397813210084 0
0.3105602184967815 0.0979915765115197 0
0.2510320215141315 0.1194352249359142 0
0.1080631019998409 0.1320765577216181 0
0.1970843855834607 0.1308411999366329 0
0.184892771468755 0.1302521900554099 0
0.09572362268496382 0.1494096068956698 0
0.1736230973917283 0.1218185220785297 0
0.3175616635147298 0.1355630149844803 0
0.1719081880092453 0.1221960128598343 0
0.1055441743769555 0.0929508411234606 0
0.137596908337093 0.1271656808707121 0
0.1799473551106208 0.1197521816520543 0
0.09234832756040803 0.0982240284817435 0
0.1413647634476866 0.1229567440521848 0
0.09234832753153405 0.1417759715237408 0
0.2806457650011261 0.1204876836072136 0
0.1261265134007605 0.1163059151350435 0
0.211845891536578 0.1293936615214622 0
0.2161364633664513 0.1137777893715487 0
0.28398527336108 0.1215448632976166 0
0.2118365749319956 0.1264828009483202 0
0.1550301660147871 0.1256503287249446 0
0.1047223558449447 0.09808631815244633 0
0.2833919940849744 0.1247551979265305 0
0.1277219690779134 0.1117400154567838 0
0.1144146751718336 0.1255378366585715 0
0.1278647704025364 0.1282187667025205 0
0.07624985520482382 0.09325220116443426 0
0.0911325118168349 0.1450336180164946 0
0.2007978364732676 0.1155786264243547 0
0.1833018417603789 0.1231009836289555 0
0.3164242363911298 0.1337306233971232 0
0.2848882976629452 0.1076213016632498 0
0.09607387654217403 0.08768057624679189 0
0.09420052946568895 0.1530225459337715 0
0.09607387654237379 0.1523194237552679 0
0.1190166612060805 0.1290077944205517 0
0.2137915813024862 0.1145270935370416 0
0.132944117775765 0.120134942828312 0
0.1317659692529639 0.1182847918118381 0
0.2808898247983416 0.1161502065476793 0
0.2784567627652288 0.1119253266213872 0
0.3251477218306202 0.1190128479720319 0
0.1053251431808317 0.110812218134559 0
0.08099076447164008 0.09537803234771146 0
0.1405538914953411 0.1260225081987586 0
0.09092633152860698 0.1429174444411436 0
0.1067850892771128 0.1449523988783734 0
0.1351175407211394 0.1319759810911707 0
0.2402786932310816 0.1106737304386112 0
0.1848294080157274 0.1097144418462881 0
0.3143234635114087 0.1055032155755746 0
0.1242301946507744 0.1117644814301583 0
0.1773597326698558 0.1153466393237949 0
0.1586758237435651 0.1270869843316306 0
0.1848159837555192 0.1217931265122368 0
0.2053244923186546 0.1170551275277036 0
0.1618679643089297 0.1194243102647787 0
0.07732198874595013 0.09486752361279985 0
0.1607291892762752 0.1214766610207828 0
0.07732198872828708 0.1451324763713982 0
0.2551559196815196 0.1149528914858078 0
0.2962457117824167 0.1016663355794407 0
0.3240146632003144 0.1326285614697044 0
0.3188777868179621 0.1372988217041934 0
0.2903265849466887 0.1330556202870826 0
0.3222128285367863 0.1338558282157343 0
0.3233252267430845 0.1111244617333225 0
0.3176316984269235 0.1390269479161036 0
0.2723345430692407 0.1203928802044867 0
0.2708947786973896 0.1252712207253846 0
0.111894095414355 0.1057526976091856 0
0.0807986191721593 0.08673793964420339 0
0.1557195765505828 0.1156167191588121 0
0.07952826645384992 0.151400820198918 0
0.1305827136952148 0.1165304040293548 0
0.1835099594781628 0.1164144989986027 0
0.1232493545415974 0.1069951953672662 0
0.2583370326021884 0.1138039425944648 0
0.2224884432603242 0.109994696993329 0
0.1410348083141905 0.1324686606393484 0
0.2041961683691838 0.1245340091823079 0
0.2100655073290455 0.1260791412158536 0
0.1569165785221853 0.1284279972151328 0
0.1530734584529463 0.1213725007936257 0
0.2345418415401213 0.1249463043448468 0
0.1648562568136453 0.1225337512082244 0
0.2133491179312576 0.1230994811479409 0
0.2171452428538649 0.1158786021402023 0
0.2592302996715723 0.1217260165724797 0
0.1734627136563723 0.1256321479640451 0
0.2250873196452429 0.1184029753753885 0
0.255200217918666 0.1193981479676998 0
0.30298589230594 0.09743301671668789 0
0.1494630291292395 0.1106652320837693 0
0.1140918425737412 0.1145505708990944 0
0.2206820987568662 0.1257353780705873 0
0.2443792956255778 0.1148191153668425 0
0.09676220844392694 0.1460680878019438 0
0.2244781331218811 0.1113598754587279 0
0.2835720811279764 0.1197798091432662 0
0.2506982625775366 0.1151153648652565 0
0.2636143779352439 0.1221515972581341 0
0.2006567604094323 0.117676624809013 0
0.1719718584077687 0.1275807307628335 0
0.09464102457584841 0.09703560290318879 0
0.2136088642608404 0.1258064131108265 0
0.09464102453173642 0.1429643971000966 0
0.08603219242580823 0.09090147787929727 0
0.2854417148529499 0.1128864279614264 0
0.1850092704629096 0.112899085640693 0
0.2923557018894637 0.1012554376025141 0
0.1206040776513795 0.1104007524274578 0
0.2305127439180998 0.1174997098788953 0
0.1180168975620313 0.1217901838055651 0
0.2687013156455321 0.1258068788561535 0
0.1970774979649664 0.1164787767114154 0
0.3233371292970325 0.1288260342477499 0
0.2655940183316684 0.1209496761091524 0
0.196217818977398 0.1144698064517059 0
0.2475281619231131 0.1180488424815327 0
0.2886434327935379 0.1046684670589487 0
0.3080224628924314 0.09641134607009078 0
0.193838707584518 0.1140027241125945 0
0.2440597069024605 0.129262453871356 0
0.1558778956770296 0.1078110002409564 0
0.1547826178690428 0.1177103158934445 0
0.1529776433128847 0.1127017331745754 0
0.1082110662564073 0.0999452158500477 0
0.08354884668384524 0.09041324534057903 0
0.08354884664127724 0.1495867546458204 0
0.1154269451755963 0.1039923631013419 0
0.1154269452453005 0.1360076368478067 0
0.1021266001179252 0.09642755894844764 0
0.1021266001254502 0.1435724409934529 0
0.1327310304750191 0.1108427793407313 0
0.08603219240011498 0.1490985221104121 0
0.228655499482848 0.110883473984202 0
0.3153716140147476 0.1417212522147386 0
0.1450473016030292 0.1317682118815444 0
0.09899999999762808 0.1528327095607452 0
0.08813260521286614 0.09028311795383788 0
0.07077074983668326 0.1422023595663875 0
0.08813260520707195 0.1497168820341029 0
0.2077799128188371 0.1142770961368136 0
0.2077327341944643 0.1256296398880844 0
0.1691894162651155 0.1153649577687786 0
0.1304326506903939 0.1078426112687538 0
0.1304326507189201 0.132157388726928 0
0.1750417104002521 0.1310184858899025 0
0.124165915934688 0.1173866676354948 0
0.1142196945090179 0.1218375297845003 0
0.2267568180634315 0.1148681899094773 0
0.0860096835314347 0.09462727750181144 0
0.1067430655711744 0.1058228461175308 0
0.2243285719856541 0.1216477929310834 0
0.3219793361914074 0.1043109200398998 0
0.2100844038369064 0.1139305411730295 0
0.1517925166705787 0.1284202236600603 0
0.1160570422161805 0.1318387599420129 0
0.1478070376983373 0.1121793653302114 0
0.1053358613787424 0.137986061487162 0
0.159750917163349 0.1166909540013142 0
0.1734636167431339 0.1143715673423206 0
0.2476181359182985 0.1263038461512641 0
0.09872563352956931 0.0945190759791988 0
0.1662568254731935 0.1289674851792803 0
0.1992273115795379 0.1127639426298685 0
0.2202878348336613 0.1207424826696016 0
0.1109376312746882 0.1361042586781966 0
0.110943128580073 0.1038405815738318 0
0.1691310844593196 0.1227618202132526 0
0.2993398545902582 0.1037490825678814 0
0.1225940750991249 0.1257557737170371 0
0.3195807730192072 0.1294522909752071 0
0.1258935812621038 0.1241575289600776 0
0.1692859770925855 0.1176003904297252 0
0.2471428784039159 0.1216734430367107 0
0.2988742754558734 0.09728940165573989 0
0.2326021321095464 0.1212169834769026 0
0.2227860231524731 0.1146208943813778 0
0.2509394629991371 0.11100063924714 0
0.2207485230717278 0.1146998153702054 0
0.09420052947078414 0.08697745406138137 0
0.1803011293941834 0.1215638458622764 0
0.1626217927496837 0.1109944276020737 0
0.317561663412343 0.1044369849349261 0
0.1200101495946592 0.1326222641511675 0
0.1200499480959543 0.1073779134928032 0
0.1626983855882343 0.1253411113452782 0
0.1728402939274455 0.1315764755463751 0
0.1067850892567394 0.09504760108260428 0
0.105544174389824 0.1470491588432847 0
0.3176316983312471 0.1009730519968692 0
0.1446780559375402 0.1271394831834385 0
0.2381037094567865 0.1170792023858349 0
0.3210374962188509 0.1140044675766043 0
0.3109714161905824 0.1360537166264174 0
0.1484021595010184 0.1183133309504345 0
0.2286859319313302 0.1192405942203084 0
0.2345243675187035 0.114898942895473 0
0.1339928865895557 0.1181694365341099 0
0.1694773647892913 0.1308678069414817 0
0.2530078778899326 0.1222431655927643 0
0.2794207703422892 0.1250882113492764 0
0.2808473029107072 0.1280233661965977 0
0.1363114264047283 0.1148597353810115 0
0.2683163360373954 0.1118267497899197 0
0.2840504737490574 0.1179193201352194 0
0.07346599969467028 0.145106531795314 0
0.0734659997400324 0.09489346815308869 0
0.1492339137140423 0.1248907650753643 0
0.1805607544667915 0.1120957225780764 0
0.1455099086593205 0.1247343440422088 0
0.1007136275809493 0.0886468206611078 0
0.1007136275976402 0.1513531793357625 0
0.1595678807010325 0.1313814237615113 0
0.08415211605684804 0.1420487850514345 0
0.1215945486418147 0.1147790981442434 0
0.1449353729425877 0.1163542548172136 0
0.2139816639067278 0.1299348650104822 0
0.1082110663077168 0.1400547840480232 0
0.1233805117348981 0.110198217267272 0
0.2400540823620295 0.1195470960960593 0
0.1333554240469741 0.1255731888185495 0
0.3143234635823903 0.1344967843463162 0
0.2099444386473153 0.1302142524350248 0
0.2099444387902234 0.1097857475694205 0
0.2732390686006623 0.1180784389119914 0
0.2282301247925728 0.1256154358171868 0
0.2423712510115912 0.1223221027292554 0
0.2229320597616938 0.1179263638204542 0
0.2064476080528346 0.1186515797485188 0
0.1872685555309186 0.1305575986609809 0
0.1871759794222086 0.1094917476697321 0
0.3099351926393621 0.1399608443103289 0
0.3249608443446078 0.1150648073122797 0
0.3099351925151878 0.1000391556312019 0
0.1636853894351981 0.1179890058776415 0
0.1691070229587123 0.1246445668190483 0
0.1571015167738777 0.1202110493240525 0
0.091132511868729 0.09496638203923308 0
0.22874247503523 0.1213378849639639 0
0.1965694785328742 0.1234930863917306 0
0.2572527523644296 0.1180122142879793 0
0.2005863774511359 0.1251259258223607 0
0.1831967843374455 0.1256445661372861 0
0.08969450878240892 0.09322821375394245 0
0.1160228659727955 0.1081801685949718 0
0.3001339262912274 0.1396539521609141 0
0.3248864193814011 0.1229937023650979 0
0.3001339263691873 0.1003460477998458 0
0.3246539521991693 0.1248660735286223 0
0.302006297509115 0.100113580568869 0
0.2228923796710853 0.1230418698009222 0
0.08099076444557443 0.1446219676514842 0
0.1364520391426717 0.1112227143964184 0
0.2685942308421969 0.1143478723537891 0
0.1364520391389845 0.1287772856011795 0
0.2509394629189829 0.1289993607655714 0
0.2690096992270575 0.1183681684600694 0
0.1550594340283993 0.1222294162406194 0
0.2875150046656775 0.1300644336096411 0
0.1970843856626496 0.1091588000826783 0
0.2896004280651124 0.1370023940967735 0
0.128070803969978 0.1196509980683592 0
0.2856602973010176 0.1162469992087515 0
0.2676507406489701 0.1221059088520216 0
0.1047250763923353 0.127501420522498 0
0.2092057198492441 0.1219374050258924 0
0.1799717948282863 0.1281930736177189 0
0.1922642591577974 0.1153904694221191 0
0.1740299217101667 0.1178352282884534 0
0.2951371595018838 0.1417597725846518 0
0.326881577595326 0.1303174611727851 0
0.3153716139220002 0.09827874774320569 0
0.2946356047579624 0.09831080406749074 0
0.2265708860853981 0.1101929975268493 0
0.1209244298480061 0.1296302010974083 0
0.172840293891893 0.1084235244510817 0
0.1433229451638231 0.1196698705169871 0
0.1035270689316677 0.1086725263962399 0
0.09676220845379371 0.09393191221829277 0
0.1590308806770247 0.1128250432921777 0
0.1348343150428294 0.1298942745850515 0
0.1348343150439532 0.1101057254137304 0
0.06878227497041156 0.09865952807567363 0
0.06878227494928155 0.1413404718921681 0
0.2434977786675976 0.126981348400335 0
0.2434479979745748 0.1129145308455037 0
0.2067278301625834 0.1274710349406526 0
0.1581040114499529 0.1236822571527109 0
0.2067372660062875 0.1125103122645612 0
0.311964077059659 0.1432197233982766 0
0.3282197234030163 0.11303592293144 0
0.3119640769053995 0.09678027658323884 0
0.1143047193970083 0.1085371144655493 0
0.1151484752887833 0.1120656782036195 0
0.1142800369633217 0.1313029668284695 0
0.2694002867434788 0.1196849680106129 0
0.28206318494686 0.1100586515135431 0
0.2771880400818081 0.1261972529893833 0
0.2736119687073346 0.1217009403257919 0
0.1147741356753706 0.1377376854210898 0
0.249226708761923 0.1107054127578472 0
0.1147741356181216 0.102262314529948 0
0.2409464801535218 0.11321771384313 0
0.2405243656596081 0.1257171329040309 0
0.2412300217081104 0.127231729502581 0
0.2849078658871533 0.1236519155528772 0
0.1298074892854709 0.1122721259848494 0
0.1298074893044696 0.1277278740196996 0
0.1612507525700136 0.1123057366146549 0
0.2205871072628637 0.1093570978261976 0
0.2058673605228804 0.1215027038740963 0
0.2880505264062287 0.1191287150144476 0
0.1070974424405477 0.119668774984594 0
0.3173225066243285 0.102555644720141 0
0.08202343606743277 0.09147802742992718 0
0.108301018460028 0.1277016588759796 0
0.1868463980045789 0.1266935093327265 0
0.2929343661926974 0.09954505899454498 0
0.2894789518088987 0.1143783737295598 0
0.1794593824850584 0.1247155772483813 0
0.09715057440403127 0.1534427185189598 0
0.1040034591419469 0.1000523967571956 0
0.1040034591838484 0.1399476031504239 0
0.1890600449852425 0.1138130375222126 0
0.1899279034458799 0.1247249806776419 0
0.1899050910832284 0.115259604109334 0
0.1450203361007286 0.1184325464778865 0
0.280019453801708 0.1265029710809568 0
0.2060248805992158 0.1244675276157581 0
0.2062456381235394 0.1155503123002172 0
0.1087769642743041 0.1142391206790348 0
0.298158243727054 0.1376238764242101 0
0.1161277653020172 0.1144982546083449 0
0.2116010798630407 0.1200669004555508 0
0.08239414008952801 0.09422291102494323 0
0.2888458213795583 0.108233823486918 0
0.2295746548367522 0.1243462597795173 0
0.1644374474388838 0.1079937078708533 0
0.1500803288097828 0.1318941050923876 0
0.2654347981940149 0.1189734710452333 0
0.1193449999951783 0.1224931964588209 0
0.3195577634717858 0.112255320056912 0
0.1500000221207141 0.1083637762961347 0
0.2495077860536657 0.1184395104427235 0
0.131538884436594 0.1220151787616852 0
0.106388878843755 0.1037391894844526 0
0.1717543866234267 0.120250767946692 0
0.118922162004132 0.1132340071151488 0
0.297543053258139 0.1436302518875495 0
0.177284055039304 0.1281152494039269 0
0.1769777452594135 0.1118879255142362 0
0.3180078136576229 0.1303198356036639 0
0.1065581532962364 0.09839849309739984 0
0.2888904244319043 0.1159449088614444 0
0.1500076676208886 0.1295654637819084 0
0.1031093614021997 0.1489508557142071 0
0.3060281988692592 0.1362214970785474 0
0.1868552289506532 0.1246590173169569 0
0.103109361381414 0.0910491442424644 0
0.1151457509577179 0.1279818408832654 0
0.2862477275631686 0.125298473201486 0
0.2220897939922714 0.1216303852152693 0
0.1372069260994209 0.1190003396010661 0
0.2153994805247418 0.1154266526506413 0
0.09927070255353082 0.0908956862503774 0
0.0744234636213173 0.1468588482340955 0
0.0992707025698438 0.149104313767814 0
0.08481029007086713 0.1508590591995954 0
0.2490636985001455 0.1225059285672157 0
0.1504099399107138 0.1188988323287804 0
0.2865887920435439 0.1059643575748987 0
0.1184710720390439 0.1167772090629401 0
0.2382706804929637 0.1103981445644331 0
0.2382851449380687 0.1295633483168738 0
0.2540262719116951 0.1269868621466136 0
0.2540112789164025 0.1130191387674631 0
0.1118527376780739 0.09921370499436731 0
0.1118527377165552 0.1407862949602802 0
0.3015137362234215 0.09658025217115913 0
0.3287168354344288 0.124905480371705 0
0.3015137361856087 0.1434197478039282 0
0.1060937097875636 0.09678045865372877 0
0.3000945194805901 0.0962831645740049 0
0.3284197478227491 0.1234862636227332 0
0.2455980072429645 0.1183222946767846 0
0.1237108559162355 0.1311559689553708 0
0.29230251334542 0.104795176382303 0
0.3149916263796795 0.1070651251210149 0
0.1858115919287144 0.1285442259476577 0
0.30431510480437 0.0984970854027629 0
0.1064888936531896 0.1304484016117521 0
0.1065426857757353 0.1095004097212393 0
0.2436735975955777 0.1187630289507162 0
0.2907947959862994 0.1052703963959559 0
0.2707813473271794 0.1233640695002641 0
0.1602402824545114 0.118304405569718 0
0.2516891759557054 0.1131163042950014 0
0.2261520703808284 0.1252269558822624 0
0.3077927458309935 0.1388920089300643 0
0.323892008967313 0.117207254069645 0
0.3077927457708685 0.1011079910229614 0
0.3089270907682612 0.1419516137440928 0
0.07634879669261976 0.09145840223092841 0
0.0763487966495016 0.1485415977245688 0
0.1094112749456923 0.1309115321085518 0
0.3167344532722641 0.1318854438446124 0
0.3167344532482316 0.1081145560995015 0
0.1781031104454108 0.1183725164603521 0
0.1343234533085529 0.1220029087243343 0
0.1372437477631825 0.1325149016880796 0
0.1372437477674921 0.1074850983100936 0
0.243927469717462 0.1209788343383976 0
0.2108696456668044 0.1280519262858837 0
0.2903608720013758 0.1283032702013598 0
0.2766400917611467 0.1112522112311675 0
0.1470455284655943 0.1325006606627211 0
0.1470575793469497 0.1075162201418581 0
0.2223740724137063 0.1162387623743841 0
0.1974115242476853 0.1125937750502514 0
0.3200160705134748 0.1089422640111975 0
0.1972486674930945 0.1272128752478536 0
0.2966568738980297 0.1345586732338247 0
0.09408288821970573 0.09873297735806542 0
0.2517165376610681 0.1266792594025 0
0.1592742944270068 0.125170146412887 0
0.1108057273580349 0.1202205239226154 0
0.2033280335246595 0.1306937805460734 0
0.2322014268665448 0.1120553652066965 0
0.2034435206265788 0.1092950249498625 0
0.150004272822365 0.1210194392942612 0
0.1479445500458224 0.1139099233222699 0
0.219192085583248 0.1157182357865591 0
0.09317413165596153 0.09391346462211686 0
0.2839358192874097 0.1138646271966244 0
0.1145925916044316 0.1164667738165872 0
0.09317413165158356 0.1460865354036953 0
0.09671775099157526 0.08907278319159247 0
0.2192810294724883 0.1243634115893504 0
0.2614895194347714 0.1145175973881947 0
0.1530010917747527 0.1105224229477032 0
0.1910419490536073 0.1214609375527408 0
0.2096705621785543 0.1239348889709177 0
0.1066347567387924 0.1116314684259108 0
0.2748938945675374 0.1185656385201424 0
0.120303336116139 0.1180533715387189 0
0.2055261919573338 0.10926761230835 0
0.2055211814837577 0.1307319020028683 0
0.1006856500440181 0.1413153279082239 0
0.1006856499678361 0.0986846721004123 0
0.2014618865034151 0.1214540757859105 0
0.1439215256610006 0.1105445293297439 0
0.08787208129632877 0.1460342035514395 0
0.1439157695906233 0.1293994307099694 0
0.1792489107275264 0.1312858008962113 0
0.1770868383447039 0.1084941673382839 0
0.1514110245415761 0.1216763681499289 0
0.179258366429376 0.1088917496513965 0
0.155170832672677 0.1273693548283178 0
0.2491278276857621 0.1168005927035398 0
0.1627474327109704 0.1129035422387404 0
0.1634378770341501 0.1236771787251093 0
0.1313199305470397 0.1243515573494863 0
0.2728468207154085 0.1237990798407037 0
0.3075524502204003 0.1369276449468247 0
0.3089972306114038 0.103957701046599 0
0.3212214970267037 0.118971801088544 0
0.3219276449449469 0.1174475497442174 0
0.2816474007069987 0.1298525992387085 0
0.1732279186828886 0.1101996631979208 0
0.1137040658815385 0.1109818226335236 0
0.3060281987845107 0.1037785029094222 0
0.307552450139982 0.1030723550433472 0
0.321025474348528 0.1160407793169378 0
0.2715531930611569 0.1144271044923551 0
0.2184976148909669 0.1095232286979747 0
0.2185781549706848 0.1304260183880366 0
0.1038156672584687 0.1030330427193124 0
0.113991828612673 0.1348627921616034 0
0.113991828514009 0.1051372077440061 0
0.1382830051363291 0.1295738543355585 0
0.1706270968112896 0.1185447563231645 0
0.1382830051393683 0.1104261456590244 0
0.2621566798339935 0.1130312946571423 0
0.2620075845581832 0.1264077672897856 0
0.3158082144168993 0.1047323400131837 0
0.1906151192218516 0.1184654912370592 0
0.192641128619401 0.1312369748626173 0
0.1883957274902254 0.1182979539252809 0
0.2769188781282804 0.128306287380579 0
0.2773013884669047 0.1173531616113632 0
0.1097063936536462 0.1097040174022048 0
0.2260055672050974 0.1228543613957037 0
0.1467115206088545 0.1172850841689801 0
0.2892547993356093 0.1027398300962168 0
0.07730692017780318 0.09838071225295826 0
0.2740421428190029 0.1269152321726601 0
0.07667109693591233 0.143219445733064 0
0.07730692019636067 0.1416192877427896 0
0.1198781464368724 0.1091249865040542 0
0.2862571374048126 0.1287929765810014 0
0.1366978775627027 0.1213513965395646 0
0.2858150196386119 0.121871425045808 0
0.1736619898391225 0.112902287324811 0
0.09133151836945325 0.0892777002925224 0
0.08974871157535504 0.1514000919396974 0
0.09133151835838889 0.1507222996984608 0
0.1983891537518647 0.1200747242252386 0
0.1098371252121378 0.1328600011526148 0
0.1100500142249985 0.1072722636048533 0
0.1934057795009329 0.1280216797510928 0
0.2360425845628694 0.1198494146070828 0
0.1934084273318215 0.1119778664242864 0
0.1128338940246255 0.1318979201368506 0
0.1262572349636062 0.1180818745491154 0
0.2268453168812469 0.1186344019253632 0
0.1281554824722775 0.1234537188934682 0
0.246132202005566 0.1232483776877861 0
0.1109984979233456 0.1236748154368389 0
0.1439931917454799 0.1133412460550495 0
0.28447688319859 0.1321760609691208 0
0.09400262465684531 0.1492925596531059 0
0.1567112585808421 0.1135353816093963 0
0.09400262465317985 0.09070744034650434 0
0.09320121878418251 0.1478007721202131 0
0.1121111407314188 0.1220129523210143 0
0.2651668332106676 0.1133662514832167 0
0.2651592962258 0.1266081460333275 0
0.2964633920653296 0.1402785119101333 0
0.2964710794402997 0.099701558633195 0
0.3252542900719956 0.1114151846554721 0
0.2351045910387699 0.1296292579899704 0
0.3135848153436011 0.140254290070079 0
0.3253103368294074 0.128530427519882 0
0.2351577076863152 0.1102624197859163 0
0.3135848151797194 0.09974570989035134 0
0.2309115480903361 0.115605569891287 0
0.1145482008759669 0.1236986752864127 0
0.2848068381392987 0.1112668948819239 0
0.07912614754736595 0.09850692995088363 0
0.07912614755578701 0.1414930700577144 0
0.3210805357740401 0.1233788646183318 0
0.301648710965589 0.1361257290075309 0
0.3016211551690958 0.1039194528487462 0
0.1321678929884131 0.1071002762789691 0
0.08974871158013725 0.08859990805289246 0
0.1321678930028634 0.1328997237143744 0
0.1337324223800352 0.1068456805239621 0
0.2743408768661756 0.1284578054688263 0
0.122371061460707 0.1223640050792728 0
0.2193984435061068 0.1273890192449754 0
0.2198333667559446 0.1129187992045195 0
0.1566397874306965 0.1263535790507505 0
0.12960064269653 0.1181156215287316 0
0.1191698264270014 0.1269569780676285 0
0.2503394715445783 0.1211556770520118 0
0.1048637109911751 0.1305579977156087 0
0.156170521114759 0.1242147080776274 0
0.1125402151688862 0.1076510326001605 0
0.1267544093552433 0.1266799129227051 0
0.3236192318351693 0.1204091357642521 0
0.2291075807152144 0.1272966535444496 0
0.3229271490295348 0.1140907601442817 0
0.3123693489713065 0.137700029106883 0
0.3109092398879483 0.137927149001208 0
0.1401121956810535 0.1242464217988588 0
0.3109092396878241 0.1020728509045663 0
0.3226991846650694 0.112629395512703 0
0.2164908790668593 0.1301637798121489 0
0.09320121877279937 0.09219922789509749 0
0.2162875863545335 0.1097719866873263 0
0.1704395333425858 0.1113301996733675 0
0.1704395333409223 0.1286698003288607 0
0.1017708246790544 0.1473679570349691 0
0.1017708246358303 0.09263204295095034 0
0.1537087994797245 0.1146643707217652 0
0.1488829771608682 0.1222889414989476 0
0.2170092363691575 0.1246361697890973 0
0.216480960110298 0.1228745309308806 0
0.168277742150502 0.1210744218178293 0
0.0779554839068527 0.09295954710923233 0
0.07795548387858398 0.1470404528729461 0
0.116873188059823 0.1295020026387116 0
0.1728227767039272 0.1163045965263216 0
0.229131019623515 0.1154553274832253 0
0.1077026439510587 0.135700026909953 0
0.1077026438953721 0.1042999729847863 0
0.2831520693326021 0.1232447025422136 0
0.1063888318494648 0.1362611031550909 0
0.1727183306034303 0.1236877160266927 0
0.1167607419755603 0.1104608481140674 0
0.09732148207370346 0.1491213699883167 0
0.103457805465234 0.0972826327824187 0
0.09732148206081517 0.09087863001493564 0
0.2988559800829457 0.1409356411019804 0
0.2988559802010129 0.09906435886707436 0
0.3259356411447256 0.1261440197079914 0
0.1881007876780188 0.1217889367659518 0
0.08235078798804402 0.0982150543101288 0
0.08235078796070856 0.1417849456757784 0
0.2905579816321591 0.1116286054537549 0
0.1707647527755957 0.1233657515500665 0
0.09617289508754966 0.1415456287954173 0
0.1025215956690184 0.09456252707017286 0
0.1025215956982142 0.1454374728830743 0
0.203654139713732 0.1277534359268395 0
0.2036759666282747 0.1122570375048729 0
0.2906241093360296 0.1018337258379406 0
0.08328506498692811 0.09266778711672759 0
0.1586594619339123 0.1217323112914166 0
0.2350018016164439 0.1167493655603239 0
0.1186875115155862 0.1339439637327245 0
0.2895335593050408 0.126702172944307 0
0.2261137846318313 0.1169291416753147 0
0.2317850881135338 0.1100811961293137 0
0.1908266977652776 0.1307645655064582 0
0.1859298020941975 0.131598635964992 0
0.1908266977812495 0.1092354344937168 0
0.1065786794949949 0.1283021784199391 0
0.245895676302557 0.1162764398030175 0
0.234455453193577 0.1183514626637579 0
0.2435396106436313 0.1245462376384495 0
0.1317621946908861 0.1090089363259712 0
0.1049091204522905 0.1255592411275316 0
0.2936367442762534 0.1385064233641194 0
0.2142458305245704 0.1183947590157958 0
0.259781045085074 0.1146233860286538 0
0.1516851039870601 0.1076882372229131 0
0.1519461976572031 0.1320834101655075 0
0.2824733506904954 0.1169182766097782 0
0.2872929479661823 0.1270271571458671 0
0.2343500586373582 0.1220131318787023 0
0.1045999321997534 0.09153376969900433 0
0.1286371965582971 0.1101052261226113 0
0.1269460119283949 0.1301663889424403 0
0.1286371965543335 0.1298947738715628 0
0.1156639588343771 0.1341168885067717 0
0.09715057438662454 0.08655728148443882 0
0.09757200658005355 0.152054461382808 0
0.2416022214522888 0.1183902418570242 0
0.2414147217730879 0.1240053257137208 0
0.2765325739645492 0.1229447368239813 0
0.2871600728956201 0.112769748672205 0
0.08294415906377506 0.1534178929485041 0
0.08294415910590772 0.08658210703594446 0
0.3195286290343456 0.1278082716206552 0
0.2971933976802931 0.105470248251242 0
0.2958581490789303 0.1434880960777175 0
0.328607755676636 0.1274606324146565 0
0.2957745566508323 0.09652366670958355 0
0.3141394453660116 0.1434717475781255 0
0.3284717475621958 0.1108605546178004 0
0.3285083969078706 0.1292176209524377 0
0.2975385693051148 0.09639551610338769 0
0.3141394452788402 0.09652825240940789 0
0.3261216527863879 0.1130925863478662 0
0.3119074136393225 0.1411216527752994 0
0.3119074134819771 0.09887834718443961 0
0.2877533529298379 0.1094943986558084 0
0.09656683619200702 0.09211019151551379 0
0.3000945193837273 0.1437168353855657 0
0.1644231463474912 0.1319955683513536 0
0.1434512615537567 0.1233863497756879 0
0.1450420893212567 0.1146068003934115 0
0.2780336005933244 0.1140117751766613 0
0.2788825817590139 0.1288218070163577 0
0.1911105077096024 0.1285332803145413 0
0.287235960661254 0.1317458416729351 0
0.1911108229317593 0.1114666656604114 0
0.128906867833867 0.1215090900725454 0
0.2095029765924252 0.1157830197805441 0
0.1087409289833785 0.1178692006008297 0
0.1418438841980831 0.1106769585439647 0
0.2386150540390758 0.1186230685095788 0
0.141737913970321 0.1294203814160652 0
0.1373108760316597 0.1239985493523723 0
0.2454413280542447 0.1217670042799849 0
0.1658008424311912 0.1145174782618595 0
0.1528846887915637 0.1299196696016014 0
0.0848102900858868 0.08914094077434886 0
0.2393920351282544 0.1212271910834244 0
0.179301215516935 0.1156262447338255 0
0.2311950297143716 0.1242500116042754 0
0.1216456094147813 0.1238983901088907 0
0.2461012555676502 0.1294870219300476 0
0.1206690439585574 0.1256797791193875 0
0.099857090164635 0.09265302946855006 0
0.1083270535741559 0.1124721867902837 0
0.183443932747873 0.1140172261425841 0
0.298158243813208 0.1023761235378128 0
0.2242606547406858 0.119907278231188 0
0.3226346051084345 0.1268739680350207 0
0.2994718684649439 0.1018541107930975 0
0.1345282296060152 0.1240144764344893 0
0.1345106186899099 0.1161117225374804 0
0.1424584603215749 0.1215676900606954 0
0.178973012358472 0.1295155913884948 0
0.1224102095574868 0.1162459616346842 0
0.177089480929751 0.1314872649714282 0
0.1253937752366869 0.1148070881831313 0
0.139740740938205 0.1170592707664476 0
0.1413710921437187 0.1182258353604354 0
0.2703508690027005 0.111296466913506 0
0.07759695754435374 0.08979341466430948 0
0.07759695749458365 0.1502065853062925 0
0.1991210360227149 0.1092070641141859 0
0.1991194786950414 0.1307950488841581 0
0.2892573614786786 0.1297405778987659 0
0.08582795227431442 0.1415161956141677 0
0.08582795232446387 0.0984838043406008 0
0.1295522790318384 0.1252843248673443 0
0.09495568490738442 0.08894550787924607 0
0.2408961189906492 0.1153911254559497 0
0.1181500395024724 0.1235111309582379 0
0.08996752947864753 0.1414714817442107 0
0.2591187379028723 0.1196558019600313 0
0.2545217345809961 0.1210664540003947 0
0.1428322931348127 0.107250666982143 0
0.1428322931298452 0.1327493330095182 0
0.1584850823641948 0.1107393485986211 0
0.2460474837261557 0.1105866445303839 0
0.1586100304271561 0.1292222342957929 0
0.09985709023739278 0.1473469705616313 0
0.1593373413716562 0.1146732231145523 0
0.07442346367038219 0.09314115169013872 0
0.07532374261197046 0.1456630743771368 0
0.2565902114082164 0.1161249888566675 0
0.2568174433926496 0.1253946733460265 0
0.2565219772904584 0.1238627603216331 0
0.1789764706795857 0.1110978376791171 0
0.1160807150115854 0.1183552850136136 0
0.1161302821830463 0.1218733108066858 0
0.1396031570139453 0.1226604816077926 0
0.08925544182611776 0.1483567904882221 0
0.151816310209706 0.1171011025331112 0
0.1454323225345968 0.1229285992335738 0
0.1018525763823209 0.1025912457383543 0
0.101852576409037 0.1374087541661248 0
0.111064910352069 0.1160288751026601 0
0.2595676379581257 0.1176585742467933 0
0.2934566346425772 0.1080820376427931 0
0.2043642469774253 0.1184659084454274 0
0.114153438414108 0.1202154678765826 0
0.195912839885627 0.121834272673634 0
0.1959558079343939 0.1181497341358161 0
0.2954511744742707 0.1358647788144985 0
0.3206327384429804 0.1027161581201084 0
0.3206327385417118 0.1372838418135326 0
0.1123126197138923 0.1184783791441527 0
0.1578721358901559 0.1076098799686464 0
0.1577832508525605 0.1323445321365626 0
0.2536151960698579 0.123951857473435 0
0.1101948690092956 0.1252471916511164 0
0.3183456836827065 0.1064028238263327 0
0.3183456838591229 0.1335971761248446 0
0.253743556571819 0.1161521475437345 0
0.2567999565000817 0.1290502093081438 0
0.2567999565568092 0.1109497906664081 0
0.127539036515881 0.1066544776273632 0
0.09656683619988961 0.14788980849272 0
0.1275390364696105 0.1333455223651193 0
0.1291242375396297 0.1067508642275893 0
0.141883441495683 0.1246581838658531 0
0.2672349923647874 0.1241612675161321 0
0.267155000752845 0.1158374573018225 0
0.273855019678436 0.1162548905463378 0
0.1711402357257308 0.131870389655279 0
0.1711402356962247 0.1081296103441606 0
0.1082517935841902 0.1255656229676135 0
0.1869611923749791 0.1133580310476733 0
0.2517860158357386 0.1243118591903072 0
0.1476316482009346 0.1104455972846125 0
0.293969983699658 0.132616372451447 0
0.2879358767870187 0.1355968941447913 0
0.3217410869765198 0.1103051076819896 0
0.2672868906173664 0.1179416288297374 0
0.1090200155970298 0.1024878835664335 0
0.1090193284837789 0.1375052213771412 0
0.1262382282749283 0.1202123357693957 0
0.1238977837732543 0.1086870994648556 0
0.1116023828474729 0.1280744389313816 0
0.1077515634629074 0.1159394032041794 0
0.3044773054125713 0.09656414579004127 0
0.328540509785953 0.1187976500695501 0
0.3284358542047594 0.1205226944328341 0
0.3062023498057724 0.1435405097654499 0
0.3044773054253206 0.1434358541777487 0
0.2754691835948724 0.1211948936925516 0
0.1769432495120874 0.1227570250824579 0
0.1296664324414328 0.1146130735437607 0
0.3231185700528312 0.1090773056103169 0
0.3224961395262992 0.1323672631403452 0
0.3159230676965033 0.1018799673628555 0
0.3224960657007525 0.107632429988984 0
0.3231199870625359 0.1309168010096037 0
0.3173225067349928 0.1374443551701411 0
0.3159230678258154 0.1381200325242957 0
0.09757200656626673 0.08794553862340822 0
0.2624969106025313 0.1242191841386738 0
0.2421810498885907 0.1099347414721151 0
0.151351422809713 0.1112809659671985 0
0.131595180505175 0.1152563572418504 0
0.2915913257685273 0.1104541262125999 0
0.09617289513011809 0.09845437120016164 0
0.2882312767159758 0.1066743373124228 0
0.2083576863109452 0.1188162538229457 0
0.2621560810438156 0.1188862174259369 0
0.1703927620837696 0.1214826860094133 0
0.1819596093211057 0.1132008084238505 0
0.1089713474649584 0.09603869833767507 0
0.1089713474717046 0.1439613016561798 0
0.2914712290524225 0.1362544192230317 0
0.3168259938135307 0.09924640698250817 0
0.3257535929634841 0.131825993882133 0
0.3257535928991513 0.1081740060499092 0
0.3168259939355083 0.1407535929116774 0
0.2943344288288712 0.1018890900279781 0
0.1049093115930041 0.1144990797359904 0
0.07305060299599722 0.1414861960484864 0
0.07305060295751736 0.09851380395704015 0
0.2599979815765882 0.1110444024278914 0
0.2599979815659255 0.1289555975723429 0
0.1855721390391809 0.1200479054738753 0
0.09869002696785636 0.09618798605437585 0
0.2614808838897618 0.1175148975345297 0
0.2489567890434242 0.1146385451119909 0
0.280905895724703 0.1119217524411809 0
0.3126153417845933 0.1346583923505076 0
0.3126153417427558 0.1053416075576864 0
0.07161176675240284 0.09570147700315058 0
0.0716117666589592 0.1442985229337171 0
0.2492267087144215 0.1292945872516797 0
0.1482557363998006 0.116518387270592 0
0.08775786341607557 0.1441888805513796 0
0.08775786345907594 0.09581111944382785 0
0.1374627210022572 0.1170068024160263 0
0.1761909457991271 0.1296879499932518 0
0.1890416485825981 0.1261941875129557 0
0.1760817517641295 0.1103902881577187 0
0.2375329850995493 0.1261796524995557 0
0.2314896663494473 0.1271160921985567 0
0.1245041408320068 0.1282247521465981 0
0.1607612817333446 0.1154301265579079 0
0.07956845806698531 0.09039876570004153 0
0.1864730633056401 0.1213288090671267 0
0.08461867282580864 0.1438878684377586 0
0.08461867285685963 0.09611213157145429 0
0.2522554945838068 0.1161962296476715 0
0.1060937098388686 0.1432195412809589 0
0.1065581533467988 0.1416015068233763 0
0.2273089361531738 0.1220348647531323 0
0.2643582923997175 0.1237930742942896 0
0.1926411286503043 0.1087630251357003 0
0.2883570410468672 0.1109589254667726 0
0.1858846951608887 0.1083954388102069 0
0.2858621688731992 0.117955910177867 0
0.0819587915924959 0.0886105991623271 0
0.0819587915651434 0.1513894008184666 0
0.1087731517929311 0.1214274001011856 0
0.1397999834194127 0.1154251810692172 0
0.2642683182270195 0.1160948761937787 0
0.3099538070990678 0.1435547868924134 0
0.3285547869046104 0.1150461928500743 0
0.3099538069582988 0.09644521308634875 0
0.2408751725050206 0.1211413463161117 0
0.3180077512465283 0.1096802213890811 0
0.1163248422488605 0.1258317336360844 0
0.07939919000513106 0.0958220327680349 0
0.07939918998417282 0.1441779672286203 0
0.145110004180536 0.1200993541338931 0
0.2702427234879442 0.1289798670197717 0
0.09018324152550655 0.08658107243975047 0
0.0888569422138708 0.1538012688389263 0
0.09018324153304094 0.1534189275583122 0
0.1684561130856382 0.1077813298322453 0
0.08328506494460845 0.1473322128808631 0
0.1812686570629733 0.1316187880800617 0
0.09063443327722256 0.09185663851668387 0
0.08885694221174423 0.08619873115699077 0
0.09063443329654569 0.148143361477656 0
0.1644080583551424 0.1118678492127052 0
0.1645558156606436 0.1284753333750168 0
0.1563089074074696 0.1106007853597653 0
0.1558271193264629 0.13035049542569 0
0.1215628569397944 0.1066656419554206 0
0.1215628569753777 0.1333343580607644 0
0.2921937827065207 0.1028891627097327 0
0.1816998885307232 0.1223051803184868 0
0.1174900068218569 0.1200959218505922 0
0.1220642534938558 0.1113649315939267 0
0.09283858459083658 0.08651268574852285 0
0.09283858459987646 0.1534873142515178 0
0.1317621946997365 0.1309910636671693 0
0.1410972586440914 0.112255536185301 0
0.2160061020056148 0.1117331735190942 0
0.1411094023768522 0.1277403531299972 0
0.2007789557311411 0.1266196479873607 0
0.2006521849081415 0.1136448624895717 0
0.1326718617215947 0.1128093501240991 0
0.1313825227490167 0.1280436552647855 0
0.1326755150284801 0.127192303613073 0
0.2193257698292712 0.1225516391597199 0
0.1467952869483584 0.1307238724234974 0
0.1467696264373202 0.109190751927692 0
0.2951194764900195 0.1035001494562114 0
0.3147865470151513 0.1034061429181254 0
0.3217427547262205 0.1296934846290488 0
0.3147865471258517 0.136593856986711 0
0.1269537015986619 0.1098119375381438 0
0.1156819509231276 0.1058981706931335 0
0.1104667013705413 0.1144991884556801 0
0.294742846269675 0.1069616908846098 0
0.1707423158244473 0.116598424870084 0
0.1422029688265004 0.1136846582852006 0
0.142316300308954 0.126401610631677 0
0.3089972307022556 0.1360422989518507 0
0.1732279186765236 0.1298003367867934 0
0.1023036033011088 0.08954295149109065 0
0.1023036033127504 0.1504570484967689 0
0.298178037289227 0.1351920139929108 0
0.3062023497500769 0.0964594902156951 0
0.1404145067562675 0.1093393276010294 0
0.1404099092599209 0.1306648954618443 0
0.1233951179573737 0.1193846908244968 0
0.2598524595781728 0.1232710047815703 0
0.2746194337132735 0.1132848042302999 0
0.2858757318524967 0.1093456503857884 0
0.08996752948543399 0.09852851825494226 0
0.1242040362882005 0.1250124754731207 0
0.1606467933068556 0.1245082101373798 0
0.1051302660774106 0.1338564231019076 0
0.105130348351354 0.1061440890857183 0
0.1967216937789641 0.1291042880745675 0
0.1967216938394164 0.1108957119777038 0
0.1999896536217422 0.1108465777116049 0
0.2000332093819078 0.1291571973369506 0
0.1621877369343106 0.1271392669159275 0
0.3194246607133155 0.1387765111636968 0
0.3194246606655158 0.1012234887936633 0
0.3236999545358871 0.10554834713472 0
0.3236999546433559 0.1344516527769385 0
0.1198775739106619 0.1144581640946406 0
0.3149916264388342 0.1329348748564429 0
0.1882850705588276 0.1162325546837368 0
0.1407736527133995 0.1214879217231126 0
0.3045908641647451 0.1386192318676533 0
0.3045908641028752 0.1013807681536572 0
0.1867581511846295 0.1156584217587292 0
0.1285374007343609 0.1162782486769042 0
0.2925484826432896 0.1310344855907402 0
0.2844635862529059 0.1289258330117957 0
0.08239414005412173 0.1457770889739118 0
0.2300860780486836 0.1100175369646736 0
0.2301123563468919 0.1299091507638415 0
0.140114117420779 0.1199475793491838 0
0.173661799304958 0.1270983079115095 0
0.1260121950503821 0.1113145655322666 0
0.1262079498853152 0.1283393838084585 0
0.1534176016791927 0.1282161329510082 0
0.07956845802147397 0.1496012342938315 0
0.1059202856648119 0.1214069843167662 0
0.286452310151313 0.1344615497980946 0
0.2461504398038477 0.1145671307523776 0
0.1187364611245211 0.1060971232559339 0
0.178477680133927 0.1216485888265351 0
0.184220740276669 0.1316488658646713 0
0.1841776943257226 0.108372302193366 0
0.1037191650815174 0.1293764073628297 0
0.1037634697743138 0.1106106328892452 0
0.2376555293404577 0.113791508893241 0
0.08804628219439448 0.08865405034497735 0
0.088046282187082 0.1513459496491516 0
0.1215126575995156 0.1197815882086705 0
0.1387476232323196 0.1142192626977755 0
0.2178550852426646 0.1216070080127254 0
0.1385099000912907 0.1254069554411091 0
0.09408288817004677 0.1412670226433312 0
0.2518157322605173 0.1210764348054408 0
0.1855971887950244 0.1113640195422835 0
0.2701292693266791 0.1151754809281857 0
0.2167898018612664 0.117930446110112 0
0.1199534386997924 0.1308611362928215 0
0.2027760435095797 0.1108576635539947 0
0.2027544045657622 0.1291526121780551 0
0.2823672049377383 0.1206062359995131 0
0.1078206608314521 0.1234849741826738 0
0.2795513587636443 0.1150858560889619 0
0.2149571160495312 0.1224913570423462 0
0.1520338901960896 0.1229412591277654 0
0.1171344700780388 0.1354110260716761 0
0.1171397843108033 0.104594112656179 0
0.2351861496341807 0.1233369670211143 0
0.3031027346455174 0.1013115669324161 0
0.3236884330576936 0.1218972652202268 0
0.3031027346442945 0.1386884330654239 0
0.1313748403585699 0.1119598223069922 0
0.07416546409211923 0.1432238105151158 0
0.07416546409652786 0.09677618943491875 0
0.2213604239239705 0.1188407228073346 0
0.158556624611747 0.11838155033254 0
0.2108696457748621 0.1119480737155905 0
0.1797843239358798 0.117592962120278 0
0.1233895997302579 0.1134386300379331 0
0.08787208133667875 0.09396579645092579 0
0.1487526864000197 0.1326832849176489 0
0.2205871070909399 0.1306429021963113 0
0.1291242375216739 0.1332491357630932 0
0.1034578054993877 0.1427173671474267 0
0.105874055928772 0.1182850057796485 0
0.1446481768764971 0.1119522595212717 0
0.3265029146065269 0.120684895024683 0
0.3028970595210279 0.09894698741079225 0
0.304315104850704 0.141502914588387 0
0.3260530125528879 0.1221029403218727 0
0.2701928998076503 0.1172565400879828 0
0.1232073952044073 0.1273959948254072 0
0.2301358497774505 0.1126399762902061 0
0.08202343602682838 0.1485219725625537 0
0.1812578817462843 0.1084135837732841 0
0.2079303502446395 0.1094005926663035 0
0.2079299240602856 0.1305993660383733 0
0.1116566460879359 0.1129886386371552 0
0.2802786785662523 0.118884225345368 0
0.2560095912772954 0.1210015846632625 0
0.1045999322126834 0.14846623027551 0
0.3200162080145058 0.131057734383061 0
0.2940023223121939 0.10502577423867 0
0.07667109695003436 0.09678055424211206 0
0.1038156672890119 0.1369669571747216 0
0.1378555376487359 0.1226175464889109 0
0.2994327433305372 0.1382098103418332 0
0.3231474137505333 0.1255327473202373 0
0.1113493163514323 0.1378273986253302 0
0.1113497670478655 0.1021680783529876 0
0.1393421723904703 0.127581517216639 0
0.1393923806245986 0.1124259679174104 0
0.128232022280039 0.1132847142852279 0
0.1283755015294605 0.1266355353370731 0
0.2917633541834394 0.1068612370308093 0
0.271568393599806 0.1266793225679224 0
0.1883655949074455 0.1238397823509541 0
0.1555851166033524 0.1122834256768332 0
0.185522456822543 0.1169899244102878 0
0.186272234070199 0.1186660257836789 0
0.09869002690942591 0.1438120139188785 0
0.0893427448602132 0.1433874521191333 0
0.2160103936191613 0.1283717204582178 0
0.08649850242540798 0.1471460706277901 0
0.1468020123114436 0.1278729105124448 0
0.1481341076398575 0.1265973500419771 0
0.1005639802866781 0.09559585753495552 0
0.1005639802853841 0.1444041424399351 0
0.1578490060336606 0.116304584470492 0
0.1475162901655704 0.1250422276753527 0
0.1428197595597724 0.1164519396824635 0
0.1044296902602911 0.0942364557219423 0
0.1044296902883511 0.1457635442012411 0
0.256820573341926 0.1145913558191216 0
0.2119457784169262 0.1091041792712374 0
0.2119520157691385 0.1309535028737851 0
0.179969333598497 0.1230492316311749 0
0.2317335149558729 0.1299100745533604 0
0.1095443837414153 0.1113845772065702 0
0.1550362724451398 0.109431384295924 0
0.2830586510892273 0.1085586510984314 0
0.2173698629713068 0.1273096019448691 0
0.08649850246971456 0.09285392936677686 0
0.2471505910669567 0.1197379050279622 0
0.1768580103397357 0.1172394133543741 0
0.08087490553753282 0.09381831158025433 0
0.0808749055066979 0.1461816884140019 0
0.2180853453718516 0.112416739847263 0
0.3123693488144095 0.1022999708006747 0
0.08925544182424329 0.09164320948150233 0
0.1684561130966612 0.1322186701690025 0
0.3158082144924662 0.1352676599062003 0
0.3269516137725608 0.1160729091585701 0
0.3089270906584836 0.0980483862208162 0
0.1910646705707404 0.1233841548315653 0
0.1909931465970159 0.116572776464443 0
0.2934889223073001 0.1413400931903316 0
0.2625372658743497 0.1160242990222945 0
0.1337324223853489 0.1331543194911708 0
0.2852378156712398 0.1146336803442991 0
0.09671775099582251 0.1509272168114851 0
0.1996812040599759 0.1212408111646591 0
0.1990562863657487 0.1165282252913908 0
0.1071138763527566 0.1011912353717319 0
0.1071138062801748 0.1388080609617561 0
0.2246847652111931 0.1096213037682085 0
0.2246929615916906 0.1303818551303643 0
0.2421810496794222 0.1300652585285395 0
0.1839311484735902 0.1198578614744987 0
0.2809534057192096 0.1175766399454218 0
0.09495568490788786 0.1510544921216102 0
0.09552021625984043 0.1536291197624352 0
0.09552021626241276 0.08637088024677408 0
0.0753237426130275 0.09433692559434333 0
0.2127612472377682 0.1279800922060265 0
0.2127564157191859 0.111808210674068 0
0.1486818860329786 0.1073451722359308 0
0.3270248355436611 0.1178658107228809 0
0.3071341891698997 0.1420248355236305 0
0.3071341890994266 0.0979751644530333 0
0.2322750039206262 0.1285140450345944 0
0.2053905232504783 0.1120168222069845 0
0.2053842706157041 0.1279815419225809 0
0.3028970595450385 0.1410530125048679 0
0.08934274490711192 0.09661254787757381 0
0.1887719666900142 0.1313315208791115 0
0.1887534514826196 0.1086783483877355 0
0.1814642045556418 0.1288230962398826 0
0.2847486389477906 0.1256588565181545 0
0.1659419388434618 0.1128971432961436 0
0.1675075252625864 0.1123205883668413 0
0.1659068988865736 0.1271175382958446 0
0.1675105388137773 0.1275602909133101 0
0.104885284900685 0.1094400690902156 0
POLYGONS 4084 16336
3 1166 969 404
3 436 1351 603
3 972 498 452
3 599 1132 841
3 815 2050 465
3 1113 1101 435
3 698 1265 964
3 577 1287 820
3 820 1287 444
3 906 1280 533
3 566 1281 1182
3 1068 1615 1477
3 124 674 123
3 289 851 288
3 1 1562 1099
3 1102 1563 3
3 163 919 162
3 250 915 249
3 811 1704 1359
3 533 1101 1113
3 964 1265 566
3 410 1725 551
3 975 2077 811
3 963 1239 598
3 823 1332 749
3 535 1280 906
3 1182 1281 792
3 603 1237 436
3 902 1940 640
3 803 1469 1453
3 955 1296 1000
3 1000 1296 614
3 1002 956 958
3 465 956 1002
3 694 1859 998
3 1218 838 573
3 834 961 1216
3 864 1525 111
3 301 1524 1085
3 406 1088 1263
3 1263 1088 848
3 1095 1664 983
3 603 1351 1372
3 1453 1469 791
3 1216 961 835
3 829 838 1218
3 931 1563 1244
3 1245 1562 934
3 1507 1753 1042
3 945 1450 528
3 767 1450 945
3 465 1165 815
3 490 887 1121
3 712 1317 514
3 674 1452 123
3 289 1775 851
3 840 1126 556
3 1372 1351 936
3 1244 1563 738
3 837 1562 1245
3 569 1126 840
3 1359 1704 810
3 496 1972 862
3 885 1507 1042
3 998 1738 694
3 1573 1939 1212
3 1286 1673 717
3 814 1464 615
3 587 1465 793
3 994 1759 342
3 367 1760 1283
3 1318 899 169
3 1166 1141 447
3 461 909 1134
3 1046 1274 396
3 413 1201 1215
3 573 1550 1139
3 1352 1547 834
3 424 1150 1186
3 1099 1562 837
3 738 1563 1102
3 556 909 840
3 315 749 314
3 98 963 97
3 629 2134 1086
3 1054 2133 824
3 1096 895 665
3 625 1234 1230
3 670 1275 1024
3 895 1624 563
3 628 1626 1234
3 421 895 1096
3 1230 1234 627
3 1195 917 603
3 426 917 1195
3 1368 1878 456
3 414 1474 434
3 398 1312 709
3 449 1535 1096
3 1230 1533 439
3 921 1877 1226
3 811 1359 975
3 551 1270 410
3 840 872 569
3 616 1573 1212
3 20 1093 330
3 82 1183 5
3 434 1474 884
3 1068 1477 626
3 894 1886 353
3 1134 1063 461
3 515 1408 1206
3 590 2083 654
3 914 2027 487
3 1181 1509 1577
3 562 1073 387
3 496 2099 1972
3 1337 2134 629
3 824 2133 1338
3 331 1093 20
3 5 1183 81
3 709 1477 398
3 48 2074 472
3 1408 1447 1206
3 1032 1089 448
3 537 1089 1032
3 1210 1088 655
3 848 1088 1210
3 452 433 1148
3 1148 433 536
3 1183 950 81
3 331 1185 1093
3 1221 1802 748
3 456 1878 1056
3 769 1877 921
3 1477 1615 398
3 930 1176 484
3 840 1315 508
3 63 1823 1066
3 1100 1822 34
3 232 678 231
3 795 1274 793
3 814 1201 624
3 1045 1176 930
3 1208 1042 622
3 885 1042 1208
3 985 2027 914
3 782 1290 865
3 495 1290 782
3 701 1461 713
3 508 1755 840
3 1802 1922 748
3 748 1323 684
3 1205 1457 913
3 807 1457 1205
3 168 890 167
3 245 676 244
3 989 1953 719
3 114 974 113
3 299 1250 298
3 836 1535 449
3 439 1533 1278
3 654 2083 984
3 1206 688 515
3 1121 1369 490
3 514 1367 712
3 353 1886 354
3 640 1411 483
3 485 1187 668
3 63 1066 62
3 35 1100 34
3 1624 1780 563
3 628 1782 1626
3 1136 881 911
3 1095 2179 1664
3 414 881 1136
3 122 1000 121
3 291 1002 290
3 681 1257 577
3 387 1350 562
3 295 938 294
3 118 693 117
3 1123 2041 830
3 1157 1828 1125
3 61 2041 1123
3 1125 1828 36
3 1813 2116 941
3 1325 1479 565
3 594 1481 1326
3 713 1383 701
3 1085 1191 301
3 111 779 864
3 1464 1950 615
3 587 1952 1465
3 599 1671 1132
3 684 686 748
3 1141 1357 671
3 358 1726 925
3 1024 1275 417
3 666 1940 902
3 972 1739 454
3 490 1335 887
3 1317 632 514
3 1890 2201 1239
3 1332 2202 1891
3 782 1353 495
3 445 1556 394
3 454 1448 972
3 315 1924 749
3 963 1923 97
3 941 2116 1163
3 355 930 356
3 1427 1972 502
3 408 1673 1286
3 239 1662 1603
3 389 813 841
3 100 1011 99
3 313 888 312
3 706 1271 477
3 404 1431 833
3 1221 1883 494
3 817 1860 507
3 818 1861 1175
3 1224 1698 1650
3 409 1743 902
3 573 1139 1157
3 830 1352 834
3 1372 1671 599
3 111 1525 110
3 302 1524 301
3 902 1743 1151
3 744 1503 1115
3 1161 2092 748
3 477 2123 706
3 651 1019 434
3 452 886 972
3 965 1712 66
3 31 1713 740
3 43 576 42
3 55 657 54
3 841 813 599
3 674 960 955
3 958 1277 851
3 651 1627 906
3 519 2070 1163
3 1009 1176 889
3 484 1176 1009
3 728 960 674
3 851 1277 732
3 906 1622 651
3 1000 1053 121
3 291 1327 1002
3 1259 1749 664
3 1040 1749 1259
3 430 1747 1258
3 1258 1747 672
3 55 992 657
3 576 943 42
3 1139 1550 431
3 474 1547 1352
3 100 1416 1011
3 888 1414 312
3 487 2168 914
3 1202 1342 406
3 334 1480 1518
3 1517 1838 78
3 1115 1059 744
3 748 686 1161
3 741 1325 565
3 594 1326 1251
3 674 1003 728
3 732 1313 851
3 1149 1312 398
3 518 1150 1149
3 577 1791 681
3 398 1523 1149
3 1399 1735 774
3 1001 1759 994
3 772 1214 720
3 560 1214 772
3 479 1468 360
3 1603 1662 696
3 1149 1459 518
3 744 1357 833
3 723 1853 517
3 1283 1760 679
3 341 994 342
3 367 1283 368
3 172 1007 171
3 861 2201 1890
3 1891 2202 491
3 872 959 569
3 404 1472 1431
3 883 1399 774
3 717 2042 1286
3 766 1055 731
3 729 828 747
3 91 741 6
3 19 1251 321
3 974 1831 113
3 299 1832 1250
3 1518 1480 1020
3 1138 1838 1517
3 619 688 1206
3 308 988 307
3 105 582 104
3 122 1452 1000
3 1002 1775 290
3 904 1036 692
3 1159 1524 303
3 109 1525 1015
3 964 1623 1605
3 65 1104 64
3 33 1328 32
3 546 1698 1224
3 731 1344 766
3 747 1345 729
3 359 1078 23
3 65 1712 1104
3 1328 1713 32
3 927 905 855
3 1238 2155 429
3 609 2155 1238
3 964 1605 583
3 692 1309 904
3 721 1425 586
3 22 822 350
3 369 1081 24
3 21 832 340
3 360 1426 479
3 498 1448 602
3 972 1448 498
3 48 472 47
3 1883 2061 494
3 1198 1217 445
3 756 1065 1043
3 303 1524 302
3 110 1525 109
3 982 2037 471
3 359 957 1078
3 124 1988 674
3 851 2188 288
3 902 2100 666
3 537 819 983
3 689 1190 655
3 1335 1807 887
3 1317 1808 632
3 592 1430 1019
3 383 1890 1239
3 1332 1891 575
3 835 1917 1216
3 1218 1716 829
3 544 1953 989
3 914 1973 985
3 483 1652 640
3 426 1484 917
3 1019 1430 827
3 654 984 400
3 1239 1467 598
3 823 1963 1332
3 1117 1461 701
3 1017 1357 744
3 1014 1395 1159
3 1015 1396 644
3 968 1180 1084
3 394 1556 1380
3 400 1648 654
3 989 1645 844
3 597 2116 1813
3 1181 1577 770
3 396 967 1046
3 1215 874 413
3 475 928 1224
3 1224 928 495
3 1151 2100 902
3 841 1269 389
3 955 1452 674
3 851 1775 958
3 472 2074 502
3 568 808 721
3 1119 1461 1117
3 450 1214 560
3 427 891 449
3 1317 2087 523
3 614 1053 1000
3 1002 1327 465
3 449 1354 427
3 889 1176 842
3 355 2063 930
3 759 1969 1426
3 447 1295 1122
3 917 1484 1848
3 988 1748 1040
3 672 2022 582
3 842 1176 1045
3 701 912 1026
3 1026 912 423
3 707 2004 559
3 653 2005 464
3 1031 1353 782
3 1168 1349 380
3 612 1349 1168
3 856 567 388
3 663 567 856
3 857 1343 1167
3 1084 1410 968
3 495 1310 1224
3 1224 1310 546
3 198 2053 1267
3 853 2054 214
3 1007 1816 171
3 869 1811 1559
3 423 2078 1026
3 1026 2078 1902
3 1141 2001 447
3 671 1357 1017
3 1183 1970 950
3 1185 1971 1093
3 983 1664 537
3 655 1665 689
3 479 1377 585
3 1182 1672 1623
3 1278 2011 439
3 1577 1509 726
3 1270 1696 410
3 833 1503 744
3 748 2092 1221
3 950 1970 422
3 540 1971 1185
3 1086 1401 629
3 824 1403 1054
3 1684 2008 825
3 585 1468 479
3 1194 1997 525
3 736 1997 1194
3 1167 1855 720
3 1596 2149 712
3 1121 2148 1594
3 163 882 919
3 915 1105 249
3 179 1232 178
3 380 695 1197
3 1197 695 387
3 1070 2122 49
3 566 1890 1281
3 1280 1891 533
3 439 2011 1140
3 456 899 1318
3 897 1339 968
3 1200 773 630
3 1623 1672 702
3 1238 788 524
3 507 1297 817
3 1175 1118 818
3 50 1070 49
3 1216 1123 834
3 573 1125 1218
3 533 1622 906
3 1182 1623 566
3 1078 957 500
3 749 1924 823
3 598 1923 963
3 1168 1170 509
3 1700 1890 566
3 533 1891 1699
3 1331 2160 1682
3 1605 1623 702
3 1367 1596 712
3 1121 1594 1369
3 906 1627 476
3 844 544 989
3 1084 1180 726
3 1204 1493 187
3 207 1498 739
3 225 1495 1071
3 1267 2053 854
3 1177 2054 853
3 9 1940 1152
3 1347 1769 1110
3 1111 1771 1348
3 1346 1770 816
3 1484 1544 904
3 1431 1951 1055
3 828 1438 1883
3 1019 1894 434
3 91 1325 741
3 1251 1326 321
3 925 957 358
3 9 1152 174
3 793 1164 795
3 626 2068 1068
3 549 1748 988
3 582 2022 519
3 782 1451 1031
3 624 650 814
3 811 2077 1299
3 1298 1725 410
3 1159 1395 639
3 715 1396 1015
3 820 695 380
3 919 1292 162
3 250 1370 915
3 1038 1778 1005
3 1186 1915 424
3 694 842 894
3 43 735 576
3 657 1392 54
3 435 1505 1113
3 964 1506 698
3 404 1141 1166
3 623 1479 1325
3 1326 1481 727
3 1163 2070 941
3 1168 1510 612
3 1309 1484 904
3 825 2008 536
3 1122 2078 423
3 1046 1617 1274
3 1201 2069 1215
3 796 1972 1427
3 1157 1125 573
3 834 1123 830
3 759 1426 1078
3 1113 1505 592
3 583 1506 964
3 500 957 925
3 1005 1879 384
3 1115 1503 1344
3 1345 2092 1161
3 485 1802 1187
3 750 1029 665
3 625 539 499
3 974 1565 649
3 1250 1567 700
3 708 1567 1250
3 706 1565 974
3 387 1073 1197
3 1417 1826 742
3 432 1804 1202
3 855 905 521
3 1010 1349 612
3 322 1251 19
3 6 741 90
3 1103 1203 545
3 611 1203 1103
3 22 1471 822
3 1081 1585 24
3 21 1580 832
3 766 1431 1055
3 828 1883 747
3 401 1029 750
3 499 539 401
3 517 1740 723
3 756 1794 1065
3 575 1492 749
3 963 1491 383
3 295 1742 938
3 693 1741 117
3 380 1075 1168
3 1426 1969 479
3 486 1776 1324
3 612 1072 1010
3 840 1755 872
3 1009 1781 484
3 1559 1811 646
3 1102 1917 835
3 829 1716 1099
3 590 1417 742
3 884 1696 1270
3 465 2050 956
3 1184 1689 429
3 581 1689 1184
3 592 1519 1113
3 1642 1708 677
3 757 1709 1643
3 1647 1710 1064
3 731 1780 1729
3 1731 1782 729
3 1316 1063 1087
3 1110 2190 1347
3 1348 2191 1111
3 816 1516 1346
3 1010 1791 577
3 402 1720 871
3 1025 1719 786
3 387 1693 1282
3 461 1063 1316
3 1113 1622 533
3 566 1623 964
3 522 1636 1394
3 401 539 1029
3 1029 539 605
3 579 2160 1331
3 668 1004 485
3 925 1475 500
3 383 1239 963
3 749 1332 575
3 854 1039 507
3 818 860 1177
3 66 1712 65
3 32 1713 31
3 586 1556 1256
3 887 1789 2089
3 1339 1180 968
3 380 1080 820
3 1776 1849 1324
3 1005 1604 781
3 1010 1072 392
3 577 1080 1010
3 657 992 584
3 621 943 576
3 1400 1417 866
3 622 1417 1400
3 1399 1419 458
3 944 1419 1399
3 1136 1474 414
3 1163 1333 519
3 277 580 276
3 136 1027 135
3 475 1094 1311
3 285 1260 284
3 128 716 127
3 1312 1808 709
3 329 1757 991
3 954 1758 83
3 1381 1810 1464
3 232 1375 678
3 27 1932 1253
3 1052 1933 70
3 842 1886 894
3 733 1412 1315
3 1244 1717 595
3 382 1718 1245
3 762 2037 982
3 846 2016 700
3 803 2016 846
3 388 2094 856
3 1045 1886 842
3 502 2074 1427
3 586 1425 722
3 558 1047 1207
3 772 1564 560
3 1200 1829 773
3 760 2033 351
3 620 1483 1288
3 1025 1356 568
3 951 1306 742
3 742 1306 469
3 1344 1503 766
3 747 2092 1345
3 384 1588 1007
3 1007 1588 641
3 511 1247 1241
3 1240 1219 512
3 868 1196 844
3 1305 1324 990
3 486 1324 1305
3 427 1857 605
3 605 1858 450
3 447 2206 1166
3 707 1985 87
3 325 1987 464
3 1729 1780 745
3 987 1782 1731
3 721 1192 568
3 720 1083 1167
3 678 1037 231
3 507 1860 1267
3 853 1861 818
3 1000 1452 955
3 958 1775 1002
3 1381 1464 468
3 445 1217 1131
3 476 1592 906
3 1182 1593 571
3 404 1357 1141
3 377 1456 1307
3 507 1267 854
3 1177 853 818
3 424 1808 1312
3 548 2064 1063
3 937 1787 756
3 906 1592 535
3 792 1593 1182
3 523 1949 1317
3 194 1386 193
3 212 1385 211
3 201 1061 200
3 183 1387 182
3 219 1249 218
3 448 1091 1032
3 1210 1388 848
3 121 1053 120
3 292 1327 291
3 822 1471 596
3 832 1580 973
3 971 1585 1081
3 872 1901 959
3 1454 1889 451
3 1165 1666 467
3 1229 1454 451
3 495 1353 1310
3 615 2069 814
3 793 1617 587
3 610 1300 1073
3 1387 1432 182
3 1093 1757 330
3 82 1758 1183
3 559 2004 1294
3 1145 2005 653
3 1286 982 411
3 608 982 1286
3 449 1356 836
3 571 1672 1182
3 580 1624 421
3 627 1626 1027
3 745 1624 580
3 1027 1626 987
3 586 1443 721
3 1167 1444 857
3 1295 2078 1122
3 712 2087 1317
3 887 2089 1121
3 1315 1412 508
3 930 2063 1045
3 149 2203 1190
3 819 2204 263
3 1103 1112 616
3 545 1112 1103
3 560 1621 450
3 605 1621 427
3 450 1621 605
3 509 1510 1168
3 1098 1219 1252
3 1254 1247 879
3 388 1034 867
3 494 1802 1221
3 758 1754 839
3 689 2185 1092
3 751 1822 1100
3 1066 1823 737
3 56 992 55
3 42 943 41
3 848 1050 1263
3 1096 1354 449
3 439 1227 1230
3 199 1928 979
3 1304 1926 195
3 1174 1927 213
3 217 1929 1179
3 194 1926 1386
3 1061 1928 200
3 212 1927 1385
3 1249 1929 218
3 947 1799 777
3 789 1433 585
3 81 950 80
3 332 1185 331
3 155 1487 654
3 989 1488 257
3 1040 1874 988
3 582 1872 672
3 856 1546 663
3 684 1843 1571
3 1735 1754 1341
3 630 773 1213
3 1213 773 385
3 1197 1075 380
3 844 1196 544
3 1512 1606 1031
3 1459 1783 518
3 310 2103 1725
3 2077 2104 102
3 1279 2088 388
3 1006 1170 506
3 846 1469 803
3 442 1604 1005
3 983 1590 1095
3 1092 1589 689
3 695 1693 387
3 329 991 328
3 84 954 83
3 381 1735 1341
3 168 899 890
3 676 806 244
3 890 763 167
3 245 638 676
3 1754 1418 839
3 895 910 665
3 625 1382 1234
3 789 1714 362
3 386 1164 793
3 243 806 901
3 536 1129 1148
3 965 1155 633
3 714 1366 740
3 654 1487 590
3 719 1488 989
3 865 1796 782
3 840 909 1315
3 633 1712 965
3 740 1713 714
3 912 1522 423
3 558 1365 1047
3 525 1572 1194
3 339 0 25
3 4 73 72
3 310 1725 18
3 7 2077 102
3 27 1253 26
3 71 1052 70
3 962 1449 1722
3 1989 2065 898
3 804 2220 1086
3 1054 2219 790
3 693 1554 913
3 351 2033 352
3 845 1648 400
3 844 1645 995
3 1086 1561 804
3 790 1560 1054
3 448 1675 966
3 513 1889 1878
3 2182 1522 912
3 777 1799 1668
3 855 1912 1598
3 814 650 468
3 1214 1140 720
3 392 1791 1010
3 559 1618 707
3 464 1620 653
3 1371 1889 513
3 720 1855 772
3 561 1217 1198
3 357 1726 358
3 941 2150 407
3 1135 2150 941
3 301 1191 300
3 112 779 111
3 2015 2088 1279
3 87 2004 707
3 464 2005 325
3 516 1180 1339
3 37 1125 36
3 61 1123 60
3 2003 2116 542
3 520 1694 852
3 1097 1695 420
3 576 735 435
3 698 1392 657
3 141 2133 1560
3 1561 2134 271
3 894 1859 694
3 569 1604 771
3 1011 1416 792
3 535 1414 888
3 1306 1787 937
3 864 1596 715
3 639 1594 1085
3 1560 2133 1054
3 1086 2134 1561
3 1355 1853 1829
3 888 1492 575
3 383 1491 1011
3 200 1928 199
3 195 1926 194
3 213 1927 212
3 218 1929 217
3 862 1632 496
3 1017 1434 671
3 1187 1802 494
3 308 977 988
3 582 1188 104
3 468 1434 1017
3 58 1102 3
3 1 1099 39
3 1394 1636 794
3 564 1656 822
3 918 1655 832
3 1081 1657 675
3 629 1401 1256
3 1255 1403 824
3 1355 1829 534
3 969 1472 404
3 1190 2203 1210
3 1032 2204 819
3 896 1500 635
3 1248 1388 151
3 261 1091 966
3 170 1318 169
3 820 1080 577
3 1194 1835 736
3 1136 1980 1474
3 549 1500 896
3 737 1960 1264
3 939 1959 751
3 1266 1476 648
3 1032 819 537
3 655 1190 1210
3 998 1859 697
3 371 996 372
3 377 1307 378
3 347 1308 348
3 649 1831 974
3 1250 1832 708
3 585 1756 789
3 654 1648 155
3 257 1645 989
3 181 1432 1222
3 635 1389 896
3 715 1525 864
3 1085 1524 639
3 537 1047 1089
3 1088 1291 655
3 896 1389 428
3 395 1455 1225
3 687 1447 1408
3 118 1236 693
3 938 1022 294
3 1240 1970 618
3 604 1971 1241
3 694 1738 678
3 1323 1004 386
3 1150 1667 1186
3 641 1816 1007
3 723 1938 1853
3 1046 1583 587
3 615 2030 1215
3 501 1583 1046
3 1215 2030 552
3 468 1464 814
3 793 1465 386
3 1071 1900 225
3 739 1898 207
3 187 1896 1204
3 1266 1804 432
3 665 910 750
3 499 1382 625
3 720 1140 871
3 614 1833 1053
3 75 1052 74
3 338 1253 337
3 855 1598 927
3 444 1693 820
3 417 1275 774
3 774 1275 883
3 1327 1835 465
3 1571 1843 718
3 809 1051 953
3 903 1275 670
3 1023 1584 515
3 556 2098 1130
3 959 1604 569
3 693 2177 1554
3 1005 1778 442
3 678 1925 694
3 403 808 772
3 1243 2103 311
3 101 2104 1242
3 1343 1855 1167
3 1207 1047 537
3 655 1291 1293
3 1024 1884 1538
3 700 1567 1305
3 353 1536 894
3 822 1656 350
3 832 1655 340
3 369 1657 1081
3 1202 1629 432
3 454 1198 394
3 441 2130 1094
3 406 1727 1202
3 1094 2130 1542
3 501 1685 1003
3 1313 1686 552
3 1003 1685 728
3 732 1686 1313
3 362 1433 789
3 1892 1628 1376
3 1036 1690 752
3 904 1690 1036
3 1307 1456 797
3 403 1855 1343
3 477 1545 873
3 279 2223 1729
3 1731 2224 133
3 422 1970 1240
3 1241 1971 540
3 409 1377 1319
3 889 1887 1009
3 890 1640 572
3 416 1641 676
3 572 1597 890
3 676 1598 416
3 1384 1761 229
3 183 1763 1387
3 219 1764 1249
3 201 1765 1061
3 1385 1766 211
3 1386 1768 193
3 75 1943 1052
3 1253 1944 337
3 279 1729 278
3 134 1731 133
3 1044 1781 1009
3 1490 1511 919
3 391 1511 1490
3 915 1538 1489
3 1489 1538 669
3 966 2067 261
3 151 2066 1248
3 665 1354 1096
3 1230 1227 625
3 428 2129 896
3 833 1357 404
3 1098 2180 1219
3 1247 2161 879
3 988 1874 307
3 105 1872 582
3 611 1355 1203
3 1203 1355 534
3 472 1882 981
3 722 1380 586
3 602 1380 722
3 1554 2177 609
3 677 1708 850
3 1289 1709 757
3 1064 1710 753
3 839 1418 719
3 1024 1538 670
3 1271 1205 524
3 1030 1584 1023
3 603 1372 1195
3 425 1436 743
3 933 1437 1035
3 620 1669 1483
3 403 1343 722
3 537 1664 1207
3 1293 1665 655
3 490 1395 1018
3 1246 1396 514
3 931 1436 425
3 1035 1437 934
3 1194 1666 1165
3 1256 1556 1193
3 400 984 1311
3 432 1606 1266
3 962 1722 512
3 511 1989 898
3 526 1895 1785
3 1222 1721 181
3 1305 2028 486
3 529 2028 1305
3 724 1981 965
3 740 1982 802
3 688 2135 515
3 1758 1970 1183
3 1093 1971 1757
3 530 1508 1232
3 1293 1532 663
3 1256 1193 629
3 824 1268 1255
3 1253 1932 799
3 617 1933 1052
3 1231 1733 550
3 966 1675 600
3 593 1559 395
3 394 1448 454
3 644 1396 1246
3 1018 1395 1014
3 901 1226 1041
3 921 1226 901
3 471 1892 982
3 388 567 1279
3 867 1034 454
3 1785 1895 543
3 398 1615 1523
3 839 1065 758
3 440 1065 839
3 521 637 1200
3 965 1653 724
3 802 1654 740
3 1206 1549 619
3 525 1997 938
3 1459 1523 557
3 1149 1523 1459
3 587 1617 1046
3 1215 2069 615
3 1289 1497 457
3 613 1774 850
3 673 1494 753
3 1282 1350 387
3 674 1988 1003
3 1313 2188 851
3 577 1257 1287
3 1071 1495 613
3 457 1493 1204
3 739 1498 673
3 702 1030 1023
3 1132 1572 841
3 66 1653 965
3 740 1654 31
3 784 1535 836
3 1278 1533 734
3 1815 2068 626
3 618 1970 1758
3 1757 1971 604
3 443 1393 961
3 838 1209 446
3 847 1189 831
3 926 905 927
3 1063 2064 1087
3 1650 1698 441
3 800 1783 1459
3 384 2039 1005
3 838 1550 573
3 834 1547 961
3 1232 1508 528
3 446 1873 1116
3 826 1773 443
3 1050 1698 1263
3 198 1267 197
3 215 853 214
3 967 1257 681
3 562 1350 874
3 1255 1784 857
3 10 1763 183
3 12 1765 201
3 229 1761 15
3 211 1766 13
3 14 1764 219
3 193 1768 11
3 354 2063 355
3 1886 2063 354
3 1130 2098 1211
3 96 1302 95
3 317 1158 316
3 1131 1193 445
3 452 1268 433
3 177 1485 1143
3 617 1943 1321
3 1320 1944 799
3 613 2221 1071
3 1204 2125 457
3 673 2127 739
3 596 2059 822
3 973 1674 832
3 1081 2060 971
3 795 1697 1274
3 394 1198 445
3 484 1821 930
3 430 1736 1246
3 1246 1736 644
3 1014 2006 1018
3 1018 2006 664
3 1300 1575 1073
3 1201 1703 624
3 1540 1639 862
3 722 1919 602
3 511 898 939
3 1264 962 512
3 385 1229 1213
3 1213 1229 680
3 808 1564 772
3 1321 2111 617
3 799 2110 1320
3 1291 1532 1293
3 738 2164 1244
3 1245 2165 837
3 930 1528 356
3 241 900 240
3 399 1639 1540
3 752 1690 1322
3 1322 1690 916
3 781 1879 1005
3 991 1757 604
3 618 1758 954
3 149 1190 148
3 264 819 263
3 1232 1608 530
3 550 1939 1573
3 996 1942 372
3 347 1941 1308
3 1084 1378 451
3 532 1378 1084
3 423 1522 1122
3 1264 1960 962
3 898 1959 939
3 1376 1628 908
3 1342 1804 648
3 1202 1804 1342
3 472 2099 1882
3 92 1325 91
3 321 1326 320
3 1972 2099 502
3 775 1454 1079
3 1079 1454 385
3 719 1418 1419
3 568 1356 891
3 988 1500 549
3 1322 813 389
3 563 910 895
3 1234 1382 628
3 519 1893 582
3 1305 1567 529
3 1130 1211 759
3 953 1051 880
3 883 1275 903
3 1163 2116 2003
3 1284 2129 428
3 808 1425 721
3 612 1510 1273
3 968 2128 897
3 437 1708 1642
3 1643 1709 553
3 489 1710 1647
3 485 1922 1802
3 852 1694 863
3 1021 1695 1097
3 871 1083 720
3 568 1192 1025
3 771 2100 1151
3 402 2096 1720
3 1719 2097 786
3 1271 1545 477
3 1365 1476 1266
3 527 1738 998
3 1229 1378 680
3 451 1378 1229
3 1148 886 452
3 1323 1922 1004
3 475 1650 1094
3 407 2062 1127
3 1127 2062 908
3 433 2213 536
3 785 2124 1153
3 878 1504 812
3 755 2126 1082
3 1158 2170 382
3 595 2169 1302
3 442 2100 771
3 1356 2010 836
3 469 1306 937
3 526 2122 1070
3 179 1608 1232
3 407 1813 941
3 384 1879 897
3 98 1491 963
3 749 1492 314
3 814 2069 1201
3 1274 1617 793
3 1568 1990 282
3 130 2132 1571
3 897 1588 384
3 1340 1675 448
3 901 806 921
3 1231 1499 1733
3 1506 1557 1154
3 1184 1636 522
3 1340 1512 1031
3 1242 1416 101
3 311 1414 1243
3 1214 2200 1140
3 1122 503 447
3 500 1616 1078
3 1053 1833 1008
3 873 1777 477
3 1317 1949 709
3 685 1930 1222
3 1139 2159 1157
3 830 2222 1352
3 657 2045 698
3 435 2044 576
3 1025 1192 397
3 405 1083 871
3 565 1911 741
3 1251 1752 594
3 52 2082 555
3 454 1739 867
3 736 1835 1327
3 336 1320 335
3 77 1321 76
3 991 929 328
3 84 920 954
3 1411 2178 483
3 1542 1728 845
3 1987 1619 464
3 707 1659 1985
3 541 2068 1815
3 583 1557 1506
3 190 1233 189
3 223 783 222
3 205 493 204
3 923 1728 1542
3 997 1455 395
3 394 1380 602
3 403 1425 808
3 172 1016 1007
3 395 2002 593
3 1248 1050 848
3 1012 1618 559
3 653 1620 531
3 966 1091 448
3 848 1388 1248
3 187 1493 186
3 208 1498 207
3 226 1495 225
3 2089 1789 711
3 772 1855 403
3 1200 637 534
3 1244 1706 931
3 934 2121 1245
3 844 1954 868
3 1024 1483 780
3 417 1483 1024
3 1225 2002 395
3 388 2088 1034
3 581 1237 917
3 588 1980 1136
3 1075 1575 506
3 1394 1837 522
3 811 1613 1107
3 1391 1441 1983
3 881 1632 911
3 1279 2112 648
3 542 2116 1329
3 1078 1426 23
3 636 2003 1223
3 139 952 138
3 274 949 273
3 1017 1381 468
3 1052 1943 617
3 799 1944 1253
3 1652 2040 578
3 554 1486 593
3 87 1985 86
3 326 1987 325
3 1107 1704 811
3 457 1497 1493
3 1498 1494 673
3 1495 1774 613
3 911 1651 1136
3 938 1792 525
3 283 1568 282
3 130 1571 129
3 580 1114 276
3 136 1374 1027
3 773 1829 631
3 554 1549 1447
3 1717 2169 595
3 382 2170 1718
3 913 1741 693
3 792 1416 1242
3 1243 1414 535
3 593 1844 554
3 939 2161 511
3 512 2180 1264
3 584 2045 657
3 576 2044 621
3 916 813 1322
3 1333 2003 636
3 285 1301 1260
3 716 1390 127
3 1222 1432 685
3 1447 1549 1206
3 1127 1813 407
3 1255 1444 405
3 857 1444 1255
3 397 1443 1256
3 1256 1443 586
3 1046 1685 501
3 552 1686 1215
3 1373 1614 705
3 439 2200 1227
3 1232 1485 178
3 822 2108 564
3 832 2107 918
3 675 2106 1081
3 1078 1616 759
3 1195 1372 599
3 418 1365 1266
3 1474 1980 606
3 1311 984 469
3 1311 1094 400
3 1245 2121 382
3 595 1706 1244
3 1136 1651 588
3 467 1539 1165
3 622 1826 1417
3 107 1658 1258
3 1259 1660 305
3 311 2103 310
3 102 2104 101
3 1224 1650 475
3 786 2010 1025
3 1018 2014 490
3 514 2012 1246
3 593 1486 1559
3 896 1955 549
3 744 2225 1017
3 1096 1535 421
3 627 1533 1230
3 396 1257 967
3 874 1350 413
3 1149 1150 1312
3 1312 1150 424
3 478 1769 1347
3 455 1770 1346
3 1348 1771 481
3 1089 1512 448
3 418 1606 1512
3 954 920 412
3 662 929 991
3 1089 1047 418
3 406 1291 1088
3 1314 1884 780
3 1930 2000 1222
3 1252 1659 463
3 473 1619 1254
3 584 1460 1265
3 1101 1702 621
3 1347 2190 460
3 462 2191 1348
3 1346 1516 480
3 871 2011 402
3 1166 1958 969
3 143 1338 142
3 270 1337 269
3 508 1412 656
3 1262 1639 399
3 588 1845 1225
3 1263 1727 406
3 546 1727 1263
3 911 1639 1262
3 526 1785 1427
3 1286 1630 408
3 411 1630 1286
3 69 1077 68
3 29 870 28
3 923 2130 1248
3 261 2067 260
3 152 2066 151
3 397 1719 1025
3 871 1720 405
3 656 1412 696
3 52 555 51
3 1865 1884 1314
3 524 1545 1271
3 1316 1779 733
3 360 1468 361
3 997 2086 762
3 1027 2047 627
3 421 2046 580
3 395 2086 997
3 429 1636 1184
3 1329 1811 869
3 726 1509 1084
3 1427 1785 796
3 1084 1509 532
3 145 825 144
3 268 1331 267
3 1049 1217 561
3 579 1217 1049
3 1225 1827 588
3 1523 1615 843
3 421 1624 895
3 1234 1626 627
3 1048 2057 1602
3 328 929 327
3 85 920 84
3 2084 1659 1252
3 1254 1619 2085
3 600 2067 966
3 1248 2066 923
3 1108 503 1187
3 683 2000 1930
3 1256 1401 397
3 405 1403 1255
3 867 2094 388
3 903 1945 252
3 160 1415 953
3 1303 2170 1158
3 1302 2169 1120
3 415 1619 1987
3 1985 1659 892
3 1197 1575 1075
3 1242 1593 792
3 535 1592 1243
3 798 922 788
3 788 922 524
3 1246 2109 430
3 664 2013 1018
3 1260 2030 615
3 587 1583 716
3 937 1724 469
3 641 1368 1318
3 1216 1537 1123
3 1125 2090 1218
3 1318 1368 456
3 1238 1554 609
3 512 1722 1240
3 1241 1989 511
3 1614 1744 705
3 865 1196 868
3 266 1682 1590
3 1589 1684 146
3 791 1792 1742
3 1742 1792 938
3 618 1793 1240
3 1241 1482 604
3 151 1388 150
3 262 1091 261
3 1217 2212 1131
3 579 2212 1217
3 831 1189 419
3 907 905 926
3 728 2228 960
3 1277 2230 732
3 528 1918 1232
3 764 1888 797
3 1001 2020 1285
3 524 1914 1238
3 986 2018 679
3 277 1601 580
3 1027 1966 135
3 648 1804 1266
3 756 1625 937
3 1675 1954 600
3 973 1581 1514
3 1515 1586 971
3 596 1578 1513
3 1026 1117 701
3 356 1528 357
3 1074 1951 1431
3 1883 1438 1076
3 503 2115 668
3 722 1425 403
3 559 1637 1012
3 531 1635 653
3 1079 1974 775
3 528 2152 945
3 1143 1485 645
3 1247 1482 1241
3 1240 1793 1219
3 429 1689 1238
3 1541 1561 272
3 140 1560 1543
3 1152 1940 666
3 1122 2115 503
3 982 1663 762
3 608 1663 982
3 733 1442 1316
3 254 1235 253
3 159 948 158
3 1602 2057 876
3 443 1637 826
3 1116 1635 446
3 426 1544 1484
3 1130 1701 556
3 296 1742 295
3 117 1741 116
3 1127 1261 597
3 1029 1857 665
3 625 1858 539
3 759 1211 1319
3 760 1656 564
3 675 1657 1283
3 994 1655 918
3 1227 2200 450
3 1258 1875 107
3 305 2120 1259
3 96 1923 1302
3 1158 1924 316
3 1376 1667 518
3 908 1667 1376
3 703 1549 1844
3 1343 1919 722
3 909 1701 1134
3 953 1834 160
3 252 1798 903
3 352 1536 353
3 1505 1732 592
3 1342 1532 406
3 621 2044 1101
3 1265 2045 584
3 157 1160 156
3 256 893 255
3 1013 1732 1505
3 1107 1613 1223
3 243 901 242
3 999 1942 996
3 1308 1941 691
3 436 2113 1351
3 393 1753 1507
3 844 2218 1954
3 1250 1530 298
3 114 1531 974
3 759 1616 1130
3 451 1410 1084
3 165 1934 831
3 926 1935 247
3 701 1383 912
3 877 1785 543
3 543 1852 877
3 555 2082 1154
3 917 1237 603
3 432 1964 1606
3 401 1600 499
3 750 1555 401
3 385 1920 1079
3 1319 1211 942
3 182 1432 181
3 1635 2208 653
3 559 1825 1637
3 1153 2124 510
3 505 1504 878
3 1082 2126 497
3 1240 1429 422
3 540 2131 1241
3 1011 1491 99
3 313 1492 888
3 1882 1866 827
3 3 425 57
3 40 1035 1
3 1274 1697 396
3 413 1703 1201
3 498 1784 452
3 877 1540 796
3 1377 1969 1319
3 1213 1912 630
3 1305 2162 700
3 700 2016 1250
3 974 2017 706
3 1349 1080 380
3 1007 2039 384
3 1231 1458 620
3 786 2049 836
3 1278 2048 402
3 836 2049 784
3 734 2048 1278
3 483 2040 1652
3 1335 1576 557
3 765 1576 1335
3 900 1984 1041
3 431 1028 1139
3 1352 1358 474
3 1147 2095 410
3 877 1852 619
3 1453 1742 296
3 116 1741 1457
3 570 2159 1139
3 1352 2222 547
3 351 1656 760
3 1283 1657 368
3 341 1655 994
3 829 1209 838
3 961 1393 835
3 1302 1923 598
3 823 1924 1158
3 492 1467 1239
3 1332 1963 574
3 1011 2147 383
3 575 2146 888
3 602 1448 394
3 941 2070 1135
3 399 1856 1262
3 544 1196 440
3 1043 1065 440
3 322 1435 1251
3 741 1751 90
3 563 1439 910
3 1382 1440 628
3 1213 1965 1912
3 1101 2044 435
3 698 2045 1265
3 891 1356 449
3 562 2229 1073
3 1036 1983 692
3 743 1436 607
3 1272 1437 933
3 1260 1812 284
3 128 1569 716
3 831 1871 165
3 247 1870 926
3 434 1894 414
3 1422 1824 765
3 1010 1080 1349
3 1139 1028 570
3 547 1358 1352
3 1386 1649 1067
3 1385 1647 1064
3 1062 1646 1249
3 1384 1642 677
3 757 1643 1387
3 1060 1644 1061
3 567 2112 1279
3 389 1469 846
3 725 1600 401
3 1287 1595 444
3 1258 1736 430
3 664 2006 1259
3 725 1555 875
3 466 1602 725
3 164 882 163
3 249 1105 248
3 1153 2215 785
3 812 2217 878
3 1082 2216 755
3 23 1426 360
3 945 1854 364
3 714 1713 1328
3 1104 1712 633
3 881 1866 1632
3 875 1711 725
3 699 1290 928
3 928 1290 495
3 317 1303 1158
3 1302 1120 95
3 1170 1075 506
3 1169 1981 724
3 802 1982 1171
3 700 2162 846
3 401 1555 725
3 458 1735 1399
3 846 2163 389
3 1200 2038 521
3 1609 1653 67
3 30 1654 1612
3 1268 1784 1255
3 1107 1223 542
3 1047 1365 418
3 1055 1780 731
3 729 1782 828
3 880 1834 953
3 903 1798 883
3 607 1436 492
3 574 1437 1272
3 1266 1606 418
3 967 1685 1046
3 1215 1686 874
3 730 1441 1391
3 1383 1697 795
3 1100 1947 751
3 737 1948 1066
3 912 1383 795
3 615 1950 1260
3 716 1952 587
3 235 1634 1044
3 1538 1884 669
3 991 1482 662
3 412 1793 954
3 376 1979 764
3 1285 1466 343
3 1379 2081 45
3 231 1037 230
3 725 1711 466
3 764 1534 1888
3 2020 2139 1285
3 672 1875 1258
3 1259 2120 1040
3 640 1940 1411
3 604 1482 991
3 954 1793 618
3 1263 1698 546
3 986 2140 2018
3 796 1785 877
3 624 1703 1117
3 1262 1651 911
3 1572 2072 841
3 259 995 258
3 154 845 153
3 624 1117 1026
3 630 2038 1200
3 850 1708 613
3 457 1709 1289
3 753 1710 673
3 893 1419 944
3 719 1419 893
3 866 1417 1160
3 1160 1417 590
3 1031 1964 1353
3 162 1292 161
3 251 1370 250
3 1430 1882 827
3 1528 1726 357
3 1422 2151 1824
3 888 2146 535
3 792 2147 1011
3 104 1188 103
3 309 977 308
3 1184 1237 581
3 506 2043 1006
3 1315 909 461
3 46 1379 45
3 557 1576 1459
3 1459 1576 800
3 797 1681 1307
3 691 1677 1308
3 996 2186 999
3 364 1916 945
3 881 1894 827
3 761 1649 1386
3 538 1647 1385
3 1249 1646 667
3 1387 1643 685
3 1061 1644 682
3 527 1642 1384
3 294 1022 293
3 119 1236 118
3 945 1916 767
3 534 1829 1200
3 1262 1856 940
3 1344 1730 1115
3 1161 1968 1345
3 1220 1548 640
3 624 1902 650
3 1369 1395 490
3 514 1396 1367
3 533 1699 1101
3 1265 1700 566
3 436 1237 1184
3 480 1513 1346
3 460 1514 1347
3 1348 1515 462
3 1514 1581 970
3 776 1586 1515
3 1513 1578 778
3 414 1894 881
3 626 1814 1815
3 940 1845 1262
3 227 1463 850
3 1289 1767 185
3 209 1762 753
3 864 2035 1596
3 1594 2036 1085
3 956 2050 610
3 1520 1868 1142
3 643 1867 1521
3 448 1512 1340
3 953 1415 809
3 670 1945 903
3 169 899 168
3 244 806 243
3 167 763 166
3 246 638 245
3 1152 1778 1038
3 241 1984 900
3 469 2083 742
3 1116 1873 1705
3 1707 1773 826
3 234 2075 1887
3 1391 1815 730
3 541 1815 1391
3 642 2149 1596
3 1594 2148 601
3 237 1058 236
3 513 1878 1368
3 839 1953 440
3 800 1824 1630
3 999 2019 1162
3 1336 2021 691
3 1116 2208 1635
3 1637 1825 826
3 619 1862 877
3 1297 1428 817
3 1175 1909 1118
3 1722 1449 634
3 1069 2065 1989
3 619 1549 703
3 1164 2182 795
3 629 1527 1337
3 1337 1527 1128
3 1338 2114 824
3 821 2114 1338
3 1559 1486 869
3 1133 1436 931
3 934 1437 935
3 425 1850 57
3 40 1851 1035
3 1315 1442 733
3 1310 1353 432
3 836 2010 786
3 1006 1723 1170
3 366 2025 986
3 1590 1682 1095
3 1092 1684 1589
3 1129 2185 459
3 1195 1570 426
3 1220 1652 578
3 418 1512 1089
3 1298 1999 18
3 7 1998 1299
3 852 2183 520
3 420 2184 1097
3 640 1652 1220
3 1284 2042 717
3 608 2042 1284
3 441 1698 1050
3 1168 1075 1170
3 751 1947 939
3 1264 1948 737
3 181 1721 180
3 1323 1843 684
3 1108 2206 503
3 535 2146 1280
3 1281 2147 792
3 428 1389 1147
3 1346 1513 778
3 1347 1514 970
3 776 1515 1348
3 93 2031 92
3 320 2032 319
3 492 1436 1133
3 935 1437 574
3 1226 1877 532
3 1191 2036 708
3 649 2035 779
3 1421 1747 430
3 1135 1747 1421
3 664 1749 1422
3 1422 1749 1137
3 593 2002 1844
3 1208 1400 880
3 622 1400 1208
3 410 1696 1147
3 578 1756 1220
3 1405 1769 1060
3 1404 1770 1062
3 1067 1771 1406
3 581 1848 788
3 788 1848 798
3 1220 1756 585
3 1273 1956 612
3 143 2172 1338
3 1337 2173 269
3 580 1601 745
3 987 1966 1027
3 597 1813 1127
3 1475 2226 1420
3 1110 1769 1405
3 816 1770 1404
3 1406 1771 1111
3 804 1561 1541
3 1543 1560 790
3 961 1547 443
3 446 1550 838
3 681 2228 967
3 967 2228 728
3 874 2230 562
3 732 2230 874
3 400 1542 845
3 1276 2164 1937
3 2158 2165 660
3 706 1885 1271
3 1844 1549 554
3 1279 1476 558
3 781 1604 959
3 880 1400 948
3 948 1400 866
3 1235 1399 883
3 944 1399 1235
3 1238 1689 788
3 1041 1226 1181
3 1181 1226 532
3 821 2172 825
3 1331 2173 1128
3 336 1944 1320
3 1321 1943 76
3 784 2046 1535
3 1533 2047 734
3 959 1901 516
3 950 1817 80
3 332 1818 1185
3 1844 2002 940
3 863 1694 1517
3 1518 1695 1021
3 2008 2185 1129
3 459 1199 1129
3 663 1546 1293
3 1293 1546 459
3 742 2083 590
3 498 1919 857
3 1288 1483 417
3 952 1819 138
3 274 1820 949
3 504 1552 1207
3 1207 1552 558
3 661 1868 1520
3 1521 1867 659
3 319 2032 1470
3 1473 2031 93
3 1517 1694 1138
3 1020 1695 1518
3 1148 1478 886
3 886 1478 438
3 286 1301 285
3 127 1390 126
3 599 2102 1195
3 764 1456 376
3 343 1759 1285
3 358 957 359
3 1043 1625 756
3 699 1625 1043
3 1464 1810 976
3 986 1760 366
3 665 1857 1354
3 1227 1858 625
3 1596 2035 642
3 601 2036 1594
3 938 1997 1022
3 746 2111 1321
3 1320 2110 801
3 1389 2095 1147
3 1598 1912 416
3 1041 2153 900
3 783 1975 222
3 493 1976 204
3 190 1977 1233
3 239 1603 238
3 1260 1950 1812
3 1569 1952 716
3 742 1826 951
3 1008 2177 1236
3 1233 2034 189
3 223 1899 783
3 205 1897 493
3 278 1601 277
3 135 1966 134
3 585 2197 1220
3 1845 2002 1225
3 660 1836 1033
3 768 1800 1276
3 1043 1745 699
3 1107 1462 687
3 687 1462 993
3 564 2144 760
3 918 2145 994
3 1283 1806 675
3 589 2164 1276
3 660 2165 591
3 1362 1364 675
3 564 1090 1360
3 918 1361 1363
3 1338 2172 821
3 1128 2173 1337
3 950 1957 1817
3 1818 2073 1185
3 173 1016 172
3 520 1981 1169
3 1171 1982 420
3 960 1994 955
3 958 1995 1277
3 419 1871 831
3 926 1870 907
3 797 1456 764
3 1285 1759 1001
3 760 1446 697
3 679 1803 1283
3 994 1805 1001
3 819 2119 983
3 689 1424 1190
3 1013 2081 1379
3 920 2084 412
3 662 2085 929
3 679 1760 986
3 542 1462 1107
3 1850 1591 992
3 943 2142 1851
3 352 2033 1536
3 867 1739 438
3 719 1953 839
3 648 1476 1279
3 463 1618 1012
3 531 1620 473
3 591 1836 660
3 1276 1800 589
3 940 2002 1845
3 432 1629 1310
3 1310 1629 546
3 1252 1219 412
3 662 1247 1254
3 334 1518 333
3 79 1517 78
3 440 2105 1043
3 178 1485 177
3 69 1933 1077
3 870 1932 28
3 850 1774 227
3 185 1497 1289
3 753 1494 209
3 137 1374 136
3 276 1114 275
3 554 1447 993
3 362 1714 363
3 973 1514 1153
3 878 1515 971
3 596 1513 1082
3 1284 1797 608
3 428 1799 1284
3 1012 1991 463
3 473 1993 531
3 1354 1857 427
3 450 1858 1227
3 522 2166 1184
3 908 1628 1127
3 318 1303 317
3 95 1120 94
3 997 1797 947
3 825 2213 821
3 1128 2212 1331
3 402 2011 1278
3 558 2015 1279
3 1300 2043 506
3 815 2043 1300
3 724 1653 1609
3 1612 1654 802
3 236 1634 235
3 257 1488 256
3 156 1487 155
3 917 1848 581
3 1330 2168 487
3 730 2168 1330
3 743 1591 1850
3 1851 2142 933
3 1439 2192 910
3 1382 2193 1440
3 252 1945 251
3 161 1415 160
3 550 1573 1231
3 1853 1938 631
3 26 1398 25
3 72 1397 71
3 1812 1950 976
3 718 1952 1569
3 717 2129 1284
3 656 1755 508
3 233 1375 232
3 831 1934 847
3 927 1935 926
3 1340 1451 470
3 1031 1451 1340
3 1207 1664 504
3 459 1665 1293
3 474 1991 1012
3 531 1993 431
3 1501 2152 1508
3 891 1564 568
3 697 2033 760
3 825 2172 144
3 268 2173 1331
3 670 1538 1370
3 1370 1538 915
3 919 1511 1292
3 1292 1511 809
3 635 1999 1298
3 1299 1998 636
3 247 1935 246
3 166 1934 165
3 993 1486 554
3 743 1850 425
3 1035 1851 933
3 1004 1922 485
3 590 1487 1160
3 893 1488 719
3 378 1587 379
3 348 2029 349
3 370 1579 371
3 1286 2042 608
3 1375 1887 889
3 978 1755 656
3 932 2152 1501
3 1003 1988 125
3 287 2188 1313
3 708 2036 1788
3 1786 2035 649
3 990 2162 1305
3 1270 1750 476
3 1887 2075 1009
3 1193 1527 629
3 824 2114 1268
3 490 2014 1335
3 632 2012 514
3 612 1956 1072
3 177 1143 176
3 1140 2200 439
3 745 1780 1624
3 1626 1782 987
3 704 1990 1568
3 1571 2132 684
3 571 2023 1359
3 809 1939 1051
3 922 1545 524
3 1023 1605 702
3 399 1862 703
3 1178 1904 682
3 538 1908 1228
3 761 1906 1109
3 849 1910 667
3 469 1724 1311
3 1253 1398 26
3 71 1397 1052
3 703 1862 619
3 92 2031 1325
3 1326 2032 320
3 1023 2135 924
3 728 1685 967
3 874 1686 732
3 393 1526 1341
3 1341 1526 381
3 188 1896 187
3 225 1900 224
3 207 1898 206
3 551 1750 1270
3 35 1828 1100
3 1066 2041 62
3 705 1744 1726
3 1996 2177 1008
3 1729 1601 278
3 134 1966 1731
3 868 1796 865
3 1726 1744 925
3 1375 1925 678
3 1262 1845 1651
3 1359 2023 975
3 1073 2229 610
3 606 1668 1147
3 553 1803 1173
3 998 1446 437
3 1228 1805 489
3 850 1463 677
3 757 1767 1289
3 753 1762 1064
3 515 2135 1023
3 90 1751 89
3 323 1435 322
3 338 1398 1253
3 1052 1397 74
3 859 1489 669
3 907 1489 859
3 391 1490 1172
3 1172 1490 419
3 1651 1845 588
3 1374 2047 1027
3 580 2046 1114
3 1360 1090 613
3 457 1364 1362
3 1363 1361 673
3 1131 1527 1193
3 1268 2114 433
3 1212 1511 391
3 809 1511 1212
3 434 1627 651
3 777 1668 606
3 771 1604 442
3 1573 1458 1231
3 2163 2167 1322
3 443 1773 1393
3 1209 1873 446
3 1933 2111 1077
3 870 2110 1932
3 660 1209 829
3 835 1393 1276
3 1017 2225 1381
3 585 1433 1468
3 1346 1678 455
3 1347 1676 478
3 481 1680 1348
3 230 2194 229
3 165 1871 164
3 248 1870 247
3 777 1980 588
3 273 1541 272
3 140 1543 139
3 619 1852 688
3 1106 1574 1072
3 101 1416 100
3 312 1414 311
3 685 1432 1387
3 1072 1956 1106
3 1817 1957 863
3 1021 2073 1818
3 389 2163 1322
3 240 1662 239
3 847 1740 1189
3 536 2213 825
3 1331 2212 579
3 636 1613 1299
3 74 1397 73
3 339 1398 338
3 1288 2181 620
3 805 2181 1288
3 620 2181 1231
3 610 2050 1300
3 1298 2095 635
3 1602 2157 1048
3 568 1564 808
3 68 1609 67
3 30 1612 29
3 472 1737 47
3 900 1662 240
3 1665 2185 689
3 2019 1599 1162
3 1336 2189 2021
3 1199 2094 438
3 856 2094 1199
3 778 1678 1346
3 970 1676 1347
3 1348 1680 776
3 460 2215 1153
3 878 2217 462
3 480 2216 1082
3 1173 1803 679
3 697 1446 998
3 1001 1805 1228
3 724 2141 1169
3 1171 1611 802
3 1330 1777 873
3 702 1672 1030
3 305 1660 304
3 108 1658 107
3 1199 1546 856
3 459 1546 1199
3 875 2154 1711
3 438 2094 867
3 1899 2216 783
3 1233 2217 2034
3 1897 2215 493
3 692 1607 1309
3 658 1903 1421
3 160 1834 159
3 253 1798 252
3 1059 2225 744
3 267 1682 266
3 146 1684 145
3 1540 1972 796
3 704 2225 1059
3 677 1761 1384
3 1387 1763 757
3 1249 1764 1062
3 1061 1765 1060
3 1064 1766 1385
3 1067 1768 1386
3 417 1631 1288
3 44 735 43
3 54 1392 53
3 940 1856 703
3 1307 1681 1676
3 1308 1677 1678
3 1680 2186 996
3 447 2001 1295
3 857 1784 498
3 1329 2055 542
3 1344 2223 280
3 132 2224 1345
3 1630 1824 408
3 687 1704 1107
3 993 2055 869
3 1461 1595 713
3 1151 2207 771
3 865 2105 1196
3 1235 2205 944
3 254 2205 1235
3 948 1913 158
3 866 1913 948
3 993 1447 687
3 862 1972 1540
3 1033 1209 660
3 1276 1393 768
3 1307 1676 970
3 1308 1678 778
3 776 1680 996
3 626 1949 1814
3 1115 2079 1059
3 686 2080 1161
3 703 1844 940
3 949 1541 273
3 139 1543 952
3 883 1798 1235
3 948 1834 880
3 767 1772 1450
3 1160 1487 156
3 256 1488 893
3 607 2201 861
3 491 2202 1272
3 1187 503 668
3 1711 2154 969
3 78 1838 77
3 335 1480 334
3 1212 1939 809
3 1265 1460 1700
3 1699 1702 1101
3 229 2194 1384
3 887 1807 843
3 709 1808 1317
3 703 1856 399
3 422 1957 950
3 1185 2073 540
3 18 1999 309
3 103 1998 7
3 1012 1683 474
3 431 1638 531
3 694 1925 842
3 1671 1666 1132
3 770 1610 900
3 453 1428 1297
3 1118 1909 690
3 56 1850 992
3 943 1851 41
3 125 1881 1003
3 1313 1880 287
3 467 1666 1671
3 1555 2192 875
3 1019 1519 592
3 1178 1888 1904
3 1908 2020 1228
3 849 2021 1910
3 1906 2019 1109
3 1324 1849 752
3 1557 1801 488
3 678 1738 1037
3 610 1995 956
3 882 1490 919
3 419 1490 882
3 915 1489 1105
3 1105 1489 907
3 936 1671 1372
3 884 1409 434
3 1296 1423 614
3 857 1919 1343
3 854 1907 1039
3 860 1905 1177
3 771 2136 569
3 1288 1790 805
3 639 1524 1159
3 1015 1525 715
3 780 1884 1024
3 382 1962 1158
3 1302 1496 595
3 955 1994 1296
3 956 1995 958
3 924 2176 1023
3 1092 2008 1684
3 488 1801 1445
3 602 1919 498
3 1208 1733 885
3 774 1735 381
3 373 1942 1162
3 1336 1941 346
3 1888 1534 482
3 652 2139 2020
3 981 1737 472
3 510 1674 1153
3 878 2060 505
3 497 2059 1082
3 605 1857 1029
3 539 1858 605
3 1729 2223 731
3 729 2224 1731
3 663 2112 567
3 668 1795 1004
3 795 2182 912
3 386 1843 1323
3 1158 1962 823
3 598 1496 1302
3 1134 2226 1063
3 2018 2140 683
3 1600 2193 499
3 1091 2204 1032
3 1210 2203 1388
3 471 1628 1892
3 1082 1513 480
3 1153 1514 460
3 462 1515 878
3 1311 1724 475
3 1147 1696 606
3 1282 1715 1350
3 1319 1743 409
3 647 1781 1044
3 1523 1807 557
3 843 1807 1523
3 1820 2049 949
3 952 2048 1819
3 876 2193 1600
3 375 1979 376
3 343 1466 344
3 1160 1913 866
3 157 1913 1160
3 944 2205 893
3 893 2205 255
3 813 2102 599
3 1257 2026 1287
3 1147 1668 428
3 1342 2112 663
3 942 1743 1319
3 437 1642 998
3 1173 1643 553
3 1178 1644 478
3 849 1646 455
3 489 1647 1228
3 481 1649 1109
3 1475 1420 500
3 470 1954 1675
3 640 1548 902
3 137 1819 1374
3 1114 1820 275
3 99 1491 98
3 314 1492 313
3 234 1887 233
3 1044 1634 647
3 280 2223 279
3 133 2224 132
3 1153 1674 973
3 971 2060 878
3 1082 2059 596
3 258 1645 257
3 155 1648 154
3 1299 1613 811
3 260 2175 259
3 153 1728 152
3 59 1537 1917
3 1716 2090 38
3 286 1880 1301
3 1390 1881 126
3 1104 1823 64
3 33 1822 1328
3 556 1701 909
3 221 1404 220
3 203 1405 202
3 192 1406 191
3 1026 1902 624
3 464 1619 1620
3 1618 1659 707
3 900 2153 770
3 1170 1723 509
3 639 1395 1369
3 1367 1396 715
3 1304 1906 761
3 682 1904 979
3 1174 1908 538
3 667 1910 1179
3 381 1631 774
3 774 1631 417
3 1374 1819 734
3 784 1820 1114
3 504 1691 1552
3 1552 1691 754
3 379 1587 1581
3 349 2029 1578
3 1586 1579 370
3 699 1734 1625
3 1682 2160 1095
3 1077 1609 68
3 29 1612 870
3 761 1926 1304
3 979 1928 682
3 538 1927 1174
3 1179 1929 667
3 518 1667 1150
3 982 1892 411
3 461 1442 1315
3 897 1879 1339
3 873 1607 1330
3 613 1708 1360
3 1362 1709 457
3 673 1710 1363
3 175 1411 9
3 410 2095 1298
3 440 1953 544
3 786 2097 949
3 952 2096 402
3 1005 2039 1038
3 374 1521 375
3 344 1520 345
3 1688 1800 623
3 727 1836 1687
3 787 2182 1164
3 470 1796 868
3 685 1643 1173
3 682 1644 1178
3 998 1642 527
3 667 1646 849
3 1228 1647 538
3 1109 1649 761
3 979 2053 199
3 195 2052 1304
3 213 2054 1174
3 1179 2051 217
3 1076 2061 1883
3 18 1725 1298
3 1299 2077 7
3 271 2134 270
3 142 2133 141
3 889 1925 1375
3 854 2053 979
3 1304 2052 817
3 1174 2054 1177
3 1175 2051 1179
3 861 1460 607
3 1272 1702 491
3 2195 1553 572
3 550 2076 1051
3 635 1500 977
3 977 1500 988
3 650 1902 858
3 1169 1694 520
3 420 1695 1171
3 1138 1694 1169
3 1171 1695 1020
3 561 1691 1049
3 1049 1691 504
3 668 2115 1795
3 623 1800 1479
3 1481 1836 727
3 1248 2130 1050
3 788 1689 581
3 1614 2064 548
3 877 1862 1540
3 288 2188 287
3 125 1988 124
3 1301 2030 1260
3 716 1583 1390
3 452 1784 1268
3 984 2083 469
3 820 1693 695
3 284 1812 283
3 129 1569 128
3 869 1486 993
3 817 1428 1304
3 979 1907 854
3 1177 1905 1174
3 1179 1909 1175
3 1053 1863 120
3 1008 1863 1053
3 1327 1864 736
3 292 1864 1327
3 710 1786 1565
3 1565 1786 649
3 1567 1788 529
3 708 1788 1567
3 1423 1574 1106
3 107 1875 106
3 306 2120 305
3 656 1577 978
3 746 2141 1077
3 870 1611 801
3 1309 1946 798
3 1073 1575 1197
3 1331 1682 267
3 145 1684 825
3 1320 1480 335
3 77 1838 1321
3 1184 2166 436
3 1917 1537 1216
3 1218 2090 1716
3 185 1767 184
3 210 1762 209
3 228 1463 227
3 1903 2150 1421
3 1351 2113 509
3 1540 1862 399
3 73 1397 72
3 25 1398 339
3 521 1842 637
3 1086 2220 1401
3 1403 2219 1054
3 1003 1881 501
3 552 1880 1313
3 1420 2226 1134
3 1714 1967 767
3 588 1827 777
3 951 1753 1334
3 1334 1753 393
3 789 1967 1714
3 777 1827 947
3 454 2101 1198
3 281 1990 1059
3 686 2132 131
3 1044 2075 235
3 1733 1499 885
3 787 1522 2182
3 1474 1696 884
3 1004 1795 386
3 1269 1469 389
3 1127 1628 1261
3 1625 1734 937
3 843 1789 887
3 606 1696 1474
3 1697 2026 396
3 425 1563 931
3 934 1562 1035
3 892 2084 920
3 929 2085 415
3 1473 1688 623
3 727 1687 1470
3 859 1865 390
3 669 1865 859
3 965 1981 1155
3 1366 1982 740
3 970 1587 1307
3 778 2029 1308
3 996 1579 776
3 365 2025 366
3 798 1484 1309
3 880 2076 1208
3 763 1597 847
3 890 1597 763
3 927 1598 638
3 638 1598 676
3 946 1688 1473
3 1470 1687 1057
3 1983 1441 692
3 116 2214 115
3 297 2118 296
3 1261 1628 471
3 750 2192 1555
3 752 2167 1324
3 1324 2167 990
3 868 1954 470
3 1577 1413 978
3 770 1577 656
3 502 2099 472
3 1100 2159 1947
3 1948 2222 1066
3 636 1998 1188
3 977 1999 635
3 1261 2037 646
3 916 2102 813
3 471 2037 1261
3 1172 1869 391
3 611 1869 1172
3 458 1754 1735
3 1193 1556 445
3 466 2157 1602
3 1009 2075 1044
3 913 1914 1205
3 975 2104 2077
3 1725 2103 551
3 1090 2221 613
3 1361 2127 673
3 457 2125 1364
3 616 1961 1103
3 413 1715 1703
3 1364 2106 675
3 564 2108 1090
3 918 2107 1361
3 1693 1921 1282
3 444 1921 1693
3 386 1795 1164
3 372 1942 373
3 346 1941 347
3 391 1961 1212
3 767 1967 1772
3 470 1675 1340
3 1212 1961 616
3 492 2201 607
3 1272 2202 574
3 1328 1822 751
3 737 1823 1104
3 364 1854 365
3 597 1811 1329
3 1539 1402 1006
3 1034 2101 454
3 16 1779 1316
3 1219 1793 412
3 662 1482 1247
3 861 1890 1700
3 1699 1891 491
3 858 1434 650
3 1350 1715 413
3 298 1530 297
3 115 1531 114
3 650 1434 468
3 2128 2093 897
3 783 1516 1975
3 493 2190 1976
3 1977 2191 1233
3 1219 2180 512
3 511 2161 1247
3 1307 1587 378
3 1308 2029 348
3 371 1579 996
3 1039 1867 507
3 818 1868 860
3 1319 1969 759
3 632 1915 658
3 424 1915 632
3 1070 1895 526
3 119 1863 1236
3 1236 1863 1008
3 736 1864 1022
3 1022 1864 293
3 572 1640 1056
3 769 1641 416
3 726 1413 1577
3 659 1867 1039
3 860 1868 661
3 1025 2010 1356
3 882 1871 419
3 907 1870 1105
3 89 2210 88
3 324 2209 323
3 488 1895 1070
3 801 1839 1320
3 1321 2211 746
3 1717 2164 589
3 591 2165 1718
3 1140 2011 871
3 1244 2164 1717
3 1718 2165 1245
3 1192 1443 397
3 721 1443 1192
3 405 1444 1083
3 1083 1444 1167
3 1016 2039 1007
3 1334 1794 756
3 272 1561 271
3 141 1560 140
3 396 2026 1257
3 572 1553 1597
3 557 1807 1335
3 632 1808 424
3 606 1980 777
3 3 1563 425
3 1035 1562 1
3 1328 1959 714
3 633 1960 1104
3 751 1959 1328
3 1104 1960 737
3 696 1610 656
3 656 1610 770
3 1094 1650 441
3 406 1532 1291
3 1039 1907 482
3 652 1905 860
3 980 1849 1776
3 1059 2079 281
3 131 2080 686
3 1169 2211 1138
3 1020 1839 1171
3 809 1415 1292
3 1370 1945 670
3 1334 1787 951
3 494 2156 1187
3 1172 1840 611
3 390 1842 859
3 1187 2156 1108
3 1133 1706 595
3 382 2121 935
3 990 2167 2163
3 1745 2105 865
3 1404 1764 220
3 1405 1765 202
3 192 1768 1406
3 746 2211 1169
3 1171 1839 801
3 88 2210 1294
3 1145 2209 324
3 1902 2078 858
3 2113 2166 1273
3 1042 1753 951
3 1341 1754 758
3 456 1640 899
3 899 1640 890
3 676 1641 806
3 806 1641 921
3 1301 1880 552
3 501 1881 1390
3 44 2081 735
3 1392 2082 53
3 509 1723 1351
3 1351 1723 936
3 748 1922 1323
3 563 1780 1055
3 828 1782 628
3 1154 1557 555
3 992 1591 584
3 621 2142 943
3 1673 2071 717
3 1235 1798 253
3 159 1834 948
3 752 1849 1036
3 266 1590 265
3 147 1589 146
3 1155 1449 633
3 714 2065 1366
3 794 1996 1833
3 1060 1765 1405
3 1062 1764 1404
3 1406 1768 1067
3 951 1826 1042
3 2067 2175 260
3 152 1728 2066
3 31 1654 30
3 67 1653 66
3 437 2144 1360
3 1362 1806 553
3 489 2145 1363
3 1169 2141 746
3 801 1611 1171
3 402 2048 952
3 949 2049 786
3 64 1823 63
3 34 1822 33
3 997 1663 1797
3 393 1978 1334
3 595 1496 1133
3 935 1962 382
3 1162 1502 373
3 346 2056 1336
3 1056 1640 456
3 921 1641 769
3 1280 2146 1891
3 1890 2147 1281
3 942 2098 1126
3 1828 2159 1100
3 1066 2222 2041
3 47 1737 46
3 1322 2167 752
3 1891 2146 575
3 383 2147 1890
3 555 1557 488
3 630 1912 855
3 1751 2210 89
3 323 2209 1435
3 758 1978 1341
3 1188 1893 636
3 959 1558 781
3 366 1760 367
3 376 1456 377
3 342 1759 343
3 516 1558 959
3 1042 1826 622
3 569 2136 1126
3 361 1433 362
3 1271 1885 1205
3 1205 1885 807
3 363 1916 364
3 325 2005 324
3 88 2004 87
3 1135 2070 2022
3 1748 2071 1137
3 1333 1893 519
3 517 2171 1189
3 905 1841 521
3 1105 1870 248
3 164 1871 882
3 1205 1914 524
3 1339 1879 781
3 126 1881 125
3 287 1880 286
3 715 1596 1367
3 1369 1594 639
3 221 1975 1404
3 203 1976 1405
3 1406 1977 191
3 1664 2179 504
3 1239 2201 492
3 574 2202 1332
3 1162 1942 999
3 691 1941 1336
3 879 1566 1028
3 1358 2117 1098
3 827 1894 1019
3 1833 1996 1008
3 768 1707 1479
3 1481 1705 1033
3 869 2055 1329
3 1077 2111 746
3 801 2110 870
3 1477 1949 626
3 1329 2116 597
3 1600 1602 876
3 725 1602 1600
3 282 1990 281
3 131 2132 130
3 340 1655 341
3 350 1656 351
3 368 1657 369
3 607 1460 584
3 621 1702 1272
3 300 1832 299
3 113 1831 112
3 835 1937 1102
3 1099 2158 829
3 1155 2183 1449
3 2065 2184 1366
3 1576 1824 800
3 666 1778 1152
3 175 2178 1411
3 651 1519 1019
3 50 1931 1070
3 467 1402 1539
3 855 2038 630
3 251 1945 1370
3 1292 1415 161
3 1102 1937 738
3 837 2158 1099
3 1325 2031 623
3 727 2032 1326
3 1479 1707 565
3 594 1705 1481
3 634 2183 852
3 1097 2184 1069
3 1848 1484 798
3 1028 1566 570
3 547 2117 1358
3 112 1831 779
3 1191 1832 300
3 1457 2214 116
3 296 2118 1453
3 1427 2074 2
3 617 2111 1933
3 1932 2110 799
3 717 2071 1955
3 170 1816 1318
3 932 2140 2025
3 1330 1441 730
3 1294 2004 88
3 324 2005 1145
3 51 1931 50
3 487 1777 1330
3 1379 1732 1013
3 1380 1556 586
3 658 2012 632
3 1335 2014 765
3 647 1614 1373
3 1103 1869 611
3 981 1732 1379
3 1404 1975 816
3 1405 1976 1110
3 1111 1977 1406
3 521 2038 855
3 1829 1853 631
3 1143 2178 176
3 237 1582 1058
3 1037 1738 527
3 319 2138 318
3 94 1746 93
3 756 1787 1334
3 450 2200 1214
3 427 2199 891
3 2025 2140 986
3 1475 1744 548
3 483 2178 1143
3 1157 2159 1828
3 2041 2222 830
3 542 2055 1462
3 1058 1582 1087
3 925 1744 1475
3 1133 1467 492
3 574 1963 935
3 810 1584 1030
3 763 1934 166
3 246 1935 638
3 1112 1669 620
3 671 2001 1141
3 197 1860 196
3 216 1861 215
3 419 2171 1172
3 859 1841 907
3 1055 1951 563
3 628 1438 828
3 1030 1407 810
3 847 1934 763
3 638 1935 927
3 1065 1794 758
3 1294 1825 559
3 653 2208 1145
3 1041 1984 901
3 1070 1931 488
3 436 2166 2113
3 1667 2062 1186
3 908 2062 1667
3 901 1984 242
3 1254 1847 473
3 463 2187 1252
3 171 1816 170
3 902 1548 409
3 1058 1634 236
3 1223 1613 636
3 545 1830 1314
3 1314 1830 390
3 1672 1407 1030
3 1129 1478 1148
3 643 1502 1162
3 1336 2056 1142
3 1814 1949 523
3 283 1812 1568
3 1571 1569 129
3 1318 1816 641
3 1565 2123 710
3 1152 1529 174
3 2034 2217 812
3 755 2216 1899
3 785 2215 1897
3 879 1847 1254
3 1252 2187 1098
3 330 1757 329
3 83 1758 82
3 558 1476 1365
3 1059 1990 704
3 684 2132 686
3 545 2091 1112
3 931 1706 1133
3 935 2121 934
3 1360 1708 437
3 553 1709 1362
3 1363 1710 489
3 1144 1825 1294
3 1145 2208 1146
3 1189 1740 517
3 438 1739 886
3 791 1469 1269
3 671 2174 2001
3 1668 1799 428
3 536 2008 1129
3 15 1761 228
3 184 1763 10
3 13 1766 210
3 11 1768 192
3 220 1764 14
3 202 1765 12
3 1162 1599 643
3 1142 2189 1336
3 781 1558 1339
3 280 1730 1344
3 1345 1968 132
3 1341 1978 393
3 270 2134 1337
3 1338 2133 142
3 1339 1558 516
3 611 1840 1355
3 1355 1840 517
3 872 1755 1901
3 532 1509 1181
3 1211 2098 942
3 810 1704 1408
3 475 1734 928
3 827 1866 881
3 2068 2058 1068
3 1901 1755 978
3 1112 1458 616
3 578 1967 1756
3 1408 1704 687
3 123 1452 122
3 290 1775 289
3 770 2153 1181
3 46 1737 1379
3 1181 2153 1041
3 1106 1837 1394
3 2166 1837 1273
3 1756 1967 789
3 862 1639 1632
3 805 1526 1507
3 504 2179 1049
3 281 2079 17
3 8 2080 131
3 1203 1830 545
3 1049 2160 579
3 1068 2058 1846
3 1173 1930 685
3 518 1783 1376
3 1285 2139 1466
3 1979 1534 764
3 607 1591 743
3 933 2142 1272
3 713 2026 1697
3 1445 1895 488
3 58 1917 1102
3 1099 1716 39
3 635 2095 1389
3 775 1889 1454
3 80 1817 79
3 333 1818 332
3 2089 1679 1156
3 59 1917 58
3 39 1716 38
3 138 1819 137
3 275 1820 274
3 1632 1639 911
3 1379 1737 981
3 1466 2139 661
3 659 1534 1979
3 1589 1424 689
3 147 1424 1589
3 1590 2119 265
3 983 2119 1590
3 584 1591 607
3 1272 2142 621
3 1373 1781 647
3 503 2206 447
3 1038 1529 1152
3 488 1931 555
3 1269 1792 791
3 852 1429 634
3 1069 2131 1097
3 1270 1409 884
3 422 1429 852
3 1097 2131 540
3 517 1853 1355
3 476 1409 1270
3 1165 1539 815
3 1733 2076 550
3 1316 1442 461
3 924 2135 2024
3 390 1865 1314
3 842 1925 889
3 1749 1748 1137
3 1135 2022 1747
3 705 1726 1528
3 614 1423 1394
3 1394 1423 1106
3 1912 1965 416
3 2024 2135 688
3 1373 1821 484
3 525 2072 1572
3 1056 1878 775
3 680 1877 769
3 1016 1529 1038
3 416 1965 769
3 769 1965 680
3 663 1532 1342
3 713 1697 1383
3 173 1529 1016
3 658 1915 1903
3 1903 1915 1186
3 1037 2194 230
3 373 1502 374
3 345 2056 346
3 779 1831 649
3 708 1832 1191
3 710 2123 1633
3 648 2112 1342
3 57 1850 56
3 41 1851 40
3 1703 1715 1119
3 309 1999 977
3 1188 1998 103
3 174 1529 173
3 1051 1939 550
3 2081 1670 735
3 1392 2231 2082
3 109 1661 108
3 304 2196 303
3 646 1811 1261
3 478 1681 1178
3 455 1677 849
3 1109 2186 481
3 392 1574 1994
3 1261 1811 597
3 680 1965 1213
3 1507 1526 393
3 120 1863 119
3 293 1864 292
3 636 1893 1333
3 582 1893 1188
3 496 1866 1882
3 1087 2064 1058
3 1058 2064 647
3 264 2119 819
3 1190 1424 148
3 1056 1974 572
3 775 1974 1056
3 810 1407 1359
3 1117 1703 1119
3 578 2040 1772
3 106 1872 105
3 307 1874 306
3 1431 1472 1074
3 1142 1868 1118
3 1297 1867 643
3 1359 1407 571
3 527 2194 1037
3 731 2223 1344
3 1345 2224 729
3 1483 1669 780
3 412 2084 1252
3 1254 2085 662
3 780 2091 1314
3 784 2049 1820
3 1819 2048 734
3 1994 1574 1296
3 1521 1979 375
3 344 1466 1520
3 647 1634 1058
3 1267 1860 197
3 215 1861 853
3 637 1842 390
3 1465 1843 386
3 180 1608 179
3 385 1454 1229
3 1126 2098 556
3 766 1503 1431
3 1883 2092 747
3 791 1742 1453
3 1457 1741 913
3 1431 1503 833
3 1221 2092 1883
3 1126 2136 942
3 797 1888 1178
3 679 2018 1173
3 1109 2019 999
3 1228 2020 1001
3 691 2021 849
3 1878 1889 775
3 327 1986 326
3 86 1992 85
3 1376 1783 411
3 1113 1519 1622
3 705 1821 1373
3 49 2122 2
3 1521 1502 643
3 1142 2056 1520
3 548 1744 1614
3 773 1920 385
3 620 1458 1112
3 374 1502 1521
3 1520 2056 345
3 390 2137 637
3 1386 1926 761
3 1385 1927 538
3 667 1929 1249
3 682 1928 1061
3 1622 1519 651
3 513 2093 2128
3 97 1923 96
3 316 1924 315
3 837 2165 2158
3 1937 2164 738
3 28 1932 27
3 70 1933 69
3 1300 2050 815
3 1202 1727 1629
3 1051 2076 880
3 1015 1661 109
3 303 2196 1159
3 1165 1835 1194
3 1290 1745 865
3 699 1745 1290
3 1378 1877 680
3 532 1877 1378
3 669 1884 1865
3 1297 1599 453
3 690 2189 1118
3 1060 1769 1644
3 1062 1770 1646
3 1649 1771 1067
3 1462 2055 993
3 643 1599 1297
3 1118 2189 1142
3 1630 1783 800
3 411 1783 1630
3 1094 1542 400
3 1231 2181 1499
3 1499 2181 805
3 76 1943 75
3 337 1944 336
3 886 1739 972
3 235 2075 234
3 962 1960 633
3 714 1959 898
3 995 1645 258
3 154 1648 845
3 1815 2168 730
3 914 2168 1815
3 951 1787 1306
3 1371 2128 968
3 17 1730 280
3 132 1968 8
3 1371 1410 451
3 592 1732 1430
3 641 2093 1368
3 1815 1814 914
3 1178 1681 797
3 999 2186 1109
3 849 1677 691
3 1644 1769 478
3 1646 1770 455
3 481 1771 1649
3 1238 1914 1554
3 506 1575 1300
3 571 1407 1672
3 980 1983 1036
3 555 1931 51
3 1391 1809 541
3 631 1920 773
3 1446 2144 437
3 553 1806 1803
3 1805 2145 489
3 591 1718 1687
3 1688 1717 589
3 451 1889 1371
3 349 1471 22
3 24 1585 370
3 379 1580 21
3 794 1833 1394
3 2001 2174 1295
3 222 1975 221
3 204 1976 203
3 191 1977 190
3 852 1957 422
3 540 2073 1097
3 947 1455 997
3 1166 2206 1936
3 242 1984 241
3 928 1734 699
3 1465 1952 718
3 976 1950 1464
3 1854 2152 932
3 431 1993 1028
3 1358 1991 474
3 945 2152 1854
3 1159 2196 1014
3 644 1661 1015
3 534 2137 1203
3 259 2175 995
3 845 1728 153
3 318 2138 1303
3 1120 1746 94
3 863 1957 852
3 1097 2073 1021
3 1904 1888 482
3 453 2019 1906
3 652 2020 1908
3 1910 2021 690
3 479 1969 1377
3 38 2090 37
3 60 1537 59
3 995 2218 844
3 522 1837 2166
3 762 1663 997
3 1430 1732 981
3 829 2158 660
3 1276 1937 835
3 980 1809 1391
3 1377 2197 585
3 1028 1847 879
3 1098 2187 1358
3 1092 2185 2008
3 1470 2138 319
3 93 1746 1473
3 233 1887 1375
3 1658 1736 1258
3 644 1736 1658
3 1660 2006 1014
3 1259 2006 1660
3 1687 1718 1057
3 946 1717 1688
3 1554 1914 913
3 1776 1876 1124
3 486 1876 1776
3 798 1946 922
3 922 1946 873
3 946 1746 1120
3 1303 2138 1057
3 411 1892 1376
3 1840 2171 517
3 521 1841 1842
3 1314 2091 545
3 16 1582 237
3 659 1979 1521
3 1520 1466 661
3 262 2204 1091
3 1388 2203 150
3 238 1779 16
3 62 2041 61
3 36 1828 35
3 1468 1433 361
3 897 2093 1588
3 1196 2105 440
3 206 1897 205
3 189 2034 188
3 224 1899 223
3 633 1449 962
3 898 2065 714
3 949 2097 1541
3 1543 2096 952
3 227 1774 226
3 186 1497 185
3 209 1494 208
3 214 2054 213
3 217 2051 216
3 196 2052 195
3 199 2053 198
3 779 2035 864
3 1085 2036 1191
3 1072 1574 392
3 1882 2099 496
3 1022 1997 736
3 1155 1981 520
3 420 1982 1366
3 465 1835 1165
3 1947 2159 570
3 547 2222 1948
3 507 1867 1297
3 1118 1868 818
3 2 2074 48
3 444 1595 1461
3 53 2082 52
3 45 2081 44
3 1394 1833 614
3 1517 1817 863
3 1021 1818 1518
3 1034 2088 1692
3 79 1817 1517
3 1518 1818 333
3 1295 2174 2078
3 2078 2174 858
3 1450 1772 645
3 1316 1582 16
3 1036 1849 980
3 1542 2130 923
3 1384 2194 527
3 583 1801 1557
3 148 1424 147
3 265 2119 264
3 1087 1582 1316
3 1198 2101 561
3 516 1413 1180
3 1077 2141 1609
3 1612 1611 870
3 1692 2088 754
3 754 2015 1552
3 1552 2015 558
3 1450 1918 528
3 1528 1821 705
3 930 1821 1528
3 1445 1801 924
3 1588 2093 641
3 1720 2096 790
3 804 2097 1719
3 409 2197 1377
3 144 2172 143
3 269 2173 268
3 1724 1734 475
3 176 2178 175
3 767 1916 1714
3 1535 2046 421
3 627 2047 1533
3 263 2204 262
3 150 2203 149
3 158 1913 157
3 255 2205 254
3 1632 1866 496
3 1603 1412 733
3 589 1800 1688
3 1687 1836 591
3 1994 2227 392
3 610 2229 1995
3 1223 2003 542
3 1124 1809 1776
3 1776 1809 980
3 696 1412 1603
3 1629 1727 546
3 916 1544 1570
3 1199 1478 1129
3 1114 2046 784
3 734 2047 1374
3 560 2199 1621
3 1621 2199 427
3 1510 2113 1273
3 1615 2143 843
3 718 1843 1465
3 900 1610 1662
3 1103 1961 1869
3 216 2051 1861
3 1860 2052 196
3 1479 1800 768
3 1033 1836 1481
3 1861 2051 1175
3 817 2052 1860
3 1449 2183 634
3 1069 2184 2065
3 692 1441 1607
3 1536 1859 894
3 1045 2063 1886
3 1143 2040 483
3 1750 2103 1243
3 1242 2104 2023
3 551 2103 1750
3 2023 2104 975
3 37 2090 1125
3 1123 1537 60
3 645 2040 1143
3 1189 2171 419
3 907 1841 905
3 960 2227 1994
3 1995 2229 1277
3 434 1409 1627
3 1180 1413 726
3 1607 1441 1330
3 1236 2177 693
3 1421 2109 658
3 765 2013 1422
3 981 1882 1430
3 1163 2003 1333
3 513 2128 1371
3 1690 1544 916
3 520 2183 1155
3 1366 2184 420
3 2 2122 1427
3 841 2072 1269
3 646 2086 1559
3 484 1781 1373
3 1559 2086 395
3 1156 1679 1876
3 968 1410 1371
3 1063 2226 548
3 826 1551 1707
3 1705 2198 1116
3 1391 1983 980
3 1568 1812 976
3 718 1569 1571
3 1164 1795 787
3 1547 1683 443
3 446 1638 1550
3 85 1992 920
3 929 1986 327
3 1360 2144 564
3 675 1806 1362
3 1363 2145 918
3 1232 1918 1485
3 876 2057 1440
3 543 1895 1445
3 1440 2057 1076
3 1485 1918 645
3 1896 1504 1204
3 739 2124 1898
3 1071 2126 1900
3 552 2030 1301
3 1390 1583 501
3 765 1824 1576
3 1120 2169 946
3 1057 2170 1303
3 812 1504 1896
3 1898 2124 785
3 1900 2126 755
3 1411 1940 9
3 920 1992 892
3 415 1986 929
3 645 1918 1450
3 493 2215 2190
3 783 2216 1516
3 2191 2217 1233
3 697 1859 1536
3 1536 2033 697
3 1006 1402 1723
3 1723 1402 936
3 443 1683 1637
3 1635 1638 446
3 873 1545 922
3 1975 1516 816
3 1976 2190 1110
3 1111 2191 1977
3 745 1601 1729
3 1731 1966 987
3 1038 2039 1016
3 1470 2032 727
3 623 2031 1473
3 1294 2210 1144
3 1146 2209 1145
3 1707 1551 565
3 594 2198 1705
3 1361 2107 510
3 1090 2108 497
3 505 2106 1364
3 2087 2149 985
3 1156 2148 2089
3 2143 1789 843
3 500 1420 1616
3 1516 2216 480
3 2190 2215 460
3 462 2217 2191
3 563 1951 1439
3 1440 1438 628
3 1616 1420 1130
3 453 1599 2019
3 2021 2189 690
3 713 1595 2026
3 2026 1595 1287
3 482 1534 1039
3 860 2139 652
3 1039 1534 659
3 661 2139 860
3 1830 2137 390
3 1445 2024 543
3 1715 1921 1119
3 1282 1921 1715
3 1795 2115 787
3 666 2100 1778
3 805 1790 1526
3 924 2024 1445
3 1222 2000 1721
3 1797 1799 947
3 1721 2000 530
3 1050 2130 441
3 2022 2070 519
3 549 2071 1748
3 1284 1799 1797
3 530 2000 1501
3 516 1901 1413
3 1501 2000 683
3 1903 2062 407
3 1186 2062 1903
3 405 2219 1403
3 1401 2220 397
3 1607 1946 1309
3 637 2137 534
3 1393 1773 768
3 1033 1873 1209
3 510 2127 1361
3 497 2221 1090
3 1364 2125 505
3 1794 1978 758
3 711 1679 2089
3 1605 2176 583
3 733 1779 1603
3 910 2192 750
3 499 2193 1382
3 1603 1779 238
3 710 2007 1786
3 1786 2007 642
3 601 2009 1788
3 1788 2009 529
3 1435 2209 1146
3 1144 2210 1751
3 616 1458 1573
3 430 2109 1421
3 1422 2013 664
3 1872 1875 672
3 1040 2120 1874
3 723 1553 2195
3 704 1810 1381
3 885 1499 1507
3 1507 1499 805
3 1381 2225 704
3 1526 1790 381
3 1079 1938 2195
3 1824 2151 408
3 2043 1539 1006
3 1014 2196 1660
3 1658 1661 644
3 1505 1670 1013
3 1154 2231 1506
3 1353 1964 432
3 1721 1608 180
3 435 1670 1505
3 1506 2231 698
3 754 2088 2015
3 946 2169 1717
3 1718 2170 1057
3 1530 2016 803
3 1250 2016 1530
3 1531 2017 974
3 807 2017 1531
3 873 1946 1607
3 892 1659 2084
3 2085 1619 415
3 226 1774 1495
3 1493 1497 186
3 208 1494 1498
3 1413 1901 978
3 515 1584 1408
3 1714 1916 363
3 1633 1777 487
3 1119 1921 1461
3 1461 1921 444
3 1334 1978 1794
3 1408 1584 810
3 875 2192 1439
3 1440 2193 876
3 1133 1496 1467
3 1963 1962 935
3 2162 2163 846
3 990 2163 2162
3 470 1451 1796
3 1796 1451 782
3 1434 2174 671
3 1578 1471 349
3 370 1585 1586
3 1581 1580 379
3 438 1478 1199
3 858 2174 1434
3 583 2176 1801
3 476 1750 1592
3 1593 2023 571
3 677 1463 1761
3 1763 1767 757
3 1064 1762 1766
3 1797 1663 608
3 735 1670 435
3 698 2231 1392
3 530 1608 1721
3 2117 2180 1098
3 879 2161 1566
3 1439 2154 875
3 1722 1429 1240
3 1241 2131 1989
3 1368 2093 513
3 1074 2154 1439
3 1242 2023 1593
3 1592 1750 1243
3 1568 1810 704
3 976 1810 1568
3 1421 2150 1135
3 1137 2151 1422
3 1264 2180 2117
3 1566 2161 939
3 1419 1418 458
3 1578 2029 778
3 1581 1587 970
3 776 1579 1586
3 2007 2027 985
3 710 2027 2007
3 1156 2028 2009
3 2009 2028 529
3 1673 2151 1137
3 408 2151 1673
3 531 1638 1635
3 1637 1683 1012
3 1772 1967 578
3 1057 2138 1470
3 1473 1746 946
3 1501 1508 530
3 1472 2154 1074
3 969 2154 1472
3 477 1777 1633
3 1112 2091 1669
3 683 2140 1501
3 1669 2091 780
3 1501 2140 932
3 466 1958 1936
3 1146 1752 1435
3 1751 1911 1144
3 1508 2152 528
3 1936 1958 1166
3 458 1418 1754
3 17 2079 1730
3 1968 2080 8
3 1730 2079 1115
3 1161 2080 1968
3 1320 1839 1480
3 1838 2211 1321
3 647 2064 1614
3 326 1986 1987
3 1985 1992 86
3 1803 1806 1283
3 760 2144 1446
3 994 2145 1805
3 1541 2097 804
3 790 2096 1543
3 1676 1681 478
3 1678 1677 455
3 481 2186 1680
3 1023 2176 1605
3 2195 1938 723
3 509 2113 1510
3 658 2109 2012
3 2014 2013 765
3 932 2025 1854
3 397 2220 1719
3 1720 2219 405
3 1273 1837 1956
3 1564 2199 560
3 891 2199 1564
3 642 2035 1786
3 1788 2036 601
3 709 1949 1477
3 2089 2148 1121
3 712 2149 2087
3 1453 2118 803
3 807 2214 1457
3 1947 1566 939
3 1264 2117 1948
3 985 2149 2007
3 2009 2148 1156
3 1137 2071 1673
3 570 1566 1947
3 1948 2117 547
3 1427 2122 526
3 1869 1961 391
3 596 1471 1578
3 973 1580 1581
3 1586 1585 971
3 1043 2105 1745
3 1439 1951 1074
3 1076 1438 1440
3 1747 2022 672
3 1040 1748 1749
3 1597 1553 847
3 115 2214 1531
3 1530 2118 297
3 1131 2212 1527
3 1527 2212 1128
3 2114 2213 433
3 821 2213 2114
3 1048 2156 2061
3 2061 2156 494
3 548 2226 1475
3 474 1683 1547
3 1550 1638 431
3 1627 1409 476
3 543 2024 1852
3 1772 2040 645
3 1761 1463 228
3 184 1767 1763
3 1766 1762 210
3 1852 2024 688
3 1609 2141 724
3 802 1611 1612
3 937 1734 1724
3 1208 2076 1733
3 1606 1964 1031
3 1876 2028 1156
3 486 2028 1876
3 1203 2137 1830
3 803 2118 1530
3 1531 2214 807
3 1743 2207 1151
3 2066 1728 923
3 600 2175 2067
3 942 2207 1743
3 1711 1958 466
3 1631 1790 1288
3 969 1958 1711
3 381 1790 1631
3 1854 2025 365
3 407 2150 1903
3 1548 2197 409
3 794 2155 1996
3 1996 2155 609
3 706 2017 1885
3 1885 2017 807
3 768 1773 1707
3 1705 1873 1033
3 1173 2018 1930
3 2037 2086 646
3 762 2086 2037
3 1013 1670 2081
3 2082 2231 1154
3 1671 1402 467
3 188 2034 1896
3 1898 1897 206
3 1900 1899 224
3 847 1553 1740
3 1930 2018 683
3 463 1659 1618
3 1620 1619 473
3 706 2123 1565
3 1954 2218 600
3 2156 2157 1108
3 1778 2100 442
3 459 2185 1665
3 1809 2058 541
3 1896 2034 812
3 785 1897 1898
3 755 1899 1900
3 1955 2129 717
3 1920 1938 1079
3 1660 2196 304
3 108 1661 1658
3 1195 2102 1570
3 2057 2061 1076
3 1048 2061 2057
3 2027 1633 487
3 2198 1752 1146
3 1144 1911 1551
3 1358 2187 1991
3 1993 1847 1028
3 1662 1610 696
3 561 1692 1691
3 1691 1692 754
3 1048 2157 2156
3 711 2143 1846
3 1846 2143 1068
3 1124 2058 1809
3 1132 1666 1572
3 1467 1496 598
3 823 1962 1963
3 1269 2072 1792
3 1792 2072 525
3 600 2218 2175
3 2175 2218 995
3 1955 2071 549
3 1874 2120 306
3 106 1875 1872
3 1801 2176 924
3 1700 1460 861
3 491 1702 1699
3 936 1402 1671
3 609 2177 1996
3 1719 2220 804
3 790 2219 1720
3 1296 1574 1423
3 1572 1666 1194
3 392 2227 1791
3 1791 2227 681
3 541 2058 2068
3 1172 2171 1840
3 1842 1841 859
3 1108 2157 1936
3 710 1633 2027
3 1846 1679 711
3 1124 1679 1846
3 1068 2143 1615
3 1904 1907 979
3 1304 1428 1906
3 1174 1905 1908
3 1910 1909 1179
3 1827 1455 947
3 1740 1553 723
3 1079 2195 1974
3 1974 2195 572
3 1846 2058 1124
3 1122 1522 2115
3 896 2129 1955
3 1551 1825 1144
3 1146 2208 2198
3 826 1825 1551
3 2198 2208 1116
3 1876 1679 1124
3 1936 2157 466
3 1225 1455 1827
3 1435 1752 1251
3 741 1911 1751
3 2012 2109 1246
3 1018 2013 2014
3 1480 1839 1020
3 1138 2211 1838
3 634 1429 1722
3 1989 2131 1069
3 497 2108 2059
3 2060 2106 505
3 510 2107 1674
3 2007 2149 642
3 601 2148 2009
3 2059 2108 822
3 1081 2106 2060
3 1674 2107 832
3 1633 2123 477
3 794 1636 2155
3 2155 1636 429
3 473 1847 1993
3 1991 2187 463
3 631 1938 1920
3 1570 1544 426
3 1936 2206 1108
3 892 1992 1985
3 1987 1986 415
3 1034 1692 2101
3 1220 2197 1548
3 1906 1428 453
3 482 1907 1904
3 1908 1905 652
3 690 1909 1910
3 1049 2179 2160
3 523 1973 1814
3 1814 1973 914
3 904 1544 1690
3 1420 1701 1130
3 711 1789 2143
3 960 2228 2227
3 2227 2228 681
3 2229 2230 1277
3 562 2230 2229
3 1570 2102 916
3 815 1539 2043
3 2160 2179 1095
3 2101 1692 561
3 2115 1522 787
3 1956 1837 1106
3 1134 1701 1420
3 985 1973 2087
3 2136 2207 942
3 771 2207 2136
3 2087 1973 523
3 739 2127 2124
3 1071 2221 2126
3 1504 2125 1204
3 505 2125 1504
3 2124 2127 510
3 2126 2221 497
3 594 1752 2198
3 1551 1911 565
CELL_DATA 4084
SCALARS Von_Mises float 1
LOOKUP_TABLE default
87235843.64274627 3417546.4551862907 36662729.59189488 222762667.45754328 263572538.45992625 147558386.12245178 147059541.52178222 87831244.80947363 28353839.70582476 210353603.4805643 213905895.52812546 42305211.599370494 470961992.9639885 471422098.6071482 313986397.2961857 314019846.2197884 44182181.2532714 49589928.4550405 320713385.6079114 195374907.77207926 196481576.19563767 393935103.5477255 399031537.3831981 214625684.2541408 214731918.48289153 251630342.3749235 253148450.64245078 79589176.78432903 296915.8325150128 439046595.9380845 371128069.026226 344827274.15462285 373810343.9074464 325883677.6573323 166766.2126247754 68492942.60779029 68492402.71163248 531252560.0159275 531668432.257162 65473592.38553105 84555306.50252508 144512110.9111788 11694831.086898377 413333798.86758804 102733098.92596959 102734904.65427554 358215465.3530679 358223442.195968 9936469.907351524 38574.82502650863 119539.95564620668 267223236.30950677 305102136.21812046 305716082.1069237 418854359.04995394 418903293.3758514 3157347.4026566264 80622206.39602154 164665179.6581204 164676769.70908493 4146866.0464638695 207867287.91013473 13538486.220141118 21274861.548756175 121590.59819640903 24039309.278546497 236399807.80017704 269568567.11282945 269962158.84860814 103978.35718710728 199124.78311490247 9826550.663075728 45465432.57528106 3619387.666750291 187277336.70367697 186905107.19968045 52670496.74116664 52668567.075315215 139381834.79768306 199175081.64704046 199184767.5012916 3660053.0947164437 146611444.29746756 146580565.94831744 187235873.64737734 182745245.60167804 144027083.3622317 139510689.80178106 39567451.234629944 170375757.80335757 165128046.32320493 152961047.7551964 146015285.0339307 5459440.465913153 10531917.507175442 5536111.818415863 146934155.96442682 80441430.38458991 131119075.73606375 129912838.31342916 12253488.558718776 294387860.07825893 294788283.99047005 4049885.8345601726 15974181.393228104 6084544.399389268 6084137.065231908 172442834.78715336 42302786.089468636 284655.23084055574 1599899.0770959689 119330494.70818767 68788479.75394751 198736126.95809686 9140854.280883854 178340250.52391315 12850668.033398056 204582686.96367761 199437439.38664168 6704816.061956748 6704267.328056462 45857106.44997117 75165092.16857457 94886524.41194947 101994831.93068507 112204877.79132964 107602442.4984871 98100849.18398553 90773035.93756896 120246390.83544686 7411056.85833355 7411685.094382992 210001019.75792786 6845020.532639322 13095824.004361972 17815225.90612652 31116.846908109812 5445806.41911942 8719165.872271251 8719778.470730424 245422.44790195167 183580434.9108661 183787063.93044436 114762.41230538713 35091338.20068418 22784730.28410135 249572745.7054379 33514198.109510727 18958617.801057294 5057055.715237678 6762178.097119722 201702346.3933918 255754852.59234548 405748997.3386321 444472359.2171209 16821083.68739594 22758062.24926267 72087904.14124002 568743859.1642479 569305302.246668 171431131.95414746 174814218.66179904 58151746.49973699 68306299.17903982 300925461.95463926 299655112.95957005 388495.4125688231 420684.5026036245 102794504.00075841 1775580.1861027875 1774143.2858535128 210794574.05632004 205957719.4485422 78125278.42956999 120853658.3275697 68198091.81719117 496510392.7126264 495167309.14932525 152316947.88920203 155102037.53808156 533791640.3403161 534777003.5592573 24551698.679597102 24551929.704267062 18973242.751190927 18973494.05421733 228742813.22531387 19280479.05837556 19289375.626245677 64300884.41393951 517129083.7811354 516564328.2636045 269394676.7155467 270478869.69013417 150994117.22001344 298189246.2007392 122925548.87415849 397771.3609560376 30683543.37101281 506378.58960578445 25862885.685005076 229090465.44102645 226574352.3887666 258837884.93205732 259010086.48267588 17390544.626289822 77604173.22985098 10021167.369164428 118692523.71402279 118646870.91229881 234174923.465484 265087.97707767034 12703336.35486723 188238615.32331318 9930972.672742827 263699389.51249185 218025029.20930588 217920992.2266768 314761285.19121057 189214638.45181492 183803710.55639687 53890.09348955301 57814.66253731584 49284907.63079976 697416.6760587733 49594083.70630869 49591743.84921892 156160571.72230664 600865956.5850682 601212737.299537 553047.5370242487 245728098.630881 246777852.01848423 328505810.1949051 157184734.20796415 61777733.25247055 5807526.461922267 5808411.630842809 232646930.03023043 232525300.159013 179208725.9465146 372474495.992919 372735942.7926931 220778696.06390002 320729962.51003397 181106.21802242828 113114.51746091351 316557988.30150896 316180935.3962419 189239541.87482265 423324522.7795239 417292522.65706354 429393057.0217433 518155480.8981363 429361009.91483253 518332993.77768004 106892315.64778168 106881380.22964178 55341332.913371585 55337730.066982426 213645786.05518565 213522686.17902726 171332224.89891118 25893388.5893748 11108489.318852477 11107433.098660262 306622847.15201664 304950931.53603023 16668239.670732338 16678013.21494537 381228419.8320901 381752449.049717 12419881.68773361 13822428.0021914 195901377.53031287 12912566.947962899 38138209.45641088 99994.66813063642 52033230.68098502 13587787.774909064 87758.88761754526 8814835.12478638 15592794.807103356 197699456.1630866 10002328.098750582 145386.3934738451 179015.48813567092 327598.6544393041 3876723.3716965243 278849410.48346215 279028066.559899 4240239.757406314 136001365.63410753 52163806.780396834 148125582.93238452 244369861.85285816 240771518.48764822 737670.0655993557 740950.0119891712 511806917.9230506 510245430.2465946 9970088.136052454 9969087.937866107 68013161.5914765 673009332.4679914 673443290.3372201 427441698.8770845 425981260.06981975 10514333.903298829 533142496.22970045 532965414.5225682 138476144.95423117 2361985.129487172 2362985.244248488 30488381.634331502 271979779.47639495 269382996.7231908 728159.0370833194 6498361.272467167 6499336.252333584 22418923.238627117 289906761.46440285 286728476.95766294 153913273.9734439 26063421.717823297 66512172.142982416 386925.2691506901 286448.4135430011 254090.6742158514 56915.34404476734 5162257.5486399 34906127.06454982 159686447.05117744 133677579.45732889 89087135.23174782 22061722.552576635 610187495.6733675 609910253.587127 23369751.83855713 55335.49041492769 419397207.14743763 420009353.5910933 425440.2607314089 141511029.29506353 136336064.748709 232247260.70745575 228340091.98645636 120671503.31484847 260545151.50451592 261023293.06701842 87912334.36636777 87909565.21591224 63195784.95475164 184808392.3598427 16111.942961092993 54235968.76294636 56595675.945177436 75740125.92939237 242616853.0102131 242724566.83344954 6638677.9973476045 207070594.40964448 484454704.87006444 484411625.6409485 5019179.893680628 38606521.21813519 75800308.53837995 80109684.01175182 175915696.56789657 9807647.299130356 242554003.61223888 241053623.71885595 26678053.48171232 10684013.197491385 903746.8820396734 262869542.6995989 395730016.75478476 396382988.6205111 83137487.64079402 71227206.2840701 56871317.15219961 39914261.633581 73588564.77930826 213871971.24549493 423277806.139262 417128387.4179195 87954365.25052388 47125.63625307222 186906.29474603603 570329.3977799714 12757036.021584148 47273712.80313659 532386717.9324011 530551235.56353354 111752.21695630855 4858434.617598247 1140002.8942138755 26341951.18260476 26345631.278499056 37049202.12965424 14002814.559082657 72440246.44974512 15409321.565952228 42058341.93188775 61476154.37581746 5005461.004180263 8158062.144443052 29439404.5154907 28686.198904834055 20042.787787604524 5682094.65944177 93597457.23448792 43493316.815372586 46444351.47327534 77716629.60342252 171186894.22580716 13217780.371577848 13219070.52201949 114714862.80743338 109817669.9355876 193448.1482141192 196224620.22543004 139609708.1529676 8248801.260630895 321982956.84121954 250074493.14400142 249194060.26928335 13292258.127690325 13293516.667383146 166883140.64326856 162807055.94710153 170392817.5352132 134442.27147797143 334042865.0628133 396055118.89584756 66106066.365171626 319681047.72530067 316352917.8720044 34304293.45562432 39749563.12885709 266149.25621797855 45555086.51909023 101914767.60247287 92959338.29885344 265612570.6969231 266672832.66879767 123936123.75814761 9169433.71530303 2615455.275104103 9053770.519613385 221948743.15182725 279941322.31637424 55526.62227817127 72186.4128342732 169153246.45248878 58425062.88193298 58426475.12081592 253281776.78705755 245431753.96981123 140006.40921282358 190950747.8334652 190884045.98986986 12207578.289592873 214710702.22381267 214426211.1203813 176820023.08925152 201691237.15319383 378430384.0323626 378648604.28509337 277054539.57932806 80378776.90774687 6404704.129853065 204096.92631142208 78013.12912413651 252371.53899660037 45973.27254410411 51077.69052773597 540038.9187059456 18799.429463179356 16498.28839261092 33673.725853544405 2967568.4978558007 196853810.61773315 190238956.23521653 134099406.92968073 8135955.600570058 8138419.495064149 94331.6131532103 625997.2879878848 143576280.15728283 8149476.750510884 425175157.99132204 429757548.0391069 42125634.88007683 139839302.32130164 450989824.1628804 451287494.32346946 452408216.0152434 452519214.8102895 9603387.983427774 40454203.62479389 45733427.55608624 898053.3143816855 131837871.51548938 74202.07783274431 157449754.45811337 157079614.19990134 168105610.80587533 169813898.04973817 94748010.99701211 35466256.093010165 35481273.278215826 307269681.9104779 63575127.59022435 42913447.26136577 143647599.76859775 8371140.391261649 247584753.71634465 247860662.18353817 5649359.773909198 40595805.96451206 40595602.95339689 129425.75599849546 98022708.10977247 94866753.88670893 117822.24889769549 1931754.405642607 303331511.55202997 298860772.3940757 148365484.382703 67919690.29319291 64568639.35001964 461471344.11791325 381858535.35450137 461022104.3987616 389763932.3963417 117085276.43308811 40906194.014447875 6656958.2164717745 17941265.009370238 127184151.4835419 3701421.0755897597 3702400.70350634 3774543.9636474983 7927600.137133506 213669.76921830335 147478.155106718 173403.75783288517 213790938.10702807 210517622.11257908 32098024.661305662 28772734.539428953 10447603.924402347 13244214.736493064 203728113.92805657 203735618.1356303 464242544.5484066 471939631.96063143 9886252.555387374 124463.09730945031 195810133.4788203 140386908.54066563 5321112.359683378 123005.54942622296 54976338.706223786 126348228.18425322 126344052.35429558 54155782.769845545 210567586.33299744 327450037.9168715 193285924.63539165 163972301.125031 168484128.95445287 165127.02449955413 147581.79535058147 1942.9721803202249 264822385.1381526 260448250.30480427 1086398.0229739477 44324.945076867814 50440.56912172459 78631.93539463266 137430115.92318612 172615667.98655188 178074191.54633144 102068883.15193008 3526360.565804176 194767545.4217913 198183452.93800557 257111837.06061977 4896413.912874897 5000604.820359357 148542571.59744048 157330280.3953031 435707.03199980065 223621697.94435474 223766852.42181188 67663.7237400214 75684.84090810678 3447416.275928296 3448285.677709433 80722964.11590232 228683926.19845042 4084143.029901062 20929666.104239423 140583518.44559336 1398531.8224129179 192941076.01302272 137141792.09716392 203787282.44088733 203658700.7958088 50027054.405775525 51449607.12087827 56128378.7223047 56486963.87867165 127453177.7580551 375826515.00770754 318381999.740023 315013771.07967514 52751619.660664365 429525080.75072217 427333631.6663416 113107355.29878724 15911117.384395374 15909619.022648687 254323266.37521034 180121.97732627342 11764374.003121113 11763208.629250392 186931.3872387443 7760656.67797534 177903579.42867893 177947997.84004155 35148358.70685039 361093292.86280507 428434030.3493911 33781776.34405324 164802.77642659514 19505199.141994804 34075372.25452672 77772286.72559848 8121685.149389136 5643178.838336907 295849.49221563444 13926272.377694678 118374176.90469204 23867093.578787472 39849042.52693497 248361799.11965007 243656739.16613862 2965787.909311321 4676726.894415456 22397137.497933406 22394932.878997255 59482333.842794046 264035374.12599775 206017671.51699868 50008478.022362135 41465514.35601395 30480927.982047375 24038483.461961426 24041543.065989554 258602495.44136965 254247466.74856582 71430354.62785114 64898392.58104632 164290.472568791 46550.29091731105 56276.22155264035 414464368.12471324 411987171.0086333 261431257.75854713 107140216.67882152 233425548.16779983 242997170.747057 130293499.85156107 121309.76392600845 33876.234756287544 50330.10469397811 147578802.31995967 602059.8780658458 12776691.94847424 285713366.24618936 280576042.82466036 186874632.41216046 15369.89522401838 25793.084390561427 37443.33567440445 154530.55151524753 37434.863314066526 118512380.58442262 114962555.60690962 506124196.2157622 505112449.10345405 196120.08395844567 147767.4368516333 139738.80355770502 4333862.595668348 3499783.1988665266 251262035.9711684 4628433.22803813 5380730.500584056 220161481.55766568 220271401.8641156 189095532.6449405 144425.65097010613 13060191.395725185 13059003.299833056 22626531.2979637 22630784.39707228 61121363.58619239 121957956.52997458 120973438.56166372 275450588.07991326 210302249.37192434 205555764.40834936 259709292.31736076 255150359.56895837 63290461.41404743 59574119.97747775 51470981.169413246 225950679.983039 222638798.75420952 7398161.328359802 239339.62525089332 139601259.01518473 144135388.270156 8951769.947092805 4062709.895098004 8253775.90408783 5773060.25144033 9929927.945454026 15425378.745199036 26802852.4936309 26805326.605479468 3881634.3315444244 178074532.03745475 38790262.69637486 142828957.72458056 11092940.13254246 11092166.866257684 184894063.9993667 184824272.8318464 80629533.83993831 121766923.80404575 130360250.23403652 28433.469134258212 25677.009662014305 15709.455419565646 33017.60266959464 18832.219278954322 30440.994606502445 19813.389417040493 34661.86442788611 123317732.69664302 156716.25849888957 8061327.618536176 8062027.32187036 83412014.27390702 87929262.45248468 555304696.2171559 555297046.3965381 42824532.544511035 304246383.4317946 35139020.62773015 9097013.851285743 6064263.998649491 66325030.962037764 65809148.125775345 48800327.567197576 72625874.9464608 344659664.92563146 345517301.9067756 16120512.374023374 119770092.52158552 376566154.11967844 1811994.801392409 143691921.25577676 140893645.5002106 42162687.91309085 18877334.972543914 18875803.683021206 22376250.885530245 12585093.297615796 18724301.12031198 17469126.656809866 23604864.366627675 41813149.40762856 118182718.16884221 113279278.33251786 211600.40074989764 208247127.0959423 16082364.998309148 104635095.13055514 9301862.230078388 9303017.718831034 76593780.19845992 81132475.82000653 35462987.42388674 5239013.403571997 6967283.556143411 6968065.390355836 41927293.177045606 52460533.88967894 327280591.28310347 7613586.440604627 7612804.355450936 764428948.4156901 769522849.7916675 11947785.212041177 11946603.592945497 15803522.77779765 15805121.238406619 197793534.53257775 193084993.86032176 420156405.045202 376870.74983004684 96621814.77068582 100773566.03663646 195380913.7989511 191029165.71880874 97721231.39015798 3704743.4207720426 46849784.71763699 139625474.87118715 16495155.39991074 207480409.79638544 68016973.21711232 198888926.50970817 30950058.746325187 30954486.625382867 2775831.0256860955 30561773.216374468 75436369.54996055 504524.1481167907 269023920.8090433 266100676.09725413 599655318.556508 599774722.3833027 24304488.795398768 22084959.453656394 22088781.009198952 3952874.226924782 6279436.7232479695 6282368.960194174 198214853.98963556 11329641.078932334 11330856.974178862 186252242.06525058 185679501.1636 217466845.21681207 221947688.29598367 145914.50041347797 2567849.810604474 254397019.461484 253455574.05299538 14289160.662841348 465019457.30197185 465466175.31924343 219662606.9057941 224557823.89905798 5705437.650664508 219517502.57575145 219520227.9052279 45842.63443178629 17259.853283105298 31778.019777034322 40926.24706071186 14402670.915490692 143802683.04583782 130534790.05084266 606138413.167412 609641807.4510893 205009125.8434046 39465878.356280655 39451849.346874274 262009723.33935887 178348.39578384356 136248.49286299763 129585.1264777218 159725372.91930303 155488658.64622688 3709018.3321353463 138712709.04694927 141533646.91773245 146212593.49727532 439617322.5924124 122116450.7784755 127784648.54191005 9378283.83052998 70229274.13987347 335903061.55307806 103445564.5897085 362217132.03438514 16303270.143594166 16304455.238805277 25533198.27544561 121585531.91764702 117031153.57451652 107176.36774392678 77266.20185032515 197705.842399845 152516.48925010223 482215030.5762538 481391903.4245911 140362.38178538016 95565560.7567269 99737141.66657303 180646.34183223813 298512649.438998 478848322.8138218 479177654.296509 97092082.75108944 91866564.20217353 302303399.50537556 31479779.951345254 161386269.5002892 465141266.94988334 462836332.20078343 16487590.77525347 16489166.461464103 198876.60628807076 204692040.38746297 68242650.67441006 4128180.4150369517 5311841.228207524 271057011.57830614 271280677.59376067 326798240.34541214 327104486.1360881 199828803.5639806 202052338.99322146 230980.30772914973 87318.49026971354 179352.02743965245 9213229.946598392 97327662.65474254 89838337.19479002 96660900.88814321 344251607.6660473 10762821.633411651 10763893.808374194 19595875.397684947 19204356.824354276 36313236.57109158 41690082.536755376 338622554.9120991 314573720.27979326 38595338.113703825 44703960.00444972 131395941.53656858 2239464.0308373673 2480942.5738468682 398274579.3088473 1177687.6600146461 82881.41265904633 3341642.4150184663 307884934.1457643 308163910.6763441 27113365.093651865 86458759.84106584 78374338.9488391 29306572.794305265 382123327.40084 192376.15143148587 239479.78670932117 151990.25070310346 184098.31203287013 17398591.90366249 36251766.997713864 64838902.7077538 41432440.00191174 79901165.99081796 355090985.13064617 355792928.3801999 303029968.3017999 303714263.168674 129262.11134391758 12160340.983043414 77190310.819368 66347240.9923372 106086.62048141206 29091307.23802051 255651916.2007724 307049514.2774369 303123403.0687838 16922253.27406426 16924021.389853593 657459.8633278318 183693.22658402578 10188242.620709948 16426632.039447246 13989183.737152632 19146668.231908664 165305.96737943593 141843.84533553635 42543.3370593582 40518.54092659426 29871.199325479647 21116.64998024659 11021551.860104203 11022647.402886456 343086962.5440279 340578897.4126972 431354.0777597358 29571652.53852412 30082224.446207594 34362516.95836043 35339172.90728422 122472143.2628493 118821820.0190357 93333894.72045456 87815522.55843465 230140247.58515584 169094240.4907036 28252156.899397556 28254863.654981498 587038091.571209 588686477.2945062 5884934.287025595 3816645.157201985 102373133.07148613 42166686.112184875 15044703.20260771 371055209.7037994 210311.1435615744 182298.89833175388 29209.29149754506 52014834.706396826 36591979.82179286 307610192.54471666 135738748.11694372 52866431.4103034 458696760.5326158 458677851.47721726 9993790.132690247 10851377.894304156 117229412.19035223 109727438.56010735 387021574.1074947 386998994.3541099 410611856.4313479 410606790.2691267 263779182.05448455 118585935.42788027 60503383.405757345 23989598.58673932 19490759.66973503 19492607.56694085 37541901.787118144 166966.4251296261 275937742.52948135 288586859.5545245 6175881.8058470525 6176673.296253951 80940598.75576775 12438493.619023092 12439584.398783747 152415.49149093984 54276018.51331985 120123879.46805243 117710182.91169503 10863318.639374776 10862267.064029027 21391818.415536515 106299413.31577215 36070917.93058909 14772898.991008172 409432995.8081291 409544207.1527214 12476346.98883064 13983531.169681178 17587772.806164566 4180152.5694941957 16590920.54224616 17292800.350441653 73159216.46020734 26972287.85733912 43317472.56549392 10968740.021895373 6970841.799297164 6971757.138737635 45047463.974596284 407263390.4936796 78856706.83874257 87457092.52405697 260921203.28813055 261035016.66362762 167167.60210797642 196731.83808066027 35574.530450379636 111648884.20142666 378187950.9720133 378689768.44727844 126625608.37191813 184025.3014330045 149447.60882661454 48156.94771622252 200204999.96821296 250834472.71054798 5619323.860346579 5620138.734924255 173990685.01809606 175395824.30389354 68082431.05629946 17274600.034037463 17276368.88386596 83920619.18804187 83926690.46713205 18345468.757923946 24542399.625633318 1229828.3441615324 49237861.2019045 71696410.23310442 1946118.1289953557 74384868.7483737 74381473.53441139 106060.59936285556 60378638.025670715 60370300.96774889 60822681.54040464 32594.944536344858 23534.791666329686 209910094.13714755 206868462.12877372 82493375.82125375 134513.52137886253 39173.284887963244 156538.37683471703 29012.77538603337 42402.7030655742 20162.510795743317 404841.9010618536 284690.5748678203 1370113.527867298 79435752.99561685 79479868.51286158 118231273.52897926 113900005.35190466 227190.11066311802 11013027.634153247 11014105.106352707 156191.91005255116 130079.95017111603 28809.637039255376 124765.73021769644 114451.9123014227 84289.54439264565 122197259.11141437 57772399.56830663 206406.64278845684 403359168.7701137 477834891.8814383 477950331.09843355 403454056.70692617 186242465.7708713 118925036.63021082 9565219.012369238 9696500.290899664 19870310.349800292 19868460.38184256 6139250.835266815 8622598.019720493 34927034.904579304 10088835.85579839 10089796.506776208 78809176.16325971 189794618.4148818 189813369.5442422 237832.530584417 10631597.136914743 4832216.341784327 138293063.6194693 119062163.39652365 2117575.74431708 18116142.617956836 18114408.740983456 165991034.20894793 171261235.7902075 147216.8147680772 23525763.948744733 33831.96829951552 73621.90437084173 6520976.915733226 8085874.863152219 5896575.18076256 19318183.297231793 19320038.483171947 68317562.660037 4050866.084557958 24542207.502266347 40188065.48250489 3187365.183336629 3192529.313013379 33644794.24226288 3921674.8722065524 3398563.641444152 64663567.65894294 78732750.60699813 481093803.00081825 190992176.66816556 167757324.3980183 162919170.70030373 486252460.2595308 318599147.3204415 1374687.6907076288 44935693.685256064 51689171.95786957 288113485.6186432 234499547.08926588 31917220.139301155 117092678.2091533 3228317.3331191093 202650.63925493785 183851.64233845234 9794.07999033485 178909225.0471911 11674005.000626983 11675306.11395593 97412500.65699352 100066842.03780147 1087436.9354928264 171894794.59197956 177966584.1706151 273027515.2633824 23614497.251871444 134944.31337465846 7964720.829054023 6359065.604780797 73858962.58068337 205054416.39414245 45797172.590867795 131946307.11077362 136455645.2688376 130529293.84385528 22638.605908386096 83405.63529192693 103910.06733135921 140937802.60011965 140877996.92727053 1280882.2012924876 162360029.95047817 22870179.0338388 91235124.42990446 202916.44706816276 186395843.36860603 1857066.4824657752 159791663.30839866 159841063.21407142 203745123.66502565 203524277.22770974 354779591.0462235 348942935.91444945 2848134.0317736296 96238820.26751566 15597861.234165346 10638768.271604488 106839765.64066721 186063593.29276672 71675709.80733398 252518250.97896254 251717478.02479696 79111035.62638861 7678254.483520497 397542.2796409201 414549796.6014575 210271454.8051243 126549790.18210588 194556.03773116836 33941203.000875406 33940267.92268375 141699456.0356304 141621957.83301026 136929340.20727712 130960837.9414492 16150272.620474735 16156608.710123183 197832182.39316094 8735815.97676108 412316367.23956627 12106580.307395719 12105425.630699387 20682745.554359447 20680596.336154755 306262.6178974196 100280600.75897084 26022057.724329244 26018434.6545882 4949608.7889780905 148030433.37302798 171528.2391202803 245870.66907978212 143040.7441786632 95940012.18108049 48572245.939723805 40096916.51028214 37283731.24282378 2678346.670785847 17458385.1886749 97867351.52000669 32955055.1876272 32959016.04196737 116900334.7899553 110940430.81445445 283250.8004883682 126176.11159243877 354420.28316678334 165654385.11526918 13195082.720621698 9168063.604700532 259204096.2499733 259248412.39434636 81387646.37690361 18164181.50497111 28317468.45014996 17410706.148057617 22311409.30225127 78284247.57808284 87686654.29242192 128578749.0226993 197882718.90750164 330018899.0136217 9362343.272604039 34257217.750803106 9084413.101454616 201241806.79086676 114742.03405642918 286714213.6048949 279374408.84628975 283651248.2234605 200697998.16933343 10667177.059469495 10668215.689069908 30263.48152779486 65843860.602236755 22861397.327180702 22864412.27332183 219785463.04995844 219401.42483222572 75960.22140277734 267578.2429357138 46505817.364384204 381971183.3666484 412718020.07248634 406880561.3624615 266226949.0489971 262408529.7400515 4275027.2655401 59394882.639498726 128071430.78850509 128115788.16924547 449082944.7986572 265917432.61677366 264690403.5903265 34799056.651613854 24927814.615680505 24925553.624862116 151609065.12347826 151293907.1725647 193670158.90967557 352307948.85238564 380281468.0316237 379168193.60979587 138332.6141777875 90238157.75250547 192441008.75012174 118144801.55378489 89561244.20462362 120013099.24014889 96734741.35374989 289034707.91326666 289388884.63872266 302086.68749960966 81432020.73902069 189238.5069691649 105995.73028856528 93688.8387102162 74678.97348457671 794111.2809535516 78754284.22705853 46234833.1462357 163111358.50277588 47681924.78912924 59298732.63992467 201723529.98850885 201677743.90400684 61924858.19310441 198325111.8911709 39321800.32312663 556757763.0169679 556805418.9477174 404830366.7278691 408616545.05989695 32802459.45252721 146111156.53744102 314202053.96154743 314166712.7488498 44568851.416988134 346723131.07167554 243564197.15067956 181366156.5712116 180611987.49071586 179998816.79212502 177856447.77142355 74996969.09284894 69228288.78857574 17402.67329639897 7296.008178005914 15157.27503826901 94055945.17989418 59753166.71486574 20977337.621168114 20979402.225491673 76043720.43270703 75258085.75336915 15735135.912340553 126961.67600745686 30567985.863333467 30571255.87581168 199410906.6407015 198829659.43557474 10468.611877927648 18294.88830026138 24596.258459367116 137163357.67964923 55979771.01549811 231702640.46660632 236345109.54170018 8228550.7941853665 19119861.135358192 38497293.90486549 53929047.66608334 37706659.01291863 20952322.060981188 18568863.13588029 150522413.93281525 138332620.55802867 10253845.078882655 10254891.277360165 104216153.55114307 140694215.955072 136829633.32130083 134302405.05111286 129588132.0037716 8962447.074127804 264785463.84494105 21666301.30303169 281247315.2850874 8388962.770756435 286930.1364717474 28451924.19357038 230431475.24001977 236212143.05247527 17593820.691302713 239798090.7887967 99794737.31808263 7590754.9018284045 10291130.311276874 8223346.864265212 207169224.96473956 213834047.6530322 109317640.98448135 110646844.74631372 68636443.60594179 75354897.59561373 207879904.0044788 203367635.58744243 77133952.5667408 22639097.405779734 22637081.143546488 27077362.643196207 27080377.69549787 111697631.47533731 106085769.29911941 47075092.34529222 192797.51283584413 127038956.62109758 122392568.17124486 7199233.302308566 55026580.06501395 49463697.58586649 121324095.43548834 121281397.99762413 25052972.99839669 25050082.405562185 81121549.83194262 300260596.42594504 299850619.05632704 203088851.63319743 198443022.31047514 400242060.651424 400322954.29151726 339436723.2157328 338186894.7613583 30674891.79367986 5484136.22717305 40764779.153248005 40763196.63848331 7578733.501188062 348693756.9905958 19765179.754353564 19767245.494133104 268215.306640633 56098217.36131628 171406386.47363693 168014262.05206144 403521832.2428113 463458412.4803185 20263431.252693135 20265573.041676417 145344582.3687705 150501928.16653958 117383890.047299 143004939.3786897 22685738.423548765 28181913.419653863 320837604.0635054 319930954.62946755 91975.22847969928 78019.6742620227 81153.67785863589 273375903.6819186 152341.5373269656 285798920.3412769 281940722.71662855 5254527.479773537 4325459.934344204 87325464.41567902 96986.7128246209 70508.79790336834 103476.11936503505 43382990.66077796 276351.5503306572 186884508.929324 180929389.76864085 63535178.02572159 12794729.12072783 40315213.38160507 40320362.44660117 3664178.3523849747 144763.39810709647 235047.27197735087 20627127.3503687 20625025.34294117 250968320.92646903 231553347.12396595 227303700.2809996 424117.77279191825 48834059.508971564 43710421.64992094 60368720.52768436 5438829.364110976 78461445.78156249 73213602.52446108 77274688.92300856 46608070.76541145 46614454.97433112 15974240.049595108 1950023.480361395 553519126.1531355 558471354.9170837 126373073.70335765 48013313.90642879 43632477.45750007 1014448.3434671159 192304.7578372621 157740.20414781466 127522.03092560798 83634181.5494485 588505879.2925516 588600461.580783 107968944.28290868 108013639.8064955 12085098.49929035 76821951.20579796 27801585.93638033 23222843.36595672 2061913.2571352643 58118613.88740512 63241884.414005965 402183.1711090368 151958757.40216693 52893524.17477344 202205363.18607196 202764306.21604866 89489358.09592704 94548646.75559007 109447859.82766718 270073087.1842416 15501013.84677646 66325.17519244393 94509.84495936352 60590309.91216585 8960659.019693354 79487038.23729032 498159824.64473695 496424373.7735153 755908.6086876877 4840880.830564886 22947712.680732142 28816806.6368083 41612062.97867862 12937259.31548278 17185766.769909527 184575408.85524035 43914173.92842745 31252193.34041475 41598941.9919523 45877924.19252361 3539964.0628909497 1243137.2136973455 203484.60641287616 32908539.658664912 32903257.255039416 22087.92799382559 31758.752684541632 34542.75975323189 17418455.14160916 17420245.60662885 173721067.0329869 173717476.7927751 25392710.70285593 486489766.3984708 486450449.80320954 184007643.17293796 184746127.00953656 78572214.85437618 1264108.962281797 443464.94864608126 10692044.426728737 304197579.1915403 447426707.8459126 447042252.49267745 75526760.1603286 2337304.0293372376 8097376.479677791 182084016.94387567 177610303.3478484 216891172.00777185 213268216.85259926 288246.91382756806 184405957.90251425 227549486.22855535 11769104.350897525 44988789.73403158 44986009.39713099 334028057.1142008 32159831.544074308 479459760.4525834 482899684.48661965 37655352.18634448 37653054.16067129 217271.837548313 166316.67940798798 133297.31521447364 83120808.71768975 83117217.75670062 143030491.2340247 143104430.56476858 288311890.8833103 288482148.9329945 227006697.24412066 226947120.4213489 3892176.9267875724 327867086.68854123 8379627.401919905 50729276.43219866 24798936.852647338 11601895.057024471 11596968.191180218 127144253.13562173 122570265.07120307 12252261.401682572 188687335.53401977 189053499.13200167 117489693.43814796 193133112.13776636 3914143.5772877983 331165816.9481851 331118851.09669393 365994650.9932309 363675696.8364121 28832563.4803392 34111907.46220201 99641538.86289527 255539350.13657004 72192245.24754584 37520923.93493832 37518425.8618459 17472.978750311708 22220.877259643323 37578.18143292411 227071.7371317005 200570.37924809297 35964.427617635825 15966017.275667861 338963692.686259 10164272.893392378 56035941.61858369 468968934.597734 468974717.3590859 42801172.663298056 10657262.15680781 38370325.462529056 43768382.0666306 45257.77169260801 91292.71763711846 121771.60139220866 591470.1611688501 260543.56708752637 5993197.533953707 5992471.85269977 36821515.732308395 52439057.107102215 6958133.739529045 5386579.140702853 54215695.52113939 54181923.24684948 56114062.241986744 8563301.765486771 8564337.04853964 357473518.3992811 6133569.036710857 45163216.86662098 277229137.76008385 13815270.349948877 7871301.00301347 7872268.082860774 116474511.6603965 228189068.08242255 60136974.590844326 235633973.42430276 231233716.07632715 47791022.96170648 53244472.651113525 345798178.66510195 345865756.6905921 39722047.23057577 245610275.67061543 245219711.0102782 64563809.3560756 125643129.58091769 17497961.610050138 17497135.94442742 65429895.20520389 305507975.6302153 302882627.995989 413318.47639527405 27791555.451542422 22002048.727015633 21999692.35408993 98152.16614748706 79643.4434843787 200378320.6104191 229558.4551128189 6720334.52492187 68591.47398221977 74785.11355945258 511700514.10977334 511733185.8172099 153722.64442986602 17962795.84830235 17961050.72322001 57130846.89280687 119834.90463985037 8655176.80048629 123368341.83816761 44219181.645858884 277618678.8490707 120956376.43841133 115864768.93899976 56337871.07923069 10893862.929124441 179930.0456644718 154725.37683447154 24193.260144278793 71234272.08611853 65265432.74803518 65127325.40409911 62500527.33907193 26227370.050555512 51668253.19937861 56787885.87076803 87151632.2746747 317677.981205774 272380183.4078003 221909382.0548061 221635679.89566302 761637039.535988 759886610.8302104 149757853.16611484 115034624.086318 3870788.391394417 264855588.4457286 143212663.45560047 121553785.29064389 96389.2910034857 87448.9748564999 61043.116744536776 251131.0412590932 51761069.51966341 20129.946411157634 10691.419016628102 19658.436794378023 152894.4177513395 6432.723624714578 161793.90454802985 539120311.1486647 540969889.269577 183035.45371372384 5291705.573648595 9915345.683982406 296851502.56986016 292596615.95949334 267333.6386317284 124133259.81659715 372173534.6839774 371833512.5392115 221664178.2102793 223236352.89075246 80668615.02676614 10836.57458974869 21352.924350134832 5260.821838547027 95747.7155760653 58759.57268569596 90528.82616043053 118109744.67901488 67264279.84137489 25566537.004378367 238253.56670200799 201340.13852292093 53886.85890185028 432376236.57153934 432996354.42656344 254252393.78104338 79375.06438304667 78345.57375450712 72905489.7478296 47978678.88902793 53111205.7600984 13015761.60391631 18936879.22274609 22001816.664538693 27617451.447360285 1253465.2907613877 12712113.343574947 39963856.87060755 46745522.75548553 46736390.821791105 277619.5468337732 75421127.37578616 15928577.445685662 388330345.6971468 390120432.4344446 1588767.7823105387 4587658.2249077335 43218606.46044381 132854271.60026935 68888.47387986972 77795.26466865312 44354494.47191925 44347707.814855985 9936533.961816844 65464.08753185274 63193.53777234892 16305545.054637227 16307233.288675152 36536020.38250351 124069544.92872615 161811218.5138991 184371163.8288995 157035953.72274756 178888119.94390306 66346880.12124841 360050504.5642567 360101332.7964472 146127438.54687014 146097014.53372073 6053881.435579033 9765485.889636643 170536882.9722935 60122643.40521016 240280.51646298193 173300359.61269256 170769004.14817873 98981326.77562007 52378183.205166556 186822.9575153591 71900694.72628343 603557639.6869965 607913101.9957964 11968851.313374674 11970219.366489917 48219.419025302064 184769942.57928842 165979285.9139056 67129663.3818624 57672542.15141602 21698900.67051917 21697100.706131645 240737.9853342963 281365919.918026 49563898.29626777 274512636.65680987 271853634.4108676 238041055.64142925 35713.14032833362 50384.005798553466 26090.52828199199 9735784.175339382 9743773.263026774 332597704.87682813 332659635.92295146 11130635.867740592 449879075.80863404 448279796.0993617 421157010.03823787 333575183.35972893 420888607.5495101 332123841.0977458 29660846.615840614 48259698.58412874 36880579.88237348 225892093.57723662 102981.16360246747 40964.136944843034 53052.45822218889 25891.741918240317 146495213.26284042 127442613.90279639 123266.65025590456 115193355.86241087 197972882.18634665 203279625.94937658 265860944.32186246 261535270.83011198 139117966.43751642 970279.5865257788 41681.0973697806 73481.90151621452 45742.22162266975 234376048.04611817 229475954.3048771 63693069.331847064 63697017.01368871 243084752.16858697 258304160.08503792 243146938.784899 255830143.8939422 82401367.25991656 136750190.26962745 136761411.52293575 362637716.39187443 55381744.23530432 24899914.521938425 2817691.5845372635 47552627.110559545 62391516.38185489 52932775.55498462 67246156.82173161 202211135.1650614 12027688.679504158 10731826.223191306 174961886.10110024 180722421.3073305 11304771.028735245 11303659.25482016 224908751.46566913 221857625.48914966 4665848.494872704 9339748.203807442 9340621.3419577 12105867.526392976 10646241.263429184 10647328.43805574 122744306.07945517 96922002.01413608 64561253.22831681 82058275.44616842 53993731.29921505 43113690.06342829 16480037.11807862 245799592.9712779 249976091.1812345 94918169.4806922 68593384.96713439 74553.71545554935 63833.73589493363 11173467.321468731 11170588.448870234 10192994.653447973 10194067.962612884 77120499.56394866 58662754.02866105 451082946.5096402 449111919.7874278 119582306.69134396 100502.07686778973 89707.42449700806 866454.7996149639 5102305.451695309 7218237.787966881 299666413.4180525 190974.81989134874 93899651.13013451 89521412.03013647 403171356.48600394 404300301.4926683 449541033.8924176 10039682.156067844 10040686.260041406 276760274.9486487 15594445.510788742 11825730.62205498 149443.28061152063 81667.88364554197 103164.97332770392 7806286.691457305 369678187.87495935 368433632.49813116 37568974.06912912 408965657.3899243 133408.64740497072 183011.53662122932 86915.69799615962 341644253.7926827 338855407.4113042 160864.6010816817 34500936.27648844 69036734.72603239 69021456.27965781 20221628.703896407 159947924.56318623 162558450.4833564 104071.14416658139 79534.64201392759 90202.03531396772 96996503.78650513 97014399.169124 93501.41772241649 106791.23460139132 30276.5882810816 193241000.95275608 198126537.0407916 11073585.546216693 11074658.579349607 1997489.3755044532 8745225.247486768 8746231.11028623 317668712.4829542 317549928.3525682 23442828.63673256 28996978.24854417 100445.5653660036 90341.81367497766 128432.19462967386 104476.57412036764 99743.26247435973 147527979.65722504 141444921.90635285 182678332.48585445 23869046.98931099 23871737.563375764 168250.98204529218 197138558.80915657 226422908.7298502 226335625.6009396 237983.55818545725 25547636.914436694 58013722.10112139 12718599.258198604 36146874.88361843 36150834.31452874 98708377.00813146 98688595.02498446 12599782.608585857 7218322.699911034 14285386.854431462 26559479.069899503 26562281.69909497 10993107.101729581 10992118.93423179 36790873.72377034 314930.99251484976 10872924.317167995 10874020.649276376 267075.6559100362 220820.2424282769 72909.51554423003 310094397.17020553 313650512.53508 103177571.38158216 281556.6112099798 57990.06551482016 22317.25884922544 38608.62186724377 111396008.26160006 162679237.99853843 39874663.613460466 39878820.69066045 45644578.538583025 40160086.64148918 166485278.34302303 77479274.01539215 48214836.07287728 48180806.11797352 94930991.9383345 174284705.56576955 179860155.4331862 173422591.59069985 45557007.92726755 177846211.62210664 193820312.06840745 6233158.450906278 6233902.334957193 1048944.5215273602 105153604.42297183 100451100.20345052 122167855.7752454 145686865.10280913 150070531.84589928 196651601.3452961 196598058.81960905 131531203.38829593 126204670.48728848 64181250.87233419 59146989.048048496 15864825.441267438 5516565.431524419 10622626.622982929 10621552.627221854 313341786.7168109 310275479.37038636 209047012.1152239 7005487.490474674 292822.96381926443 23112234.441917256 28733572.98995157 71909976.52643867 54294031.47249488 93584619.32404749 88671744.7279304 42017422.43871954 42021051.27005734 151578.28503750873 76360747.95835145 162462.22721266907 195084938.68003216 199275239.28059432 41675269.48019986 43865155.686382785 38500833.18276816 34900572.20038061 462821428.4913808 459661456.83406794 32749334.512239445 27259199.65599605 70440265.45111215 289809824.9233306 289745267.130601 174078444.00066635 76912800.39027908 82065177.30527385 244964.51055427393 245621.90365446376 151601.06588516856 129270338.03852601 248338.2424580962 7917970.434261987 98832.40088865848 430279375.44294983 431024544.83591175 453359691.63590777 450717356.6754835 290858595.2723283 270716491.0791676 390289.06042029447 161317607.55651033 156319919.16155067 316197652.6617699 316394299.04076904 179128217.44476098 358616.8420933295 102872273.23874167 220834843.5431163 216111033.6731491 360285564.61985046 352107619.1696368 272580399.6824493 36697915.12171951 256187501.70948783 112496795.7139135 14167639.384172993 32047.407803219776 45358.39975273338 43977.83459577043 45047.47212844444 40625924.30834082 11423827.659520715 11422687.76347424 16747655.132633738 10970861.791763019 10975846.05401153 71642805.01357892 303592631.78010046 304222348.3576197 10290818.273385758 21560294.327498242 263377.90385227033 340185.8022191303 140687.05162857388 414856875.48178357 13642978.281116432 13642303.93690072 362816.07848543534 413969911.15083987 295330176.4865668 291581929.5355304 46901749.434556454 289124.7787735069 215212.06868926465 29202625.371478382 413829430.8539001 247849049.18121782 167632548.32503906 125874.97310868623 125717.35411913774 42336.49315954676 211054.4530447333 180976.72508548398 37926.630677716705 118386765.83152814 2979140.152380397 2981843.164515957 9547391.081458297 9546425.756944977 26206558.0819315 30668123.432713736 20738710.536293752 25416177.223722316 58823242.0826058 260971337.625723 264841472.85550132 63312.894015781596 60821.50103983291 29257.627082346073 120436270.42234845 115680631.99644865 22848342.865375582 33064965.996152643 176145481.6737439 168839078.8748817 1334006.3918757543 9042745.552696547 194299461.81268576 61561749.7408912 61568823.938633144 10175711.802947149 10176697.537029024 107163560.50722535 107156691.93469098 258961883.21917 146709.16183053184 11076.530664361755 23019.17121587774 20752.699790916162 197739.22686189544 32247646.070191637 37761698.04904157 108915739.66503096 276233213.1578935 272373356.573044 22867974.907934804 228939506.71266526 283411551.0847871 282625863.7266311 183058.6223319704 193615589.00634253 11471418.947190858 11472592.062544415 271081587.22886616 8833052.50926011 17787526.49400648 145986238.06101248 145354040.38046396 380992275.5199047 9598471.074619798 9599441.719570085 5081276.4575043935 5230666.238910818 3885328.8143896163 254551748.78160837 394174656.992349 43126204.008456 31819389.35624014 8497870.530212548 8498827.38625928 164679793.5104892 10551318.847792419 119656827.85405579 62941.406477908204 71086.37921124834 51962136.63170982 37635938.932038344 64856.44101370447 72683.15131000368 45472.380824821914 10121.875523146813 24461.07650515945 30779.622648218847 140259.25278613163 161004.74101772427 61611.13872751126 7164337.952897814 7165143.118733979 192586285.83738843 171464080.8867524 631524510.7082002 631616781.2573484 66563183.16878239 65163132.01242867 70134134.8918957 35380139.26234066 191053.429931825 138909.62672674848 92627.11510428421 64176980.02186173 255480912.6760659 65469948.99845429 70691867.52417906 259747436.95837173 204045742.1876099 200072665.60949042 2829619.133459996 318581865.6557191 194179.41242362332 170966.30323265874 42151.982698285115 32756.510961596563 21701.039476660666 18436.749884067787 24041933.58306936 275386675.30073774 274994993.4800452 6784174.460066715 63582.232760951476 58690.05502900345 47379.55651686511 40229220.809953704 58553398.34777468 137875918.90661484 320025234.40146977 315191872.15388983 202651713.093901 229734423.94205147 108450470.74931112 53105662.641038895 1209925.7758978643 38030157.61705004 68743191.57940532 76116237.62590958 71593848.48958273 63812417.26428913 101965521.41205834 3865861.4292357983 85109305.07385746 85100441.57230744 84407.48660573555 81144.86260027831 59201.50181281873 125146454.40076666 309980123.87870663 314722362.8624991 17472222.55511014 238718941.96276593 234225310.25079033 65644757.5067315 60584560.706857994 12230.73115264236 78638938.78594214 83450096.2896862 276397144.1372217 276443504.4049023 106790026.71425785 88444357.8277535 12027378.287963167 12028489.989763934 26897293.556404807 245005247.75868505 243971100.19738814 160312.2659673668 171719519.85692587 170183841.01924086 9913336.713478243 13190012.522620918 13191392.190935938 993111005.1403846 994082203.2263997 50592908.944353424 50597667.73548142 179634.98760068222 222230166.06516016 9940936.66631013 64588.235483440825 72973.70466633054 77784294.22648701 77742802.99900581 402286130.59928864 403260873.8390182 195513784.1351282 73810796.32886897 97939816.80462097 25486.632799897903 40846.24084729932 48299.949492844695 56144.64602450572 132702547.10888097 119029650.36587691 148817.3591806793 305998840.0734406 34943451.04390924 25241252.228445396 40282939.14771542 30636569.069091786 79846322.46692881 188471233.5089198 339621158.8804647 23314381.726216324 27629.25218271339 50694.15730484821 2177860.394631393 13345890.988011926 527179637.33592767 527008967.61361474 26057643.001658563 179772779.31777182 179710842.49478626 323306216.4056625 304935409.71669686 106214055.31203386 146852864.7724734 50668119.876065746 23520177.84465005 22764123.98748079 37529429.28082018 37886.89093703458 59134.789498624974 51961.41586330505 66082.12820807072 93315254.40852594 28251.81750850241 46207.044075354584 56169.27930507732 32054189.156417724 26181591.111886106 301477011.3977268 297882392.124487 16308308.37913959 128671334.76986772 94997438.52735443 238600107.9975416 200764532.53788352 200698505.0035931 1598922.7428291496 150096.50071774932 59086681.6170521 132164538.8049669 126916761.39095934 32146531.946435973 28317.813469585664 25437.94808682655 20136.97880679426 33287988.26919793 234658861.2273428 114020579.33404443 632328.1117076442 251877.87592464112 145799027.41003785 121296607.65488604 246792475.3939153 241978584.9647039 78253065.86567338 114419.60006672711 86406.4782761162 72703071.3011845 73758204.6371691 77519750.49465947 78657979.09080309 160258750.00895372 118564702.15178135 208688887.4464986 30997999.67749223 1215972.273565244 129003.51546734705 129918.2310465664 23144.929146094022 26972.626912013653 33268.935335071576 32896.70485516149 493667.922475269 88349116.30155638 193760.9299736104 257099107.07332733 261020833.3682686 185465771.17280167 185429446.23713154 356248.20723500627 732963.8767036772 363313287.9151343 361669525.18781006 73006.32938752206 43178.87489871047 66120.2655731669 111397244.64479914 106635120.36332402 323345083.3787638 133826629.87410092 128290800.7289401 45981732.52602754 45980026.70255551 396245764.04662085 395228089.8860107 6803824.680871747 6804740.947167109 2853589.4460495356 118081.98878798391 94734.91996255884 69003.81021159855 95829307.07376106 28273264.52079584 28269844.08970966 11328744.004423153 60549585.43763387 419764427.71931314 419782974.73416454 44617.313853220345 3907.2582835393623 21627.09876384919 35114.38314494499 24044545.325357858 29309337.798151657 258533474.2317038 262783021.54040247 73790676.2130425 74581201.7097723 173543.73698861004 166200.08279111626 101704.16639273272 2895275.773080686 147264224.36709026 9506234.478921419 9507250.51327202 28024.638737931244 22618.744286420577 27616.9681125481 33962.383897209715 73012746.35306828 60015297.957119845 5386598.799146354 2824255.5054226955 150550216.78408787 176925.7297942533 155224.88887302272 16525.627167724637 679775.5382036614 325039177.747456 62845259.609982125 208164258.5977352 203773233.10579967 1935559.508759367 78832.41583985777 52336.21156136685 62184176.62146019 62205632.4592215 96429949.5106379 65188615.659213915 195434.9461848317 11184.38487535849 221587.97565187103 21210.89689459599 9154.573062607893 30654.687715865806 38039.4215737875 23490.68781045923 32330.5281385403 37910.11559347163 145778075.43887755 416506893.91119534 409608304.0719164 251568760.33938965 246776982.56523263 130969.53672967441 22611.28698328094 39342.93419899662 28817.91675166783 42421.05457949373 285119463.17918485 285106775.1472952 10714065.487148149 32143546.23363172 442585507.299397 554195759.5871825 95963788.2373472 9607823.391601756 9608940.141631112 9608416.531476803 9609458.10347942 77553981.15339026 103764949.58881599 119355884.29474238 35544640.3695147 35559961.84465814 87033546.15637396 203899690.96667677 514692.95803458296 10193406.338655636 480312457.1785567 479428163.03759265 366780945.905229 365716857.83286005 77698936.12286301 57533689.2876911 44215270.21704305 427854298.89673626 427465817.5463178 90020355.96792232 53294.8970955868 40001.97087713372 54364.963798398414 57896.73045270466 464383071.57259005 421105849.4802895 424446925.0992578 464109675.9164799 386157455.70473504 379916040.4627285 388568956.554163 382754147.40449464 253333532.31135806 639607347.4412458 639566078.2444446 8095673.632739939 9060591.669999618 9061514.727222199 129060595.87543096 135461957.7636759 175559066.97712487 169600713.00483966 11166134.262105327 11165047.431748183 150554209.11021635 59081060.939066015 59079893.11810415 250017.34189970023 80891.17881412919 296537.3085494473 274534333.4349512 5211863.951400912 2160343.14755935 8973147.960677423 8974064.99504334 16516171.791671263 172724410.35046095 167580107.53520617 371990927.3936214 372718161.307109 976303.8799989902 115307.14252499139 71332382.81229272 10954442.853454664 4546849.736961495 147125.82302638274 94889633.44413708 48517927.93197628 357957328.8203708 352068169.34494066 511783.5889398796 19836183.423655946 93120811.37806906 229139332.96511102 183792199.14251432 333898476.2809302 84623386.5137277 14194276.115529353 162436625.82663205 152263339.93736815 119860218.68577714 396380539.4892546 396385274.1376815 24621191.578383487 24623869.276184715 33656852.3160716 33676680.5940599 20674041.951367904 24745357.97965804 8638272.884096764 8639290.868181847 135644.48888322987 119451.0633551168 71734.65914718133 346536.6783178964 65586167.4981716 33576212.43720988 16018720.19919386 14470775.95551407 23240116.576809287 20602453.14571145 66396615.13610462 66424529.64831992 26459762.14149985 566923788.7345793 570376454.936007 73625453.98454696 64991496.40909122 189195079.67425957 190766677.46015346 65767545.57855313 7134106.95290227 9144426.975993019 43402181.89074212 23313491.633759446 23311915.73163317 580945015.9830172 581254700.6224698 59235006.21128917 120648498.10823819 28892706.177287888 19536156.866393004 14548020.415424058 34392289.24564053 86002132.31244281 42265600.28600531 266896.4952988597 368034202.4324575 513923218.0664933 519677960.3567767 152415.48755861179 25785.91866902246 127473.38518295978 10539034.291889274 121645373.62769741 51916.13788201752 72500.88235659811 77356.7378386105 44826880.7493129 42947912.958181866 144709829.19507408 37049.46960649081 97845.90613908855 23152256.390608624 86733.4808219033 71289295.60564001 16349155.527087938 300532242.9211465 300598930.4541879 9142764.167524809 9142294.562176073 380180.0275979202 146099910.98431146 137806525.317579 19404189.389799926 8257585.730246704 22436561.6837675 22438743.558558058 269346170.9870292 269749331.41948456 144852874.44174597 165261955.23606166 580403343.4464586 578758828.6539769 141614807.73252705 2299840.120944344 152825.6494264273 87586.94972866449 104088.47901994573 23184742.894797605 23186910.932441216 136760.5741148305 119803.61087271008 70797.37690452268 51336.204410860344 73290.38317838663 611577.6852853809 232805793.83447897 200047804.9822787 44417432.40327657 464635813.8488554 467463008.7219116 460314123.1972293 463016821.1788409 9471076.458314361 15199838.81849433 7604805.706401389 77543.7061672879 82396.21064203017 135039073.24521074 30939339.807303153 36236971.49122784 12043731.104492659 12047196.961348837 85810239.00304371 9467774.84388158 9466821.755734077 114122866.39710158 114152875.80762456 132392300.5446843 138093116.76892647 138121499.22562596 96807423.95852105 99258145.82086165 91979661.29506695 93821644.38941634 3294072.7693567593 4816862.042082896 265302499.27163333 260715208.416144 168273195.4561954 10738555.43946649 160339980.98465657 156437346.41934478 108891818.24016741 780031787.5631082 779981649.0869799 12631178.284229398 12630025.371568596 13274627.406862974 13273394.099060697 8957547.767741172 10195636.275145566 65091585.29229629 52131465.62221207 56580.46587983028 69410.02598333781 129347209.62065676 340712686.19841444 342205164.5949297 9016796.46260645 9017750.943030162 44209376.40218967 49876163.28563147 11219440.958156057 99772420.9581844 12534999.325538136 18096158.01445768 94402806.58986117 249985587.71068507 250039022.89144596 258166114.02982548 39315316.359261736 72976.36720299795 54377.57715515525 41433.03481454896 9532335.444849774 9533347.907873547 16969908.282936852 16974102.376750566 90525952.5677701 131495188.71351163 21329478.012155496 22735317.911384072 9386430.05372342 13363252.793230567 19302554.566210885 15790429.79544165 391089587.04956883 390062997.169563 188844283.81560177 187099016.76258203 4411710.693880537 68318330.07560281 251536081.05803692 216477467.55275315 211617817.84716368 170786465.25724217 155353331.16942477 155189977.2950819 235312510.68553042 64612089.19209924 59401048.392473914 129163900.44024515 195829547.31786406 191827337.8052715 11284570.46934336 11285725.670858746 354818988.8873364 59828.01803578051 77919.28302529418 44164.90255633788 22799379.102012426 116786169.65955599 112807977.33993839 6976501.018906545 6975572.335864754 134397.89606913974 123126.41493877514 30480.106558124404 8273922.197546366 8274826.324982675 211196285.64662868 216921630.0142422 754937.9063259154 756111.2716299619 60554671.944944255 3749761.6571096466 222565619.51197535 222648947.8378464 39140.88349170923 50558.954782053974 8359593.281620883 14533167.15101347 234656626.58725354 233789356.10912234 1926141.8796023221 16529567.770967748 16529475.669749752 233925422.7656733 192602668.38872 240035918.26173174 239093921.91708064 99131240.69098139 14480968.28716819 15219974.267525703 15224470.777503964 22268408.583097655 444399380.9989074 2561000.0384038906 367936.9133668421 173466.7034629222 143243.88362565567 3489197.0838575587 35345247.45453312 2431197.8292576508 137032.14870843568 374330998.0263346 375139462.11394155 409410.50768622855 19088825.03975094 19085564.60107148 343496233.12104136 332871898.1291122 374107567.62388474 16423984.22190932 21798904.768454965 35490397.29876829 30089539.533570535 348483615.0016524 1973276.6178955773 464727417.7143002 466077022.2877673 401407574.6350845 401103463.79328305 116179.55148319007 71985.63828863628 75124.50019274243 123114342.10090178 295254615.43273723 295473686.6288859 48974.505925106256 75799.88003995405 34006366.44612042 34003497.52374487 122223552.38429244 349913609.2987885 44068305.17882975 44080668.577138625 133319939.46392031 9255211.660635844 9256141.939252423 54791567.883507065 150562697.24743745 39750798.11290204 41743552.444766976 402104061.47482 399559337.9777596 241627.8233159763 450394.5987068921 353622.80595356866 243747603.67277125 243333835.24154106 600188139.9408135 600910989.7110354 139767796.60782674 139763655.8353158 12787645.391742954 12789094.292724865 178603601.64191872 484043.5891678791 456695.23863697017 148977289.2700425 159432168.98177963 195057461.84014395 13128326.565706903 51795870.20319598 46350880.94115741 188331036.33399817 188328874.06881344 12380338.397494465 12390968.655948862 43182654.60653168 43194551.3717899 14301023.597377189 14302598.177688032 118806812.22664343 32713327.17027443 32711193.78200492 518828641.65024704 518854040.8593548 510013095.05512595 510606087.3556234 47911179.462940544 10823356.655243192 10824428.338973055 305764554.8605817 6759984.240848316 138261.2002986857 87834872.0228134 22196468.730508298 22200364.1934251 236372133.87568226 207500743.3330005 167872916.0087895 67533106.54910439 252231392.4455712 251765298.62117678 217792.96274871743 8830957.340980632 103835032.24887177 103442.89059380317 69839.79769989976 63820.42751926009 16378870.869623661 3159068.0502417064 306023.90670959733 546362.7711260899 192178.38737258254 12571222.026927186 12550877.408291383 5299105.144559309 46171936.88450216 53546167.805294 193645.60221080572 474903.9311782354 402268.4108894638 28974868.82962161 28973493.96375688 171284713.75369325 648806.3302716677 283594.83869412035 284676496.1985267 284799279.5744765 213108041.428536 21032669.061355975 26731842.70429758 4567727.881127382 93124986.95632581 24793.603326026743 27528.97070941099 17425639.216848545 23205248.659450904 171135265.5673099 166759100.29565865 196495251.33904126 19661008.19522904 25404735.984558605 26703566.628279157 30319663.849236917 30324656.872388445 13959882.862398053 104267175.18782513 69899948.36964637 145088484.42334217 74697364.51491868 13518133.339251004 32992902.05367058 32989674.797779795 6380690.889827634 410586.17216986825 630110.8350093729 364374445.4951712 8006912.190229709 13381042.696663463 256807379.57233077 98462973.02636015 60442.37398764713 62122.79957941511 118223843.4708303 361054358.0643656 361373859.22276825 7429523.333758947 329285547.6776597 981044.8409107756 92503.41424983548 120925.0099783075 39270.66477289608 32246149.61913967 32242970.47909626 13139691.283178806 13138755.591626663 50713868.62254448 314250133.8946969 319381691.77316207 4100833.528251585 308061812.1418975 308113866.5021283 90258.28957057498 86904.2288358786 32243.736499714843 22978150.34084877 22983305.6429066 13868517.212742213 51945227.483585216 370497492.95224833 90724522.92454068 177663389.40597737 132043248.74624811 168321.07587533747 142311.75949471438 41831.891678130014 29284.781939174194 56391.053810334364 53858.058377036024 65850.98653914037 85397.706015919 2810728.378697536 335503775.58824635 333194826.9597129 12676298.300026163 208239467.8805092 203423329.33480626 3913564.4653154733 8935941.130060615 11821305.709682077 5908695.48191794 9598909.840274503 2006736.0940783455 226454458.77930763 14925706.209698904 69389999.43897289 53619778.46408153 6269736.324572645 7110900.286216657 79696.91232857002 146686074.17195505 504756105.15175736 505934664.2231964 10199026.070491241 169356023.4415607 10806266.572646866 234304823.17922696 137825657.12335366 131474.75710318767 11103512.499830343 4144736.715068817 104799884.54214536 392879567.8403312 388389242.41812336 4318070.298815671 139780887.31087428 53502637.70323047 113253.27830077475 15360426.97454676 87194.18761094757 87118.18480425514 309961599.50729585 309876394.6354218 119026632.64123963 64561876.953851305 91412813.51787868 91406908.56158441 359492965.60352075 3051144.1493821703 9546502.026850076 9547333.345939908 232845079.74915755 15107693.486100422 15100474.571413528 297643684.4134537 301774017.1371666 28450729.40088573 175297020.14725232 75867.94316392322 73509.85425056035 164605725.8194339 161243606.48599705 165376887.17363572 167845311.96749115 247931025.84570727 247811561.09568143 234426.18685842538 7923481.876679557 676428.2970172849 172621480.16935152 393313652.1815031 14775520.814037165 14777023.556181526 254645143.7513124 15143113.826493219 15144754.109934282 5506246.523896693 305868297.99740684 237442486.4036412 23082493.62965701 4599434.611739023 75839147.05105929 14189665.96716623 144615.38140705755 414917783.25770175 414932046.6595083 350070.66044960124 277057714.4165392 277469412.859679 13417545.720552953 47723692.34181112 120729.0287425584 309700251.45184684 4843590.244413366 11038360.11637727 1705395.2921961527 13649267.1401861 11866862.77029831 42189414.58706336 66529467.07289382 1395711.389884701 213589158.21234062 203625184.52768543 156030.46045486518 48715.254892913195 49462.77180470967 511248959.91773134 511154776.5140816 333451657.8897442 16622846.05354855 155392560.77639562 155324277.26942906 120743933.48473312 642049640.8656943 636336425.6610708 368289.8811912633 28065865.34003496 211902956.0985171 210514139.7016291 630348668.6307279 630408239.6262306 75510965.99339938 29602.694011622727 33647.955888559125 40091.05613034716 256272345.58186755 106665126.38704486 9494028.706958957 5518361.454975276 536196885.64033175 537161659.9610338 439259218.3021867 560435092.5598365 38687453.89862453 314753.97415586736 681801.0008508781 158783156.19782284 153705262.4304971 7584723.2953132065 6105317.229474543 266912934.89127642 64380671.239233315 120193.42652305741 669509554.2285715 669214588.4149454 152255876.8359159 78409.35013098446 63059.242501127075 301339260.6618323 165327.7585593744 299194347.41807985 293051714.6708293 17889494.953873374 24605906.990435082 24608455.362001035 14984732.05975509 217095561.828634 213544701.9466801 292037810.45124304 67379.01357105239 50886.803856080915 430306.451799464 23189.438483021157 23417.54611849321 13903384.56143896 261893095.35837477 273149.3275996911 4536968.590756659 2484930.4901904245 251882429.78370598 247103228.35863265 479677938.995734 472003462.468009 190481340.40049332 191135403.0976554 2523361.0624027764 60848.16834434507 93083.18887668775 57035.589471235966 68061.69634227079 67194.4297282562 3761008.763629499 24214887.033198357 24212465.02459932 61649455.63633956 136183537.37184718 154823.65807747116 59861042.154362574 63875.7064137904 72651.96721725121 389400.04316451045 4543436.941672193 4007522.705422885 46517.75739112145 34426.25998664153 12217002.239925995 19629.273463991987 10780.867455110323 25555.161797223875 24622.612934166522 191300736.89324418 3512923.8927161032 112995215.73919244 113040650.07009406 125173442.41721624 125163035.87173796 11780167.62958206 11779002.507913452 219066027.48425737 16984850.998197984 37601575.26548853 563476270.6487784 563553181.2095548 319073925.93934214 22859056.430443093 15837490.550322847 9529601.357421704 9723290.338327223 22792962.429630876 66968.45124186343 72626.03189320507 19957.931158087096 34204.16943084047 18925.439509790354 128258553.67766044 77855.31672259772 79933.53597530004 131735817.3761454 57246841.58838714 76396735.18759945 9852960.009357616 2577409.071442816 11912266.97099185 11913423.871925225 25405655.7131115 544208.5773310266 13543756.344589327 13544942.909033168 99642036.01282403 94672637.12932922 77382362.41333774 145480489.80644602 23036262.875789065 2791550.8486638926 376348298.5573582 375430262.95336825 4059956.2899152893 73279219.98337558 5519053.188549395 125851729.65821189 51203.81873737866 56603.175746888934 58403.14133134547 16776.02762761469 17073.54087998079 14749.967628892395 343172718.1850754 127622456.57800421 224245686.02032816 65770152.88141485 165389373.57281494 2698107.19251448 3745280.9558331612 107545.82171764963 101818.29705817679 63432.40988944923 99895269.74565434 99868778.3614163 3587811.3203935483 357926.0988999641 246099.23116446543 285570.71632683976 295832983.653438 74562927.45459959 184778.5873169882 126787.70652796191 119453.34992372345 13124164.551442394 13125491.29913211 53422511.94534136 2334333.559727261 12756518.216757098 9676162.725250658 313570826.8415084 316180721.76396966 170333.93314953742 44564825.46156228 44561313.323275365 179591.457747028 498202303.4784266 498155424.83542496 4371461.5211976515 109626366.27751848 104060811.14165781 25319699.22976494 25299440.910022527 12075175.986191683 12076430.032496223 58054.50583323819 61051.5656037138 69012.48488783729 68067.50684378046 475158.27619846805 9010469.365602696 9014791.259353368 93812674.14632429 200547782.43122655 48937815.15644779 120700264.42830347 124601938.31579244 124599163.15249269 66927083.45184424 314947.8995759033 32758881.36276456 32756196.36520298 134388235.9520992 30323558.75774144 30305659.28623599 221496.19962050125 539604667.1508197 478741896.32127905 478851991.23055583 539689191.5494108 67506599.75534426 67474982.09322888 369525643.6774488 131645441.0455131 191424643.00467142 130337365.85701096 194099374.26414105 68992809.14409035 69026233.66488242 13249423.48830203 11733499.997075154 17241049.19636754 8487350.182096478 839384.0206122942 91974.14957775087 86822.64237194693 141692375.88357797 136712683.39250377 6884680.068991647 3292340.3627891354 3290347.449982422 96579.69760891741 3657981.9238950117 46943109.01970121 149036.35717302843 223598.20315442563 302411.9400900629 15605684.633645833 15607290.98667291 240122922.33569568 235988450.7410962 357113.151222254 293661.84930747113 111080.12777015349 28074.696714048987 37953.29384380183 21990.211200321595 42758.897070406216 500833346.4737367 501458375.23664016 233972980.33656695 41781039.70862145 400844680.4473914 9280713.608752353 9281843.16744744 327070574.65487415 27657382.75913444 27656031.978173334 79350.88789350116 80596.26160690084 64828043.206126265 5545517.344736421 290446780.3233114 291688926.0302761 347024787.931497 10747087.440495212 10748185.443755869 28248094.44480993 9935551.866076075 9936477.090717925 49625433.10627677 96986760.21556155 82841.91953394901 4530363.752885928 64245448.7119267 82173324.84719306 204463.53181805735 71202153.88429348 180568142.07680312 185524346.17133036 1411700.9057619923 58909892.627490535 5417241.728849197 7720181.3811345985 7720991.988749273 51889233.431209825 53893485.129318416 50870792.42060627 99538.54295685585 308135.4202999171 210655.27192525467 79883952.63510701 3233857.76004508 199374727.70632187 204376256.44627142 279881.5503911572 228387407.68959728 233558027.38656136 33387414.919835683 502171.46941850346 199400.49509142397 195393039.40823323 187857266.41888374 163779298.5218015 158430646.42293826 84456851.16237783 89538508.01425438 20336700.66520898 8683270.52970585 61966672.0013322 61988716.30762113 252870014.03287363 248586375.74568513 276402492.5277265 129019036.73620516 63313934.28919638 9418465.063593917 37466262.65847244 60265729.51788832 72496228.07019396 224778229.30685526 221871765.2903243 3605220.69778591 32073574.843516275 61824048.75095475 118544973.03173107 272722428.16038454 10451020.705176387 15578807.638444757 28101.89295452243 18498.070921068796 65794953.04617534 65809823.92894843 50228.77760254072 40561.17476418894 13414834.958215924 13416242.603718562 63247984.68429308 190547.05733317646 177660.23022335637 186358.30511228193 368328416.4069481 368704472.24658835 324468546.4932723 323173926.7051572 31188290.927852068 31188361.343045004 210705.37906513532 18520703.453313455 24088121.955353968 294783016.4853292 303754341.7186216 246907680.75087735 6213714.761292518 109784251.22851826 463612171.6136471 327611853.39783937 326359147.5373407 52542118.01616272 278272326.1193061 2934439.1630214625 103167661.77510935 11357778.172747372 11359018.483681545 59774243.26108445 325311076.87511635 56718939.610541135 149970.74783989156 22100233.85097675 187506187.7691132 4184821.3844097955 937380.6141724833 42566420.455545925 42574945.18263809 2484096.4280871055 358106442.1508296 353382369.4823635 144358950.90152505 60631211.14708349 60636625.09448215 23345667.51079498 23348298.494767528 68576.36812094094 57601.78171994766 76882.25938270507 212963.63737365312 103660219.1791536 33587079.81245132 129165965.659598 121305.57705687557 158197.68860310386 59322.6949652742 197378.75354935983 334118253.6584876 333609699.10056067 216178126.13650584 69512542.47773395 69551168.9702042 109928.38864563235 47480.983826300144 142506.9388302787 644658.4716680772 22947718.63736593 22950174.625156086 128975.40965624175 41275.601039127934 103278.46868110857 74605.7802066397 153731.52014229176 225344.65343572912 131126974.38912754 82274789.48687692 53601780.63575803 53607291.41337437 190642811.62393907 74944.17646096677 35028.013678114294 49431.88395940842 289856233.7909859 285963979.8383826 1595030.5105686863 34679872.51936645 34660799.63011002 21976336.592270136 21980975.412250303 28752550.092403308 28761329.963880822 31129.710028599533 63826.198443416695 55843.887870923245 255886217.94161153 243532933.04515088 119442176.13094185 767036.8066618927 107214.46771182373 49746.2440254947 75621.0720690074 174243407.06604064 169507912.83306795 1196733.2447636467 71115.82508586333 72239.30174806513 63834709.15927661 83920043.10055035 53833.98571139935 69282.5803311581 69217.63096312838 81325.69825518444 8238394.874691662 45184990.21893093 70297503.27063847 100165004.44747643 92216741.84938663 901281.5660208 9965786.266935317 32749795.455656555 195775.6508718084 100087621.96002989 110049.59730862449 78831024.25029711 425317773.606367 416041708.4359128 158039337.68974337 167788.93593377594 5184837.351318676 120173.56963474432 209054227.33017036 140991563.20651656 155712175.948211 160825462.2850367 108119078.91617016 7618315.7721414035 70726316.76663023 70736678.83513312 30337.590267860654 36035.60547659237 35590.69957138066 13128557.902578542 179272559.52375206 80412095.4911356 7752467.030164223 90581303.1565751 89051840.92425586 9346191.273673167 321957120.23549473 382506007.36001694 382638641.0828945 325477104.88179135 14071920.730710195 14067272.05580977 13113010.119197087 335220778.81515765 334592342.4740769 582301801.6910052 582706272.570677 8580319.335945953 304126029.3886391 8313891.651187585 6958471.790446495 263546529.68199465 14251430.928127812 4581360.509221141 201063673.77990043 169106648.65115616 553271014.8932881 553229964.7417377 167234841.26713553 161827722.0254952 15976703.43113111 185965.11666955004 130959207.64447528 130613128.48725247 43595009.996748626 119417063.50086857 119459384.55832171 433862633.4285041 480650814.3075083 480098355.1627709 447639676.5802609 137522221.49832106 26458648.848756514 26461792.525832772 257790.16321780926 212394.57340886368 71249.8873784174 6557479.960466315 139506991.89529774 238078.1137877574 211567835.6628474 54029822.033897474 5728280.423628661 13201123.060168896 152868344.66552687 91223599.3529474 86766812.74773137 271141969.3069491 271222784.69816446 315480597.05383664 264765405.85041174 51853498.69300039 52851400.98346859 131351920.81399523 219767.71618693517 150668.90988095792 181726.00422769177 67172501.79447614 95933446.01168564 113710654.52724305 351573183.6620974 349136867.75965697 220042.41838906577 191514.5929675577 43478.4306281742 112810653.83514293 147485948.60167858 146529655.29765302 192479.69402359953 28363693.86982236 28365951.326168027 109452820.8101038 17630595.136216544 17632330.567807496 3602195.197477447 134884868.26533097 290299818.6732242 290367549.47031826 311701642.00572354 314546552.29224235 325442634.4993254 326673139.1586288 26687041.714284103 26689404.08436986 47630024.42110464 144536.1103863628 131886.99900797248 97277.38141405936 250152156.78185436 322577236.63784397 258264971.93154514 324636952.06396776 262911415.04721484 264947979.97785604 42616236.19407906 42611642.101519525 50132.88132375969 30289560.47335328 30265061.396700483 46683.575820974496 126425298.59113741 107631220.19266191 275255813.84308314 9298636.398327798 130598.30691447492 9727049.667417033 164184.83680352152 2717754.6043149773 20166626.125836767 20160780.7293628 36790.39573107832 46925911.12490941 47559637.07593746 340929981.1119159 336923720.7635396 342873329.23523736 340732929.5883113 10564734.574645737 10563705.164611615 257503.82680091978 23849045.311794408 23846260.05498094 91689.65377454634 89803.98781857411 64981.9156897072 202248087.15167254 197294497.28533757 66155.23178375085 64070.98215485618 50824.64008630472 125186525.59158267 8540136.403653113 64475720.18236045 295382331.4609486 295767951.40914303 237663.92797684076 171385072.90785724 165883270.92743158 172941768.70366687 36433935.880338795 34213612.90846923 381464780.8760097 385340034.9472632 126901644.69336624 314381201.93697137 315351711.56308436 462730539.9362568 450669514.89213204 24972953.985032912 24971225.02348126 314842088.17513365 316046927.36530674 330054207.86816674 31229653.908250563 31227339.01400856 26622019.560530797 15533517.069570325 141715.4378875451 138130.73252969765 91309.48709811333 20861700.175012343 145998818.371457 141631920.7189908 422447447.67932796 421698757.2859425 15674678.292903846 500785824.45665264 498847511.384247 151726856.73781016 151225088.33990863 149061179.15360996 147048394.0680022 87775015.7457228 131711457.09411663 545193.4486039903 50087276.720943816 50090988.872881964 216501770.69709668 17190647.09471863 112618.54740847652 211550.8973686895 180868.30813656197 43157.53939133162 50679963.401694015 8201651.418871285 8202598.945260372 15266414.856458865 34100723.727106996 43625440.006367475 251140582.81261438 205540328.7370656 7881136.085863238 499070291.1600062 501993932.26372504 1264180.2846508261 112997642.16897926 116653665.74059615 1430359.0936036166 46676788.27897824 14152166.691506747 50016273.3102809 24630464.99524995 216688.82567692525 203901944.56313527 369601.2568432481 298533962.4618623 353435535.9158864 372118740.5410813 443824653.7334173 60493510.86569027 60503401.345285915 176248.8284382317 22590381.800993685 22498635.429462668 148490235.67971116 145374472.4800292 157323910.377038 163189.28272630452 89722.32924296233 215104.77574291275 12726712.506506044 103149.80128531092 31306446.883603416 31310181.225026507 387810769.74048454 99715090.50058337 39208491.51591944 830782.0953503632 111585174.55976027 66078609.45463993 166434.75699809496 91426.40373413256 219161.59084918193 240168423.29154697 4564932.19275948 556098495.8985054 556039132.7037921 56402247.171159305 114634255.38915338 104109192.30500345 269177089.6603937 20488599.298871733 20482371.557005476 38859113.71066867 38862354.78147862 10185943.044845209 76685327.57583103 53752551.04997995 83405976.13739517 105004652.38316919 109299741.97494653 64801081.98127565 238065322.92647034 215323032.45591328 215418754.19893348 322881580.48179126 357345504.56501704 99491984.03991932 106749629.79450376 304551823.09712714 586438768.7401019 585977248.0876428 55729146.22091141 221139379.29513872 220842933.1100201 145752567.77807269 353796684.25419825 169998610.550035 164981417.29531735 280525754.74279714 286310717.3266055 236462940.02458796 206332458.00833687 4547603.070931708 17910415.50787863 23465111.742487792 40790607.257975705 269293607.2914986 162885031.60486752 119295557.54292916 45301410.79416063 32392.549766028253 52810.367360070595 47775.035906911755 54726.50687510344 76698246.22677551 12833765.719033299 6933854.48484512 7068960.54259842 117662855.02994607 49102506.77845707 293449762.299521 30166387.26555465 30172916.644202586 31232544.44399566 31239232.44165411 180782879.64720017 7214722.095815408 54463274.83350093 10061658.626066955 10056117.974418176 338026952.6454934 337862867.42674387 10504781.925878579 10503714.892003864 16624817.832460357 16626614.09198039 62652.20083047853 40254.43486236459 74508.84783213858 315987161.4830058 315956786.4387203 75970.19126881484 53605.47906939155 73914.80989713165 272493263.0977572 298835982.1837145 236161957.66715577 36151113.41918675 36147713.417166844 3110494.862912841 41991457.99403871 6674994.326988324 24502415.87570136 24505423.837167323 48086730.14854021 209716.72718667655 61215.00319487019 24323.44935492158 46254.01096826653 55856.09935005054 125090900.79352723 168317324.5446869 166663472.76783526 32926728.016960997 1471842.7922708378 165014969.23208466 267840014.37659624 252980366.11322558 264206032.2885759 253812657.50514707 121708050.24178936 193904775.08977842 146310101.78567657 50598108.97207824 74293201.63465345 198276978.54670507 1938331.336973459 253869783.25927755 1701477.0429970436 1989857.2273003578 185934250.48000476 23887.073882480905 125394.15662197483 102468.10967811897 92897.84535330086 21186.629337653543 112927.43628028978 28327924.30515333 28319486.169801496