# vtk DataFile Version 2.0
Really cool data
ASCII
DATASET POLYDATA
POINTS 1941 float
10.0 25.0 0
10.25 2.5 0
14.75 2.5 0
15.0 12.5 0
20.0 12.5 0
20.25 2.5 0
24.75 2.5 0
25.0 20.0 0
13.421875 5.0 0
12.5 5.921875 0
11.578125 5.0 0
12.5 4.078125 0
23.421875 5.0 0
22.5 5.921875 0
21.578125 5.0 0
22.5 4.078125 0
13.421875 21.5 0
12.5 22.421875 0
11.578125 21.5 0
12.5 20.578125 0
23.421875 17.5 0
22.5 18.421875 0
21.578125 17.5 0
22.5 16.578125 0
12.5 15.5 0
20.0 15.5 0
20.0 14.5 0
12.5 14.5 0
10.00403225807093 24.63709677361622 0
10.0080645161563 24.27419354593253 0
10.01209677424696 23.91129031777318 0
10.01612903230577 23.54838709248107 0
10.02016129035602 23.18548386795797 0
10.02419354841103 22.82258064300752 0
10.02822580648097 22.4596774167125 0
10.03225806456681 22.09677418898731 0
10.03629032266798 21.73387095988129 0
10.04032258075012 21.37096773248903 0
10.04435483879861 21.00806450812494 0
10.04838709688005 20.64516128079578 0
10.05241935495465 20.28225805408125 0
10.05645161303756 19.91935482661994 0
10.06048387112473 19.55645159877427 0
10.0645161292065 19.19354837141498 0
10.06854838727757 18.83064514501887 0
10.07258064536606 18.46774191705492 0
10.0766129034346 18.10483869088549 0
10.08064516151669 17.74193546349787 0
10.0846774195907 17.37903223683728 0
10.08870967767305 17.01612900942542 0
10.09274193573161 16.65322578415481 0
10.09677419381719 16.29032255645265 0
10.10080645190677 15.92741932839017 0
10.10483870998482 15.56451610136578 0
10.10887096806891 15.20161287379791 0
10.11290322615036 14.83870964646787 0
10.11693548422069 14.47580642013797 0
10.12096774229187 14.11290319373216 0
10.12500000036691 13.74999996697819 0
10.12903225842383 13.3870967418552 0
10.13306451647886 13.02419351690233 0
10.13709677451437 12.6612902937063 0
10.14112903255518 12.29838707003324 0
10.14516129060447 11.93548384559769 0
10.14919354865313 11.57258062121796 0
10.15322580671374 11.20967739576328 0
10.15725806477384 10.84677417035441 0
10.16129032281338 10.48387094679534 0
10.16532258087472 10.12096772127496 0
10.16935483892187 9.758064497031445 0
10.1733870969857 9.395161271286613 0
10.17741935503843 9.032258046541457 0
10.18145161308684 8.669354822183982 0
10.18548387114214 8.306451597207326 0
10.18951612919923 7.943548372069355 0
10.19354838725904 7.58064514668658 0
10.19758064530033 7.217741922969729 0
10.20161290333043 6.854838700261147 0
10.20564516138313 6.491935475518151 0
10.20967741944725 6.129032249747367 0
10.21370967750003 5.766129024997362 0
10.21774193554038 5.403225801366053 0
10.221774193581 5.04032257770997 0
10.22580645163059 4.67741935324665 0
10.22983870969496 4.314516127453131 0
10.23387096776351 3.951612901284103 0
10.23790322580145 3.588709677869551 0
10.24193548386297 3.225806452332522 0
10.24596774192589 2.862903226669555 0
10.59615384879596 2.5 0
10.94230769598397 2.5 0
11.28846153932223 2.5 0
11.63461538477885 2.5 0
11.98076923215367 2.5 0
12.32692308114312 2.5 0
12.67307692536209 2.5 0
13.01923077070862 2.5 0
13.36538461224543 2.5 0
13.71153845566042 2.5 0
14.05769230141394 2.5 0
14.40384615085709 2.5 0
14.75892857144616 2.85714285784649 0
14.76785714288078 3.21428571523109 0
14.77678571432 3.571428572800198 0
14.7857142857668 3.928571430672074 0
14.79464285720148 4.28571428805915 0
14.80357142863987 4.642857145594823 0
14.81250000006625 5.000000002650031 0
14.82142857153606 5.357142861442594 0
14.83035714299431 5.714285719772646 0
14.83928571446538 6.071428578615361 0
14.84821428592949 6.428571437179454 0
14.85714285740048 6.785714296019075 0
14.86607142885319 7.142857154127467 0
14.87500000027791 7.500000011116425 0
14.88392857167472 7.857142866989042 0
14.89285714308988 8.214285723595362 0
14.90178571450818 8.57142858032706 0
14.91071428590076 8.928571436030644 0
14.91964285725977 9.285714290390665 0
14.92857142864635 9.642857145854018 0
14.93750000005199 10.00000000207956 0
14.94642857145045 10.3571428580178 0
14.95535714287157 10.71428571486281 0
14.96428571429883 11.07142857195331 0
14.97321428570877 11.42857142835066 0
14.98214285713628 11.78571428545122 0
14.99107142858074 12.1428571432296 0
15.3571428591223 12.5 0
15.71428571719138 12.5 0
16.07142857423201 12.5 0
16.42857142974857 12.5 0
16.7857142846084 12.5 0
17.14285714112862 12.5 0
17.49999999772317 12.5 0
17.85714285297952 12.5 0
18.21428571083795 12.5 0
18.57142855939082 12.5 0
18.92857141386655 12.5 0
19.28571427430228 12.5 0
19.64285713574168 12.5 0
20.00892857145444 12.14285714182253 0
20.01785714288121 11.78571428475149 0
20.02678571430391 11.42857142784392 0
20.03571428575173 11.07142856993083 0
20.04464285716307 10.71428571347709 0
20.05357142862058 10.35714285517672 0
20.06250000009985 9.999999996006125 0
20.07142857160473 9.642857135810823 0
20.08035714307449 9.285714277020388 0
20.0892857145293 8.92857141882806 0
20.09821428593644 8.571428562542428 0
20.10714285739586 8.214285704165588 0
20.11607142887573 7.857142844970847 0
20.12500000035236 7.499999985905506 0
20.13392857174129 7.142857130348313 0
20.14285714310267 6.785714275893214 0
20.15178571450528 6.428571419788685 0
20.16071428590087 6.071428563965252 0
20.16964285732718 5.714285706912793 0
20.17857142873676 5.357142850529643 0
20.18750000014888 4.999999994044952 0
20.1964285715605 4.642857137580068 0
20.20535714293256 4.285714282697754 0
20.21428571435444 3.928571425822371 0
20.22321428574628 3.571428570148774 0
20.23214285715693 3.214285713722903 0
20.24107142855655 2.857142857737868 0
20.596153845103 2.5 0
20.94230769181397 2.5 0
21.28846153698369 2.5 0
21.63461538161964 2.5 0
21.98076922946485 2.5 0
22.32692307653609 2.5 0
22.67307692028468 2.5 0
23.01923076562454 2.5 0
23.36538460449588 2.5 0
23.71153845024273 2.5 0
24.05769229413811 2.5 0
24.40384614838844 2.5 0
24.75520833333718 2.86458333360238 0
24.76041666667798 3.229166667458308 0
24.7656250000173 3.593750001211001 0
24.77083333335809 3.958333335066103 0
24.77604166670141 4.322916669098772 0
24.78125000004511 4.68750000315787 0
24.78645833337953 5.052083336566992 0
24.79166666671298 5.416666669908391 0
24.79687500005813 5.781250004069072 0
24.80208333339111 6.145833337377437 0
24.80729166673437 6.510416671405975 0
24.81250000007497 6.875000005247864 0
24.81770833342114 7.239583339479573 0
24.82291666677311 7.60416667411762 0
24.82812500011363 7.96875000795414 0
24.83333333345632 8.333333341942213 0
24.8385416667967 8.697916675769235 0
24.8437500001361 9.062500009526882 0
24.84895833347101 9.427083342970692 0
24.85416666683082 9.791666678157132 0
24.85937500017594 10.15625001231616 0
24.86458333353615 10.52083334753068 0
24.86979166687154 10.88541668100752 0
24.8750000002114 11.25000001479821 0
24.88020833353079 11.61458334715515 0
24.8854166668455 11.97916667918503 0
24.89062500018088 12.34375001266188 0
24.8958333334951 12.70833334465707 0
24.90104166681805 13.07291667726343 0
24.90625000014924 13.43750001044626 0
24.91145833347969 13.80208334357788 0
24.91666666677206 14.16666667404435 0
24.92187500007075 14.53125000495268 0
24.92708333337507 14.89583333625455 0
24.93229166665025 15.2604166655177 0
24.93749999993438 15.62499999540688 0
24.94270833326972 15.98958332888 0
24.9479166665939 16.35416666157307 0
24.95312499989663 16.71874999276385 0
24.95833333321826 17.08333332527833 0
24.96354166655782 17.44791665904754 0
24.9687499998933 17.81249999253098 0
24.97395833322337 18.17708332563618 0
24.97916666655323 18.54166665872609 0
24.98437499992156 18.90624999450882 0
24.98958333327948 19.27083332956353 0
24.9947916666537 19.63541666575921 0
24.65909090697006 20.11363636434331 0
24.31818181387862 20.22727272870713 0
23.97727272112545 20.34090909295818 0
23.63636362933978 20.45454545688674 0
23.29545454074166 20.56818181975278 0
22.95454545175678 20.68181818274774 0
22.61363635870555 20.79545454709815 0
22.27272726938004 20.90909091020665 0
21.93181817642107 21.02272727452631 0
21.59090908415283 21.13636363861572 0
21.24999999070893 21.25000000309703 0
20.909090898365 21.36363636721167 0
20.5681818062032 21.4772727312656 0
20.22727271532826 21.59090909489058 0
19.88636362288735 21.70454545903755 0
19.54545453222531 21.81818182259157 0
19.20454544067146 21.93181818644285 0
18.86363634917439 22.0454545502752 0
18.52272726008306 22.15909091330565 0
18.18181816691119 22.27272727769627 0
17.84090907624678 22.38636364125107 0
17.49999998161302 22.500000006129 0
17.15909089129634 22.61363636956789 0
16.81818180107666 22.72727273297446 0
16.47727271035784 22.84090909654739 0
16.13636362113641 22.9545454596212 0
15.79545453028867 23.06818182323711 0
15.4545454400335 23.18181818665549 0
15.11363634812483 23.29545455062506 0
14.77272725866684 23.40909091377772 0
14.43181816866006 23.52272727711332 0
14.09090907805834 23.63636364064723 0
13.74999998745307 23.75000000418231 0
13.40909089754563 23.86363636748479 0
13.06818180839043 23.97727273053652 0
12.72727271853859 24.09090909382047 0
12.38636362812021 24.20454545729326 0
12.04545453791708 24.31818182069431 0
11.70454544876188 24.43181818374604 0
11.36363635991656 24.54545454669448 0
11.02272727049761 24.65909090983413 0
10.68181818161208 24.77272727279597 0
10.34090909059876 24.88636363646708 0
13.29836716804519 5.460937501850858 0
12.96093749805554 5.798367170236416 0
12.03906249886036 5.798367168455805 0
11.70163282969542 5.460937497937477 0
11.70163283195481 4.539062498149142 0
12.03906250194446 4.201632829763584 0
12.96093750113964 4.201632831544195 0
13.29836717030458 4.539062502062523 0
23.29836716853658 5.460937500999747 0
22.96093749805866 5.798367170234614 0
22.03906249972091 5.798367168952648 0
21.70163282978201 5.460937498087458 0
21.70163283146342 4.539062499000253 0
22.03906250194134 4.201632829765386 0
22.96093750027909 4.201632831047352 0
23.29836717021799 4.539062501912542 0
13.29836716891448 21.96093750034519 0
12.96093749723044 22.29836717071278 0
12.03906249968323 22.29836716893089 0
11.70163282943968 21.96093749749452 0
11.70163283108552 21.03906249965481 0
12.03906250276956 20.70163282928722 0
12.96093750031677 20.70163283106911 0
13.29836717056032 21.03906250250548 0
23.29836716933758 17.96093749961236 0
22.96093749736115 18.29836717063732 0
22.03906250038764 18.29836716933758 0
21.70163282936268 17.96093749736115 0
21.70163283066242 17.03906250038764 0
22.03906250263885 16.70163282936268 0
22.96093749961236 16.70163283066242 0
23.29836717063732 17.03906250263885 0
13.0357142863834 15.5 0
13.57142857334916 15.5 0
14.10714285783675 15.5 0
14.64285714470339 15.5 0
15.17857143070267 15.5 0
15.71428571720997 15.5 0
16.25000000702564 15.5 0
16.78571428904744 15.5 0
17.32142857412979 15.5 0
17.8571428511085 15.5 0
18.39285713616606 15.5 0
18.92857142211578 15.5 0
19.46428571101452 15.5 0
20.0 14.99999999601014 0
19.46428571160309 14.5 0
18.92857142040583 14.5 0
18.39285713577575 14.5 0
17.85714284336419 14.5 0
17.32142855637984 14.5 0
16.7857142655791 14.5 0
16.2499999775787 14.5 0
15.71428569556309 14.5 0
15.17857141150299 14.5 0
14.64285712475407 14.5 0
14.10714284117721 14.5 0
13.57142856006613 14.5 0
13.03571428124737 14.5 0
12.5 14.99999999867727 0
21.75299660677751 6.609362091194033 0
14.19341766494147 18.06232501847504 0
15.68559162453196 15.89831786397458 0
13.43171552124144 10.76790247581862 0
21.13252496079755 6.274406865891847 0
10.72243321080994 20.84667271353145 0
23.27580154621835 11.95466616951868 0
11.47816850982906 7.050496664232262 0
20.79529617251373 6.997723436605751 0
22.27970969175444 8.397975575366427 0
11.53825023909135 16.83105736566871 0
13.94410003113554 7.955494166829967 0
11.34735025717376 9.686755902174532 0
24.1023167334451 9.181515066440191 0
16.33902262004572 19.30307514540719 0
11.20058724086507 23.35952064261271 0
21.39065159639354 9.59040690185546 0
11.62087111358515 13.18987433615643 0
20.63344892580765 10.91707846323866 0
20.9545907354199 13.4857239277193 0
23.39130070774187 7.422224056521856 0
13.51664225070997 16.92195170107481 0
11.68463677451935 8.304529811136662 0
24.09682658569503 4.836130480515285 0
12.5728511274729 11.15609973095997 0
23.75909520889641 6.4785688790899 0
14.69904346346403 17.78753862631027 0
12.03932042919643 3.304806768907827 0
10.63469094045573 8.70918084630097 0
14.77298730580317 16.1005435201883 0
11.66239646070578 15.16795319062041 0
12.30271845388012 13.71915830912404 0
17.82295449274672 19.74116655211458 0
16.11557297153336 20.422121679437 0
11.70037071181266 23.7766942394997 0
19.20118702257013 19.76668124456843 0
24.12634076680054 18.37152101693946 0
10.80155961470268 19.3611250013354 0
13.78717206080162 11.93394532361837 0
21.69759097762003 15.33859279726141 0
19.86754491962374 19.71394432980483 0
20.84993715807322 14.32660175204629 0
10.92648784563572 13.6749343035764 0
14.15463606902771 11.13862269325086 0
17.12091052419851 19.72514880563242 0
11.06675695768517 6.396998237566379 0
18.72948096523691 17.93046363564189 0
17.02208545153933 13.58837935629738 0
22.0820254976205 19.71615076370245 0
13.3658501577972 10.14735246457525 0
23.91257573553582 14.17556833639122 0
17.88283261615295 13.34754481112353 0
24.23082414178912 17.67865942984129 0
12.90583494463949 23.17032275961412 0
14.33307052098868 5.734527306951803 0
17.58820052548335 21.53588378940029 0
18.68844274488906 21.48997797652389 0
10.95730233894567 22.51720987664052 0
24.0522030556364 12.13676498566376 0
11.90685699072605 12.42277138961524 0
23.76930068747576 19.18344783808874 0
13.63350093113004 13.03413331850676 0
13.89252617761105 3.473802235106489 0
13.78168251264381 6.965557055594073 0
21.60011973459871 13.43548311748815 0
11.22693097891259 15.75845780818875 0
22.33342660995057 13.35285050850945 0
17.75091653346647 20.4231380196671 0
12.55155526212257 16.54693499675884 0
22.01414669237745 3.40491310583005 0
24.04793921638039 5.621958296817028 0
14.29820623962193 6.180852170875486 0
11.1657421941077 8.401564765112932 0
24.07124208030941 15.00881251644778 0
11.05915117252049 20.07096260262411 0
13.71153629266985 18.29400141909956 0
23.73271451656705 15.80644195999468 0
15.0795241575767 16.63310481898197 0
11.40861012460484 17.55608371931152 0
20.81467055379662 9.099509416386722 0
21.41675438583943 11.37397607834071 0
23.86728727180966 10.12965001796577 0
15.32397317687762 19.04171945533678 0
21.75278401246254 13.79860390211829 0
13.70812240449468 8.091373940390936 0
11.77492771340273 6.417457853834813 0
12.80510545403918 17.21570727178041 0
22.44446991718828 11.51996002149905 0
21.43928911074067 7.322224520390644 0
12.5153194742311 17.9901688705909 0
24.37023931471834 16.16941430843386 0
22.48224733210437 9.020118998786366 0
11.59887429242428 22.76890301438709 0
24.05889195457646 11.5378840976772 0
18.30040236554328 21.99222783952268 0
16.45144088254714 13.12429434978323 0
17.1021360422911 18.745040161005 0
15.56990244052051 16.9393466644049 0
13.76825697330044 9.365189180448272 0
23.67131859707204 13.76608804453359 0
21.83186572865994 7.110173325880361 0
10.44764667222239 21.19103635872473 0
24.71650419745544 13.98248239800689 0
17.40067439163212 20.9442762963466 0
19.84684326062932 16.40306069278675 0
18.56106146571032 16.84428783497749 0
23.8466968422687 3.424548677064224 0
21.55191272595204 11.92627854726832 0
21.5349911814635 14.7287836047167 0
10.97772388135628 12.69977818173314 0
22.34918862534623 12.40600661962127 0
16.4456460147971 20.73729993417575 0
20.10277638308966 17.84740408081219 0
21.26581880096428 10.73806787808331 0
20.87926174419503 19.56960344114917 0
19.75673177986654 17.31457345885529 0
10.97968035246022 11.21439010599762 0
10.6994683406457 15.74946705971594 0
10.86745103064086 7.102095081103055 0
10.76315668556019 11.79581272223386 0
11.69311543758284 10.76992264565667 0
13.65181730829449 8.838885194572784 0
13.21955399470456 17.74751922693098 0
10.91197175315371 4.803245774430956 0
20.86157286126224 5.257458841257738 0
14.34561271765195 22.85433860613169 0
23.61906708955393 19.82423637694331 0
11.619532252447 8.75526760489541 0
23.36602728774179 9.426720088766325 0
10.73615768843285 24.0468776151859 0
19.4822755174232 18.27193873618199 0
11.86693512521777 17.54991122787466 0
11.19693863258752 17.9081930166247 0
10.71489977860039 5.940408346673771 0
20.42330119725816 20.47444908416101 0
12.19460536251207 23.2048050073319 0
10.96390490538006 8.899793926653649 0
11.77829929704937 2.883409819705957 0
13.05557664637531 19.23172458223528 0
13.89056191072405 22.27568429975342 0
23.66406825092234 10.71498667103157 0
11.43203470612148 11.85894408566462 0
22.43148404136829 15.47629362562254 0
19.84496338601521 13.3795976146231 0
14.33531163832444 19.49206372389141 0
24.31149826035897 14.56130972369963 0
22.42867046227595 9.635771838881583 0
11.52497465698898 19.01556692664543 0
23.15689090035784 15.37395099418712 0
14.54714398213588 22.1641592684216 0
12.07114321254885 12.03362107773404 0
11.45127656362723 3.039483455389512 0
15.89285714571172 13.50000000193109 0
19.19305859026528 19.05644854043655 0
11.91140178881149 9.055771972240537 0
11.50440401558374 10.27605744520358 0
22.41934323502476 6.969499069110356 0
19.27174352207075 20.46897891957617 0
13.77112511256293 10.4181069501819 0
12.5337363204885 9.529935277518117 0
14.21463138473061 16.35674577418091 0
21.69263078912478 8.033324336964345 0
21.93420757249278 13.21200458428256 0
17.1562377185973 16.60285553420236 0
23.1253840291289 10.19358934516481 0
23.25173955394468 14.73743795078624 0
23.1431653978925 19.05889452616541 0
23.65420205365411 13.27305754070958 0
13.01441210088379 7.742250793898944 0
13.12744603133875 13.68258529039668 0
23.76502104876294 8.43091979177688 0
22.45802361843672 10.58868205821824 0
14.45338343289159 20.64958988453759 0
12.62942596407646 12.02845723457041 0
16.69328970387324 21.33363241878963 0
15.33106794154186 21.16505034123677 0
17.54236666250251 17.66580802662337 0
18.69220024875284 13.58837935758356 0
11.74327088593753 18.31378911374331 0
13.64521829830489 20.0585795883006 0
21.22406415838841 3.39762580033071 0
24.21058952464056 16.5273859779007 0
11.52390701874981 11.30457199022015 0
17.78247533506795 19.02994995053736 0
18.52300789510667 19.79637104306944 0
12.76272579579383 10.30754474439486 0
10.66710912411184 10.80270858964002 0
12.70395102985641 13.06518167792801 0
21.38958351655269 20.28280805051006 0
14.24715737759941 7.401255972984869 0
24.05331227887701 12.44369838928904 0
20.83734357184179 12.57775853741711 0
19.10860472489264 16.23254756973964 0
14.93224493395706 20.74942314230024 0
16.93158872037957 18.460090860739 0
23.74180528650616 9.290793581908533 0
10.84833842821226 15.03239681206305 0
14.25741761146599 10.45090002791297 0
12.46555491030927 11.56024271744937 0
11.25317526636128 14.34290868241125 0
13.88512437844412 13.7521911845102 0
20.29821155287109 18.45193731689386 0
22.99080719062036 19.67284439041547 0
12.48080308542018 7.014357036593102 0
14.61022508723733 13.51116161876792 0
20.71470169286226 16.84443535261746 0
10.77860147156374 17.11669965396127 0
20.46926437772863 13.08321138085483 0
24.06987125965353 7.751288327351372 0
11.77055285918427 20.27692958851166 0
21.21619170932137 15.79342441720048 0
14.06028008584333 5.219174375098388 0
12.20276966636859 7.696749303386897 0
11.29009881470343 3.556606802926275 0
10.74611600057322 9.57483216242005 0
10.42487598603149 20.46915129631401 0
20.718282231193 17.78010397595479 0
11.03297097043543 7.805593597627779 0
22.50414955622451 19.16094945392091 0
20.88328951811189 11.4851466108744 0
13.90989277642805 6.082312443161474 0
13.87555442423442 9.90249133511927 0
24.09494710965736 18.04333374282776 0
21.90409793131986 11.06275294094602 0
22.50891138971819 14.23948524787241 0
17.32940309899396 22.03121420268424 0
18.57105816420872 20.5042703987647 0
19.37482569326225 17.71021990730097 0
16.11598026029456 16.99391848671739 0
20.86048195308846 10.10653391648557 0
19.74427444401958 21.01450882347106 0
21.57483333473571 11.00730517790653 0
15.34512465631256 21.75626111924553 0
15.47312359027448 17.43976750549621 0
21.17000489559717 18.69257556142065 0
18.12377473809202 21.70044138123211 0
21.6272705916286 20.67726634059553 0
14.24385767578954 9.205309851500338 0
20.63581251798161 8.409607979326813 0
24.31284645850262 15.55420288206037 0
21.79624917856974 19.06044155884285 0
21.17050226631978 8.41955272572034 0
18.3211055734241 19.22753076087918 0
23.05424358638394 16.05953539935146 0
14.26066467175803 6.666080299841629 0
23.23274519245851 13.99593898640547 0
14.65335756425747 21.38096246234006 0
15.24187859267011 20.37866389714716 0
20.95934398541523 5.578045539200802 0
17.12112162884206 19.06297127070746 0
19.11988031607903 21.23770354480197 0
13.18667611195031 11.12374542862451 0
14.03399634388155 4.097280903092519 0
11.28078646151028 9.369410347190353 0
21.16618378177758 12.97949242900042 0
21.5008893590394 3.909065743488306 0
22.30318900100412 6.490134185272773 0
10.62143344881875 12.69902873931892 0
16.04126771277219 21.94556181360528 0
24.23076922126326 3.018402422534578 0
22.72927490363939 12.01827807498732 0
23.0968317614657 11.28641123714843 0
13.15440699199252 11.56761394720304 0
13.5814361526471 7.524220237904957 0
21.95657264478972 9.384843064162636 0
13.01658106234689 18.55373783569964 0
12.34229397311332 18.79973770262736 0
23.01187277207352 8.706984845901962 0
18.4954874042986 21.1952186993787 0
15.51015378782202 18.59304524812278 0
14.88430072385577 21.84750480754284 0
10.71207717103439 6.631997947382057 0
14.47210611197953 18.66850678002787 0
15.3048036742426 22.36432255708525 0
14.3599233717712 8.059578287771968 0
22.55686324536263 14.85949261670053 0
24.25479768292097 13.54888755507856 0
14.28493084894058 8.574079075855431 0
23.71345607652497 12.91005380817797 0
13.11714497030949 7.145237420831708 0
22.62050123126633 7.717970395339231 0
15.27243078868326 13.81978136315705 0
19.84760569607956 12.99389979952685 0
10.65211125544085 23.0085858045454 0
12.66490141008864 8.580322620788374 0
15.12859752803688 18.35358343649178 0
22.06174264129682 7.470261375835086 0
14.23112305962546 19.07708437513038 0
10.92858304370821 5.592598049150467 0
15.74580562302584 18.22895862894152 0
15.75408359541675 19.81105960700346 0
13.22659694873414 12.37483410040813 0
12.02518243664154 17.04404211643019 0
17.28269021038439 13.02203855497643 0
15.03466977220159 19.62263036825894 0
20.66613600997139 17.31428706301205 0
16.79264513439222 22.04675840300604 0
16.52758648378535 16.16837678429642 0
17.02648555203674 20.97489526899249 0
22.17497106620811 16.24604454729118 0
12.10334030010924 8.285082520594582 0
10.81446847081479 3.055433113947614 0
22.40435738394366 3.024473945804274 0
20.304463265532 19.1585578980278 0
15.87935261475416 13.02855217373274 0
24.23340264867741 10.91376441811258 0
18.22530436644414 17.50236030776561 0
11.25266279107434 22.66712360793985 0
20.57698273919627 12.06094239954399 0
23.64546977630282 7.000214231447555 0
23.24703311183618 8.0776982746328 0
13.42423646701131 23.34089125936928 0
20.88281250076516 4.838699771185242 0
21.80287553276801 10.31926494212534 0
24.31448786958793 11.98505460778736 0
16.93309364422373 20.59718179147313 0
14.38726927397024 11.69378668337493 0
23.82453121114716 9.61615444571626 0
23.7028798844903 14.54773107121245 0
23.98036508344854 9.858709211272432 0
23.11186682458019 6.772235924249618 0
23.60360734193914 8.982631521051825 0
22.6004996635432 20.1586772533496 0
15.95076795869622 21.30030255244566 0
22.16452976019667 14.89407286213815 0
17.52869364505465 22.23472195018556 0
10.97559929547951 10.35813856544134 0
19.26284482588011 13.12429435086306 0
12.93271617828491 9.84095160188809 0
12.58483807990207 23.58695221297198 0
24.34208940879962 12.95074513108026 0
17.40010754068855 20.56350165009784 0
22.97968428168484 15.02349650405603 0
15.53646489697931 12.84648292508546 0
12.92951055344956 10.76335966303101 0
20.88121261196378 15.09405567863162 0
16.74237011749372 17.62745133276214 0
13.64499581510274 22.86680566945597 0
23.03287288259676 13.34832518074285 0
23.98782099005403 4.12791770649315 0
21.09978032316099 11.98004131147055 0
24.27502711651273 8.690447030552393 0
11.57382924930006 23.42583436067263 0
20.52308898923537 10.44336894360836 0
23.63959200651663 16.4545762930669 0
24.37758637552831 18.92414036527452 0
21.77213043902426 12.89954068378219 0
24.41450592619231 17.09659461141435 0
21.4738885205772 19.67711848363484 0
13.48431295147775 22.4457585513568 0
19.42470929841755 16.82535280608433 0
24.50380560261357 10.00266248834569 0
17.44164963496836 13.89008620859283 0
11.48622179962853 24.11262826927697 0
11.99836981294666 10.07021883526953 0
24.41294836048003 13.92000908806885 0
11.39652773061273 6.650129772081057 0
12.1434222640793 8.665813845981981 0
10.65571439928848 9.169070416329074 0
10.91407231959687 4.140644708600479 0
24.33828838786453 10.3967353035165 0
23.62058205219616 10.25228663910269 0
23.02025977206689 12.71194438080832 0
22.72432414910269 3.285603639395739 0
14.56721319409199 5.542181282186938 0
13.17873861406568 8.424305522450867 0
11.73971710078855 22.47651518125659 0
21.51257437084876 12.4326559734192 0
12.51077240262903 2.921878068798367 0
12.81647132928153 3.320991725581723 0
12.9238402889941 19.99800702064743 0
13.77772534037595 19.07753044008527 0
21.50612366463569 18.30070189343737 0
20.98219782105688 11.10037528484426 0
16.48213862576674 19.89538134963129 0
18.89955624358833 20.27892015483475 0
10.69930589336743 14.29913582830479 0
11.92691593626912 16.60663274295442 0
13.40674397548647 11.86428513758216 0
10.43060809938615 19.74692484859415 0
20.2528011408793 11.96055792744762 0
17.24784501671869 22.31171692864031 0
12.04479318463769 11.62670182137157 0
11.21384999845295 13.16704960094677 0
22.43470895470304 11.85508397123436 0
17.92660767235393 20.93964780225282 0
21.22274572738871 10.28266119328607 0
16.68377437135482 16.91313879071947 0
13.4123756006852 3.057737282840199 0
19.31752404782926 13.80606958555281 0
10.61334098840795 10.08541096065138 0
13.37450280626912 20.70749244360347 0
13.1062673266814 6.545351778445338 0
10.77882283545383 8.311707391043333 0
14.93316505440613 22.79492233111544 0
12.15148353293694 19.59910871533646 0
10.7469104357241 18.59354254569206 0
10.48351542635287 16.85218435554327 0
11.58647714495935 13.81726491139998 0
11.35671998790171 20.65494370351506 0
11.48768619492743 19.64185731574334 0
24.21773298655857 7.076004243799937 0
16.51003580095076 20.30611813921998 0
14.16180515988562 9.61894906435767 0
22.42660947869826 3.585659701754478 0
14.56146053589642 20.14626354039927 0
20.54446504504988 7.33180357710205 0
18.99912152204963 18.57366982502107 0
16.40333290518562 21.62504799953625 0
20.88962384445698 4.115843366818817 0
21.30696864998245 9.166749205825942 0
23.03655705526493 20.15870022290902 0
24.4501326292495 18.07128366678744 0
24.16721371154249 3.70565919993346 0
13.99688826018262 23.07191324992814 0
11.28922051251656 13.90130371397939 0
11.3681382589618 22.31767001428296 0
23.61749395804322 5.927608436389932 0
13.15394765903535 9.574425181717263 0
12.12715507136673 23.80484770936975 0
21.31109124609965 15.40112484029584 0
21.86039813920825 14.24435158512099 0
14.21512939172663 12.5084788608111 0
22.88048289643119 6.290922267781371 0
16.2872524194319 18.65741052971874 0
13.30926356442061 16.19856533295478 0
11.33500453684467 18.45903440305916 0
23.32983380453189 3.686565700853869 0
20.46201352064207 12.49935762473531 0
21.91279699678773 9.83814057968074 0
21.69546012252135 8.88680889648704 0
20.84510216239897 7.713650413034362 0
24.48092793287182 5.596560410330428 0
23.54857539767129 18.59194469000364 0
11.88569939098774 11.32656582654628 0
11.62577456127477 17.89938727810093 0
10.76724815194724 16.39033211387939 0
12.07887091326509 3.793851944481065 0
13.40760808430876 7.87940985744414 0
12.83839324307877 17.61516572497873 0
21.12310997494188 18.11074888774852 0
23.79958682562981 11.9468668983521 0
10.63580303108242 20.10968531239798 0
10.7475709391218 21.50692162548424 0
16.38933755664971 18.19906906686829 0
21.88967363922077 11.53589715898834 0
14.4802849203752 5.186199210121067 0
13.704163508772 6.484777137794296 0
15.74232593812478 18.9802238523623 0
19.56787166985216 15.98684694355476 0
13.77494679645785 16.03284407948137 0
13.68258701474333 20.52903218586141 0
23.55304525478217 11.6329892825637 0
11.57073599249358 5.998307930669245 0
24.33579640648357 19.52975253370119 0
21.46440015108015 18.92148379787852 0
11.04003981127062 6.730457566131906 0
20.04035052705573 15.97136118246684 0
10.48701832994862 15.39669674717262 0
14.20094603675392 10.80557326197652 0
13.9730177497962 17.55650965564727 0
20.31131325787997 16.5106387879575 0
23.05797054258734 7.698766359913609 0
23.1930292007269 2.792011649760116 0
24.41923341772716 4.541494715968922 0
14.7988994492534 19.22558615383249 0
11.01475203889895 9.27607707762567 0
15.17731648742115 13.1239167898843 0
10.61370149077378 4.482052376907866 0
20.35132155816859 10.6139827838045 0
12.19040942678676 6.253376849121408 0
21.28142940862326 5.874050365708318 0
10.65116781930874 7.890030246673827 0
19.55640497243239 20.05470105387127 0
11.03949278885753 23.73353980440809 0
20.47959450890732 11.25096229851132 0
20.92663165090857 6.637490234671885 0
14.45847451672377 8.902976284928593 0
22.53373970216818 19.70327783666147 0
22.05917188186672 12.83185012533543 0
12.72233745989839 8.931898481182563 0
24.58912915132815 15.0805274338054 0
22.19688555301989 8.041321022104052 0
18.9337090181703 20.59117220556717 0
20.87037568660785 8.169011100207248 0
24.57696835530144 12.1754213371687 0
22.61197322815093 10.23924903312587 0
18.42426275003635 18.74103074391519 0
23.86243818304321 17.06276595850182 0
23.54379123850488 15.22317867210757 0
15.79458244157814 16.2812198170247 0
11.86892775433566 16.13726851693432 0
13.07176334286074 12.01389822049562 0
10.62870380909518 10.41988844363614 0
20.48213797068875 14.2823349805161 0
18.3201767006312 13.89343365893289 0
13.06976418927769 8.980585889944619 0
14.4385526820449 9.833790649774413 0
20.56035671175487 19.4789294784686 0
24.76251715828641 17.99781360459827 0
10.96155949083507 13.99506265863553 0
20.20003773071245 17.25181803428488 0
23.79856525219385 17.8544269468154 0
13.1667581705479 22.75785035330053 0
22.00655935104385 20.33439360996089 0
13.81654145085439 2.940718438832319 0
12.23311810276473 10.58369424364857 0
20.87392454822692 10.46078466822379 0
21.60370555156093 10.0114033235109 0
10.62908903640667 5.226322311447412 0
10.45136823430335 18.27855808547983 0
24.00204475157733 6.068664861680245 0
11.11571191697388 19.66483403796974 0
12.60987252009216 7.340436073637701 0
21.07135656323221 17.2178452987646 0
10.52631113230041 23.51432804788105 0
11.09269837887289 19.06260734201555 0
20.4203873721617 13.80790633129258 0
13.97349766967598 19.73956836169456 0
12.61241069359808 10.60767764814118 0
17.90830870581663 16.27117992016333 0
10.64690248051802 12.30935202217973 0
12.70828192777906 14.02162118576116 0
21.87946256062937 15.97830523060111 0
23.65386097858888 9.913663060462746 0
10.61908928200103 13.10454322563533 0
17.87545601640506 18.30400872474855 0
22.9119948253554 11.58439488637054 0
22.71534788830628 8.279116437283728 0
19.97834324580604 16.87052203689322 0
12.4484715599071 23.8773971692072 0
20.99062293795968 20.22573341162645 0
20.74713765025708 6.267784189393879 0
20.97109904048117 20.76242557887478 0
14.95871773911562 22.35858257353885 0
13.47355299214337 13.46461478272517 0
23.81545660183721 5.2228886719555 0
24.61693474661611 14.7424604945275 0
12.67806813941535 8.064687785218885 0
19.42195003515889 16.42068526641435 0
10.48026417710793 16.09296175587978 0
10.4295897488496 10.99815545812701 0
11.19764714447086 10.76764516085944 0
12.76785249274179 18.90930092307747 0
21.28989558901651 20.90339982825804 0
11.68761065487832 20.59399387426598 0
13.0924275266659 14.07001436761361 0
10.46601297786507 11.35174547847942 0
10.50117287764264 22.53016369793279 0
14.01481359267152 21.18379426972975 0
11.909061851825 14.41529052657239 0
16.1304217977066 17.67299973087417 0
11.78096520688253 15.64216489584898 0
11.61702893377385 7.784962773090204 0
11.2209499614688 4.511635760809174 0
12.19983511979079 18.37822475928954 0
22.61236362148528 16.01809183824244 0
23.37955514678145 3.05369592032127 0
11.80307432282053 11.87017597538146 0
13.98171035959195 11.50398383793533 0
19.22542079541741 20.13029451999356 0
16.8607314769656 12.96249038891504 0
15.33656306880505 16.1583647530772 0
11.12016791599565 11.63387158577913 0
13.33469308436336 3.697876708011599 0
23.295595642536 13.07982301561081 0
20.67270390768008 20.73325811080991 0
17.15323089724998 17.16669205345626 0
21.46153845930164 2.998631489961096 0
24.52416497976585 10.68174448761783 0
13.62363321857918 11.28387798276002 0
16.03513008804611 14.00395916413206 0
23.04445508100459 10.71887245493628 0
20.77338421748773 3.040029373557667 0
21.19603311665574 7.968077743131281 0
14.23076922613552 3.015687273000587 0
15.56666998992147 22.81444915658237 0
22.78177964870025 8.925431924570532 0
17.85799081946615 17.86178595380074 0
22.92119090693654 14.34253592798153 0
14.62937633447891 12.90831642062323 0
20.24327062102934 13.40486947052047 0
18.75169086521104 14.05965114010291 0
19.63472387157774 21.42658151102802 0
21.94098978907373 8.263237182912011 0
18.06035136849276 18.69661589581024 0
10.64585704054037 17.93092274383595 0
12.21709726582636 20.13401143425924 0
16.65261840411877 18.87532213735383 0
13.59249495085894 4.110482918709943 0
15.71990863002712 20.20863562864622 0
21.58133827394661 3.441775736935123 0
17.84293687841235 17.39623356671974 0
23.33467668014277 13.52745190321044 0
23.94234949725972 10.4358296251012 0
23.22492125011649 3.986355233567263 0
14.79091833475405 13.16108202409409 0
12.56574683619119 19.28730919031229 0
23.78644101572911 4.517653047131195 0
10.62858778549057 13.94619961683235 0
24.05480123601356 13.19155671160854 0
18.41916817833625 13.03664624275589 0
14.13081390966639 11.87236782513564 0
23.80110137794835 7.404561312822776 0
20.57770107402319 9.614415779870999 0
20.5918770539289 4.466007759315822 0
20.47966075334783 8.052987748566025 0
18.42080734506943 16.11359430241799 0
18.73569754172766 19.08362851135562 0
20.49410393978576 16.1052169623423 0
12.70112327115007 13.50404947220739 0
18.57440035685958 17.20363240428764 0
20.54590546158601 5.906105768252115 0
24.54717291900693 7.063020118687223 0
16.44332804043767 22.02890198121703 0
10.80856676693312 19.79070636058428 0
10.64323683896522 7.466781772684832 0
18.74999998662868 12.70836442437949 0
10.3419811047661 22.84501118653187 0
19.03320664884861 17.32914339018211 0
17.43030149830418 18.61591726054146 0
19.84629461063255 20.37033628552597 0
12.36884404004214 17.4592667101002 0
17.98006384517334 12.97713982583744 0
16.20190175956629 12.84061742325225 0
10.37669500369355 14.2751650588866 0
11.36488533791221 8.07469751196758 0
21.11429251596862 2.826745099691236 0
11.01986445425901 22.94643006103202 0
11.17953961808066 21.28663214359634 0
14.06135390046306 8.866184841242312 0
16.96627131093165 14.04672706222913 0
10.37518133388451 23.29614073360462 0
12.77930090462236 12.71692913237334 0
20.86467321127527 13.89715116134605 0
14.580034801554 9.50532132599064 0
24.19557405908753 6.368540913388359 0
12.91474209452802 9.287165815677525 0
22.1219590365397 11.32113816656582 0
14.09849034979939 20.25952791074404 0
17.47353039256559 19.39426957841622 0
23.38371607127385 20.19939597215588 0
21.66081294640453 9.288576812827273 0
14.45709241196836 17.04571513938369 0
13.01425658695951 2.962164784213115 0
14.1999556104713 4.669848258033144 0
23.33363810751399 6.347621043072912 0
18.32302532854173 20.88086896042801 0
22.11535614176881 11.93571745097523 0
23.92872827255312 8.821209877619982 0
15.84122796021546 22.50366035229835 0
14.52875237027922 4.828410657724291 0
24.09841473060408 7.398937746093946 0
20.88150116709284 12.22576943635331 0
24.05353988395708 13.84458896758239 0
13.00052558961203 6.191577322163355 0
20.14185248400958 18.81969071370466 0
24.15458796141303 17.26306370069769 0
23.37774229237021 19.42966227226043 0
14.08481051474698 13.1196151056974 0
24.47182690004305 12.54920912816977 0
23.50156545152938 12.4080987165216 0
22.29262106148412 7.723084029046441 0
12.03792364588986 9.552318740999485 0
21.30072869948378 16.49565776657103 0
24.33079876411708 8.14468652175153 0
12.4767906396171 22.94069928652897 0
21.88412499321461 12.24990144420338 0
22.63947843534214 11.06643005774601 0
23.96802168947415 18.77692344025434 0
24.56906866310605 11.43602406392086 0
24.53089813740727 13.26251356310173 0
11.17540856208568 6.992796802031229 0
22.36531277026688 10.09879591976011 0
16.86655663926039 20.07891133641736 0
11.67973972053996 3.277994790460043 0
18.19251679613637 19.61534663846239 0
19.19157970403587 15.81809003838226 0
20.39546999394496 20.94625790189697 0
13.67466292719823 10.12748477958766 0
11.75030992257973 11.04599246806028 0
10.55626545734892 22.0970676731015 0
22.15312411179331 11.63937966707491 0
10.29877866317977 22.25910709982437 0
14.66962860214328 22.98876373165939 0
21.60669123904903 8.45574344919649 0
20.38302963574577 19.90287712447862 0
10.36811340487017 19.37039817986206 0
12.51456685851247 12.56186308745123 0
17.77430909832798 16.98718876445801 0
11.4844411460545 12.47829752105929 0
16.4285714293708 13.87244898555862 0
15.12496699215067 21.44735658125315 0
11.13234244284257 2.82721234026147 0
10.46247597869029 9.862942706232934 0
23.48900691052064 9.174759814257811 0
12.57768652551471 19.80837970556313 0
24.62347777234726 13.65967940051519 0
14.71089550969109 18.26016097343909 0
19.51419432071626 12.83566708327823 0
10.96006965430528 20.48013205235958 0
14.58561816707302 5.916371568591273 0
14.60644540139461 16.62130308173131 0
11.15022741830717 24.02689509037823 0
10.43596103673043 16.50361691188296 0
19.70434723438818 18.92008262578991 0
15.19149125220358 12.74795393642009 0
23.40353479638889 7.77925198675188 0
24.38851536521874 9.615989969634347 0
24.46917504814483 9.280213532930663 0
14.55347458122569 7.710003619926401 0
20.8549016648576 19.17466537988794 0
22.68618511457394 13.72892705999574 0
22.79933414750013 2.845070871841135 0
23.55623447161547 14.17701939630741 0
17.63598677857636 21.15421011973028 0
22.8981964186517 9.696830634541419 0
22.32863479815763 10.96240814822162 0
21.03494108163835 7.344819559792367 0
12.43462999791053 9.03723842609172 0
11.16281774318617 3.172036052478877 0
15.19715558615102 22.07022454674579 0
10.75372502377463 3.607114714754048 0
16.33172323412876 21.21699401482689 0
10.46606680337386 8.420563910288537 0
22.79342430417882 15.66078862844132 0
11.4181454876295 9.136002781579124 0
13.81612106626292 4.502740831495835 0
20.50238374868327 8.823618864315614 0
12.06982578484914 11.08141459808009 0
13.88768103780961 8.585187424282447 0
12.33976242527292 11.84502232977001 0
11.18775613638255 5.218284839792925 0
22.64123531922335 8.651965737708121 0
23.61950962513376 11.14055164131586 0
12.75853253215712 11.7327184375355 0
21.851990807585 2.936188378146154 0
24.45445717112294 6.705405500083292 0
18.20012271739873 21.16767993233725 0
20.82475999621026 16.395374583094 0
19.78316587817733 17.8071700098462 0
15.17031723278544 17.86731577931885 0
12.08266673705875 15.33335713500421 0
16.79982340176471 18.04723887066874 0
11.39137663515839 23.075112423132 0
21.04731602824365 16.7730184173648 0
15.88003741902275 17.36495968432083 0
11.11870217181211 21.96469306774995 0
24.51918674049353 18.51802759509292 0
16.37815975264751 22.3502965162386 0
21.73463540082372 3.16090794842569 0
12.23772065702276 14.15583425324274 0
14.21048467604695 10.02840684192221 0
14.52146863843828 4.471226679439018 0
18.74563737173844 20.90408978616351 0
21.04262989788611 9.650822755879902 0
21.25413026159232 19.1896308901529 0
10.52464063784002 4.850574523995355 0
11.36447488631144 10.04679874111076 0
16.25317073912587 16.53704271778766 0
17.4652194713664 13.4212983432154 0
19.3928357193977 18.70002323294744 0
10.41126145219796 5.949798058524856 0
17.7253110517008 21.94431497222321 0
23.34670600979912 8.499477005564701 0
23.24458772589546 8.998894065304558 0
14.03819852776059 8.27537217435729 0
16.92313751845975 16.02361445246782 0
12.04071104551964 13.02329140562952 0
10.36649486257046 21.5560658840836 0
15.64198329811777 20.63211362349606 0
22.20236021892566 13.70872248387349 0
16.72536745551871 16.47065047700473 0
20.11964898248853 13.13105513042004 0
20.29275499566173 10.95094443586914 0
11.75572475536403 12.77183559669165 0
16.78330104770193 21.68095517566372 0
15.36848465689143 19.82999020482643 0
13.46925357180579 18.68737101689694 0
14.67162356305296 19.72825147049383 0
13.83264357239602 12.36270693246463 0
13.32617664641102 13.15886114426907 0
22.63127795130786 12.83614407099785 0
18.17127992282718 20.14287651241155 0
20.50838262553935 6.622457002481062 0
24.6041648797092 14.29861036395332 0
12.03518183336417 7.16936160671786 0
14.28729910372516 22.45025769009777 0
22.65651325528783 12.44151142179651 0
21.68516451916798 7.605574605022881 0
14.23708275561303 3.686134025139679 0
11.77437530933556 4.033828099793284 0
11.36308160354304 23.69993725184261 0
18.685952037672 17.53389514250042 0
21.67236405919855 5.82151791593109 0
21.1887174571156 19.91575237176333 0
20.71713706381707 3.703868816972453 0
22.4070702796394 7.372857334503511 0
20.09322705446812 20.69738076244704 0
12.47320472324521 10.31349507521263 0
20.54926490467679 5.496053910869584 0
20.46429409021599 3.062657145980361 0
13.13035285214109 12.89117048680195 0
13.14724032999106 23.53520049956566 0
10.39256817576472 17.17452321261407 0
11.38276912316766 4.027019260272784 0
14.4440767126672 12.1375946341018 0
22.20821510235021 10.33617407065933 0
24.60908788039155 19.16200097524802 0
13.18174929699903 10.48066347519038 0
24.63763741009916 17.66188083046154 0
12.01759292232266 13.39280242176322 0
10.49797350407285 24.32645501150272 0
13.54346015779539 3.418305555441072 0
19.01817336113664 16.62703294523435 0
20.79049734805154 9.821439508164719 0
10.39750798243011 12.45326930915221 0
23.48882705880524 2.775442439873036 0
14.51762856406445 10.80140045515931 0
18.29227483760141 13.4282846813149 0
20.34838383296472 8.406642383204945 0
14.46115819826511 3.37256625814409 0
17.93724453937919 21.37146576103267 0
14.45468189710647 4.083506990091721 0
21.23925632722774 13.9564080120402 0
16.74453689934064 19.34812022322161 0
13.73210218973978 8.36054273618568 0
20.65603104416256 18.15303477195489 0
22.93508701515628 9.18388039709245 0
10.48898697939565 6.298073886944477 0
24.54656869505884 11.06915370696812 0
12.37027548125863 10.03536369594458 0
20.92210469935344 4.434242664257966 0
21.4419096812012 6.439544338877157 0
16.1420389313608 13.20028717804816 0
10.79260295699817 23.35366315578313 0
12.62712166567038 6.480117779142369 0
11.20993620028207 7.299118626434191 0
10.56573234760278 3.366306288220211 0
14.10259626437388 21.73077305423061 0
21.09196888108596 3.772440667573539 0
24.04601717569425 14.46757052432655 0
22.87939064694143 7.223277601795861 0
20.42506960725992 7.682214469439621 0
13.74002450931944 21.86517008422682 0
11.66954117634577 3.607573966299853 0
21.56526337263012 11.6350826029026 0
24.68018651655597 17.27089402959767 0
12.20529785835929 8.960923128342591 0
11.88913690645232 24.04460049538433 0
11.37387003997744 16.230112627463 0
13.47908148729752 10.4742982999228 0
12.80352229521966 23.76324254890141 0
13.80098912758376 23.42075179483874 0
23.36687613580096 10.11336510720994 0
24.32177896615052 14.85731408474851 0
13.44825013999964 8.239153202460622 0
10.46161331597029 19.03345627316214 0
13.985875267562 18.63790451944763 0
10.9231975113694 14.57985169545072 0
24.44249907061749 3.386103331946755 0
21.28293856749815 4.502540007752438 0
11.23058979386816 15.30460039031294 0
10.94672549429857 16.09849663581271 0
10.57857394566816 2.83327741580378 0
13.50993447101907 9.798577389513271 0
21.64880145305658 6.156374628382283 0
10.93765059756543 18.24527879122265 0
23.05926622086292 20.42779867509124 0
22.43655334189847 12.14962013905863 0
13.28896891153736 19.88610978157358 0
17.1007722027575 21.57582004127205 0
13.2538254397866 20.31387859610444 0
11.54488737187482 18.68840302239559 0
12.8877366961234 11.05149261279002 0
10.92819464712562 10.62725539941517 0
20.28876873959623 12.22207497443825 0
19.17647093504537 14.13792095353421 0
24.0487759441861 2.791070325075946 0
23.79462789177927 3.031504629283794 0
24.30665974088016 11.67025387556083 0
10.42419617637846 9.494461561015648 0
12.41346284720341 16.04149897516078 0
22.17345674274385 12.24862312660457 0
10.72066066567416 11.12730034443101 0
13.98213475832477 6.701521913360781 0
23.66624077322718 7.972285323263355 0
21.75845088743306 16.36563878992735 0
13.85975834364522 4.900120568151345 0
21.36710124764534 15.02128451619768 0
14.67331511168107 11.27105303312986 0
11.61535684603085 14.19143266566271 0
11.41062418800695 3.286154721850514 0
23.20317308460092 18.67248288511931 0
13.86756561317147 11.12400854255908 0
18.85355422900525 12.96249039089721 0
16.59715653545826 12.78281296517988 0
21.16642846961679 9.9304444268851 0
15.43890688248703 18.15918220450419 0
13.92784137534276 12.75842573872855 0
20.55885307820392 5.160154681977478 0
12.85652999613405 6.828963749440567 0
14.05640437471296 16.7701423573052 0
21.1490989288913 17.64449960763231 0
11.08054608140703 9.982912601179356 0
13.4184258822522 6.048352550879319 0
14.07941022143788 12.15661052717371 0
17.32067721319659 20.18219802079652 0
20.59606089782008 13.4371882038343 0
22.97891267895229 13.6776284950003 0
22.01481889994845 10.67114528960487 0
11.30322208819255 12.8347084651326 0
23.99299837091034 14.74336196843238 0
18.93188471207925 21.71225612596342 0
11.65833262557079 11.61038513128309 0
23.9581648058741 7.135090850186372 0
21.27872213551306 6.722599319288315 0
20.48349424092147 4.821543868820712 0
24.25054723194129 14.2274495337167 0
21.32503318942975 16.9117790857769 0
13.79091120976176 5.605842073770158 0
24.14923411456022 10.11833821780078 0
22.27359033592623 15.83519589148152 0
10.80958536876118 12.10071327324393 0
10.30189102209944 21.91829609475078 0
21.09101249434471 8.961696021893694 0
24.11346536715269 3.29214621466368 0
10.39743147013704 23.85254725297448 0
12.58624317461909 7.663049733704161 0
13.05082180850288 8.093170350318447 0
21.66494089625415 18.6236806432491 0
18.86066626752139 19.81943681683652 0
10.75244608293258 3.898359501932593 0
22.87975268090442 13.0864857002426 0
19.67149701660568 20.66194716642903 0
13.49347989560856 7.198560400447792 0
13.91434545912032 10.87554930884467 0
14.1863728475757 22.07190213399387 0
14.96248194881649 20.01285812232972 0
20.50959357598721 4.042586485920395 0
14.70593671133543 11.9326957108117 0
20.75007271348421 19.8842495229092 0
22.17665266374816 8.849789313137553 0
21.27646044199784 11.13174522573764 0
24.43346610385701 7.419107504825456 0
12.24188733354548 9.300323618987388 0
22.90682237584768 3.739416917387412 0
12.05605684576025 14.85857612749732 0
14.6049346530119 12.56628123775146 0
19.11728311299332 12.78239201928612 0
24.35576472082928 5.228143456507878 0
14.67029406215379 11.58377519205738 0
11.89126102864134 7.99753382306199 0
11.76369287019594 10.20266963258188 0
23.29644894174299 10.47217285532628 0
14.48799308348287 7.012108139860568 0
13.70247417623107 16.47676153685271 0
12.9097920012036 18.12114687675185 0
24.04772422785839 19.89162138763181 0
24.05859628559977 11.8283581688249 0
15.51360972263271 14.12942508677684 0
10.54625152690697 4.125334524370017 0
10.32003161689845 20.10547486760147 0
14.33273161799 13.97754509742179 0
20.52304419928667 15.58659110999412 0
10.85997996129098 10.12699513839015 0
12.13729355283431 10.3177331622939 0
20.43794335288018 14.77341558753266 0
10.49681983317668 14.65389667649113 0
19.59909544865112 14.14061230667497 0
13.62538235169011 23.1600928887453 0
23.88922387144908 16.66686951750204 0
22.08278321499978 6.846021308977892 0
21.1683679690338 5.187046030857505 0
22.34824713858744 20.48999396528707 0
20.30154965777766 9.748355858612927 0
13.5696268064617 11.59290287359436 0
23.02135853787753 8.378969174254406 0
17.44194496802108 16.92320917703588 0
11.07080404185758 11.95554333494981 0
10.46225513865136 17.55470072693732 0
23.54023310862254 12.09938272581223 0
24.67103041432997 16.90510878405271 0
12.07817344431311 17.92271233557061 0
21.64093369972058 10.64938019229595 0
20.48342748550901 9.973689785089993 0
18.31824864242022 21.45119843859408 0
10.72630374144573 23.69440848971641 0
20.43893352655746 6.993359156209805 0
10.9417937032162 3.388702424518414 0
23.93773189072355 13.52483576390253 0
23.37578394192821 9.763467133865193 0
12.33906629756643 12.25232427644912 0
18.08319666636753 20.60011655158886 0
21.49055213414087 12.77722510952707 0
13.57703128537289 11.02686823778198 0
17.38205493500969 18.0959424046068 0
11.27791606290536 14.86404220645388 0
13.54291389356519 17.4093880213801 0
22.66589148620651 15.21128402102304 0
20.63922762415613 18.79590051876222 0
13.52185646915909 19.50745693163542 0
18.93692298833664 19.4231809430879 0
12.81082911462152 23.46602907729933 0
13.8757791641535 14.14263007187177 0
14.06537351883364 2.769113222681631 0
23.57304702025137 4.117240934770315 0
10.50005449233124 13.53622113772649 0
20.35185122689417 17.62128027610855 0
21.78792570092745 19.48733106584634 0
24.57485166421975 15.8270926627984 0
12.83724918763555 11.37057283968851 0
14.06210233193278 5.815694184954694 0
12.43832277497415 3.590990565496438 0
23.03757424358319 12.28231565405036 0
12.01945063432981 19.12856237329381 0
13.70933272481039 7.805079165751994 0
15.6342457162359 19.43054407626204 0
21.30100609348618 13.6468272034863 0
13.20692747753189 9.897126755378375 0
22.62639201102958 9.905379049235892 0
14.37125552155597 17.47066973378065 0
23.08122294518874 9.447190547291575 0
24.45278907359229 2.804433836407695 0
20.78570696922723 9.420457410503014 0
11.04935420283804 12.23380217920937 0
11.21781631619241 11.32485729739271 0
13.64787508920591 17.86092757189131 0
15.55424269406765 22.49867090936655 0
20.85942464482201 15.9360528434313 0
11.28659955212891 19.34660653678112 0
11.89179082074778 6.124451064427116 0
11.85580909821676 8.56650501960475 0
21.14413710361966 12.36119155762334 0
23.57824018169185 8.721193600536079 0
13.49262325055009 12.17574627497929 0
20.84469767873237 18.45954676071615 0
19.9466691056693 18.1867121406823 0
10.99871783144358 8.096718702485088 0
22.92479552425039 14.66920779813208 0
17.3095162205687 12.70626016574501 0
22.87687006698163 19.31164268781123 0
19.98503573040682 14.01337374930625 0
24.29375969188917 12.25802968961573 0
11.6373957024841 17.21997012407826 0
12.16737595313796 24.06389135047091 0
14.89544213141166 12.81595694403414 0
24.41315202974869 5.981859947240133 0
17.30814535416506 21.30477675712858 0
24.51184890754934 8.460066056228195 0
12.62527902057125 18.45871949467279 0
20.8970494303454 3.407063641457482 0
10.33732279580154 17.9233062712365 0
10.45832210297363 11.69087330428489 0
16.11104830642504 20.03171778261058 0
14.99421129155915 17.23067717772661 0
22.25398947613416 14.4867078852221 0
24.61755877075978 8.151521119196055 0
14.59137225475869 10.15702273410994 0
13.02004077775662 13.28647805702231 0
11.44207872038061 19.97530383606854 0
23.51359375245449 3.387535071171747 0
11.63564114549233 9.0211517139905 0
19.41509426600441 20.85231572392907 0
16.67196806831304 13.42979870806984 0
13.76075651301107 9.624135191305305 0
17.38630573696791 16.07351690085806 0
22.07530289317457 3.101505054773924 0
10.43649063271372 8.15148943385541 0
12.82205799202996 12.35013964775098 0
13.75130799548675 3.235210224840278 0
24.59921287322342 16.52535754531191 0
19.36271149221251 17.20876048663068 0
13.3227011917429 16.56899566735204 0
20.81783281119761 20.47995516045962 0
15.99107545528636 18.52383983617758 0
19.60723538681117 19.30627473888931 0
15.3036050513798 20.84239063354583 0
11.68884967908188 12.15288645465366 0
11.87782102446326 18.72849854531441 0
10.34818958771806 20.84806566221878 0
20.3886122488681 11.67340437761522 0
18.2453669074529 18.39635677211207 0
22.76879198145347 20.45207380774713 0
16.07612564708619 22.28295130573434 0
11.63989026566892 9.905571569782158 0
21.18802449384518 11.63608830103365 0
23.91558525894467 15.39078926643072 0
23.31290616594999 15.05558574622257 0
14.71209450125179 9.827062490740373 0
22.76066242387137 18.81911071137273 0
11.0933705602909 16.83342288161836 0
14.53476867255423 3.052756452901775 0
20.42278514755771 6.259269388776197 0
11.48267915212927 8.52210656226855 0
13.37308937082131 6.810725758258443 0
20.91683976266728 8.711781208247617 0
24.58908477171732 11.81570201724313 0
11.84036194040377 10.48572898012209 0
19.03044685506203 13.41482586251894 0
19.82769860229317 18.55839746103336 0
11.0260234877273 3.788359356292023 0
16.04048373276878 20.89042612741416 0
14.21273133961507 7.757816817522816 0
10.91517388124829 4.484394655187119 0
20.38067212074605 15.17251658872103 0
12.02689857564263 22.84023447426192 0
21.9489590022407 9.124858931193414 0
10.96907678435697 8.623316254551813 0
18.24796456535991 17.95000469680329 0
15.49018450446851 16.52943744188498 0
20.48900267335731 9.24924588548618 0
22.5006420712106 8.030066523645319 0
17.19009028214528 20.76996375172752 0
20.10388852734788 21.05670028806083 0
11.29787056959742 5.655889438989225 0
23.75490229878131 12.59003281541514 0
10.91761745862779 17.6233080837291 0
24.28044928466885 15.24011465870774 0
22.11796825430897 9.619092432129124 0
16.15958696145906 18.97363968020817 0
11.6799700401653 9.428914218363069 0
14.64395806718258 8.666105965000916 0
21.72982944515234 20.00381667990193 0
20.32940784078854 10.25131861848412 0
14.62359453319634 22.60183736682746 0
11.32383283838817 13.50735533959783 0
21.16457678857094 14.26768349271366 0
22.20166631351959 18.8090252905479 0
20.57669053251932 21.21490722433637 0
12.99233486498973 16.80118325494278 0
12.29319177398348 23.5429504112735 0
18.56683529997141 20.13512696912875 0
23.29140619482875 10.95384880590656 0
15.52757612648088 21.41364184845348 0
17.8571428503134 14.06498105623528 0
13.5405727681198 8.550504980333821 0
11.79544388305544 19.82855547797097 0
13.26423765427012 2.754659900299445 0
15.6394677351759 22.15019463155636 0
20.7558164955185 21.0032028286572 0
21.28332574811032 7.629375297991678 0
21.19607615274727 19.51135644680949 0
14.58530167091097 8.346168377871525 0
17.0565948863932 21.86798386924285 0
20.04217477141213 13.67174275769124 0
24.71290263011086 18.26785670338066 0
19.98259635335466 21.35056781705382 0
19.26944777122652 21.54600626706812 0
21.15076765347271 14.66876526188472 0
14.37840102425105 11.37753280371804 0
21.30816336433929 8.769550972055132 0
10.33014652230119 24.54729097037353 0
17.35079501581352 21.7203634775168 0
10.88421520505306 22.19190717541184 0
10.95477425645479 24.28906351136845 0
21.23031914142899 4.154753657343885 0
13.50166358072884 9.35237816852994 0
13.13419760512607 18.89646603596437 0
20.83992859315361 12.887818096896 0
24.50935360952543 7.829457398883593 0
12.71911413544687 3.041890416792598 0
13.50923679771734 23.59333104791691 0
11.89920803559249 7.594248785520479 0
22.9888758678687 11.87706153068621 0
23.92414101343307 16.22937255948685 0
23.7843035922859 12.26504509184675 0
17.9240950070687 19.3582203176964 0
12.92553890336011 3.751638837127762 0
13.21141806451788 9.245975471834447 0
13.41697279901951 9.035322303302893 0
21.88212558560677 14.60821656283169 0
17.92057795891658 13.7108277940428 0
24.52833647309764 3.060537918389943 0
24.05961130936272 12.77795684924624 0
11.13899475930975 18.71905069135146 0
13.98792730104752 22.65959660367815 0
12.60031380625619 9.791244267485425 0
12.43505316910625 3.201102806183316 0
21.4825693179164 14.33715736330329 0
22.0877361374228 12.50220714392785 0
18.93137284970655 17.00434626072642 0
24.68584302227654 19.77917436821159 0
22.86247256848009 8.03253403689886 0
21.18105074780604 20.55526472838741 0
10.80402956124429 9.875023595732337 0
21.48344900938981 16.08820032937565 0
10.73419025602028 22.73939368734622 0
24.41810359410025 4.136134681552873 0
15.79030971298534 21.65650786047437 0
10.51921415399227 5.646413598693319 0
18.54837773557929 21.80821628897761 0
10.82600180640265 21.16039414972359 0
18.81298666118498 21.23453049612219 0
11.45699904552405 2.750021123071387 0
10.26995661047558 24.13644390368419 0
22.16056101992414 7.153762482861442 0
20.5300021736922 3.397727625794719 0
16.89292849273467 22.37722857513965 0
23.60081813351065 17.20123283664915 0
24.0912998310593 8.442197062893891 0
23.84715646632723 17.4409103049738 0
21.86623199573035 3.820755053231962 0
17.05874442239199 13.26169686509717 0
13.50261428682412 13.93903734397398 0
21.82702734009888 11.87499385338646 0
24.62900377040496 10.34186989987273 0
24.26193554947224 8.957144711976829 0
22.92628967854806 11.01335336799915 0
20.20060439132059 19.57712973977925 0
13.24582597170459 4.013734626170228 0
19.27014077590461 19.42598801543728 0
12.24144247774723 16.70931785776837 0
22.26334324775849 9.291134052502162 0
10.91359970824257 15.45697426962781 0
19.96960680357966 19.28311694899667 0
12.5977887755077 20.18967237452379 0
11.9880098198035 10.7944238617746 0
23.9113687192249 10.99498894197297 0
23.75370364241186 20.11198701184561 0
14.65364082892223 10.49615035801256 0
20.81374482165444 2.743739244940256 0
11.79067606067779 23.13198655866744 0
13.79653463807439 3.777429048354648 0
13.45569895441043 12.67091530824724 0
14.83073749963684 13.84472690632112 0
16.28464225422471 13.50797194154149 0
24.39039516142909 19.9107571900015 0
23.25200666562066 5.983341133957233 0
24.24778389307413 18.64765310439031 0
24.10478184720467 15.82937447572867 0
23.86921458788538 19.53771597191891 0
11.54512262191044 15.91798143143886 0
21.13980208411597 16.15877748471793 0
22.12712102954827 19.31563695695019 0
18.15447545876632 16.61687568169222 0
14.138479438582 23.36763701754573 0
24.63534714424228 12.8943834446161 0
13.92894981768154 7.612493675911632 0
22.67778252491731 9.328527809901516 0
21.75761786063655 9.594392189439615 0
11.10064484570733 6.009318877396007 0
20.19314083158995 12.79369738657498 0
13.87285050151497 7.287700743651967 0
15.57401104656724 13.29531628295251 0
23.76125734789565 3.764179444206707 0
22.46550088898133 13.60761564359628 0
13.30378167831518 8.745622498496845 0
23.94662091938033 8.153061894232158 0
24.5456602538138 8.884429565214651 0
10.7843224371998 6.263225865322295 0
24.47145669361322 4.874254490906702 0
24.02810515795669 6.795736716767645 0
12.95062746542118 8.630574619178178 0
10.478869956701 12.05694138935644 0
14.4440328277044 21.7757064799329 0
14.09963326960814 7.002671062031591 0
12.31329277526562 22.66114872712989 0
22.23548804848891 20.06042902664809 0
24.15166842292468 19.19326044015489 0
20.02745319692371 20.02164411575546 0
21.95074643349219 7.806547417278509 0
14.60061154769758 7.346177748560971 0
23.20274107371107 11.61381773435032 0
21.53903086712563 14.01747179083182 0
21.98855792714073 20.65059848305502 0
23.49473078202093 18.95034811520711 0
12.20988751737561 2.85079337888457 0
21.35282886192732 3.637763340593314 0
22.20508801103569 3.841035199623272 0
12.67067648494503 10.89767480942698 0
20.93326829333582 5.980078545689392 0
24.60067529981884 15.4349226961509 0
16.19533369464597 22.61358116357572 0
11.12439951809762 20.9113062103968 0
10.41756957663732 18.6906809709366 0
10.5561486786295 21.78374345046559 0
11.66961906436196 7.370765175088691 0
17.65774804073881 12.80089785230247 0
24.10793583067313 9.510714153713037 0
23.52504740631347 15.5258578712722 0
17.66198246120509 20.75349954764667 0
21.5072158624805 10.40015550586031 0
22.45585535969719 13.90011778823033 0
24.69315028826945 16.17373268705207 0
23.66640978299196 7.665922201342247 0
22.3038912101414 3.301182932928579 0
12.49823990998688 2.691311834449864 0
12.88740591101338 15.91810869497716 0
13.98132769047276 10.56626429638842 0
10.48872062602659 7.050068470611034 0
13.07585605857829 12.61144446981955 0
13.1825216620575 3.358120403090159 0
14.37179255842523 23.1864291252012 0
22.35666436965674 12.68151357008904 0
14.96642245490872 18.76425399488275 0
10.35026100483483 13.92409779483115 0
14.65364137555638 20.99253284311117 0
13.96176207366354 10.24894237185207 0
11.7957223110116 6.871185942367925 0
11.64420021351444 14.66712590393822 0
14.64228090059116 9.157730274863173 0
21.14934533217024 11.34546630016614 0
23.26165294852068 14.39977054299435 0
14.3337976561391 15.91809432084228 0
11.94864198365469 9.332923356829378 0
21.80769230554217 2.686323117221511 0
24.17753640759661 10.63663255135312 0
16.12513566590716 15.9568056471433 0
23.35120908122996 18.35908416454698 0
13.96790283543219 19.37874076648741 0
13.01773684247189 10.1702252030198 0
15.65347439437833 21.05190293182712 0
19.45014111347021 13.4733834506794 0
15.8841639791638 12.7334046418381 0
18.82646490457616 15.91833109560619 0
11.21209408733452 17.18059785318473 0
15.30581970402876 13.49494158684666 0
15.20637390344075 22.97473051113738 0
22.87294393638449 10.04553967891416 0
10.41079015711136 15.02466255119852 0
21.92485065075393 8.582613751208582 0
18.61879983697041 18.29012379928309 0
11.70409572994383 19.38112867894218 0
20.35199171420348 16.9175458876992 0
20.53328254000703 12.78116565102457 0
13.50994070075184 2.753397434443913 0
20.9514177595357 15.53434376128038 0
22.34537393821825 13.0045615148264 0
23.86653419297362 11.66450699014046 0
20.43928063643332 3.755513263895156 0
11.38476880895034 20.30835731943823 0
23.29492210954107 7.068392729989196 0
13.59903039505318 4.735480975427425 0
11.44378591666039 10.98887120847195 0
12.43660178817643 8.760609802853729 0
23.41716508410785 12.73534403740923 0
24.21274004467419 11.25888050826846 0
17.52442307138538 17.27622386933234 0
14.97794423168971 13.48164704151286 0
14.04742909523936 6.406169308207836 0
13.01132060710793 19.62893223412767 0
19.03870029875278 18.07766179208585 0
18.05770640418701 15.84870489029025 0
12.36585289322414 13.25437645185675 0
12.27935077986406 11.28216064600761 0
21.05916460231276 9.356682851531302 0
23.47494712037584 16.12796203182166 0
12.71046046457547 10.05208752728934 0
21.59882993467902 15.6948095452774 0
17.68197436899298 20.07384133112318 0
22.14279586417618 2.781364017508795 0
23.46361315118471 6.687404305612367 0
22.73169447239104 6.746488337536889 0
10.37447920191877 15.74621219850486 0
17.14404804523058 17.61897469617865 0
11.45242340465259 10.59035047775675 0
14.20417007412278 13.49149515134698 0
10.35504687661237 13.19702428874426 0
23.68244516210683 5.567292570638331 0
10.88410083534049 12.44518200640133 0
21.20179844515776 12.66714869281802 0
13.69243775934464 10.6881649281564 0
11.15966766865181 16.51386306934152 0
20.54486977418655 2.804100159088649 0
17.70710346253696 15.84441459557878 0
11.39045171652602 11.54652601806794 0
14.45513022404361 2.804100160286617 0
16.46657505521085 19.57053936750985 0
18.57919407681694 19.4901523006186 0
21.2249155653479 13.29051367537769 0
14.56629955474476 6.554713449486934 0
21.49583365176657 6.994377475363877 0
12.49880741251268 16.95911532740122 0
21.63057144909643 12.14517158637382 0
22.79318559607927 13.9884778924494 0
20.8025419614122 11.80006063791497 0
12.75703119251657 22.69515124708957 0
12.35087335408117 10.90974439221272 0
20.91089435147573 10.79142239803563 0
10.94060425184923 7.522108492631057 0
14.0916365904877 3.285487611981308 0
11.30222304638754 8.794334343648188 0
11.11640575371983 21.61141992779744 0
12.14118223667902 15.72989667699396 0
11.95847224902933 23.47703007221912 0
18.97947980961835 21.44637162620934 0
22.8664076078758 16.35053931180929 0
23.25636469722581 19.85830724321682 0
16.415897041085 17.36606441675345 0
14.21778880394091 4.363545762187655 0
23.74499225717887 18.27168857736231 0
22.68999359508287 13.42843598222424 0
16.06864931702111 18.04063690753022 0
20.78811691869328 14.64317096067734 0
17.60152405454478 16.58308566373044 0
11.39032721297673 21.77378480447723 0
11.04780506382343 9.6231289792455 0
10.50253725847953 3.764438961246076 0
21.42016010010157 8.207707677669601 0
24.67781613436783 18.80786286109492 0
21.80057565863349 12.60109650206526 0
22.11025230806028 15.25283355624906 0
14.22580626612285 4.960750613825647 0
15.70386630559059 17.82059849412751 0
11.15566517582767 11.04361019517616 0
21.37888792133579 12.12697108175452 0
22.00928687204787 6.15762293797919 0
11.25018381172377 10.38269618721418 0
22.158396134633 14.05700496591512 0
22.72908596515515 11.34583608296974 0
20.30387479095209 21.27478613543525 0
12.24517981996133 9.724666875871057 0
13.40059195019536 19.10424861265112 0
23.2349167831474 12.50122362249679 0
21.62498162192957 16.70275419440512 0
13.23467586571467 7.457921186445599 0
21.6480236310058 4.191113373895779 0
21.03518040281802 21.05653292121974 0
16.62597654635067 22.26683840198254 0
10.42606193647929 8.941620467888429 0
11.31183481786793 7.625135971173389 0
23.15602855979881 3.370246992014903 0
11.36282909427149 6.291985871001962 0
22.72113029041071 10.79316945192492 0
10.84217564140377 11.47451523118295 0
22.46929747848815 2.73018176703084 0
18.03571428190875 12.69818993561667 0
18.05262275055538 21.99674433021625 0
12.29584717284298 7.391846151332671 0
19.08851304403294 20.89259898910219 0
17.47414811168301 19.79730720721562 0
22.87576558932276 10.43589641108722 0
12.15069433927597 6.700976177962912 0
21.79595579607366 14.97371724570041 0
23.86255064427989 11.37643650328438 0
10.40666904144136 10.70116724309854 0
12.54286894608396 23.31749031149293 0
12.20475134119024 16.38986410529718 0
14.30368477138975 12.85385651547533 0
21.15717390776504 7.045876150079914 0
19.52248327105362 19.64838840294631 0
21.71810000234205 11.29645292312393 0
20.31269115765153 9.510816596286704 0
22.63315010848038 14.51948589518173 0
10.93939614935445 10.92228720315905 0
10.38639629223003 12.934578917542 0
23.26445308575937 16.51140350971244 0
20.70505026021088 10.64533298305941 0
13.66282140569673 5.30039220228497 0
13.85623177811746 13.3724099085573 0
13.38638379505987 11.33763742861839 0
13.31392089504154 18.22400434922188 0
12.32298482585118 8.001136280974555 0
17.41353325274959 18.96109213283964 0
10.39162412313188 7.396884514573651 0
21.69074468886661 20.37017882412582 0
22.82437691979951 19.9485592808814 0
18.34684734363694 12.7390344914999 0
13.16236066462042 10.85181628592905 0
16.57325222907083 22.56066583482178 0
14.85256815980857 20.38648968881986 0
12.16432443071743 12.64231019672084 0
10.73417241044432 24.48342004572686 0
17.03649586208858 22.14274838384922 0
13.8089269765711 9.119092156613801 0
16.07111943575542 19.63529610218802 0
21.26245392768253 4.834817472647484 0
13.67062650392187 21.02961753709782 0
12.62110516886171 9.250841862326892 0
15.89277329726153 22.79195630607629 0
21.04574008760101 3.130689564515809 0
17.64072423634525 13.13902318219908 0
13.25980208857011 23.10010247013439 0
11.25007000531455 4.865133933891034 0
12.42811786040874 12.87732532532661 0
23.28954463902949 15.75908948084473 0
19.5893168590786 13.18068115636531 0
14.33691803382542 19.87010691425118 0
20.71494330272149 11.20354242659929 0
12.74553221830579 2.771193480469909 0
11.63945301871169 8.040430979814106 0
23.050454240782 3.069325814666632 0
18.98822316556017 17.70864193798336 0
15.23770111905332 22.65604061964602 0
23.76811488226697 4.884498549794331 0
13.94176349236289 17.1929949601875 0
21.46132003988316 2.702339941374768 0
11.17131945431326 9.058660997667674 0
13.3035714298663 15.81849670503237 0
20.5703831191245 20.20135464143982 0
14.444888471097 13.17363328237551 0
15.02098114761368 21.07718986526765 0
20.84827965207336 13.20918971252054 0
15.63838646586774 13.75958299662952 0
23.68098066409108 14.95557726621702 0
24.53451165201693 6.342411273899039 0
14.55172201980627 3.741701118531701 0
13.16942029610623 17.24859049357276 0
21.35397129196067 5.481754896476648 0
11.90898825778968 9.780823385672143 0
14.27192237439724 21.42948195735659 0
12.83323068057453 8.348795902972592 0
24.14190589214735 16.88060011741941 0
24.52253175398191 3.762627515886234 0
17.84709891547172 21.67891368374657 0
11.7112144212277 13.55705553049095 0
10.91505252056277 12.98574805414132 0
22.45272563047658 11.24315449540045 0
11.91144889960978 13.89269123117943 0
10.84253392730573 2.755148911552257 0
12.8095145729683 9.564460626401369 0
16.96428571286854 12.70836442144616 0
14.04194629691663 20.8274048462664 0
10.8282413479521 21.85783629345607 0
18.69845430888986 16.43112894968464 0
23.53787473570273 8.239887521209102 0
16.10348030475362 21.54888284817769 0
11.59090497300888 16.49745939346009 0
24.72302046181696 19.4754355744967 0
12.91616318935069 16.34776853848559 0
21.54382712166866 19.27507689792213 0
18.18874793742011 17.09176309331679 0
12.44902173872243 8.387462314735153 0
15.08764130944197 14.158786671251 0
21.957279876648 13.51848996155075 0
21.33518660832087 11.85895899845328 0
16.9910796644632 21.29648471335225 0
22.38728783412011 15.10477517189848 0
19.7172167474476 13.75296662271381 0
13.82455189447524 21.47416554903723 0
10.90963081343603 13.31669784367444 0
10.43503411810822 7.669185259916088 0
16.52013145661232 15.81312102969093 0
21.49005010940337 13.08341637607732 0
14.69727445557987 11.03340404768255 0
12.90384606182741 7.42042017328513 0
20.17121501450756 20.3226343812733 0
14.20768354950448 5.515849174792388 0
16.79058300816776 19.72123614122269 0
10.78349140572154 18.95441762544387 0
17.07944823285909 19.39404678618787 0
12.79866269042204 7.138203380994676 0
23.36114489995035 11.33006296710032 0
19.8214285678709 12.70908998313476 0
21.99853502638054 15.59600510774884 0
23.1200679011805 9.876663741164515 0
21.99628656453029 10.09990718112158 0
14.31708860484584 8.313799478964054 0
15.86979946717275 16.6827802347259 0
14.75240689322027 12.27080812278179 0
18.65824278246048 13.26264274809148 0
20.33048812148155 18.058664679218 0
10.3721638297769 9.209201204241712 0
23.31801822662018 12.24913737767993 0
11.36772784284199 18.16513652055015 0
16.82208817016089 17.31589033061238 0
18.99765811657192 13.82119268887457 0
20.89838255839413 8.427488253375502 0
24.10508067175228 4.443622947549092 0
10.7937502939446 16.70929572899434 0
18.14358486931599 13.19740389025794 0
22.59190844247732 13.12824870591265 0
14.66600175326422 8.038337705179055 0
16.73158273287403 13.77789910870201 0
12.87588775400266 20.35858411117232 0
11.19551742096093 24.32662646551044 0
24.65592108113916 9.612169887978334 0
10.27697256502427 23.61752598005189 0
24.41094740239442 16.78117229377678 0
10.40357515453325 6.67560871146937 0
20.03734730505659 17.54088471317147 0
14.62752479236691 6.230387440949701 0
19.40020430126053 21.14138466002521 0
16.52176725775945 14.20574886185605 0
11.17092136587217 12.48363698139555 0
20.32326051622931 9.033683930154837 0
10.46809661638181 3.074622744023765 0
13.60331663510893 22.13688760892056 0
13.48729745832367 5.728299633405427 0
12.91764101571928 10.49994608637793 0
19.55029115058716 20.3785244245487 0
10.41448199254963 10.19260264746711 0
16.5908959793727 18.45173263008478 0
14.95171466761617 23.08308784402047 0
21.80582057660092 10.82558035896387 0
10.95930954048329 14.30423971620057 0
23.5699578698902 9.614471925614167 0
24.26828652786795 9.851730992558613 0
15.98926013432418 19.26455577128554 0
20.63831257417734 11.49874005836323 0
22.25079995516595 9.862579143797177 0
20.61091190794424 10.21095052729339 0
11.31606752363761 12.19385175948872 0
13.35473441532652 6.38639825388458 0
15.25991456489231 19.3990378616836 0
14.31555938626063 21.09983935258061 0
24.4360703489383 17.43052996733157 0
20.22184658831515 11.2598997960133 0
21.49942449806024 7.821904946578533 0
23.59248207515271 16.82265176967853 0
11.45435712423042 15.54777805492378 0
13.99947348552308 9.37904372013659 0
14.7843183156247 16.88270005445589 0
18.10245800681797 19.01066953376768 0
14.43703354355968 11.07126438248619 0
16.44436796820755 17.80544154635481 0
22.66122005477679 11.70525770786134 0
10.92451593233028 17.9269256588531 0
16.68143916258207 21.03041318580335 0
23.94481096102254 10.73420407711326 0
POLYGONS 3560 14240
3 495 648 1825
3 150 151 1058
3 768 498 1746
3 470 1064 1463
3 497 608 930
3 608 497 895
3 693 632 1043
3 548 808 1564
3 856 950 1326
3 593 768 1746
3 1098 347 1105
3 733 827 1082
3 774 754 1405
3 689 1135 884
3 395 447 1544
3 758 638 983
3 529 1221 1630
3 1105 389 1792
3 1294 939 787
3 1754 501 1762
3 513 950 915
3 429 380 1044
3 632 693 1616
3 352 630 1362
3 447 395 1193
3 861 518 1514
3 551 733 1082
3 1142 459 1793
3 55 56 1298
3 559 716 837
3 995 538 1490
3 53 54 788
3 501 816 1762
3 511 420 1401
3 483 1035 1406
3 407 427 1385
3 1209 436 1391
3 716 443 837
3 1411 143 1928
3 452 769 1828
3 676 809 492
3 1058 151 1150
3 1280 400 866
3 49 50 727
3 577 1100 1407
3 984 685 1248
3 470 691 924
3 389 1020 1408
3 550 777 1235
3 479 600 864
3 1113 362 1006
3 748 658 1841
3 521 758 983
3 1095 1094 1364
3 331 405 1357
3 774 1405 1723
3 1327 529 1630
3 510 898 921
3 523 577 1407
3 736 338 1048
3 320 682 1465
3 825 318 1465
3 443 716 1612
3 380 648 1044
3 459 1142 1525
3 305 306 359
3 25 1294 787
3 1098 1105 1792
3 761 736 1048
3 459 1485 1793
3 966 355 841
3 660 1001 930
3 575 429 1044
3 1020 389 1105
3 688 544 1211
3 646 1136 932
3 486 586 1683
3 691 470 1284
3 466 688 358
3 790 331 1357
3 421 1272 1063
3 359 306 892
3 273 272 783
3 850 937 1565
3 1453 518 1125
3 1 89 1194
3 509 781 1202
3 978 997 1535
3 1001 606 930
3 606 685 984
3 427 563 1385
3 356 1385 1071
3 950 856 915
3 737 1652 1672
3 1202 781 721
3 1565 937 1845
3 887 1209 1391
3 878 1011 1484
3 898 510 1801
3 297 770 1233
3 92 93 467
3 241 242 913
3 816 501 1137
3 45 46 840
3 47 48 1310
3 648 495 1633
3 39 40 545
3 538 995 1578
3 224 225 1138
3 805 1411 1928
3 1385 563 1071
3 645 628 1939
3 597 1094 1095
3 341 604 1096
3 441 645 1939
3 1415 342 1451
3 415 686 1753
3 725 1467 1653
3 769 416 1828
3 618 839 1062
3 1535 997 1704
3 1135 543 1175
3 495 1825 1418
3 976 753 1558
3 1298 56 955
3 650 1172 1683
3 544 688 796
3 753 279 1558
3 53 788 1684
3 1272 339 1063
3 1100 363 1432
3 747 355 976
3 630 352 1282
3 380 984 1248
3 687 484 1362
3 1161 684 1742
3 1003 816 1137
3 507 825 1149
3 682 377 1090
3 782 1064 1765
3 462 408 765
3 688 466 796
3 782 1765 1659
3 1100 577 920
3 1352 1321 1876
3 1126 739 1269
3 825 507 912
3 377 682 961
3 224 1138 1730
3 484 457 1362
3 459 1033 1485
3 930 608 1504
3 1035 483 1091
3 520 990 1504
3 783 415 1753
3 353 1280 866
3 112 113 1285
3 1046 476 1569
3 658 748 1349
3 669 743 1518
3 355 966 1582
3 1096 604 1878
3 88 1 1194
3 273 783 1445
3 347 713 1241
3 656 1234 1738
3 1257 459 1525
3 235 236 566
3 573 886 1055
3 674 1495 1301
3 692 1112 1118
3 676 492 1864
3 808 378 1564
3 586 330 1737
3 990 660 1504
3 574 1285 1586
3 325 1293 1555
3 362 1113 1680
3 228 229 1288
3 445 680 859
3 476 1046 1350
3 1415 1451 1830
3 206 207 990
3 357 467 1597
3 458 1321 1352
3 545 40 1292
3 1234 1088 1738
3 392 1120 1553
3 550 1250 1342
3 22 844 1249
3 523 502 1791
3 917 725 1026
3 461 622 952
3 356 331 1351
3 473 612 1103
3 34 878 948
3 648 380 1171
3 650 753 976
3 1166 533 1763
3 357 1597 1508
3 678 1453 1125
3 58 1337 1626
3 864 600 1051
3 772 404 1030
3 1110 368 1236
3 331 790 1351
3 158 159 942
3 847 964 824
3 387 878 1484
3 92 467 1524
3 588 1469 1519
3 950 524 1326
3 807 567 960
3 331 602 1188
3 582 1120 1153
3 839 453 1062
3 455 744 1506
3 389 480 1322
3 64 65 877
3 1575 757 1391
3 340 622 1374
3 188 189 1377
3 752 1110 1236
3 1008 464 896
3 1064 470 1548
3 840 46 1382
3 1652 376 1672
3 47 1310 1382
3 901 482 1556
3 502 735 1791
3 586 13 753
3 577 523 1791
3 290 959 1604
3 1033 459 804
3 355 747 841
3 969 502 1843
3 1328 452 1828
3 154 155 736
3 492 396 1855
3 856 1326 908
3 464 1008 1128
3 404 772 945
3 639 355 1582
3 480 389 1408
3 1172 650 1662
3 1469 562 1519
3 356 1071 1028
3 574 1586 1215
3 244 1521 1243
3 861 1514 1404
3 1314 443 1612
3 964 371 824
3 607 807 960
3 687 1853 1665
3 350 639 933
3 1097 493 1102
3 652 741 1413
3 33 34 948
3 917 1026 1546
3 688 1211 1883
3 405 331 1188
3 504 738 1053
3 680 434 859
3 503 1399 1322
3 781 509 969
3 407 359 892
3 621 822 1365
3 492 394 1864
3 973 1351 1816
3 581 592 1341
3 1044 648 1633
3 1120 582 1553
3 832 20 1531
3 880 27 1277
3 1396 493 1097
3 781 969 1843
3 43 44 1187
3 318 825 912
3 682 320 961
3 142 143 1411
3 622 340 707
3 203 204 1000
3 562 600 1022
3 712 764 1675
3 158 942 1423
3 808 548 1371
3 683 1033 1122
3 667 679 1506
3 684 1161 1296
3 330 1196 1737
3 291 539 917
3 325 1555 1854
3 528 354 1341
3 779 25 787
3 528 712 1675
3 822 708 1365
3 514 1113 1006
3 1172 350 792
3 645 441 732
3 396 1101 1855
3 480 712 1061
3 1250 541 1868
3 51 52 870
3 156 157 1114
3 622 461 1374
3 712 528 1061
3 1250 550 1909
3 152 153 936
3 298 22 1249
3 294 20 832
3 800 1166 1763
3 586 753 1683
3 436 743 1575
3 1495 674 1677
3 13 279 753
3 1345 725 1653
3 598 386 1316
3 735 502 969
3 37 38 431
3 548 1458 1420
3 802 946 1710
3 608 895 1666
3 543 1135 1431
3 408 461 765
3 363 441 1432
3 1136 1236 932
3 366 742 1078
3 1135 689 1431
3 386 598 1523
3 124 125 1220
3 1853 614 1665
3 550 1235 1909
3 1235 777 1924
3 378 1453 1339
3 862 334 806
3 740 346 1676
3 213 214 811
3 524 950 426
3 1377 189 1826
3 610 1172 792
3 384 401 1342
3 1196 334 801
3 526 1327 1192
3 687 630 1853
3 429 575 923
3 1742 684 1830
3 716 559 1227
3 744 667 1506
3 764 1059 1675
3 1413 741 1198
3 1425 609 1231
3 364 683 1122
3 408 462 1447
3 162 163 935
3 1467 730 1653
3 1172 486 1683
3 1053 738 1847
3 112 1285 1701
3 547 802 1710
3 265 266 683
3 693 734 1616
3 160 161 1230
3 1868 384 1342
3 1250 1868 1342
3 1135 274 884
3 1337 929 1626
3 354 528 1675
3 420 511 1495
3 41 42 709
3 747 400 841
3 448 946 1620
3 761 904 814
3 441 363 732
3 436 1209 1256
3 697 997 1731
3 989 391 1229
3 290 18 959
3 803 370 1590
3 1553 894 1143
3 1272 421 1543
3 484 687 1178
3 363 1100 920
3 604 341 1433
3 399 734 1599
3 1825 819 1418
3 497 429 923
3 1272 1543 1437
3 348 805 1104
3 1155 344 918
3 27 880 1081
3 572 817 938
3 1021 901 1556
3 1453 678 1339
3 1399 1018 1322
3 436 1575 1391
3 1148 527 1550
3 1058 568 1426
3 683 266 1896
3 1385 356 1351
3 1447 536 1646
3 743 669 1575
3 395 1180 1193
3 835 905 1711
3 570 1260 1458
3 314 25 779
3 574 401 1701
3 729 290 1604
3 1071 615 1028
3 368 1110 1365
3 685 606 1027
3 758 4 1206
3 1114 157 1423
3 680 445 1402
3 150 1058 1906
3 503 822 1399
3 1105 347 1241
3 601 448 1620
3 726 1197 1505
3 679 469 1506
3 712 480 888
3 1532 399 1599
3 346 1085 1676
3 1336 669 928
3 1336 757 1575
3 382 832 1531
3 988 532 1371
3 347 1098 1141
3 1167 1607 1751
3 1298 526 1650
3 429 497 1320
3 319 320 1465
3 318 319 1465
3 1489 521 1691
3 493 897 717
3 573 1055 1806
3 241 913 1477
3 722 1425 1231
3 367 846 1360
3 904 571 814
3 564 1086 1041
3 402 956 1424
3 526 788 1650
3 389 1322 1792
3 585 921 1532
3 568 1058 1150
3 100 1697 1335
3 956 352 1424
3 997 978 1213
3 152 936 1150
3 517 1132 1389
3 1167 337 1607
3 590 1344 1118
3 564 770 702
3 649 647 1609
3 1340 420 1560
3 1115 212 867
3 418 430 1119
3 62 1584 1146
3 713 347 1456
3 124 1220 1865
3 1136 752 1236
3 294 832 1721
3 546 770 1157
3 1113 397 1680
3 485 1428 1686
3 350 1172 1662
3 973 1385 1351
3 951 803 1590
3 842 367 1360
3 1058 409 1441
3 498 868 1258
3 1260 296 1458
3 184 185 794
3 83 84 798
3 430 616 1119
3 58 59 1337
3 179 1353 1208
3 1788 953 1757
3 770 297 702
3 403 1417 1825
3 471 1244 888
3 569 1340 1560
3 492 809 1658
3 557 445 1070
3 1234 656 1295
3 81 82 839
3 1408 471 888
3 518 861 1125
3 174 175 1043
3 1701 401 1902
3 1116 533 1759
3 834 1453 1588
3 186 187 1280
3 919 894 1553
3 636 908 922
3 746 387 1484
3 639 350 1662
3 758 521 1655
3 988 390 1561
3 636 1439 908
3 743 436 1256
3 456 988 1561
3 538 1274 1490
3 909 554 1705
3 1345 596 927
3 870 52 1684
3 1197 756 1505
3 330 586 1302
3 770 564 1366
3 737 817 1652
3 971 231 1198
3 895 497 923
3 584 1489 1691
3 633 1330 1041
3 911 473 1103
3 1085 346 1227
3 539 291 875
3 1112 692 1263
3 835 98 1335
3 178 179 1208
3 1209 177 1208
3 99 100 1335
3 1110 752 1229
3 408 1447 1646
3 822 592 708
3 713 1456 1861
3 643 1240 1314
3 643 838 1877
3 826 967 810
3 1330 564 1041
3 1458 21 1420
3 401 550 1342
3 394 413 1348
3 22 297 1233
3 192 193 1274
3 1282 542 1783
3 1456 372 1861
3 704 732 1384
3 502 523 1627
3 498 768 1259
3 1209 589 1256
3 1120 392 1711
3 331 356 1028
3 562 1022 1464
3 1405 619 1723
3 339 858 1063
3 409 1058 1426
3 1482 29 1525
3 838 759 1877
3 630 687 1362
3 586 486 1302
3 41 709 1292
3 571 1015 1481
3 732 363 1384
3 913 242 1478
3 1148 123 1865
3 835 1711 1400
3 1428 450 1686
3 822 621 1399
3 909 575 1633
3 946 448 1710
3 335 431 1410
3 1495 511 1301
3 400 747 1689
3 1136 646 1270
3 1232 973 1816
3 686 337 1002
3 1090 381 1502
3 463 618 1571
3 334 862 1601
3 1132 517 963
3 967 748 1841
3 380 429 984
3 1323 715 1611
3 668 895 923
3 1330 531 1366
3 751 413 1739
3 86 1168 1728
3 1161 1129 1296
3 858 339 1442
3 413 394 1855
3 123 1148 1550
3 1225 657 1429
3 605 654 1386
3 816 1003 1350
3 746 1077 1726
3 1453 378 1588
3 463 1571 1580
3 355 639 1682
3 920 577 1107
3 1015 760 1481
3 1417 819 1825
3 708 592 1306
3 1521 386 1243
3 784 1288 1561
3 752 1136 1278
3 904 761 1471
3 1240 501 1047
3 817 572 1934
3 244 245 1521
3 599 412 1625
3 1240 643 1137
3 630 1282 1783
3 1288 229 1549
3 1427 205 815
3 247 1093 1758
3 496 988 1371
3 919 582 1057
3 415 783 1361
3 1836 1141 1839
3 782 771 1311
3 383 996 1707
3 268 1482 1793
3 1327 360 1192
3 996 465 1436
3 392 1553 1143
3 682 1090 1502
3 1344 692 1118
3 274 1135 1121
3 929 706 955
3 1077 746 1484
3 786 686 1002
3 336 782 1311
3 641 1133 1803
3 898 1817 1636
3 1306 592 1781
3 770 546 1233
3 592 822 1065
3 1172 610 1127
3 757 1276 1752
3 852 361 940
3 1016 828 1271
3 725 1345 927
3 727 536 1134
3 581 1325 1781
3 301 1777 1930
3 546 1157 1882
3 553 1240 1047
3 285 928 1815
3 533 1116 1763
3 376 1439 1123
3 190 191 1067
3 199 200 681
3 742 382 1140
3 1142 1482 1525
3 527 1148 789
3 31 32 962
3 560 913 1903
3 335 1030 1604
3 1338 546 1882
3 397 1323 1611
3 4 758 1572
3 1276 693 1752
3 810 967 1799
3 624 795 1925
3 588 738 944
3 532 808 1371
3 425 891 1394
3 1225 931 947
3 913 560 1477
3 889 900 1224
3 566 236 874
3 697 1731 1324
3 1095 458 1352
3 653 1519 1464
3 1225 1429 1881
3 727 50 1034
3 921 399 1532
3 833 287 679
3 931 1788 947
3 581 1341 1204
3 581 333 1325
3 892 306 332
3 833 383 1707
3 49 727 1134
3 1240 553 1915
3 1370 623 1842
3 294 1721 1639
3 777 393 1425
3 706 1298 955
3 260 261 1133
3 618 463 1520
3 795 624 1109
3 1642 653 1464
3 929 955 1626
3 1193 1180 1693
3 623 891 1842
3 831 445 859
3 478 1055 1329
3 1607 337 1629
3 1070 445 1901
3 1066 898 1636
3 396 492 1658
3 766 1193 1693
3 1026 927 1671
3 357 1343 767
3 1216 538 1578
3 931 953 1788
3 435 1565 1845
3 1191 1486 1747
3 287 286 679
3 128 129 663
3 808 652 1588
3 32 33 948
3 990 207 1567
3 929 372 830
3 788 447 1684
3 962 32 948
3 900 889 1306
3 1030 729 1604
3 706 929 830
3 1039 1038 1609
3 119 120 965
3 1394 891 1533
3 1116 1607 1629
3 277 919 1057
3 737 483 938
3 936 761 814
3 13 586 1737
3 1047 501 1754
3 778 412 599
3 1439 636 1123
3 533 843 1759
3 203 1000 1160
3 397 1113 1323
3 1175 357 767
3 372 929 1337
3 760 740 1481
3 1113 556 1323
3 927 468 1671
3 1539 1016 1590
3 413 751 1594
3 486 1172 1127
3 390 988 1596
3 31 962 1898
3 756 508 1203
3 997 697 1704
3 10 273 1062
3 333 581 1789
3 638 758 1206
3 402 723 1368
3 723 402 1438
3 1151 103 1827
3 165 1527 1660
3 660 990 1567
3 654 605 1858
3 901 1021 1904
3 756 1197 1885
3 235 566 1595
3 672 364 1122
3 612 473 1807
3 196 1579 1379
3 121 122 1388
3 328 27 852
3 1534 327 876
3 306 307 332
3 253 254 906
3 739 1126 1170
3 1409 508 885
3 343 1039 1609
3 1133 383 1803
3 998 1047 1754
3 417 1740 1937
3 536 727 1890
3 1326 506 908
3 1062 273 1445
3 1110 1554 1365
3 973 1232 1032
3 772 545 1292
3 1372 847 824
3 177 178 1208
3 1093 555 1483
3 894 1498 1622
3 1420 496 1371
3 633 1041 828
3 98 99 1335
3 990 520 1373
3 1620 946 1785
3 656 823 1295
3 979 500 1530
3 315 26 1297
3 921 585 1598
3 1554 621 1365
3 256 257 1623
3 939 791 787
3 571 904 1729
3 817 737 938
3 868 498 1259
3 823 656 1205
3 499 852 940
3 1597 698 1508
3 662 478 1329
3 791 434 787
3 370 1539 1590
3 715 977 1068
3 715 1323 977
3 602 331 1028
3 1220 1281 1480
3 531 1157 1366
3 575 909 1705
3 1345 477 1409
3 1126 1269 1660
3 1114 862 806
3 942 862 1423
3 1571 375 1580
3 303 304 780
3 7 227 1512
3 346 838 1227
3 1190 182 1834
3 918 344 1450
3 531 986 1430
3 278 12 866
3 805 348 1809
3 548 1420 1371
3 1065 503 1061
3 528 1065 1061
3 1463 1064 1873
3 1165 845 962
3 615 599 1625
3 301 300 1777
3 916 840 1382
3 634 482 1574
3 289 746 1726
3 1310 916 1382
3 401 384 1031
3 458 525 1917
3 467 481 1524
3 226 7 1512
3 230 231 971
3 538 1216 1615
3 1482 1142 1793
3 830 372 745
3 1458 548 1564
3 372 1456 745
3 597 1063 1307
3 613 958 1165
3 62 63 1584
3 233 234 1304
3 645 1237 661
3 1197 462 1885
3 827 1388 1082
3 570 1458 1564
3 199 681 1897
3 394 492 1855
3 1166 9 985
3 1498 699 1622
3 783 272 1361
3 500 979 1364
3 795 412 1925
3 965 827 733
3 400 1280 762
3 974 718 1622
3 472 1055 1252
3 1011 878 1013
3 1274 193 1490
3 1046 1569 1352
3 345 672 1122
3 206 990 815
3 1232 490 1032
3 840 916 1197
3 916 1310 1447
3 1388 527 1082
3 278 747 1558
3 1237 645 1004
3 964 349 1348
3 1132 1554 1111
3 285 1336 928
3 278 866 1689
3 498 1258 1866
3 448 601 786
3 734 693 1276
3 1351 790 1816
3 1191 282 1797
3 865 1389 1111
3 1275 484 1178
3 391 989 1780
3 217 218 1401
3 64 877 1383
3 1259 768 1186
3 448 1167 1710
3 649 1609 1918
3 567 965 733
3 734 399 1616
3 385 1093 1483
3 601 1620 1900
3 741 971 1198
3 345 804 1165
3 338 736 1318
3 484 1275 1635
3 12 285 1815
3 1330 633 986
3 1141 361 1839
3 1304 234 1595
3 958 345 1165
3 1518 743 1834
3 877 65 871
3 545 772 1030
3 1165 804 1317
3 1057 975 1218
3 822 503 1065
3 596 1409 885
3 437 1535 1704
3 567 807 1631
3 1281 646 1480
3 474 795 1109
3 334 1196 1163
3 1233 546 625
3 475 1115 867
3 936 568 1150
3 966 1377 1826
3 602 1028 1625
3 819 478 1418
3 1037 350 1615
3 940 361 1674
3 568 936 814
3 729 1030 1661
3 886 573 1717
3 937 312 1645
3 393 777 1215
3 1153 1120 1827
3 667 833 679
3 350 933 1615
3 1325 900 1781
3 639 1582 1245
3 969 509 848
3 1298 706 1189
3 1605 726 1870
3 588 944 1414
3 1285 574 1701
3 665 1294 1435
3 434 680 869
3 154 736 1173
3 1014 256 1623
3 1063 858 1307
3 378 808 1588
3 613 1165 962
3 651 1095 1364
3 478 819 1610
3 1158 1095 1352
3 1016 1820 1867
3 325 326 1293
3 723 802 1368
3 744 455 1623
3 1055 886 1252
3 553 968 1772
3 590 1118 1199
3 1343 699 1498
3 407 892 1440
3 338 806 1770
3 784 1561 1589
3 37 431 1099
3 968 775 1772
3 1584 851 1146
3 740 760 972
3 102 103 1151
3 165 166 1527
3 327 328 876
3 811 214 1602
3 587 439 1837
3 726 840 1197
3 840 726 1605
3 1327 526 1189
3 1310 536 1447
3 878 34 1013
3 837 673 1922
3 445 831 1901
3 1188 602 617
3 445 557 1402
3 870 447 1193
3 322 901 1904
3 1426 571 1481
3 862 1114 1423
3 534 1293 1687
3 1740 417 1838
3 844 1233 625
3 855 587 1837
3 1336 285 925
3 339 812 1442
3 346 740 972
3 699 1343 1508
3 1000 204 1427
3 1297 665 1435
3 1187 1605 1870
3 736 155 1318
3 736 761 1173
3 680 1402 1511
3 935 163 1269
3 1104 805 1928
3 526 1298 1189
3 374 1237 1004
3 824 371 1724
3 366 999 1721
3 844 22 1233
3 264 265 1179
3 536 1310 1134
3 364 749 1179
3 181 182 1190
3 759 838 1570
3 533 1166 1231
3 559 837 1922
3 458 1095 1025
3 457 484 1392
3 999 390 1596
3 1284 470 1463
3 747 278 1689
3 531 1330 986
3 1238 349 964
3 780 304 1634
3 407 1385 1933
3 565 1152 1316
3 1030 404 1661
3 1740 857 1937
3 527 1388 1550
3 1705 554 1613
3 1451 993 1830
3 1166 722 1231
3 177 1209 1147
3 413 1101 1739
3 449 1383 1755
3 1220 125 1281
3 1101 396 1576
3 575 1044 1633
3 712 1244 764
3 1383 877 1755
3 361 852 1081
3 995 1379 1530
3 717 558 1089
3 190 1067 1826
3 1322 1018 1792
3 1554 391 1111
3 884 274 1804
3 1572 612 1874
3 596 1345 1409
3 1244 512 764
3 763 999 1596
3 1590 1016 1867
3 208 209 1001
3 529 1327 1189
3 782 336 1593
3 739 935 1269
3 1180 395 1562
3 197 198 1039
3 999 763 1721
3 465 996 1767
3 647 649 854
3 557 949 1402
3 902 1284 1463
3 605 1386 1774
3 628 433 1378
3 1137 643 1877
3 802 547 1368
3 1221 880 1630
3 862 942 1601
3 672 1074 1552
3 1765 423 1659
3 260 1133 1492
3 482 634 1164
3 508 756 1885
3 1401 420 1614
3 738 588 1847
3 701 1188 617
3 162 935 1247
3 738 504 1106
3 1196 330 1163
3 557 460 1672
3 999 675 1589
3 535 844 625
3 282 1191 1747
3 940 517 1389
3 19 291 917
3 832 382 552
3 644 1427 815
3 43 1187 1017
3 1230 161 1247
3 481 467 1005
3 663 129 1644
3 525 647 1917
3 572 938 1699
3 601 375 786
3 872 1205 1738
3 467 93 1597
3 705 487 813
3 554 909 1774
3 1046 1352 1876
3 695 1259 1186
3 582 919 1553
3 766 870 1193
3 1212 24 1618
3 950 513 1784
3 530 1293 1334
3 1035 986 1545
3 1187 44 1605
3 965 120 1419
3 334 1246 806
3 317 318 912
3 320 321 961
3 299 1217 629
3 1293 534 1555
3 296 1260 702
3 246 247 1758
3 1316 1152 1068
3 545 335 1410
3 337 686 1629
3 823 720 1295
3 1393 560 1903
3 870 766 1034
3 1608 135 1757
3 966 1067 1582
3 660 930 1504
3 788 526 1544
3 777 550 1670
3 98 835 1656
3 741 652 1787
3 965 567 1631
3 556 705 813
3 431 335 1522
3 360 882 1931
3 28 269 0
3 1518 794 1889
3 1154 964 1348
3 340 1374 1646
3 1175 543 1222
3 807 607 1452
3 1310 48 1134
3 1168 1052 1728
3 521 1489 1655
3 509 1331 848
3 461 952 1313
3 1043 632 1756
3 487 1393 1760
3 579 1155 918
3 1234 342 1088
3 988 496 1596
3 1297 26 824
3 282 14 1797
3 336 1344 1494
3 359 407 1032
3 600 562 1051
3 865 499 1389
3 806 1246 1770
3 499 865 1534
3 1297 824 1724
3 699 974 1622
3 886 23 629
3 1344 590 1494
3 821 882 1714
3 5 168 1694
3 100 2 1697
3 179 6 1353
3 348 799 1778
3 777 1425 1924
3 692 895 1263
3 964 1154 1457
3 121 1388 1419
3 451 1500 1577
3 184 794 1518
3 23 886 1717
3 598 1084 1523
3 681 1038 1897
3 469 1174 1267
3 838 346 1570
3 1106 626 944
3 960 567 1795
3 290 729 875
3 379 1009 1181
3 754 774 1913
3 996 383 1767
3 638 1411 1706
3 865 530 1534
3 562 1469 1051
3 833 667 1803
3 1138 784 1589
3 798 84 1291
3 45 840 1605
3 369 750 1219
3 490 359 1032
3 1078 742 1476
3 535 791 1069
3 602 795 617
3 1304 834 1588
3 591 1463 1873
3 1093 247 655
3 1500 826 1577
3 1174 1169 1267
3 213 811 867
3 1237 397 661
3 843 533 1872
3 653 1053 1847
3 265 683 1179
3 400 1377 841
3 447 870 1684
3 669 1336 1575
3 653 1432 1053
3 443 1314 561
3 358 72 1054
3 652 1304 1588
3 412 778 1347
3 516 823 1205
3 167 5 1694
3 2 101 1697
3 1293 530 1687
3 81 839 1520
3 905 835 1335
3 882 360 1072
3 541 1250 1779
3 1348 413 1594
3 192 1274 943
3 936 153 1173
3 944 1079 1414
3 809 676 1731
3 431 38 1410
3 1367 531 1430
3 340 1421 1693
3 1377 966 841
3 1180 821 1848
3 4 141 1206
3 795 474 617
3 1195 748 1487
3 857 591 1593
3 373 1266 789
3 375 686 786
3 1043 175 793
3 669 1518 1889
3 709 772 1292
3 1432 441 1053
3 1095 1158 907
3 897 493 1308
3 675 1138 1589
3 6 180 1353
3 839 618 1520
3 86 87 1168
3 90 91 1023
3 589 1209 1208
3 844 535 1075
3 612 1572 1103
3 1028 615 1625
3 406 1677 1806
3 791 939 1069
3 1718 741 1787
3 51 870 1034
3 169 170 957
3 96 974 1810
3 895 668 1263
3 1089 820 1638
3 794 185 1581
3 600 576 1022
3 1595 566 1786
3 1187 367 1017
3 1350 1003 1921
3 553 1047 968
3 783 1571 1445
3 1469 603 1051
3 749 364 1715
3 83 798 1087
3 1395 1195 1487
3 208 1001 1567
3 447 788 1544
3 627 1089 1638
3 39 545 1410
3 1074 422 1552
3 369 1219 1764
3 556 1113 1462
3 390 999 1589
3 1227 559 1145
3 753 650 1683
3 1274 538 982
3 1218 975 1733
3 297 296 702
3 186 1280 1581
3 839 82 1087
3 275 274 1121
3 1341 592 1065
3 821 1180 1562
3 373 889 1224
3 959 773 1522
3 768 593 1346
3 699 1508 1491
3 1421 536 1890
3 322 323 901
3 438 1479 1509
3 738 1106 944
3 371 964 1457
3 461 408 1374
3 26 1372 824
3 1078 223 1730
3 1402 949 1511
3 460 557 1070
3 885 419 1380
3 1417 569 1560
3 1235 271 1909
3 160 1230 1130
3 419 1287 1380
3 597 1095 907
3 1016 1539 828
3 709 367 945
3 364 672 1715
3 467 357 1005
3 795 602 1625
3 1288 456 1561
3 518 566 1514
3 307 308 1638
3 526 1192 1544
3 494 1284 1762
3 240 241 1477
3 1036 797 1376
3 1056 1712 1392
3 1579 671 1379
3 591 857 1740
3 1246 330 1702
3 1009 488 1181
3 802 723 1398
3 1285 113 1592
3 1425 722 1924
3 1100 1642 1407
3 1500 1795 1487
3 348 1104 799
3 989 1229 1769
3 382 742 552
3 1085 1227 1145
3 296 21 1458
3 397 1237 1680
3 1347 620 1107
3 828 444 1271
3 761 1048 1471
3 156 1114 1318
3 952 419 1313
3 555 1093 655
3 11 1343 1498
3 174 1043 1756
3 847 1238 964
3 370 803 1771
3 1569 421 907
3 1294 25 1435
3 919 277 1540
3 554 1386 1739
3 620 920 1107
3 1331 701 1640
3 9 271 985
3 1034 766 1890
3 667 744 1300
3 708 368 1365
3 383 833 1803
3 827 965 1419
3 1260 564 702
3 525 458 1025
3 55 1298 1650
3 1158 1569 907
3 835 718 1656
3 587 851 1690
3 689 884 1434
3 15 734 1276
3 28 29 1482
3 1293 326 1334
3 628 1378 1857
3 1120 1151 1827
3 1527 1126 1660
3 1379 671 1530
3 1005 1175 1222
3 576 1627 1822
3 274 10 1804
3 1258 843 1866
3 501 1240 1137
3 134 135 1608
3 686 415 1629
3 788 54 1650
3 761 936 1173
3 709 42 1017
3 310 1396 1097
3 401 574 1670
3 1795 567 1932
3 882 821 1562
3 335 545 1030
3 483 737 1091
3 1393 487 1264
3 490 780 1634
3 1569 1158 1352
3 663 634 1574
3 1388 827 1419
3 1085 1145 1354
3 1130 1230 454
3 957 898 1801
3 1343 357 1508
3 228 1288 1557
3 980 1469 1414
3 285 284 925
3 188 1377 762
3 1212 821 1714
3 305 359 1634
3 342 1234 1727
3 600 479 1585
3 375 601 1580
3 1848 340 1693
3 743 1190 1834
3 288 1436 696
3 439 587 1690
3 1343 11 767
3 1288 784 1557
3 937 850 1673
3 277 1057 1663
3 760 1015 1651
3 268 269 1482
3 367 1187 1870
3 1578 500 1846
3 657 1225 1279
3 563 427 1076
3 942 159 1130
3 952 622 1703
3 1238 847 911
3 733 1395 1932
3 456 1288 1549
3 701 1108 1188
3 21 295 1420
3 742 366 552
3 1015 571 1729
3 746 289 696
3 1277 329 1072
3 807 118 1631
3 431 773 1099
3 1500 451 1795
3 1114 338 1318
3 566 518 1786
3 367 842 945
3 1274 731 943
3 927 596 873
3 640 1307 1513
3 1372 26 1299
3 640 1216 1846
3 578 1130 454
3 1039 198 1897
3 1237 374 1761
3 1284 902 1762
3 773 959 1713
3 118 807 1452
3 938 1332 1699
3 812 339 914
3 1093 385 1835
3 1192 395 1544
3 423 1667 1210
3 114 115 1040
3 1386 751 1739
3 1217 853 629
3 1712 457 1392
3 1020 1105 1241
3 620 1347 1796
3 1113 514 1462
3 359 490 1634
3 852 27 1081
3 532 1718 1787
3 737 460 1091
3 1209 887 1147
3 24 302 1618
3 1280 187 762
3 956 402 1368
3 681 690 1251
3 689 798 1291
3 358 723 1438
3 312 937 1673
3 193 194 1490
3 797 926 1376
3 307 1638 332
3 576 600 1585
3 834 1595 1786
3 752 1278 1769
3 1216 1578 1846
3 1506 469 1117
3 592 581 1781
3 733 551 1395
3 519 1285 1592
3 352 956 1811
3 427 558 1076
3 1377 400 762
3 578 942 1130
3 444 1125 1271
3 1100 1432 1642
3 1436 288 1587
3 986 633 1545
3 1108 405 1188
3 1022 576 1822
3 1145 934 1354
3 1294 665 1657
3 1667 1000 1210
3 358 688 1750
3 1478 580 1903
3 959 18 1713
3 493 1396 1725
3 988 456 1718
3 27 329 1277
3 906 254 1648
3 891 425 1226
3 361 1141 1674
3 72 358 1750
3 1796 1347 1919
3 1216 640 1037
3 913 1478 1903
3 398 1212 1850
3 466 358 1438
3 703 549 1809
3 558 717 1719
3 1469 588 1414
3 722 1166 985
3 471 893 1696
3 1058 1441 1906
3 1406 1035 1545
3 104 105 1153
3 1138 675 1730
3 1024 544 1515
3 1396 850 1725
3 889 368 1306
3 578 801 1601
3 949 557 1813
3 813 487 1760
3 312 313 1645
3 223 1078 1476
3 802 74 1862
3 946 802 1862
3 854 691 1184
3 1864 584 1324
3 956 547 1751
3 452 1357 1782
3 1509 751 1501
3 271 1235 985
3 549 1416 1706
3 652 808 1787
3 508 1409 1203
3 724 1014 1455
3 1071 563 1734
3 258 1183 1566
3 542 1282 1493
3 1084 598 977
3 1266 373 1224
3 253 906 1800
3 1303 14 1829
3 406 1417 1560
3 491 1015 1729
3 517 940 1674
3 975 1057 1720
3 796 466 1818
3 1347 1107 1925
3 607 1473 1452
3 1160 1000 1667
3 780 490 1286
3 1001 660 1567
3 1642 505 1407
3 330 1246 1163
3 1416 670 1706
3 878 387 1517
3 1586 393 1215
3 116 117 1473
3 935 739 1162
3 372 1337 1861
3 1192 360 1931
3 923 575 1239
3 672 345 1074
3 723 358 1054
3 1374 408 1646
3 1706 1411 1920
3 1084 556 813
3 280 13 1737
3 665 1297 1724
3 460 737 1672
3 834 1304 1595
3 1067 966 1826
3 1426 568 1888
3 1321 458 1917
3 484 1451 1392
3 328 852 876
3 939 1294 1359
3 1057 582 1720
3 251 1603 1790
3 902 1754 1762
3 357 1175 1005
3 974 96 1468
3 1018 1399 963
3 1246 334 1163
3 242 243 1478
3 487 705 890
3 1071 1734 1228
3 935 642 1247
3 584 1691 1324
3 1015 491 914
3 811 1602 1448
3 416 952 1703
3 1038 1039 1897
3 477 1345 1653
3 1014 455 1455
3 642 1230 1247
3 771 782 1659
3 258 259 1183
3 801 578 1829
3 883 956 1751
3 195 196 1379
3 704 1004 732
3 748 1195 1349
3 74 802 1398
3 627 1097 1102
3 906 980 1800
3 755 780 1286
3 532 988 1718
3 1451 484 1635
3 1401 218 1312
3 1001 209 1027
3 95 96 1810
3 801 334 1601
3 1777 674 1930
3 1321 854 1184
3 412 795 1625
3 342 1415 1088
3 272 9 800
3 477 846 1505
3 329 24 1072
3 1285 519 1586
3 1278 910 1769
3 367 709 1017
3 893 471 1309
3 544 796 1727
3 468 1331 1671
3 1388 122 1550
3 236 237 874
3 958 613 1517
3 1463 591 1538
3 449 893 1309
3 902 1463 1538
3 1211 544 1024
3 338 1114 806
3 724 864 1814
3 220 221 1140
3 556 1084 977
3 979 343 525
3 681 1251 1918
3 703 348 1709
3 1428 485 1283
3 1421 340 1646
3 483 1332 938
3 951 1128 1264
3 1128 560 1264
3 1337 855 1861
3 976 355 1682
3 348 703 1809
3 808 532 1787
3 550 401 1670
3 1593 336 1494
3 1133 641 1492
3 847 1372 1475
3 201 202 899
3 61 587 1776
3 914 491 1591
3 812 914 1591
3 1451 342 583
3 727 1034 1890
3 217 1401 1614
3 969 848 1808
3 718 835 1400
3 1514 863 1404
3 9 1166 800
3 93 94 1597
3 953 1608 1757
3 1125 444 1472
3 1263 668 1722
3 398 1460 1703
3 703 443 1273
3 365 1332 1541
3 1064 782 1873
3 671 979 1530
3 931 1225 1881
3 650 976 1682
3 16 1798 1860
3 1004 645 732
3 1022 505 1464
3 123 124 1865
3 1307 858 1513
3 1101 413 1855
3 1344 336 1884
3 1144 680 1511
3 704 1384 1796
3 679 286 1908
3 701 1331 1743
3 14 281 1829
3 1086 564 785
3 443 703 1709
3 1056 1451 583
3 1190 743 1256
3 819 1417 1610
3 16 293 1798
3 360 1277 1072
3 842 404 945
3 1332 365 1261
3 1073 524 1913
3 1205 656 1738
3 891 623 1533
3 1331 468 1743
3 1284 494 1184
3 515 1129 1678
3 993 1742 1830
3 774 1073 1913
3 549 703 1632
3 309 310 1097
3 215 216 1340
3 1129 1161 1678
3 1779 1250 1909
3 705 556 1462
3 269 28 1482
3 651 979 525
3 918 524 426
3 1711 392 1400
3 1803 667 1300
3 107 108 776
3 353 794 1581
3 1548 635 1667
3 211 212 1115
3 444 1041 1472
3 438 1509 1501
3 673 837 1778
3 1326 524 1073
3 942 578 1601
3 893 449 1755
3 1610 406 1806
3 537 1238 911
3 580 1523 1760
3 289 288 696
3 1067 191 943
3 692 1344 1744
3 535 625 1654
3 686 375 1753
3 717 1089 1102
3 864 603 1814
3 370 1406 1545
3 251 252 1603
3 1582 731 1245
3 1471 1119 1929
3 798 453 1087
3 1280 353 1581
3 418 1048 1770
3 465 1767 1461
3 846 367 1870
3 1033 804 1122
3 163 164 1269
3 479 864 1455
3 525 343 1609
3 197 1039 1579
3 880 1221 1839
3 249 250 1528
3 36 37 1099
3 23 299 629
3 453 839 1087
3 742 1140 829
3 1470 1008 896
3 647 525 1609
3 1263 1722 1892
3 1460 416 1703
3 587 61 1146
3 635 1160 1667
3 26 316 1299
3 406 1495 1677
3 848 1331 1640
3 898 1066 1080
3 987 818 1833
3 928 669 1889
3 773 431 1522
3 979 651 1364
3 960 451 1060
3 50 51 1034
3 404 842 1390
3 1067 731 1582
3 276 11 1498
3 183 184 1518
3 1201 1106 1857
3 748 967 1499
3 1055 478 1806
3 63 64 1383
3 524 918 1913
3 418 1119 1471
3 277 276 1540
3 704 1796 1698
3 1498 894 1540
3 379 1195 1009
3 205 206 815
3 1357 405 1782
3 48 49 1134
3 884 453 1434
3 543 1431 1319
3 634 663 1644
3 1041 1086 1472
3 153 154 1173
3 139 140 1029
3 894 919 1540
3 1331 509 1200
3 606 1001 1027
3 528 1341 1065
3 603 864 1051
3 717 897 1886
3 681 200 1536
3 80 81 1520
3 161 162 1247
3 1195 551 1009
3 635 899 1160
3 204 205 1427
3 899 202 1160
3 690 681 1536
3 271 270 1909
3 757 1336 925
3 1116 1759 1493
3 731 1274 982
3 130 131 954
3 345 958 1074
3 1451 1056 1392
3 1431 1052 1319
3 65 66 871
3 836 849 1708
3 223 224 1730
3 1417 406 1610
3 897 1685 1886
3 1420 295 1223
3 379 1139 1641
3 315 1297 1435
3 1523 1084 1760
3 515 849 1129
3 1547 1059 1010
3 1040 519 1592
3 1276 757 925
3 849 836 1129
3 1520 463 1092
3 980 906 1358
3 11 275 767
3 284 15 1276
3 155 156 1318
3 468 927 873
3 1574 1824 1647
3 1191 642 1162
3 564 1330 1366
3 1117 469 1267
3 1831 1169 1860
3 784 1138 1849
3 72 73 1054
3 537 1489 1823
3 1110 1229 1554
3 279 278 1558
3 209 210 1027
3 42 43 1017
3 1230 642 454
3 4 1572 1874
3 1332 483 1541
3 147 1315 1454
3 387 958 1517
3 821 1212 1768
3 527 1619 1628
3 1170 585 1486
3 114 1040 1592
3 1428 836 1547
3 44 45 1605
3 450 1428 1547
3 471 1408 1923
3 837 443 1709
3 1527 903 1381
3 1238 537 1823
3 851 587 1146
3 691 1284 1184
3 642 935 1162
3 450 1664 1686
3 1106 504 1857
3 1082 527 1628
3 453 798 1434
3 794 353 1889
3 434 779 787
3 1664 872 1686
3 823 67 1912
3 506 1326 1685
3 212 213 867
3 1340 216 1614
3 558 427 1879
3 84 85 1291
3 1664 512 1356
3 598 1316 1068
3 1244 471 1696
3 716 838 1612
3 705 1261 890
3 353 928 1889
3 1664 1356 1735
3 459 1257 1317
3 1512 784 1849
3 1489 584 1823
3 838 643 1612
3 842 730 1390
3 1574 482 1824
3 754 918 1450
3 1029 612 1807
3 519 1040 1433
3 1823 584 1700
3 895 692 1666
3 690 899 1637
3 38 39 1410
3 859 434 791
3 1116 1629 1763
3 1315 934 1145
3 1685 666 1886
3 668 923 1239
3 1426 1481 1255
3 798 689 1434
3 559 1315 1145
3 1408 1020 1923
3 1023 91 1524
3 908 506 922
3 893 1755 1356
3 1755 446 1356
3 490 1232 1286
3 871 66 1766
3 1607 883 1751
3 899 635 1637
3 146 1454 799
3 1258 542 1759
3 366 1721 552
3 675 1078 1730
3 1257 845 1317
3 930 606 1320
3 1708 849 1600
3 1602 569 1448
3 1411 638 710
3 529 830 745
3 772 709 945
3 718 974 1468
3 287 833 1707
3 978 714 1199
3 159 160 1130
3 1151 1120 1711
3 957 170 1817
3 797 663 1574
3 330 430 1702
3 1584 63 1383
3 1264 487 1911
3 731 1067 943
3 1133 261 1182
3 362 970 1497
3 578 1303 1829
3 1685 897 1668
3 953 931 1891
3 499 940 1389
3 569 1417 1448
3 1417 403 1448
3 1755 877 1214
3 695 1186 1466
3 187 188 762
3 507 1149 1881
3 978 1199 1213
3 587 855 1776
3 903 1801 1381
3 267 1485 1896
3 1090 377 1533
3 1038 681 1918
3 1259 695 1832
3 1229 752 1769
3 1183 744 1566
3 751 1509 1594
3 387 746 637
3 1261 365 890
3 970 579 1784
3 780 755 1819
3 912 1887 1207
3 1561 390 1589
3 270 1779 1909
3 1033 683 1896
3 917 539 1467
3 1167 448 1002
3 1577 695 1466
3 1509 1479 1457
3 202 203 1160
3 420 1495 1560
3 803 365 1771
3 1074 958 637
3 475 1185 1242
3 1042 1705 1613
3 427 407 1440
3 1429 507 1881
3 119 965 1631
3 1436 422 696
3 1633 495 1369
3 1894 961 1904
3 1257 30 1898
3 1432 653 1642
3 1554 1132 1621
3 344 1155 1698
3 363 920 1384
3 1508 698 1491
3 560 1393 1264
3 1139 333 1789
3 503 1322 1061
3 1887 719 1207
3 909 1633 1369
3 508 765 1313
3 286 16 1174
3 664 1139 1789
3 25 315 1435
3 725 927 1026
3 1441 149 1906
3 1396 310 1695
3 415 800 1763
3 625 831 1654
3 1697 905 1335
3 175 176 793
3 1244 712 888
3 1040 115 1893
3 843 1258 1759
3 1674 1098 1805
3 1686 872 1738
3 1603 1079 1790
3 1406 370 1771
3 377 1394 1533
3 1155 579 1871
3 82 83 1087
3 185 186 1581
3 968 1047 1838
3 1149 931 1881
3 266 267 1896
3 1315 559 1922
3 850 1396 1695
3 725 917 1467
3 1315 147 1305
3 623 1090 1533
3 892 820 1440
3 419 952 769
3 1212 398 1768
3 983 638 1706
3 1565 1019 1725
3 238 1470 1748
3 122 123 1550
3 128 663 1036
3 1719 881 1076
3 1118 440 1199
3 765 461 1313
3 934 1315 1305
3 24 1212 1714
3 670 983 1706
3 1021 1894 1904
3 715 1045 1611
3 1577 826 1583
3 1322 480 1061
3 970 513 1497
3 634 954 1164
3 30 31 1898
3 506 1685 1668
3 324 325 1854
3 303 780 1819
3 728 1836 1839
3 1531 818 987
3 1153 105 1083
3 1676 409 1255
3 1385 973 1933
3 915 817 1934
3 272 800 1361
3 481 1023 1524
3 1069 1359 1563
3 1439 376 1652
3 1473 604 1893
3 149 1441 1773
3 1272 760 1651
3 1108 595 1782
3 953 381 1802
3 899 690 1536
3 220 1140 1177
3 1212 1618 1850
3 477 1505 1203
3 386 1521 1316
3 958 387 637
3 579 918 426
3 1117 479 1455
3 889 373 1480
3 513 970 1784
3 695 1583 1832
3 889 646 932
3 439 1241 1837
3 970 362 1761
3 1795 428 1487
3 852 499 876
3 422 1436 1552
3 196 197 1579
3 811 1448 1185
3 885 508 1313
3 540 750 1679
3 952 416 769
3 116 1473 1893
3 1712 466 1438
3 240 1477 1741
3 730 842 1360
3 1049 1275 1178
3 604 1040 1893
3 1378 385 1483
3 201 899 1536
3 746 422 637
3 678 1472 1851
3 1568 519 1433
3 1456 347 1836
3 967 826 1499
3 482 901 1824
3 1759 542 1493
3 1314 1240 1915
3 1171 475 1242
3 374 970 1761
3 645 661 1443
3 1543 594 1437
3 1229 391 1554
3 1478 243 1243
3 1641 1139 1910
3 1715 672 1552
3 1721 832 552
3 1078 675 1559
3 1415 485 1088
3 176 177 1147
3 642 1191 1797
3 920 620 1384
3 1353 589 1208
3 1416 410 1176
3 579 970 1871
3 646 889 1480
3 1548 1667 1765
3 850 1565 1725
3 1737 1196 1124
3 453 884 1804
3 912 507 1887
3 446 1755 1214
3 998 1740 1838
3 405 1108 1782
3 1080 1066 1397
3 740 1676 1255
3 304 305 1634
3 1139 379 1181
3 558 1719 1076
3 1125 861 1271
3 493 717 1102
3 1282 883 1493
3 104 1153 1827
3 1201 1378 1483
3 609 1265 1746
3 516 871 1766
3 723 1054 1398
3 547 956 1368
3 67 68 1912
3 377 961 1894
3 1039 343 1537
3 360 1327 1630
3 1411 805 1920
3 440 1118 1624
3 402 1712 1438
3 643 1314 1612
3 538 933 982
3 784 1512 1557
3 222 223 1476
3 677 987 1833
3 585 1532 1747
3 519 1568 1573
3 529 745 1221
3 480 1408 888
3 695 1577 1583
3 911 847 1475
3 337 1167 1002
3 229 230 1549
3 233 1304 1413
3 1081 880 1839
3 715 1152 1045
3 1023 481 1050
3 557 1672 1813
3 249 1528 711
3 455 1506 1117
3 422 1074 637
3 898 957 1817
3 368 708 1306
3 1118 1112 1624
3 621 1554 1621
3 856 1439 1412
3 138 139 1279
3 566 874 1514
3 191 192 943
3 1453 834 1786
3 1309 471 1923
3 986 1035 1430
3 237 238 1748
3 1460 398 1850
3 1241 713 1837
3 442 1338 1882
3 89 90 1840
3 657 1029 1807
3 131 132 1226
3 1047 998 1838
3 799 673 1778
3 646 1281 1270
3 117 118 1452
3 483 1406 1541
3 126 127 1270
3 1436 465 1552
3 618 1062 1445
3 1170 1126 1381
3 1490 194 1387
3 609 1425 1265
3 1399 621 1621
3 234 235 1595
3 970 374 1871
3 1578 995 1530
3 1448 403 1185
3 734 15 1599
3 921 898 1080
3 846 477 1360
3 107 776 981
3 354 1675 1708
3 452 1328 1357
3 1415 684 1283
3 1702 418 1770
3 1675 1059 1708
3 430 418 1702
3 485 1415 1283
3 230 971 1549
3 838 716 1227
3 1069 939 1359
3 368 889 932
3 536 1421 1646
3 1470 238 1459
3 792 640 1513
3 918 754 1913
3 1732 472 1875
3 642 1303 454
3 142 1411 710
3 138 1279 947
3 857 1593 1494
3 113 114 1592
3 1195 379 1349
3 934 1441 1354
3 118 119 1631
3 924 690 1637
3 1355 1309 1923
3 1583 826 810
3 1260 570 785
3 1460 1850 1403
3 631 1023 1050
3 1528 250 1790
3 1512 227 1557
3 465 1715 1552
3 1157 770 1366
3 1154 1348 1594
3 219 220 1177
3 430 330 1302
3 36 1099 1254
3 489 1799 1841
3 1040 604 1433
3 933 538 1615
3 1226 132 1842
3 76 77 1620
3 381 953 1891
3 977 598 1068
3 1152 385 1045
3 693 1043 1812
3 948 878 1517
3 518 1453 1786
3 613 948 1517
3 928 353 1815
3 145 146 799
3 705 1462 1261
3 227 228 1557
3 983 670 1363
3 68 69 1024
3 1323 556 977
3 670 1736 1363
3 214 215 1602
3 750 665 1219
3 1020 1241 1905
3 1140 221 829
3 470 924 1940
3 1859 473 1475
3 639 1662 1682
3 366 1078 1559
3 1441 409 1354
3 1809 549 1920
3 803 951 1911
3 496 1420 1223
3 1439 856 908
3 510 1170 1381
3 776 108 694
3 67 823 1766
3 739 1170 1486
3 814 571 1888
3 974 699 1491
3 836 1428 1296
3 607 960 1060
3 684 1415 1830
3 74 75 1862
3 995 1490 1387
3 1799 967 1841
3 1712 1056 1818
3 422 746 696
3 747 976 1558
3 972 760 1437
3 60 61 1776
3 585 1170 1598
3 1018 963 1805
3 395 1192 1931
3 750 369 1679
3 96 97 1468
3 1676 1085 1354
3 478 662 1418
3 614 1583 810
3 640 792 1037
3 1217 994 1516
3 169 957 1551
3 420 1340 1614
3 1269 164 1660
3 280 1737 1124
3 1194 89 1840
3 1645 522 1845
3 1341 354 1204
3 879 1831 1860
3 635 1548 1940
3 606 984 1320
3 588 1519 1847
3 71 72 1750
3 924 691 411
3 954 425 1164
3 1666 991 1446
3 125 126 1281
3 1055 472 1329
3 1332 1261 1699
3 564 1260 785
3 183 1518 1834
3 690 924 1251
3 823 516 1766
3 611 1555 1669
3 1291 85 1728
3 685 1027 432
3 1045 433 1611
3 409 1426 1255
3 247 248 655
3 1278 3 1376
3 551 1195 1395
3 1441 934 1773
3 663 797 1036
3 821 707 1848
3 1270 127 1880
3 985 1235 1924
3 1494 590 1937
3 78 79 1159
3 541 1218 1733
3 1485 267 1793
3 1643 719 1429
3 962 845 1898
3 149 150 1906
3 1303 578 454
3 1135 1175 1121
3 144 145 1104
3 1585 479 1267
3 1232 351 1286
3 1089 627 1102
3 561 1314 1915
3 720 823 1912
3 450 1547 1010
3 665 1479 1219
3 30 1257 1525
3 684 1296 1283
3 1296 1428 1283
3 323 324 1290
3 1462 514 1261
3 218 219 1312
3 464 1820 1404
3 419 885 1313
3 373 789 1935
3 399 1080 1397
3 1586 519 1573
3 497 930 1320
3 1416 1176 1856
3 949 1123 941
3 792 350 1037
3 971 741 1718
3 864 724 1455
3 1707 996 1587
3 1196 801 1124
3 146 147 1454
3 238 239 1459
3 1662 650 1682
3 1304 652 1413
3 515 1641 1910
3 1048 338 1770
3 255 256 1914
3 1677 573 1806
3 551 1082 1628
3 1094 640 1846
3 1261 514 1699
3 311 312 1673
3 106 107 981
3 341 1568 1433
3 1251 649 1918
3 957 903 1551
3 80 1520 1092
3 517 1674 1805
3 1060 451 1466
3 3 128 1036
3 728 1456 1836
3 442 1070 1901
3 866 400 1689
3 472 1252 1875
3 608 1666 1446
3 680 1144 869
3 675 999 1559
3 443 561 1273
3 1169 1174 1860
3 254 255 1648
3 276 1498 1540
3 1026 700 1546
3 1152 565 1835
3 1029 140 1874
3 1218 541 1779
3 1088 485 1738
3 956 883 1811
3 1023 631 1840
3 105 106 1083
3 570 1564 1339
3 640 1094 1307
3 778 1405 1450
3 339 1272 1651
3 416 1460 1828
3 300 23 1717
3 232 233 1413
3 435 941 1852
3 612 1029 1874
3 333 1139 1181
3 34 35 1013
3 54 55 1650
3 215 1340 1602
3 1565 435 1852
3 1539 370 1545
3 17 287 1707
3 1456 728 745
3 580 1760 1903
3 451 960 1795
3 1479 665 1724
3 270 8 1779
3 616 430 1526
3 845 1165 1317
3 860 749 1461
3 665 750 1657
3 571 1426 1888
3 310 311 1695
3 90 1023 1840
3 993 1451 1635
3 495 662 1369
3 219 1177 1312
3 820 892 332
3 1386 554 1774
3 735 969 1808
3 1048 418 1471
3 1465 682 1502
3 130 954 1644
3 1094 500 1364
3 109 110 1031
3 1021 1556 1394
3 433 628 1443
3 933 639 1245
3 256 1014 1914
3 1532 283 1747
3 365 803 890
3 291 290 875
3 1094 597 1307
3 1454 673 799
3 19 917 1546
3 1141 1098 1674
3 399 921 1080
3 1215 777 1670
3 1328 790 1357
3 148 149 1773
3 29 30 1525
3 1564 378 1339
3 1820 464 1867
3 619 599 1228
3 509 1202 1200
3 69 70 1211
3 739 1486 1162
3 1337 59 1688
3 1236 368 932
3 553 561 1915
3 385 1152 1835
3 1543 421 1569
3 599 615 1228
3 1372 1859 1475
3 267 268 1793
3 760 1272 1437
3 97 98 1656
3 1877 759 1921
3 500 1094 1846
3 1169 1585 1267
3 1479 371 1457
3 1760 1393 1903
3 207 208 1567
3 1202 700 1200
3 496 1223 1596
3 1029 657 1279
3 568 814 1888
3 1275 489 1742
3 1460 351 1828
3 511 1401 1899
3 857 1494 1937
3 530 865 1780
3 1223 763 1596
3 1204 664 1789
3 474 848 1640
3 1194 631 1907
3 778 599 1405
3 1144 522 869
3 512 1244 1696
3 1571 618 1445
3 455 1014 1623
3 1027 210 432
3 937 1645 1845
3 510 921 1598
3 1758 1093 1835
3 735 1808 1109
3 1479 438 1219
3 668 1239 1722
3 678 1125 1472
3 903 957 1801
3 1221 728 1839
3 317 912 1207
3 993 1275 1742
3 172 173 1681
3 68 1024 1912
3 1767 659 1461
3 262 263 860
3 61 62 1146
3 1850 755 1403
3 954 634 1644
3 139 1029 1279
3 1128 1008 1444
3 581 1204 1789
3 961 321 1904
3 999 366 1559
3 1253 1355 1690
3 505 1642 1464
3 1139 664 1910
3 565 1758 1835
3 391 865 1111
3 1607 1116 1493
3 35 36 1254
3 613 962 948
3 410 561 1772
3 1405 754 1450
3 1138 225 1849
3 354 1708 1600
3 452 1287 769
3 1287 419 769
3 1677 674 1777
3 106 981 1083
3 561 553 1772
3 417 714 1012
3 248 249 711
3 726 1505 1870
3 261 262 1182
3 111 112 1701
3 1469 980 1358
3 1062 453 1804
3 1719 717 1886
3 1687 530 1780
3 863 1470 896
3 1128 951 1867
3 954 131 1226
3 3 1278 1880
3 284 1276 925
3 476 1350 1921
3 793 176 1147
3 617 474 1640
3 560 1128 1444
3 1568 593 1573
3 425 954 1226
3 789 1148 1935
3 664 849 1910
3 1168 631 1319
3 691 854 411
3 849 515 1910
3 1340 569 1602
3 572 1006 1497
3 168 169 1551
3 1367 460 1070
3 804 345 1122
3 1555 534 1669
3 855 1337 1688
3 714 978 1012
3 949 941 1511
3 1073 774 1936
3 1637 635 1940
3 288 17 1587
3 573 1677 1777
3 576 1585 1831
3 706 830 1916
3 1395 428 1932
3 1680 1237 1761
3 662 605 1369
3 628 645 1443
3 659 860 1461
3 1303 642 1797
3 487 890 1911
3 1470 863 1748
3 1579 1039 1537
3 594 972 1437
3 1609 1038 1918
3 632 1681 1756
3 1013 35 1254
3 1108 701 1743
3 916 1447 1938
3 1197 916 1938
3 745 728 1221
3 1429 719 1887
3 1265 593 1746
3 529 1189 1916
3 874 237 1748
3 108 109 694
3 1239 1042 1722
3 744 1183 1300
3 76 1620 1785
3 863 874 1748
3 292 19 1895
3 17 1707 1587
3 1107 624 1925
3 1656 718 1468
3 851 1253 1690
3 1003 1137 1877
3 631 1168 1907
3 865 391 1780
3 144 1104 1928
3 779 434 869
3 580 1478 1716
3 830 529 1916
3 1713 18 1726
3 1049 810 1799
3 1481 740 1255
3 593 1265 1573
3 1721 763 1639
3 750 540 1657
3 890 803 1911
3 147 148 1305
3 449 1584 1383
3 1620 77 1900
3 1331 1200 1671
3 1505 846 1870
3 1472 1086 1851
3 874 863 1514
3 375 1571 1753
3 353 866 1815
3 565 1521 424
3 85 86 1728
3 428 1395 1487
3 996 1436 1587
3 180 181 1503
3 1495 406 1560
3 603 1469 1358
3 262 860 1182
3 638 1206 710
3 1687 989 1821
3 910 1278 1376
3 1052 1168 1319
3 1751 547 1710
3 326 327 1334
3 1277 360 1630
3 351 1460 1403
3 293 292 721
3 109 1031 694
3 1425 393 1265
3 1009 551 1628
3 476 1543 1569
3 1021 1394 1894
3 381 1149 1502
3 831 859 1654
3 572 1497 1934
3 604 1473 1878
3 826 1500 1499
3 1409 477 1203
3 848 474 1808
3 900 1306 1781
3 66 67 1766
3 489 1275 1799
3 239 240 1741
3 1216 1037 1615
3 676 1864 1324
3 1339 678 1851
3 1279 1225 947
3 1727 796 583
3 1211 70 1883
3 1486 1191 1162
3 1534 530 1334
3 374 1004 1869
3 790 1328 1816
3 382 1531 987
3 166 167 1131
3 101 102 1422
3 292 1202 721
3 78 1159 1900
3 537 911 1103
3 641 1803 1300
3 720 1024 1515
3 1290 324 1854
3 1177 677 1312
3 880 1277 1630
3 299 298 1745
3 173 174 1756
3 1059 764 1010
3 1522 335 1604
3 141 142 710
3 775 968 1012
3 901 323 1290
3 882 1072 1714
3 968 417 1012
3 520 1504 1446
3 1189 706 1916
3 1798 879 1860
3 349 1823 1700
3 891 1226 1842
3 383 1133 1333
3 1090 623 1802
3 836 1708 1547
3 1585 1169 1831
3 522 779 869
3 349 1238 1823
3 1708 1059 1547
3 127 3 1880
3 1159 79 1092
3 595 1108 1488
3 1004 704 1869
3 56 57 955
3 1672 376 1813
3 491 1729 1929
3 1107 577 1268
3 610 792 1513
3 232 1413 1198
3 1857 504 1939
3 963 517 1805
3 1504 608 1446
3 1152 715 1068
3 1167 1751 1710
3 805 1809 1920
3 1473 117 1452
3 1008 1470 1459
3 456 971 1718
3 628 1857 1939
3 463 1159 1092
3 1608 953 1802
3 448 786 1002
3 1157 531 1882
3 1275 1049 1799
3 1543 476 1449
3 1681 173 1756
3 971 456 1549
3 1442 812 992
3 243 244 1243
3 1328 351 1816
3 1326 1073 1685
3 755 1286 1403
3 1521 565 1316
3 410 1772 1176
3 722 985 1924
3 1096 1156 414
3 46 47 1382
3 1489 537 1655
3 561 410 1273
3 59 60 1688
3 52 53 1684
3 533 1231 1872
3 765 508 1885
3 464 1128 1867
3 421 1063 907
3 225 226 1849
3 599 619 1405
3 200 201 1536
3 385 1378 1045
3 605 662 1329
3 341 1096 414
3 1772 775 1176
3 1241 439 1905
3 136 137 1788
3 250 251 1790
3 1180 1848 1693
3 499 1534 876
3 906 1814 1358
3 631 1194 1840
3 534 1687 1821
3 749 860 1375
3 1287 595 1380
3 1063 597 907
3 594 1543 1449
3 1516 994 1563
3 610 1442 992
3 281 280 1124
3 91 92 1524
3 15 283 1599
3 133 134 1370
3 779 522 1007
3 1478 1243 1716
3 887 793 1147
3 1031 110 1902
3 1011 1013 1254
3 1627 523 1822
3 462 1197 1938
3 1041 444 828
3 1447 462 1938
3 989 1687 1780
3 181 1190 1503
3 624 1107 1268
3 1359 540 1563
3 151 152 1150
3 1278 1136 1880
3 615 1071 1228
3 860 263 1375
3 873 596 1380
3 14 1303 1797
3 347 1141 1836
3 73 74 1398
3 379 1641 1349
3 1641 658 1349
3 540 1679 1516
3 1519 562 1464
3 886 629 1252
3 1073 666 1685
3 707 821 1768
3 1136 1270 1880
3 252 253 1800
3 926 910 1376
3 216 217 1614
3 1350 1046 1649
3 853 1217 1516
3 1485 1033 1896
3 877 871 1214
3 371 1479 1724
3 1151 905 1422
3 903 1527 1131
3 102 1151 1422
3 1527 166 1131
3 1089 558 1879
3 984 429 1320
3 549 1706 1920
3 1072 24 1714
3 1050 543 1319
3 981 975 1083
3 111 1701 1902
3 683 364 1179
3 1190 589 1503
3 595 873 1380
3 896 464 1404
3 295 294 1639
3 302 303 1819
3 662 495 1418
3 1159 601 1900
3 1509 1154 1594
3 8 277 1663
3 1571 783 1753
3 172 1681 1636
3 327 1534 1334
3 1249 844 1075
3 804 459 1317
3 1641 515 1678
3 1741 1477 1444
3 629 853 1252
3 1031 384 694
3 1449 759 1570
3 87 88 1907
3 1729 904 1929
3 1603 252 1800
3 730 1467 1390
3 1734 619 1228
3 1362 457 1424
3 245 246 424
3 170 171 1817
3 845 1257 1898
3 860 659 1182
3 120 121 1419
3 316 317 1207
3 658 1641 1678
3 589 1190 1256
3 906 1648 1814
3 1473 607 1878
3 1762 816 1649
3 343 979 1537
3 18 289 1726
3 321 322 1904
3 959 1522 1604
3 226 1512 1849
3 351 1328 1828
3 666 1073 1936
3 40 41 1292
3 707 340 1848
3 283 282 1747
3 1183 259 1492
3 1477 560 1444
3 494 1762 1649
3 1096 607 1060
3 20 301 1529
3 685 1115 1248
3 10 1062 1804
3 781 1798 721
3 979 671 1537
3 1528 1790 1749
3 1584 449 1253
3 189 190 1826
3 1814 603 1358
3 1627 576 1926
3 644 388 1289
3 963 1399 1621
3 103 104 1827
3 164 165 1660
3 730 1360 1653
3 313 314 1007
3 866 12 1815
3 594 1449 1570
3 381 1090 1802
3 596 885 1380
3 1127 616 1526
3 931 1149 1891
3 388 771 1289
3 352 1362 1424
3 567 733 1932
3 1124 801 1829
3 1619 488 1628
3 469 679 1908
3 248 711 655
3 1079 1603 1414
3 1149 825 1502
3 1275 993 1635
3 182 183 1834
3 1521 245 424
3 905 1151 1711
3 817 915 1412
3 611 1669 1647
3 308 309 1863
3 351 1232 1816
3 955 57 1626
3 1115 475 1248
3 1798 293 721
3 531 1367 1882
3 1217 299 1745
3 782 1593 1873
3 616 1127 992
3 455 1117 1455
3 1619 1266 1692
3 1003 1877 1921
3 479 1117 1267
3 1603 980 1414
3 851 1584 1253
3 881 1734 1076
3 849 664 1600
3 1156 1096 1060
3 1127 610 992
3 1597 94 1617
3 1467 539 1390
3 502 1627 1926
3 871 516 1214
3 800 415 1361
3 1416 549 1632
3 1734 563 1076
3 766 1693 1890
3 775 1012 1535
3 700 1202 1895
3 417 968 1838
3 70 71 1883
3 1154 1509 1457
3 194 195 1387
3 401 1031 1902
3 1129 836 1296
3 486 1127 1526
3 773 1713 1844
3 1673 850 1695
3 231 232 1198
3 198 199 1897
3 1519 653 1847
3 259 260 1492
3 1239 575 1705
3 1012 978 1535
3 1731 676 1324
3 701 617 1640
3 625 546 1338
3 1287 452 1782
3 115 116 1893
3 1367 442 1882
3 75 76 1785
3 143 144 1928
3 633 1539 1545
3 1486 585 1747
3 374 1869 1871
3 140 4 1874
3 1084 813 1760
3 1281 126 1270
3 1820 861 1404
3 980 1603 1800
3 210 211 432
3 654 1732 1764
3 810 1049 1665
3 1808 474 1109
3 626 1106 1474
3 1427 644 1210
3 1291 1728 1262
3 500 1578 1530
3 1694 168 1551
3 134 1608 1370
3 1568 341 1346
3 582 1153 1720
3 1389 1132 1111
3 283 1532 1599
3 1042 1239 1705
3 1681 632 1397
3 1439 1652 1412
3 157 158 1423
3 1156 1060 1466
3 1539 633 828
3 1788 137 947
3 77 78 1900
3 1202 292 1895
3 137 138 947
3 797 1574 1647
3 263 264 1375
3 831 625 1338
3 129 130 1644
3 883 1282 1811
3 711 555 655
3 132 133 1842
3 221 222 829
3 133 1370 1842
3 257 258 1566
3 110 111 1902
3 211 1115 432
3 1693 1421 1890
3 136 1788 1757
3 868 1259 1832
3 57 58 1626
3 755 1618 1819
3 428 1795 1932
3 1572 758 1655
3 1174 16 1860
3 1149 381 1891
3 79 80 1092
3 818 1531 1529
3 914 339 1651
3 1817 171 1636
3 1378 433 1045
3 789 1266 1619
3 698 1597 1617
3 1538 998 1754
3 718 1143 1622
3 902 1538 1754
3 644 815 1373
3 88 1194 1907
3 1869 1155 1871
3 342 1727 583
3 1681 1066 1636
3 171 172 1636
3 1126 1527 1381
3 1153 1083 1720
3 1282 352 1811
3 654 1764 1501
3 1106 1201 1474
3 442 1367 1070
3 1046 1876 1649
3 135 136 1757
3 1064 1548 1765
3 346 972 1570
3 1562 395 1931
3 94 95 1617
3 759 1449 1921
3 1496 991 1311
3 614 810 1665
3 1347 778 1919
3 1713 1077 1844
3 1043 793 1812
3 1006 362 1497
3 1115 685 432
3 1679 853 1516
3 1186 1156 1466
3 883 1607 1493
3 611 1290 1854
3 711 1528 1794
3 577 1791 1268
3 462 765 1885
3 1572 537 1103
3 1220 1480 1935
3 641 1183 1492
3 505 1022 1822
3 1732 369 1764
3 981 776 1733
3 791 535 1654
3 1666 692 1744
3 771 388 1496
3 1652 817 1412
3 473 911 1475
3 488 1619 1692
3 388 520 1496
3 972 594 1570
3 748 1499 1487
3 1669 534 926
3 593 1568 1346
3 1219 438 1764
3 1618 302 1819
3 657 1643 1429
3 1528 626 1794
3 1480 373 1935
3 520 388 1373
3 859 791 1654
3 1014 724 1914
3 1360 477 1653
3 535 1069 1075
3 763 1223 1639
3 1773 934 1305
3 1069 994 1075
3 412 1347 1925
3 1174 469 1908
3 1095 651 1025
3 1758 565 424
3 475 1171 1248
3 1499 1500 1487
3 410 1416 1632
3 433 661 1611
3 1613 1101 1576
3 1548 470 1940
3 1206 141 710
3 1035 1091 1430
3 1791 735 1268
3 671 1579 1537
3 1401 1312 1899
3 1740 998 1538
3 1824 611 1647
3 1843 502 1926
3 591 1740 1538
3 1384 620 1796
3 19 1546 1895
3 1555 611 1854
3 1353 180 1503
3 626 1528 1749
3 1171 380 1248
3 1175 767 1121
3 281 1124 1829
3 1325 333 1692
3 537 1572 1655
3 361 1081 1839
3 661 397 1611
3 1176 775 1535
3 437 1176 1535
3 749 1715 1461
3 601 1159 1580
3 1266 1325 1692
3 167 1694 1131
3 1697 101 1422
3 700 1026 1671
3 697 1691 1363
3 1691 521 1363
3 1643 657 1807
3 622 707 1542
3 854 649 411
3 887 1391 1752
3 1231 609 1872
3 1170 510 1598
3 875 729 1661
3 1091 460 1430
3 473 1643 1807
3 8 1218 1779
3 1583 614 1832
3 522 1144 1845
3 1265 393 1573
3 576 1831 1926
3 97 1656 1468
3 677 1177 1927
3 1629 415 1763
3 314 779 1007
3 478 1610 1806
3 1497 513 1934
3 815 990 1373
3 1289 423 1210
3 1669 797 1647
3 882 1562 1931
3 776 541 1733
3 820 1089 1879
3 797 1669 926
3 1556 425 1394
3 1143 894 1622
3 1742 489 1507
3 1161 1742 1507
3 867 811 1185
3 1223 295 1639
3 1246 1702 1770
3 926 534 1821
3 430 1302 1526
3 1268 735 1109
3 689 1291 1262
3 1727 1234 1515
3 1000 1427 1210
3 595 1287 1782
3 623 1608 1802
3 1097 627 1863
3 544 1727 1515
3 362 1680 1761
3 951 1590 1867
3 468 873 1488
3 512 1664 1010
3 1505 756 1203
3 542 1258 1783
3 1638 820 332
3 475 867 1185
3 764 512 1010
3 1309 1355 1253
3 1531 20 1529
3 994 1217 1745
3 514 1006 1699
3 1667 423 1765
3 1133 1182 1333
3 590 714 1937
3 1042 1613 1576
3 607 1096 1878
3 539 875 1661
3 1302 486 1526
3 466 1712 1818
3 521 983 1363
3 1271 861 1820
3 670 1416 1856
3 776 694 1868
3 195 1379 1387
3 451 1577 1466
3 555 1474 1483
3 910 926 1821
3 513 915 1934
3 1254 1099 1606
3 1098 1792 1805
3 1176 437 1856
3 1736 697 1363
3 1329 472 1858
3 527 789 1619
3 286 1174 1908
3 394 1348 1700
3 644 1289 1210
3 616 992 1591
3 1784 579 426
3 1801 510 1381
3 570 1339 1851
3 872 1775 1205
3 1608 623 1370
3 309 1097 1863
3 1140 382 1927
3 1054 73 1398
3 793 887 1812
3 1143 718 1400
3 425 1556 1164
3 1717 573 1777
3 504 1053 1939
3 1199 440 1213
3 631 1050 1319
3 1348 349 1700
3 1104 145 799
3 376 1123 1813
3 365 1541 1771
3 873 595 1488
3 574 1215 1670
3 388 644 1373
3 1006 572 1699
3 1123 949 1813
3 1024 720 1912
3 1015 914 1651
3 714 590 1199
3 1099 773 1606
3 1379 995 1387
3 881 1719 1936
3 1719 666 1936
3 991 1666 1744
3 1618 755 1850
3 1593 591 1873
3 1764 438 1501
3 950 1784 426
3 1177 1140 1927
3 460 1367 1430
3 1119 616 1591
3 369 1732 1875
3 1016 1271 1820
3 1311 991 1884
3 1123 636 941
3 3 1036 1376
3 994 1069 1563
3 1052 1431 1262
3 1407 505 1822
3 1386 654 1501
3 1624 809 1510
3 543 1050 1222
3 627 1638 1863
3 1474 1201 1483
3 472 1732 1858
3 1643 473 1859
3 1715 465 1461
3 1008 1741 1444
3 1168 87 1907
3 879 1798 1843
3 1541 1406 1771
3 1556 482 1164
3 1286 351 1403
3 488 1009 1628
3 1378 1201 1857
3 522 1645 1007
3 1679 369 1875
3 1703 622 1542
3 516 1775 1214
3 731 982 1245
3 541 776 1868
3 1053 441 1939
3 1796 344 1698
3 1648 724 1814
3 1112 1263 1892
3 1057 1218 1663
3 905 1697 1422
3 1694 903 1131
3 909 1369 1774
3 1159 463 1580
3 1019 1565 1852
3 661 433 1443
3 816 1350 1649
3 915 856 1412
3 1752 693 1812
3 1769 910 1821
3 1798 781 1843
3 1623 257 1566
3 1369 605 1774
3 1722 396 1892
3 651 525 1025
3 1391 757 1752
3 853 1679 1875
3 992 812 1591
3 1638 308 1863
3 619 1734 1723
3 1185 403 1242
3 1066 1681 1397
3 523 1407 1822
3 393 1586 1573
3 1108 1743 1488
3 300 1717 1777
3 491 1119 1591
3 941 636 1852
3 398 1703 1542
3 767 275 1121
3 1258 868 1783
3 666 1719 1886
3 1431 689 1262
3 1032 407 1933
3 987 677 1927
3 1734 881 1723
3 1179 749 1375
3 855 1688 1776
3 809 1731 1510
3 481 1005 1222
3 69 1211 1024
3 589 1353 1503
3 744 1623 1566
3 609 1746 1866
3 1183 641 1300
3 1144 435 1845
3 1119 491 1929
3 1132 963 1621
3 449 1309 1253
3 246 1758 424
3 583 796 1818
3 771 1496 1311
3 1739 1101 1613
3 485 1686 1738
3 1243 386 1716
3 1294 1657 1359
3 1056 583 1818
3 1905 1355 1923
3 1182 659 1333
3 724 1648 1914
3 904 1471 1929
3 1664 450 1010
3 409 1676 1354
3 989 1769 1821
3 697 1736 1704
3 719 1643 1859
3 825 1465 1502
3 555 711 1794
3 494 1876 1184
3 1079 944 1749
3 1020 1905 1923
3 1513 858 1442
3 982 933 1245
3 1648 255 1914
3 1775 516 1205
3 427 1440 1879
3 1709 348 1778
3 973 1032 1933
3 854 1321 1917
3 647 854 1917
3 903 1694 1551
3 1876 1321 1184
3 658 1678 1507
3 944 626 1749
3 435 1144 1511
3 457 1712 1424
3 837 1709 1778
3 900 1325 1224
3 1841 658 1507
3 1325 1266 1224
3 887 1752 1812
3 1657 540 1359
3 1712 402 1424
3 1743 468 1488
3 264 1179 1375
3 751 1386 1501
3 714 417 1937
3 1290 611 1824
3 872 1664 1735
3 610 1513 1442
3 386 1523 1716
3 1218 8 1663
3 664 1204 1600
3 1204 354 1600
3 1833 511 1899
3 1289 771 1659
3 609 1866 1872
3 1440 820 1879
3 1200 700 1671
3 719 1299 1207
3 1372 1299 1859
3 1312 677 1899
3 1736 437 1704
3 630 1783 1853
3 1252 853 1875
3 1741 1008 1459
3 1083 975 1720
3 659 1767 1333
3 1832 614 1853
3 493 1725 1308
3 1658 809 1624
3 311 1673 1695
3 1523 580 1716
3 1112 1658 1624
3 924 1637 1940
3 991 1496 1446
3 511 1833 1301
3 1790 1079 1749
3 636 922 1852
3 1546 700 1895
3 1011 1254 1606
3 1086 785 1851
3 1783 868 1853
3 1050 481 1222
3 1356 446 1735
3 423 1289 1659
3 901 1290 1824
3 1454 1315 1922
3 673 1454 1922
3 440 1624 1510
3 344 1796 1919
3 1746 498 1866
3 785 570 1851
3 1249 994 1745
3 1691 697 1324
3 922 1019 1852
3 1725 1019 1308
3 975 981 1733
3 1728 1052 1262
3 868 1832 1853
3 1356 512 1696
3 392 1143 1400
3 1450 344 1919
3 1077 1713 1726
3 855 1837 1861
3 831 1338 1901
3 1688 60 1776
3 1767 383 1333
3 1775 446 1214
3 818 1529 1930
3 1474 555 1794
3 1484 1011 1844
3 1775 872 1735
3 1019 922 1668
3 446 1775 1735
3 1736 670 1856
3 1496 520 1446
3 1346 341 414
3 396 1722 1576
3 863 896 1404
3 774 1723 1936
3 437 1736 1856
3 71 1750 1883
3 778 1450 1919
3 1750 688 1883
3 1529 301 1930
3 540 1516 1563
3 404 1390 1661
3 1833 818 1301
3 554 1739 1613
3 148 1773 1305
3 1869 704 1698
3 648 1171 1242
3 1837 713 1861
3 994 1249 1075
3 1273 410 1632
3 1299 719 1859
3 1645 313 1007
3 1049 1178 1665
3 1723 881 1936
3 768 1346 414
3 1722 1042 1576
3 1865 1220 1935
3 1148 1865 1935
3 951 1264 1911
3 922 506 1668
3 1155 1869 1698
3 694 384 1868
3 1792 1018 1805
3 1731 997 1510
3 1308 1019 1668
3 333 1181 1692
3 1862 75 1785
3 1178 687 1665
3 1181 488 1692
3 298 1249 1745
3 239 1741 1459
3 1866 843 1872
3 703 1273 1632
3 336 1311 1884
3 1299 316 1207
3 626 1474 1794
3 605 1329 1858
3 584 1864 1700
3 1876 494 1649
3 1678 1161 1507
3 222 1476 829
3 1844 1011 1606
3 707 1768 1542
3 1251 924 411
3 1077 1484 1844
3 946 1862 1785
3 489 1841 1507
3 507 1429 1887
3 1390 539 1661
3 1864 394 1700
3 1768 398 1542
3 879 1843 1926
3 897 1308 1668
3 1394 377 1894
3 95 1810 1617
3 1658 1112 1892
3 677 1833 1899
3 1301 818 1930
3 1515 1234 1295
3 720 1515 1295
3 997 1213 1510
3 1449 476 1921
3 893 1356 1696
3 941 435 1511
3 1213 440 1510
3 674 1301 1930
3 1732 654 1858
3 1810 698 1617
3 396 1658 1892
3 991 1744 1884
3 1744 1344 1884
3 1338 442 1901
3 624 1268 1109
3 1616 399 1397
3 1810 974 1491
3 1690 1355 1905
3 403 1825 1242
3 1825 648 1242
3 414 1156 1186
3 698 1810 1491
3 632 1616 1397
3 1476 742 829
3 382 987 1927
3 649 1251 411
3 439 1690 1905
3 773 1844 1606
3 768 414 1186
3 1831 879 1926
CELL_DATA 3560
SCALARS Von_Mises float 1
LOOKUP_TABLE default
19357703.05575487 51415991.05640899 50507889.60675217 50834286.50074067 46292798.43718032 46258927.08857115 28862545.756968323 23934261.727404103 38027162.35929403 50963469.26515766 53685434.768511385 48384101.088907324 34982493.983507454 27957584.36804665 19118933.614146743 72635862.47694317 34723413.064292185 55612715.54817224 85214614.9423959 46567719.75545007 36164839.74441903 36282287.077676855 20951057.727705553 50873446.878266335 8573457.17201697 36943152.520576164 48505074.57510677 1595180.9805079885 38632990.76689008 48378329.65677471 53900270.38300798 33280867.02718752 46671118.52482807 40958413.9489876 32812765.918644436 31324053.44633568 4716898.7433148585 46266776.00758735 55192178.15196153 41870466.238807954 58770171.802693315 51072331.92864134 45661156.753252506 4723788.296147572 37989955.99487986 43584466.62985775 50663549.28463609 53705928.28739297 61238165.88555991 22903651.90601634 37460247.80559833 49096907.524106234 90249335.78663069 49907743.692816295 41687304.56979709 35212959.66270123 31716043.749117788 1840407.0339509351 36475409.86283833 51319215.369649164 16361828.831053799 14923487.975561373 46034772.770810835 28141263.294651236 1144611.4706830047 27565281.2387178 220373073.21748313 57681967.81801102 51355835.75755024 5045317.594090935 56191137.541481234 53830947.62634476 34414024.41354683 53776425.67371992 53845945.36263685 44999983.34973183 52108814.4264216 50781686.99087825 54138450.803072326 40792187.58594046 48039835.009142146 27456951.492921665 85344964.07605118 49243299.25258667 27464529.55211483 481416.38293248735 64396095.281899564 51523301.91480816 49501794.95912371 48630828.235824354 31768251.324302174 36147015.09985556 41925801.44237371 44975265.595842645 67486810.89385359 58658105.15970993 7858329.9856925495 19983395.045593347 5957683.437224742 33670353.86254772 32062091.015573483 75184514.43701473 45745283.52837343 25633059.30218794 12156030.040675785 18273014.685691882 23513526.0377251 52905801.03727705 20436692.241752718 52612438.17877726 33466134.031396117 40640130.070191056 49877344.829999544 49993548.81812896 34871430.54022437 51127858.91080537 63078766.67077102 54390750.71379079 40453863.89466244 45323708.76150224 55354011.029129125 13118741.36071112 7472946.565583728 68648034.15229163 37006264.03970377 53568997.423573084 53597862.03833283 58966117.89428596 22722183.304743145 48117462.99110938 33322936.448222958 65296343.02477888 50700711.08015792 42283871.12770189 50600394.169417165 50327494.305470556 46355818.31623816 37262798.26445157 24244982.640670042 50424333.651110284 24922914.65494781 53008809.89115794 52305051.39079251 35056280.59337247 48598224.96774586 15786545.172407953 22056928.273591895 16439007.364330383 8121485.304617552 50522163.36323653 5494612.961986152 50129629.969752684 38996978.51739773 51851991.68768063 69306706.47026575 32962212.954620875 50705076.11781516 47684323.6797676 48969905.06620623 16883600.514618773 56021767.56353564 50197815.21902838 423824.7593931884 72123609.16509855 48420981.63019482 52486292.80867026 3237982.5412525563 61090014.821211964 24784602.288498808 30780377.252647195 47593755.15717302 66479967.33167879 12623132.233478528 57233756.315030865 55137782.958555706 51083061.49325411 22486144.494661614 41782022.64441758 12679755.686137157 89566547.32816267 46816329.56080832 51188987.23499665 61709487.49281252 27435473.615218613 49575782.044859506 31223561.446264856 52060734.1747175 11804003.682671672 57614883.07812048 23511631.77797034 40275031.388626054 55576657.91480978 32686225.735616833 38977349.788416654 106448688.7706843 15937219.716835601 34190237.048678786 59413440.68715303 52483603.84925637 19606416.61683299 29266339.93022335 40894339.82434667 27092386.2786579 44651238.780801766 51668287.063565575 38276451.695552334 34546878.3496179 99522411.821014 22016028.410529375 16284930.745911434 34569420.40896462 38284874.561344184 49145803.72960752 42966668.26683483 16318577.918273177 32638418.27810164 25580349.463369574 56030498.83415711 53386240.7998074 7606855.866739615 23698044.61760119 38675168.6504164 50836811.78772832 54176297.97444168 50779545.70427161 20800271.76226826 51507262.712689675 17975297.863264423 16532211.216479257 47438129.60422588 48535656.74241443 40367557.62029406 47001680.01117964 5623463.659425294 60096343.70759504 53187091.067061916 40944804.07386171 51946511.125176325 51960677.057545334 41344271.31824896 50728008.49326251 40533722.65848129 57006750.10745975 54838711.87236133 53227836.11923251 26559795.795027927 37242764.479585476 52702816.260362014 60560565.52058478 46361103.971983925 45955972.091102615 79217713.05624118 49693578.463519126 49605833.35111688 54196801.18298347 32643755.971833475 12174044.316315494 18767564.161829237 51524830.09158357 54532715.85125175 41797193.19739807 37159210.72280588 121356615.61222795 57721697.42903018 60921531.198803775 28506912.705884725 57712278.39581569 62238490.274011806 35670207.408487044 51730745.92152942 29360753.158601977 21634823.859091826 24811876.74497307 42751606.14866103 33219396.03361915 58436124.51597445 33926200.585034825 14326197.59563825 16356732.26574764 65570821.1327154 26923556.39826719 60669293.370167874 29699710.87969871 53057961.59806408 43915424.12574191 24547305.19265185 11170153.060043901 23819298.75975805 50511812.34864987 63641452.626558594 64980881.09676325 21814189.04931811 53114520.327079386 240403670.09043446 53528333.85189331 54171647.536093175 40116246.61901146 51512054.96031451 39563361.34639123 47569513.02632583 54671447.99567502 42978515.70238835 21297429.63270639 47767934.3212856 30403137.338704567 54512796.37596321 60803851.31615637 52095183.98921112 54421627.1486322 67977644.30080414 53842817.336369194 54399499.38580134 11342240.67819421 15398688.25416853 67313024.77905275 46758928.4131846 55665409.23066482 49218086.20477024 13628125.0575512 29406787.183486912 54782597.09045047 46099354.207612954 12075500.689415628 29687177.61230446 38420868.919970244 48400041.53733592 13546868.752899768 20043324.46389554 53304381.100135386 47835167.091822945 49641937.38142274 71838520.76146625 66211175.42059652 16440581.18444396 53688484.88970311 48029183.44224745 62358366.33749277 35418941.058361106 47598582.67552085 50468066.19634656 45101196.39274607 64764141.923933625 21044066.968533278 50187350.20079735 35512118.840354346 50546973.108766615 47301514.28524777 23607660.190475233 52655141.95910737 15528030.54415221 54294123.14174064 14166886.572076613 24386426.479345936 14948167.127039842 50620915.28139475 51953277.88980978 34617106.30017346 48558505.52651581 53777413.32463921 14399343.318031715 36354971.89767286 18258026.540173598 42860823.79074102 47442163.47221595 14080798.069055298 41636639.79488543 52921907.35159203 32557526.23130019 33458396.40141178 55184124.34324853 54883437.64782231 50683613.1853069 34238073.87946274 5535956.878989141 60628944.364756614 54958716.30395186 86066654.35390727 41272535.41743448 8124759.078428962 47425321.71183104 50078417.81473391 38591541.415639214 50481339.767664924 31028220.350520782 5905978.440211051 42674903.65173652 47492692.41835334 51196555.01504113 37823461.73518863 81291224.42342262 41800202.191669 11250630.893856587 20507841.143025868 60269999.880332306 10538006.148354985 47286109.31680476 50502130.869044885 8624180.637270752 35066846.28117149 16353138.93606212 21099387.00815612 5033695.068526978 6170662.911756742 5053341.630310537 123358716.00557801 49179279.776801534 56498134.44833592 37775224.68517734 52248950.22283783 49316686.94851385 114415037.69554749 45759428.912310526 90503483.28679131 51042599.87971892 58465501.51377141 51160563.70892554 53390205.196193755 28138943.425127443 29780651.1594022 54092875.359971136 12548164.389507258 48451784.87143591 29790366.134222202 13639451.969952384 17523382.604285203 30997886.042262893 56710965.09048142 54034849.952323906 33314870.826710537 40805055.411543414 16899945.98673917 16899945.98673917 87667039.02419202 34928964.60874362 43787931.262784496 65422362.47851822 55640739.40860912 38422505.871214084 49771986.992544815 22077497.83577816 51895865.2740083 27736568.26700059 57584318.295067236 7959013.789732359 50820105.6440926 2865392.542481349 51990071.75954471 53439271.15472209 51223447.61112198 67621844.57740791 54222609.38695663 48303893.85536051 28800599.043217957 52528936.673656076 35881232.97805023 50942617.74160908 51751758.53837576 49651581.123096675 44804066.98652867 46736770.9046005 47258273.13230722 36727004.89938627 23051388.28640246 39768389.75642903 51803837.21174873 53552873.56027053 35644447.50653578 38348581.55790003 43435691.27790066 50632661.7300968 50171280.255170785 14347980.419236224 15271954.856167372 15565845.71042059 51380850.15715295 43051941.75617542 2401550.2368071745 83552468.17894708 22871126.072290163 16740267.233212478 52977347.52588794 36709015.185492896 54791381.60562571 64313337.46106804 52473090.45992485 21248024.28632094 53178564.08422745 38843410.636353455 42542117.62484002 46281513.539466105 51805118.42336744 21447212.4735646 21457882.394244965 13974080.35830829 43853643.41863177 21271191.73889632 54354328.414360695 96337973.46299505 24641515.649559636 48228623.87786642 10291888.86816173 17782385.47502445 54265284.710058026 30406465.88962054 44281660.45502861 20087346.847606897 32387698.466090165 54654628.61513031 10496388.498924397 45737618.49372659 9186391.608827574 41109348.4146709 89791740.78666063 25714173.594170865 110757632.15036577 47668013.326581135 61730894.82336949 46391913.40496321 6705569.926507794 3672592.1033269274 6036779.841775914 3689485.31344747 55085055.80293161 18425802.051377114 54346162.80252712 45591301.10568745 45692909.47119863 45333366.41168912 49099566.83577198 9975095.51619076 41002201.36888798 51830744.887670614 62659357.662993506 44843814.89097043 55797745.341042176 50307271.670513414 41893111.14844309 35482961.607493944 40039634.29918318 49931242.269017756 6647354.837888378 9119333.752908945 38522315.02376133 27654032.429124985 34284632.65065321 48884139.999675125 49895510.95257615 1194582.95673656 46193359.08385256 50081218.409467086 50609065.717210986 32275830.832772415 49073667.57418938 37732279.717935696 63766875.28240605 47204784.822740994 2329804.9290540223 51495871.85569941 57734502.83317078 27185697.047075644 53947308.42776203 23418473.54078548 19837210.354682963 62726207.40273019 42949304.25514074 37310192.80766945 56769852.69572415 34759951.54907974 52727366.62875793 53027058.00268761 65264151.15718537 49112156.338951334 37945880.38964677 41373869.55743822 43453626.87117112 13213845.65222422 41085935.09112883 11485623.529447485 50361792.41329823 48765316.76508029 53599803.38559532 47780550.80270316 92426330.3308488 20708135.612588983 46640192.91190161 16453754.465184102 22211369.016574092 52210754.07898999 57925767.34405022 40779933.428265646 48386698.135303676 16163484.473903637 52055302.927401535 63264466.05904226 5148272.970224765 49184133.98374584 50536545.71160594 45305916.83975454 38320833.72766831 66359144.653714195 38041383.10870397 44841035.03778589 50648049.52413584 3621641.253855514 58057521.97890461 53998963.07366509 50490738.92987143 32151259.25679176 65284967.91687056 53953709.297642894 49773252.50900748 24183087.91169926 1308114.2910270393 25587800.42153288 18244775.16592767 11668552.13268803 24375169.950875983 48855251.8033816 6648525.802196166 37980645.0885597 25911574.99244459 56896668.83036165 50471915.24937066 5863700.882814354 20542801.118770115 51333081.492099054 14543511.036760805 54360832.54951878 50921224.60137193 5334042.473920609 81722991.83250766 34476949.96189831 48727231.0506842 2252914.9266893505 49619586.9195048 68029166.03081398 22803576.88464127 45909738.04129356 35919705.552427605 52083827.726048 54070272.39804207 51837329.12735818 56574907.24240107 8074427.639204764 1344614.1186858146 47594001.12765545 10554672.533025531 57544017.02886375 40365229.62740499 36028111.399529584 44681792.257786795 108103897.41472076 27265669.392138746 49211938.34598288 42248051.77469138 34558515.69192613 35057794.23109859 31997968.465118166 84604454.96589798 67677462.88593672 47995630.06304467 57746456.338301696 65329463.84576326 49392759.28316769 29318641.996535245 63946072.33573529 4505193.419560834 12765592.562719788 5858976.185544852 98363924.72904943 51640108.75624568 49620006.81758144 27078094.28022181 9790292.877403527 5414963.0900125485 44925794.375015415 51132602.73182615 79049205.25965297 56560600.79149723 34894029.76703365 31469044.45579266 46139631.041747995 45297078.04438828 34712270.63035815 39191199.61361753 4478523.657013044 42517555.357393004 92979097.54973903 19423945.07442869 54364570.10525594 63696286.33354549 16005443.86244382 52368743.023418725 4426977.329189578 48988912.496905416 20665159.944038946 53008881.77915879 69481563.21563266 61156538.99235404 27123144.530130453 15210243.905571392 43688573.403040215 20843937.264499385 16083788.39436887 57305794.656209745 39316175.248818174 24727882.103832085 12214468.366990853 49484246.27152046 44857511.0270726 36899385.47804835 54317603.26094752 49228545.846713014 33136388.207862925 54247294.59264258 11596761.585938869 42566057.7648087 50504102.871964395 56755426.247424 46315775.92715085 39771841.34008557 49048055.36688137 50390306.81517261 57206339.621817276 40214661.62039281 16824006.48119946 40036719.97076332 48462941.41229078 45925539.899218775 46246574.37341526 38275985.195982255 50998509.051593 50617606.155051984 42290432.3813102 6841207.351306119 36701921.31220692 57913700.74979271 99357232.7354588 49854518.10106508 67516040.08388747 53023642.59769286 53339112.90758151 11860317.930650765 11827302.38289931 55917723.54633178 12760167.776472755 9537305.572827522 31133403.18752765 45428263.297645174 14261925.987662628 109470811.27042429 54614542.39798415 48467580.872658454 78031082.37181737 50633225.086165436 26612943.23783265 32169743.53609442 19561138.79562035 38655630.0209271 52958188.82867138 2107707.4896281264 46594960.46790541 47877947.86594769 6380200.5112131415 41179132.86127456 59602857.7466175 57434566.227001734 33476792.58950062 31161241.76263381 111821626.673965 10742800.08053118 50442390.69335257 5984915.405027223 43492462.616011485 19850139.798890285 10770697.101564279 55507433.310818635 54421183.03168919 53000984.60359705 52299063.8709448 50411964.84418443 6119016.182839303 57233547.8682752 15786539.783336617 112105800.23526847 49840969.67713179 37059737.27125525 49740575.16157097 52522834.10180206 80905354.91576205 33267436.477359403 3886406.3234264283 168678215.68288884 31924618.536635585 45041209.760738276 48065648.010636955 40236510.645554855 45888015.78261634 22756830.14748076 25516098.59382357 41713603.87592291 15654233.670065114 50021199.87597745 43247460.025610484 57533946.523818575 32080110.367925376 2647902.087524701 47204176.15224821 12131179.722570255 34870487.037214115 25535788.079047248 98555804.88881019 50037000.00926701 51231294.3802016 55971670.72542146 54661813.06550829 48894984.900862105 6432610.667963929 39460044.69831104 79811647.73989862 23817147.003672007 17180834.153052103 17575787.66827213 15218791.844840728 44854100.98098291 50634988.69331399 17242292.920705497 4466706.1942431005 8176055.7419125335 52271747.28686181 1715684.5842677841 38514298.01322962 9226003.577237505 40458924.59312115 49248432.97466971 8194493.902342806 51038475.54650126 38470095.957203455 40646891.7292414 26641875.913524423 48496047.52964273 9335941.803396577 55279428.05416918 58534572.74957941 55015337.70974147 26539716.084029134 62670479.268979184 51688938.95009685 40628430.96329092 48641800.73686611 34295241.287705265 18333011.512584213 5887276.5119569665 17800203.921766818 54354337.04351793 47763926.798329554 5653185.215733165 57640863.02482615 34507744.63110371 22651974.314436097 18628455.24998349 47937733.91761992 82098627.10856856 37627735.51537271 77164421.29389147 61783594.41416292 12014649.796004234 60157460.21979206 50271649.33650549 55375931.71253325 16562908.112917522 38911710.92468925 31394405.53253279 62817837.3303407 49886134.26922898 56306789.11071973 73011992.92428775 52054274.1086675 49738520.01200036 54633575.50116839 53015323.44858514 48955849.267300166 20794711.820170313 46416750.521541886 53586468.31275455 8844502.642640777 734643.9923367192 51192354.82254696 50505224.382679455 65814990.865533344 19356833.249827974 58618533.92226172 39283522.475575686 5841238.491949514 17138271.229251914 52924414.87255585 35727796.04418063 3955059.4694347605 32224638.322366826 56145420.01235948 40580717.07232573 53799754.26834844 49620944.10121427 45164963.58826601 45329364.70143624 60861109.5406944 33490697.75830197 51224059.154614426 51078612.62827572 47070791.06337452 41604182.5219684 6608490.007726002 51875835.332371876 68881127.17684257 50877899.32850422 55298489.63310835 62011017.209905885 54575329.28745679 55298256.15395798 16458560.96697158 25352655.407226156 53396436.81260976 49502531.50052488 55291941.90492292 56012460.87909759 35381495.80737677 31079053.420602046 35894213.395825915 50118386.48496651 55198188.6526082 107462618.82658087 51229350.339165226 14375723.750257764 48853625.39685911 14037949.344789423 9397983.338283507 50725975.32014491 6162841.416493507 48850084.167286634 42520455.71418332 27598275.92178615 54327364.40252162 17790293.672447514 34349738.35436282 47017573.647619046 49205395.37719392 18489931.935966577 28839448.60246336 52552888.75714307 11759255.556414552 20292424.363209326 46176556.960847706 50290762.36019419 47701072.79659146 7586390.343598275 7765726.968572256 59431117.77231012 49006014.36425713 46801851.629188254 28737931.60075008 27355636.549883425 31435205.698203243 12461573.720007518 18179337.056200974 50191335.125862256 69199809.48836467 43306690.207866274 74199061.01962437 16127467.492344072 9802531.770157026 49231706.29507892 47943471.87135833 40408149.1325249 46753971.26941487 36873584.99295871 46704642.525128625 3810311.329598171 48990857.929242454 47759830.61713906 27314844.058237076 57907463.91904594 4233277.755040336 32372640.888667557 50227158.022284634 51012095.34171883 82879015.01448324 18150881.409391936 55173738.83485149 28373428.609723587 38401476.14625787 70752539.9862971 22455255.933451053 35720719.5899917 22912125.184263133 11279981.6321682 19600488.021473188 7514688.793690165 46651237.93924679 50653346.215599656 48456106.35486068 49732069.37932827 51180730.61218718 21512463.16945026 48986352.20256883 63673151.39283662 27728242.802826006 87348192.8445069 31013387.086283345 31207620.069201756 51151957.65588845 46322988.51224782 47837703.198837765 48127341.27960795 31203413.070823133 50750579.75535945 54908819.52855803 14849449.383245422 44721298.31452274 51226501.89310821 45732447.78164727 45564708.97571974 25686707.688470095 53054884.144177176 52263751.376248345 77576690.84081917 53848745.72508861 30629339.756804273 49351759.55822483 58568136.05826574 61660064.14303478 37443469.20074321 111573304.13451816 43843717.12815672 52401271.56649896 44876524.29580396 35995075.037506625 61024295.95886168 30443873.109489296 48691392.07847409 20589693.741021264 6139879.851318262 55664058.70777971 29454552.000236608 28750456.55647965 51533132.11362485 71258946.562789 49159515.13319172 16729936.677966684 39602930.501135856 46145667.2855527 53286038.03247161 36683428.01744954 48528426.684799574 4668836.4697682485 51886651.638448074 13050373.218193598 25882797.786123447 32061871.98566646 49617003.63780726 36348238.55154701 45832960.72255547 23223138.52393868 37471403.649313 64076546.15683846 54389399.47973479 12368683.47948015 64069718.37319606 5176058.467312543 71811178.57802518 65634358.96688004 21167580.98235244 58342728.94451583 33856714.1565717 24320483.675348513 12257847.305464499 33664540.64142532 51290128.93960134 36104860.18614021 56295698.422915235 52030449.75062907 24596533.4016951 46710730.71415546 20441627.97127545 48634996.0752222 49481449.563596904 16744673.266931921 5783617.398011371 71895499.35281974 39673382.33587686 45124712.73442083 27607115.374139763 30606687.09771006 48763784.206591815 56491808.89909173 1251238.2249288575 13855356.153047226 20543668.54085432 31358867.93707864 47853838.77934189 59487825.03711178 50354455.770404786 27847918.563462254 57379531.30099372 53380543.77912508 58434734.5371697 12212953.4088393 74772001.82113947 52987578.65698692 49362681.23009076 24568815.654730823 58094240.126458816 15496104.999005096 18680278.878711227 49122288.68677084 45277225.951032735 30040412.819195874 11343087.22781508 59510.01057040235 19793304.280509762 67688472.55133434 20707514.814840727 5735805.320753573 49573479.037127055 8630966.625439357 10521819.948395992 104865483.23473735 53956801.53498226 34746189.82133247 28626252.49023025 53495867.702030145 36287607.364951655 51862284.099679805 35572086.64565787 159762287.95160627 63024919.28444615 47767670.088795364 30618304.855298452 22366408.867253654 70509126.35172746 54906498.2146603 56618930.61960564 96082095.19814539 15097417.953520626 46372658.301599324 49298638.072883606 14212897.634736309 604330.8345790475 924498.8772039037 1080867.0339087492 49991788.191719316 59563194.26717782 46379691.266443506 63504170.59788937 48589314.72076168 48945844.682377994 19942177.348983113 34825399.59729463 53368540.52176247 55064303.326851435 28138772.57772298 46428342.21807805 39351983.53062708 49233703.24957713 78908892.6701475 48518260.00934545 36523387.76085118 21468893.757701915 50028866.767213166 56828860.503916755 29288880.329224303 13057062.017078588 2793340.4883113354 19004939.298781477 27312225.967662137 16235407.857851181 30365263.87275632 916676.0125053639 72818486.74237128 44580637.66234188 28756037.712497946 49406880.7225732 52039463.98492101 48961140.98606259 24915314.1596018 50272665.78470917 40689851.67378091 51356628.33235949 32424761.762557015 15562586.851711363 53668261.05625268 16203938.195015626 16265143.29839503 36818688.7961607 44630559.6717702 55106079.63121134 15172332.68990606 37707819.275525905 53205333.52813078 447082.9972058447 482166.34399150714 39826066.22366932 36249151.19118596 5335887.401180109 7338921.317172415 52913239.940445565 55448745.67610004 53538735.02443275 51248019.54134235 34121320.27380433 60306516.4207278 24222902.732590437 35686991.473178126 7869727.761061991 51923166.38648943 14190726.898528669 58528772.04998653 46019080.96439444 48691448.50295341 48890654.6348364 47120256.09848361 57775376.94567104 25344991.564951476 24666296.429998104 34194398.94866198 33129522.71445508 48597373.439036556 35059449.729753785 5168121.908798816 493751.9513848725 33820424.07752008 7837518.020321782 9684219.955093762 3884951.5602352726 60329195.89135872 125753107.96475792 38265742.69050429 25596879.510087535 92899242.28625257 12663141.924257131 10330322.326045044 9948330.614643918 32249366.644319326 42061177.34930662 28498080.341970127 24144798.798615173 27381252.15086976 43919056.38842258 33913644.10306776 46085548.32125206 45186286.43786773 65110516.088212974 28832469.522791397 23082859.44723196 24280934.447591037 48682280.08557616 56813358.885503665 18267410.054034986 28021992.34860991 26201982.069395244 7363746.307297399 20983089.887560584 40287722.72964464 22039690.470451932 48976536.30246125 53004288.80251547 53395693.94896631 26421644.23589888 58973543.05443871 26701631.790293008 27117253.944879714 2112692.4988218537 53695226.691681325 3569443.43439924 46864825.65570977 27641820.68788628 50661684.129425585 20988430.176767334 5937953.672357652 6251003.744681286 41534258.39767338 37971716.30668043 70350455.2467312 25774814.598980602 225715946.04298595 10008709.023778344 69267790.9172977 50568938.46578502 40381463.88053914 18445647.70343131 69122044.56201042 31195462.204240408 40823272.15624035 49077084.10460743 28122467.818063326 37982653.73680803 14148777.324598644 9861982.024658045 41297172.61900736 16285232.566233572 46885408.55534769 27140879.02316212 24527132.225045744 48472751.70186288 77254675.99466082 29421972.668159343 51834469.21527104 54670830.07857896 47645758.58396745 56284243.44466674 48526555.80164171 54323561.923638575 50708444.77450993 59940802.37707206 32677568.560618006 48792890.29958474 53298225.831422806 54429258.74115918 14387625.521570899 48341152.22270611 34812182.80614423 38784423.56278575 39918237.10139714 24868849.09444989 51214681.04490439 49614749.55478834 37997756.236562565 47539176.92276377 39821037.32185627 32430515.408299524 94613359.61602007 35422048.37317418 47981670.076332234 94301419.241903 2087899.387645362 28853596.426941358 37273890.86319212 49210378.86693367 69041513.60917915 1294148.994308392 17293278.920055013 53687530.944998756 1764694.3311131399 48910048.13689933 19242105.210044857 50189338.87984714 31522245.752002586 48165444.45371708 8892799.022977674 48603009.53281088 22194806.046863206 39667267.726377144 416114.88063116244 33490600.58711382 42410193.138953194 10582334.212344684 10615098.366276579 53684268.797017746 7204545.070884824 35592381.384069264 66446207.66168706 50690134.02320021 46107278.60919425 71152054.32176055 58164080.52662991 29660236.65416985 51382701.732626446 34253717.92712086 34732041.214355476 50574088.448928356 48815495.91047484 8891343.17755872 34351480.9405456 34965589.52530621 49372607.824982196 30819609.671414938 48437883.9628315 28710571.10752672 48343601.13828958 49410627.74380282 29765244.42235349 7379354.122583609 27390950.515289705 2698690.4759264197 31896118.600565564 970715.9585140311 39481770.476379044 26352965.010199375 28265895.949441038 52483936.4250701 26349150.62904721 53545123.0328827 15566782.645134043 11006329.518976063 29794706.032279328 48657379.53974474 31195908.986846503 3763116.160514645 46553570.53195508 44383237.87199125 48324080.100643665 336124.39365072484 35118269.49232895 52049400.778309785 90423636.42500149 32286480.388711665 38405780.57640048 36695856.53565881 108605414.00785223 48741814.4230546 7990294.3112187665 44442921.5568362 53568950.57994826 13460523.074628513 49108737.692018464 11560929.604134217 10434085.385625657 49448821.78362471 21256546.795100287 49018320.72070754 49467978.1480477 34449561.34809691 40009476.31633953 54231864.1116417 44703117.94375399 50014902.069705494 199049833.77464953 51543778.47038118 40108121.57059154 55208106.455983244 35953143.24526894 47619195.63919586 32676735.93139922 50117633.05589178 40896177.49241808 48755600.23219991 49995500.34905412 13522798.210226 55087276.865482144 52015145.91298822 36654736.66472023 10958148.20057075 51139469.14501624 51795118.5376694 38507710.93834624 42220221.65814187 30955303.562541552 122746668.4160013 27524285.34600504 39903699.99251835 7678387.599508589 45004029.09662573 36588146.803262435 52812101.94299942 54735792.45368793 21295018.533944696 53942828.13256995 55369482.06739098 56115946.972605005 34547242.59178198 26761732.92923604 27369782.129467368 33530269.62407345 50972433.01883954 51485409.70776581 26988456.292241894 51602146.714525774 48382494.54930949 50343216.57138682 51451560.71366376 29924866.658416104 42000090.0397811 37555328.98310557 33056424.041254878 36255180.757834665 31934652.785467435 30373368.325498387 44417873.444630794 29397981.235486813 49478228.24433874 17943342.909169555 55071321.55526668 54061166.01723451 56766301.79188206 38280741.98019803 37312888.118179604 29529949.17036779 10979312.347617636 24004970.18433704 37784189.57051292 67701340.7713715 55013405.4708364 37561467.50820262 51191130.18925651 66938923.76471073 43995246.74234835 53076536.8495008 46031936.93027576 30211315.485319007 29942545.274288222 56998269.38323919 52040713.87680413 50688351.70391929 35941895.86913022 14934565.409873238 11289476.95610278 53481694.38262579 37100777.318554126 48909262.17373389 51212282.1978844 65127641.27379873 45362119.14151738 66708322.54057448 9998136.008831363 55729864.2031825 54405165.99937246 50664662.95575727 76842606.92801607 52638905.49460343 41604641.42577912 39070112.03373691 62498060.54494159 49878102.1110072 15315622.805318054 36844886.64981931 24973251.35922308 34770628.20530938 4330089.027506243 51475412.41197153 48115399.96708609 47903992.8539017 29362362.17965447 72722374.38323084 15987472.075923711 49074482.77247591 70886334.23380232 24812344.202011872 52995724.728148 39877840.92983213 50340711.8342458 57281878.78585395 36014010.25220585 55752340.85951917 34784932.3103528 60431906.38632944 50754915.2404838 16178938.967488175 53414716.94977468 50988227.922198735 22528195.132086184 42172655.563615546 11525946.79969618 34994310.18284584 5255197.7808326995 54262285.24226977 23200097.90061168 49482201.27586491 45768999.017983064 68232126.06034337 67702692.57488334 46425214.525328614 29260547.941501133 51437121.82459654 49953153.24790426 49560896.012768604 51076970.69165322 66692145.19674612 80175955.09114644 21387433.21780539 36574283.86495461 47558314.30489243 10142285.048428798 24723129.34718233 61727843.16516286 57631348.974929325 73022203.45144 43325406.30110404 34192828.81607532 21490297.697608445 77724120.30194011 49016696.74216438 49054946.99057176 38762331.54036373 54415688.618603334 46918837.72122444 21333819.559989475 26652533.843457136 51215003.246021904 7126640.66886076 61452070.06322426 52919012.75536011 55755929.19751149 37752232.39520807 48866200.63015873 55419703.348753765 30408927.93866178 31248771.63188256 35833376.70274396 22928845.36529415 50522998.169446304 46875750.682571754 55034520.48569966 42722489.65364751 57769834.1510424 32873139.211720586 49548983.79049078 42478426.868834965 51926041.14263045 67891312.73485851 36942175.286580555 4031143.729982345 51351638.043194056 48425593.33533868 35259425.83297042 51850748.315959014 52750976.73783663 48672310.72456828 47954359.85146614 69756861.5711938 13816655.794612639 47964242.75171073 51226662.2757056 48152579.75992022 54291467.50714714 51711887.08357404 27270031.214403894 12352350.764322875 49734825.25525922 52035490.78830058 53764152.74726601 47087617.56316198 51163908.91729225 15169753.818306929 35500093.929387316 52084862.340864114 51431052.781144954 44089240.25979005 59845733.977754004 49138887.66295836 19474441.76518627 54123395.451598644 49746532.144540764 13026266.442715695 136666358.9739935 58384302.4109643 46578682.860020906 49210599.73314696 49209233.62635991 51844945.29557926 2609776.39179594 53084187.23106606 53723228.17465376 8677399.816224022 45414920.97928713 49857050.09278486 42754453.77328864 67274469.54365557 24284190.679153893 43670918.88753009 41589089.565439 45803695.40963948 35455443.69520536 50601088.30700871 52684415.30206357 82551251.63226971 60631914.22315418 52853238.30853106 36065364.19165114 31947362.115071133 48068919.21637993 49409283.61077127 50586877.78944052 49169345.355104595 85874177.60101736 38032709.15844599 12253523.212674264 47327267.67804204 97755285.39662069 14000096.449194416 46211769.11316419 51649095.06198219 11239102.660790795 4272916.152262323 87600637.26835735 9991219.57515729 45763023.33651146 40676550.21328378 37440259.49009975 52714667.77200597 43756511.56777938 47251622.03815239 48939020.44730358 49901589.27087655 50533779.81972792 33956278.135521054 47871811.83244754 31013532.87124285 70562518.81677723 50051364.86450822 68664499.64200632 43811851.37539941 170724.02022315594 51576673.29345276 38858461.78005172 7894605.432711644 15021022.168214299 17922603.863301378 22189969.115111593 54464989.05958394 59537764.55001289 25922330.99551318 34957332.21483135 49291777.68678717 34680255.73964611 50369920.3284255 51940588.98027346 5144746.879228211 106596641.63996641 56410528.40564349 16467563.524122003 52943623.45789871 47251344.75843785 70090264.02052748 61312212.783754036 30495443.85028204 23483320.37221817 30684076.596000172 39544314.15411378 54192657.574389614 50725846.00558837 21641485.544740528 31675775.09870461 52656782.811530575 20406019.847064517 36785062.52153416 6542578.173636411 14872449.460469494 27277225.999944773 52895361.93593954 54577788.99951998 41092729.82910058 47282937.40522149 13292858.10009102 36615143.52000307 31312565.50418843 10643672.0754076 59618899.289306216 51537801.88599627 43477203.55183544 40877105.45261766 48820514.88557419 54404768.87008342 73407995.8699669 9906344.961487796 50199718.4680295 15728474.680903433 39953581.5132452 21664432.114439074 25251211.580348257 50850695.85638472 49308407.83953061 13813303.924942402 47850056.92017947 54104622.003596485 29309796.011398084 15037681.335497603 42717777.56660149 48856921.335169286 16207663.599414213 52437540.4837468 34754559.98480358 51329420.375745505 1533392.5150425995 36066281.63824951 4170579.5058376906 48710617.662952565 62490044.44159028 42529309.130652 3227481.4063621354 27937157.19770521 12553803.208693484 29936120.871043086 15962316.019987915 52421944.38956539 171928691.47028473 5089128.328903439 54295089.751959525 55308446.94505124 53629759.72679719 26247951.62114149 32537582.421484552 55939579.55426838 28692640.405055955 13328249.95034383 48362080.068087086 56593141.71289561 61831954.825716816 56597389.68175062 55182838.52676124 87507292.98946254 6461721.631000338 51798225.860467635 53544674.86006366 42332006.900340855 5768696.954349743 51035016.613733776 11357053.35479687 54132760.909740284 51074688.20354402 26173293.31179554 1961597.1568006899 35731387.57594478 73546510.1948627 48989666.22714895 21219199.946902856 50868900.136654176 50187144.95052914 51940301.67012166 51204867.07360185 4321417.245589448 50637627.91635253 39203137.60388486 29695390.55386525 30502178.08168496 27988222.871517133 50849672.730227135 45979830.098856196 13444448.256785689 27521342.447294798 16607696.071246402 27190927.89255854 29135603.189709514 3504192.317335424 56212371.89317493 107200475.18184298 55498565.31213991 80120167.4068187 60954745.469921164 35360416.86544031 34574826.49909382 129805546.04497361 40011233.01676197 52257903.10941914 14233668.635084067 33592238.35018696 47860380.04497859 23018064.90587707 50890081.76240393 51377908.88962039 30861415.411047522 51634583.08960729 52486269.467722416 47746438.390932985 6084407.600175917 101501068.14764047 48152324.64301494 49220099.94681367 29950465.904596962 52053619.96661486 37748584.48126207 48106829.63815494 28609692.565978583 28339700.554073516 148291672.58179793 51831077.231062695 54137193.966051504 35812464.585786425 60821899.45870169 53910154.197637305 30487945.659357898 14952357.804856194 52197464.702793255 50819261.67328226 52298049.004170604 45708672.75459714 42799552.71467563 28011081.898261525 51927137.52344392 1702176.3565247657 4718124.056214459 91985536.88677454 46183341.22275124 52928325.30586798 20495800.27868042 37624864.37349106 105641788.47267172 50581743.84825423 87405384.14057598 45070821.40008816 54772856.27126078 16448665.772292254 115974078.03470701 53585534.113091365 50534475.6710956 35156816.19304335 38618568.10465919 49199302.07051293 22654034.624286667 49302397.06206953 51986599.92968524 12961171.116155084 43430218.22201991 51605711.797339946 52330138.01361273 34058982.819894664 53423663.87659699 52453341.54981452 54349589.88374925 52906237.50721129 50454467.449372955 25908538.140382886 955319.686072835 4525025.5208342215 48366247.9615697 51062445.99800303 33387800.262882344 54913300.11541046 35742189.74654182 37744471.59755401 18801588.27569413 21866336.418032147 49691729.02829237 25565136.944359098 11597713.263546234 15681584.953550566 19713866.545031425 55191280.87777848 51179424.606159426 46831490.481663875 52499015.55776286 23621526.178169414 35959679.228616074 50929720.3147627 36290221.17832685 69526647.0313059 69216348.20176972 34263544.622507825 25493857.14696022 52265139.28605817 49345348.90798479 28606005.37955773 47302601.303017475 50887039.50250186 46503196.697179966 7181549.030575681 7058879.121512417 32098136.25105788 54626290.37336159 49340263.21047893 52221630.610886365 11993427.096000608 45998735.14477174 12042235.85028312 38495794.98511722 36844479.155603945 38681129.02161896 23247852.572689883 15913421.726080757 66104755.59283733 12504327.697573496 65114457.25582903 54751747.83601573 49171192.77801914 51191976.032153025 59539656.71921107 24654787.056909584 37106934.80133614 7247467.052451236 40006882.819071576 37421480.623107225 29268685.34350277 60141567.62756243 49287331.2863369 14575442.658768611 17994029.09494844 12058163.099216618 5041281.033609955 31023012.80646186 63580046.85861531 35676770.894581415 35549680.97551335 24308558.9648967 53761342.48406414 49702130.715638705 56827031.25641397 54256922.22109066 18673536.8529523 33994282.96317174 65923950.387062214 49706715.312807 4366787.907614576 47707660.839324154 51055059.42998065 34330223.744119026 55349872.5817682 77694914.2773757 3687270.602555762 33349224.68392669 53171672.03135184 50912152.00621262 50808784.114304975 63659266.26990023 52271156.05579668 39154345.28679525 37892322.08091701 26395896.665834486 36529620.26731184 14965642.851712916 15071749.70276767 46945302.17169155 56900288.086871535 7120836.863097062 50493150.2109886 41968102.72754878 53358751.36624518 51684574.30756183 33635424.881052814 27837280.52974341 38707967.5349636 47334834.370175414 59524105.202630475 41812432.08210382 64070260.59167217 48213448.06552864 27952081.52402006 31060068.380168643 51323160.588703915 31839015.896629047 50962378.724749744 59298507.28073781 56481893.34040293 14082036.708528878 46541530.535363965 49092961.088430904 56127593.049100906 39345344.04697217 27336746.197490495 4838493.78368215 40201578.70781656 9990743.268126842 33822186.180276155 48086080.85964381 20710357.894937765 18626868.968850456 48971397.37216917 33748487.31965632 39758118.20597992 61717712.767542385 9672441.54541827 53462971.83929944 45565538.078515 50656898.40691588 51291211.377228074 47996890.769473925 43641432.815850995 49897174.9592949 56143649.847425014 23953113.031041484 50818560.20752982 38627755.27212875 55177781.27881668 15396772.02277886 36045214.06898249 24385307.53824593 46981648.18901584 36447243.03601128 49338067.972720936 45811951.52050712 47965626.24194377 39159876.887959406 48805738.43057361 67011026.043368585 9561209.160446148 55755614.451941006 38033798.896086544 36761327.56501953 3918576.9533518157 40577603.732826754 50839341.251920335 53103610.4201294 67619540.65280181 45070638.11269074 49939810.579817735 50855320.7169157 48205805.79269142 56216499.39969514 12245126.72980187 20761144.343874525 50935804.50750135 49245411.42132185 48986519.68589972 8016103.042459013 50951220.79168107 44561221.34487954 33705113.26791866 37469148.20516884 37485718.39654722 47143365.4118038 59591285.17565676 63375119.486160666 49644438.70158778 19281174.6109576 30559305.25984268 9263217.308768345 51477925.628627025 19867178.073012162 35300438.2737886 39037726.9637853 4266266.660677792 49067477.97412493 38792799.059230104 45766038.523292385 52359136.63158139 47137534.7851949 71719312.37964846 34888522.61287914 30495442.66402648 51974042.02223264 47511521.91603616 42864779.85332695 16268100.448320339 48893191.52123611 29120056.31922899 48968593.144971214 32275873.454865344 30162113.892647687 30751931.27932575 51331240.924538955 14104566.167311532 42647404.37137794 52340183.93201311 53449567.1782618 55240541.967894696 53291104.85984372 54741031.016221635 16338194.975877192 53643247.888951115 25516728.845198154 53393489.854703605 49768693.54578469 52371285.18190717 44879870.91830904 53746130.98568636 1977724.986887635 24061671.993433658 28448983.071331605 4899607.319311269 51149521.308243826 37686651.59193747 54157618.93965886 49116244.336736165 109537723.03347042 55614530.835747875 14539229.541415932 24243706.611080807 41936605.663456485 44069986.92415361 7675886.868047437 54926709.59139265 44248326.01515768 25392481.954133827 11309666.44995377 10316790.773531219 51858541.466305286 50073023.95054308 59900674.91745892 43643986.884125195 155610945.19079545 46816292.71478964 54917557.573681764 32307409.765781984 51466095.49314924 33947337.04550825 76619961.3778066 45689462.92668318 46800707.04288161 39911703.230094425 2478018.53952164 93196934.144046 45175696.460551634 45994070.665531084 50980537.35100561 44870516.64780713 50288022.231455944 35474148.15876861 47304574.88890635 28643181.36849571 58872967.268074185 11656412.408871358 54874321.675189495 54266243.69010596 60750677.80024096 52171291.00012573 36453898.9469232 53078538.274450265 37334516.60644684 29950460.133029282 10771487.6902313 42433204.85565826 24201080.09968271 52369211.75471679 41786885.21243981 51231092.80050519 53397017.49707936 52116233.38836129 53830137.0218872 51456151.93163803 2024640.7693544102 46897794.555320695 55417357.94311763 48741024.26029869 11186215.975676375 70996959.87720864 50260943.02643931 35912200.12432458 7330908.704091682 33003170.094957564 51094309.201534376 113784486.07210767 47726515.26459401 52000475.77473653 48637250.46054132 50523528.10560452 49823436.81367844 53860870.2188238 51007062.256748445 49058911.61221276 17522117.339593627 42939435.263009936 2991317.9819470267 40231947.462479025 3256776.5168789653 15284536.85712098 13439714.440945014 63779857.86301038 39736135.96905347 55329974.71189298 18879745.151130755 49419405.18019546 50623680.62778881 53182416.89998925 45584363.44698132 55604780.81458349 53375810.9523509 51787765.71602978 49690612.630649045 20995375.696152072 18526161.114114854 34867788.979575604 11584203.581927141 34778011.58790314 55603137.23204997 41732955.369795404 8479859.257810365 66542591.22003114 55002041.09991215 42092824.60341043 60952565.138934374 67149535.38757835 20834483.363983765 49896599.8018665 3358095.023201908 52401896.26935072 107793759.16662309 56488892.34229729 11372370.867427668 49786108.27765267 49475392.768180914 45872136.6008205 54693997.825708546 41746254.18088061 12822447.394629797 31708208.94851255 53623460.11232479 17674244.19394517 50062916.25833778 28435337.259387914 50931365.761295326 49345117.723692104 50661543.22562823 56943176.56923601 54558861.95872055 49195096.32704128 51899702.845803246 11441541.18537007 67314178.39860144 47711268.01410085 47466585.212226704 10516865.170604002 62397360.04972551 16242170.945975417 14286550.097157111 34577918.02944832 48593307.11385772 7881739.129026401 49338011.84856354 51133775.591461554 27226504.707222484 4768326.836683903 50719205.30436411 13916464.775602601 62340304.554875344 3190145.330419741 75650351.77891363 51700628.62681254 38671549.44366718 52543365.05295471 43716389.47192712 29659553.989741053 55879436.429111354 52124008.085581444 29621813.386036903 47831515.12291235 47574702.79557827 6992736.570947717 36403124.93952611 8181268.808076601 14442497.690968603 53357911.983689345 53189866.700538374 20359835.145425074 15366033.121685999 55187790.959142424 41034054.212063394 49695046.059609435 56097247.13531323 37829142.594776295 48645206.375731945 50661240.17057604 33622593.75115972 20495042.042046648 40022376.94484639 65848534.061416134 47726771.896117754 46961593.63744907 39575666.551609024 2558863.9998133346 83177212.91659035 8646725.901391467 51590851.74348581 44690618.59308049 3051607.428695137 58654697.29576253 25288251.371862125 38901376.492869854 30271328.33733477 45438025.488087125 53366224.98898331 51888888.60643023 30347838.84267242 1271216.914413006 50814536.787487395 51210512.89593813 1113564.4786977863 39350743.71898505 63328991.079187155 47338003.90864407 38040115.5537374 47113393.70678811 20871725.085193418 51666990.865028806 46379562.695549086 48858000.31269539 58861162.749810606 51857654.134617865 18349871.207921844 20938449.114814136 18084368.317853387 68684063.45979881 53756588.86484684 76288530.67196216 57041259.086547315 23505858.647032402 49620050.64620902 52542719.606322266 23039610.09216886 16722992.730996685 48133952.42712672 50510641.09267761 41507042.603041805 45667618.24446549 13556096.215382643 50413691.92943057 53386585.22864987 6172340.853271642 40694176.63169587 64611599.62981278 49138165.72994944 50665869.370436184 43258489.21913054 55296608.41201043 58037768.69429974 7893990.334174033 48693084.449622974 101668845.97459468 11752153.068790676 45994295.97479541 38089454.53681174 28286415.58451124 28057768.836261585 52210267.60109048 52855962.87831268 132775980.98146988 43882006.03772163 52033312.31757047 51653180.32977911 6425875.746718417 14064815.488913065 12580124.808283802 50285185.941915855 37877544.30474474 48141683.84553685 43381753.24284003 58828579.0446479 24849861.685181264 61044783.8032911 123347571.78529805 48764577.72552653 18972147.602220897 37342534.64341416 49608901.59671567 52014605.99250284 34336687.424331784 33369148.93824142 41516921.275550455 58560378.45471954 48932506.92196415 40683053.98903292 102740693.1535764 51545333.35852471 3122369.6695277924 27596688.52132068 16275468.285803199 49963974.782550566 39277943.296692185 4941757.611710975 50389718.36665583 7675793.749900991 38100517.94554054 27510124.19619219 27094680.522142187 50973139.25666477 51682499.25631156 18305296.57071908 35489081.863800064 51160099.74718013 33677408.24060083 20561296.729907222 42032045.96241482 54191615.51805262 20228406.06641563 13081073.421842935 41572380.48196003 79931946.54450896 49330115.53811879 53034728.555152975 56226388.9869233 58959726.64789306 6927840.023022594 55746966.28031843 40161363.54478728 51766102.81968551 1362691.9362778561 15368428.075047106 41113284.07092531 35600212.997848384 56781447.64619101 55226862.583065405 24463782.594831653 44174148.12227182 47803949.71550208 45641486.03326786 46326773.98178235 47642334.183535464 36907043.40202326 156768971.99723452 2356642.6885081325 47601001.611721046 21597443.765816648 45790324.22304482 50866317.581804104 25344558.98908406 59327082.74244675 51679998.42200057 62948620.836041726 56029404.114577845 62272267.69649061 124687546.83084728 50055166.30928388 49975409.9168723 40872004.35494038 40836701.802022085 48878548.67770936 51943726.50035584 40817090.78265589 50640474.68675356 50000073.323242255 1930352.8277702862 35820084.31738629 94037966.79556273 52380662.11185319 55956818.56434936 22678559.24754404 55413776.182791166 68290907.55764015 6182491.6694968445 53031588.12446579 46971061.91364874 30405617.01306244 40304694.75967796 24996834.684643384 3131432.951198017 38886555.26710581 14840135.148991613 49944101.874793336 44734119.44103568 54150105.29006231 25305680.61725058 39357314.752152905 49011771.41020732 42433553.24901454 34495795.89206924 118761010.93591687 59846956.779190525 50306419.686897136 13994064.443566507 16258254.36999535 49722921.23575775 29730528.888676465 49942654.84889826 52377078.47683652 62011998.10971283 52273904.697694175 16187551.358900696 12481981.950695064 46699342.85285536 35096345.16017614 6186202.847197303 51492884.200523846 40941062.41998223 41128307.691980906 26965756.695136737 21194944.498164818 45031964.82329561 48376581.03157203 51843877.73510691 32879146.85099969 40887422.74708452 47604365.53508968 31095050.1958695 46095172.405583724 33811023.04715839 53136069.98634161 53886329.219377 43987692.82099857 38741485.2835243 52426757.27585181 29402482.690853797 47001666.12223486 19876875.560906757 47539264.514008604 58305745.793358 51444647.14585049 36888708.68081265 46812497.054601334 50050097.96737215 5299598.185396189 50747869.9560566 50181348.163788736 50015569.450366445 36872192.06780474 2797214.3674226254 48524725.39523682 6639443.755692333 26988273.068874534 42997782.2920368 49488803.08632231 72941272.0173465 34967339.018045045 54222146.1682522 43533985.98698504 50449813.460848086 26902452.237439997 35944635.54754784 48670019.865165874 40633211.669738166 11094280.832448866 39569119.01794866 21014903.23536341 46061076.77352038 45520989.25489625 63257972.755620174 54479492.60843133 47177471.55871043 53690490.70883297 34551897.63095807 18747541.6464902 46720530.35572681 20715931.73280186 24600044.513806887 39819439.2051707 45424177.50621272 52064004.851081535 33885734.52285633 64296145.88314597 24800067.248296663 38522551.68688928 13471075.427726578 54869734.220141575 57923788.892116785 79523153.85933886 46762781.50921612 41010813.30321245 19864058.315505505 49828076.5616082 45360168.17903771 6869672.240372306 58593270.51352364 56565951.0210957 136515370.17794243 61388022.515011676 36469388.6481676 31733566.06580679 49314764.80394074 48489345.3381388 52040664.07813696 42041383.66133222 6856569.762471838 41473968.574914515 52623646.78419388 51188394.46583835 52425447.688852444 50652368.924175225 35817627.095342785 20377927.29924862 54744734.54076937 59304452.22277715 46224689.88648262 58027905.05075724 12375971.97462189 48649979.00904152 44068598.375770725 2123965.023602171 8128762.457657355 25539564.12467518 27062692.722261015 53975526.104366526 49785052.99139333 51874313.749073565 11226557.191309638 53982359.89915209 38222072.73736352 31239196.353864837 42806286.963946685 76807629.55218628 35401600.427912265 54061000.3443033 48377818.106997624 46990019.474715486 15397772.781347524 41128946.73115596 83543383.06992155 41394889.21735107 50231296.41334796 48917419.840551354 39272484.5183693 50380212.59125268 49500555.63718842 54644826.297315694 49482614.804485194 77948485.57621789 52409759.90104945 68244588.22634678 19939178.428300153 117834987.88762605 52700741.34249304 54700502.05165727 22793385.468825877 44592487.8052757 35811468.549357794 39526500.989915304 21954527.957580768 2228425.7230351246 2138402.495668278 71657224.72624654 51098884.94302499 122665717.08826692 10583629.006457267 53646169.19070238 10062688.06047399 42016650.277955465 45612978.03093119 71652864.8948928 49303217.752503276 52325884.48604795 32243504.51654026 76278565.86507413 48121061.48053309 5178947.918075067 9884467.074801583 47111359.7801326 52475426.426028945 32233614.65603404 49889482.51010372 85431297.31296197 42556385.92963955 20780262.952597775 47086260.171303146 51300460.59793369 28646110.03675537 111141884.56178066 92915623.03654075 51952309.09732894 44599009.74931778 43682302.67865193 44203843.980074905 36543665.22660482 40825229.87106687 55385824.57736857 49762304.893698454 39287090.753730014 50430590.35565262 14901857.98251826 40198796.200226106 65984413.24483863 48415036.1724146 49691961.87560962 53508650.314780064 48640352.36438975 50181148.06763022 60131837.462209366 12983712.3151952 37306983.671291105 46481613.63916256 59820656.17363304 55805373.96875197 25041437.62558094 49609903.00851001 47038805.6487952 32607043.300955545 15623763.521758273 49171210.90128629 70838699.36100873 40252143.98983002 38473806.89120506 41201583.921981774 56558385.900186546 46145287.91641384 58085239.55460182 49606419.008244745 19382039.2011385 105798914.94587013 44840402.744353846 45194277.69318387 29691536.1466249 51898426.86509331 31492050.250468045 48265252.786625676 48162919.37973683 14424246.283003792 37410454.75175663 57746082.87918922 42617634.27458147 725292.0931351878 50142720.02710023 48299979.09576499 49655048.342173934 107334432.51851963 44226815.48531967 4333370.210502666 65741417.32728383 25556049.22053091 2422385.8324488243 40992117.90462591 27581072.7802938 42459776.71053713 48555334.40949881 46773689.591219686 19886127.430634152 49702313.845773034 81860184.29400718 22026132.844455246 31325648.577355243 59382339.71695165 96825255.26852478 64719492.46361749 20690034.60991229 42130142.56629776 19266403.67419246 35283304.398590714 25311052.71616235 27428398.52808211 21353221.707548752 49360444.9093064 4899422.978182004 43437899.263492025 20245394.420993466 51949696.10034473 42090799.20395922 37572407.699983425 26175046.727893807 42859785.03826084 40530532.1313116 50363624.74257118 56803850.93782373 49074014.365315154 49134801.56744872 1956292.8762319288 32887950.18105111 2324813.6751237074 33251939.57353873 22078548.802493434 43893546.813965246 36331061.78237272 37984426.313478805 78867226.8028038 47669348.59810104 12954612.037451034 7152854.792288927 52905280.959659934 58281444.32840277 6479019.317705671 6714056.429916654 5167583.717493093 5551861.820546236 29322182.565343596 44237170.5627125 46429184.216286674 16459743.145978086 6493352.622612194 20221997.345215484 44449499.61425963 20842022.45021075 6290398.388428276 43035804.52511305 45328558.26834936 96488875.33686171 36396317.2362827 10914550.326447425 50477105.05806021 52716984.369093016 64129457.85091248 62937881.069955386 27900994.033454757 50848327.94493695 77816332.95904256 2801941.270655028 49754853.16253182 69142230.29522868 1299608.4634844495 34244937.97382813 46272327.33728545 2165708.542441211 49783149.63724415 32518844.240009386 55180922.81398027 35587663.05476815 51312772.833121434 64020212.502166085 21156024.7885291 3752242.0928243534 31104848.26866178 48871282.22767083 21167682.505034246 49317937.50761073 4604879.257463733 28770608.743451882 49940735.965003975 47333810.59610039 52729828.836875595 48231445.642922096 11893581.892967021 45551284.28544966 4893126.412746403 41297231.057692364 34263086.57010491 28819102.98742338 15578360.105970575 2547529.8616877277 11600145.794580957 58610682.175318636 47297317.92388339 49659124.98491332 29417569.85894075 49038904.92045016 44282986.7240816 70722744.58242524 53521690.90114773 43537944.91560694 50845838.3939191 46406114.66152667 29304023.651744206 33242263.62036091 52890714.16858827 61926057.40200751 12139400.868703151 12197234.84349308 49352532.88936282 85465671.50204493 44567974.13210573 46914029.43352715 39233844.41595661 41467992.34761571 50533037.34518412 58531454.96827676 53262494.3500742 51004487.33611096 48769857.72299215 68926348.63728939 48026158.08261143 28079512.341537893 47983455.01612641 35472462.6122501 26252730.165373776 50316803.61472865 12139671.38243436 58345468.41994755 4772924.068292698 42938232.26153878 18261796.372351173 28626355.100026492 37062094.24313358 39338399.35840775 43139631.17517981 63826439.95814781 28749171.44595891 70418360.0638734 49815007.039636545 50219729.256718814 26734551.761377756 47659563.6753923 46481888.25208085 26082972.064900097 32480515.526033804 49646567.3990478 33626346.209556 50907756.03990356 49552900.92481163 49638329.268382646 35215606.12250124 61945198.57527377 42104769.801595375 52738573.859126754 64470320.31598867 46785959.76209878 31780377.977356713 2192720.894699751 48769133.93012079 58130470.823163144 46975409.229599044 55615998.651072435 58089595.03399575 56299940.006711334 41390324.13347334 50725145.342275485 50891837.01803496 22456932.35159887 42954676.020690486 8842582.158476297 56328020.697648376 35148863.068128824 22505991.800705276 34367611.705079205 50581147.319090776 65714156.50312618 46802111.06646435 41095995.34092003 42357525.91686941 51757483.47375842 39498411.04738631 56963365.965985835 64282323.73707297 27554324.531082142 10186117.603867592 37814352.712701894 210957885.59573576 52477900.898927376 43643358.41956466 37910290.97880191 34639362.24258179 61083715.831430756 19147174.69180541 49555900.73113956 49289054.5918663 43397740.20768114 55329023.26319621 16655703.468082782 52348867.08867547 2950448.631988736 56631799.762360156 50602937.18546627 23755498.46811765 65610893.89413344 32058225.073095713 33681132.99248123 24209041.521324985 44561504.24901832 41881971.06595117 49409777.8181639 30899106.700529113 99424455.30603968 52816803.33363231 60801043.319110185 134788222.13706222 25026664.328247156 34266392.13635493 61624392.708973326 44247267.966210924 51780277.05733259 50281873.8841739 51371249.714530654 14742546.082317295 51154275.73183733 8146814.608458974 42071910.76574064 54668517.62034976 8972335.76910151 82411179.82689178 49729775.87954966 41956940.10737647 38583664.972496256 48884910.16010402 122749071.56135784 35588817.79198436 42255905.27285097 37909788.929151505 33239449.414777264 48514899.33696021 20918658.173887663 45942037.12700061 47757442.653225966 29548251.910494965 47180749.804600336 4609714.183520319 47343290.2874363 55260704.8575451 3787411.1660573105 36021276.83084965 51989991.673765056 29135258.72570948 35874996.613974206 12193272.028652262 17741305.324158587 51551552.681950495 24672789.786602937 39125493.994193144 42870831.92255844 47761779.01524665 86813885.51867922 52483275.25483795 47157486.712807484 5213364.424081252 51430673.13630143 46597640.50711022 49084032.36739719 49282012.371836856 39490100.120998815 26834834.662623957 28442008.03379107 41160438.23053269 51890714.650955185 1550876.4318875542 49357244.99655273 52690275.75425467 10482447.691939875 47052502.720590025 42742188.9546641 29895004.0107551 108072439.59508063 46206665.30393863 6110947.918124915 31487787.643751487 17772491.723338656 24733570.658181753 96851389.48795235 48453640.42854949 50926595.391578875 39212804.656717405 135138284.6964539 48253008.59027582 52772795.290232964 46852828.34602968 48882808.61086696 32376484.42952265 50814046.15236698 27444504.975957934 43340586.70571686 68820659.18998344 43671241.29057902 45980124.26399414 52243179.257420085 99597838.74464086 18334945.753010776 43307161.0712524 75610689.4768031 74898383.64171974 51328262.155446 58041048.75714172 41416828.471501745 34842767.43697581 50407020.95130685 57836388.22894157 42735333.7747065 48868705.54659513 46305264.76386061 43461752.70674752 42506072.19287348 52304271.09296496 52185884.45785606 32650808.26430886 43569205.93135495 53550015.82877755 53079496.25413438 46848143.04636799 15330203.308488296 43762949.545474224 48137656.98919571 36971648.97881164 66209254.79775114 16539542.831301374 3139249.264843137 40809037.827976376 35864399.94187264 3490588.929838462 77810749.18528537 48506910.11546714 123483883.40297575 74651698.77451383 38915245.841277435 48735686.73852675 52134834.987940095 19532961.41014272 52831512.44928491 48504609.59433361 3534191.0671745385 3371305.739162435 47759112.473903336 70853126.52163725 84203848.23570198 102380954.77381006 29228217.017251104 51915083.61136718 4701859.790605804 51526509.972708695 10024497.778076718 56582017.595326744 41626117.307317756 87878805.3788016 60523383.0454529 49202370.556179725 82872373.23498158 53101677.75182773 35275192.612194076 19735996.37298302 28401627.079093926 58062875.44409722 120828990.33179569 24490194.92064264 36130778.130859055 57055921.932467446 53191498.2893769 19285395.9536584 10283648.04426065 29891332.888345838 28351274.760890495 30258038.822143964 22914302.77896301 4943693.723019661 49627868.22088395 50012920.71212864 49973683.374743275 60567540.924427055 55454326.60124192 39134211.78014196 51358593.600523986 46719346.821632706 17834643.993835226 52527852.310391024 58125969.456072785 42258200.67758592 47110936.88799877 28741299.564040665 53261442.92259836 36125934.04878389 46161261.01537251 44603927.22215528 52139060.04859442 33981698.851423256 50658067.96903193 27015970.22572835 40146548.790015735 52380543.777802184 50528070.38183114 17889031.842166856 24948668.661607936 37510434.912117355 53730396.1623797 18092671.297659516 49235433.72156656 38662953.74314986 49928253.955058075 69964460.13950804 51943069.57700782 52299070.59941591 76934965.41353391 40256428.59473794 53382884.27635354 29758396.548190553 54904155.56050062 49139873.73132015 43786474.14823829 42911626.87938434 41250493.60625058 19023735.96020149 59298690.407721385 52770726.36638228 67147181.3004341 1875058.537820599 47503340.11913937 19227219.433825694 68313111.89201388 55650636.28718803 49834058.2677636 37142300.933870055 6158559.471935299 13723969.61658687 52539230.19499252 58122713.24141433 30599827.943037316 19716007.57526129 55218789.16798918 15087319.978716481 4340439.381046981 26415746.934254088 35993764.80821457 35476022.3825926 51291742.457704045 7268516.425640926 79879817.41116183 54274043.086601935 54314073.99715039 38835475.620572515 44430211.39100614 54016542.5177822 55526700.28699319 41405236.52213736 61042653.14745442 54247381.64292583 48511995.92671435 48529354.3267942 20535939.092441235 54592212.952904835 33497957.12421375 33134797.012226116 47558795.668419465 47190922.78429462 48349380.54905638 30019839.275595456 37228608.9301843 21393090.066378944 35658066.9564084 50341923.944823764 12663266.476664642 32091678.982695453 49545114.296443574 60982955.35541148 41120047.6089191 41987302.408065654 16594942.030078804 31702980.575460847 24865291.586835198 54945046.632448204 7185177.412410233 28960903.991910562 46323871.23123519 7701266.920703648 112950371.51551078 25677105.95422173 59754107.01779421 4874797.647266652 47473971.75521315 33648915.4349967 16492148.127503268 38434784.186060324 48183114.38745743 41246264.20634939 88226473.71963146 12151092.503187632 35848788.19205669 52699558.919037536 54210318.85253835 38604323.920809664 39405138.981148094 38693293.929011896 21083411.51216408 46646228.586709276 27442815.51756242 1911955.702816027 2016513.0929639402 20499561.333479237 49927850.806778714 51729613.760758325 39646707.615495406 46686529.984094314 38078259.68186467 15578073.568534063 49004566.92623179 62288601.500025034 8310139.97094857 15640103.877681172 47378375.31338926 50970808.26056897 4758685.828822467 12241011.210849907 49551496.63793796 27538431.83328534 34706393.19552953 27559864.19381217 24986453.265266497 36319626.80245294 52778318.88944691 45369396.40803603 74317126.28951274 50077362.245290704 50864432.27051845 40379328.96186714 29577753.41438861 49767378.96288721 32601198.637366913 22494951.732174456 30715992.048602045 33296212.373678442 33121394.010303065 24668101.78215932 45410959.08645926 58051534.338314585 6169653.122066698 54369739.44933914 1855241.3953874977 16095659.642397225 51464044.88241973 9449758.05835313 70559980.4933357 50001128.07686699 62354569.17038132 50779198.64928352 56642596.93300579 52258651.50629986 51511059.93595534 40287515.56045364 51631954.98305688 57960363.97152765 35872419.01290874 52103279.15012864 50224793.40671585 19524783.315877263 24951807.042557366 50552745.56782437 51899641.30422592 49598969.90819962 50109389.27823306 58766787.7828729 76611389.56313589 19307636.458192106 44541249.53620656 48451014.819212124 40399864.811450385 51344251.40136007 49441234.48534062 53521394.822472304 20381306.1450766 52423969.32782764 28762899.970115688 49723804.91843668 33501145.453172818 50637733.07986303 50853713.38143038 2298612.3563978826 49483905.39264862 49517974.24416013 38667828.52550296 74674971.45279868 51544361.7744699 47818389.45874562 48819026.02480724 49317322.15013986 47839428.45205573 18544343.781279787 28526056.932550136 52332256.60279877 46290647.991199836 23388151.196419075 31432519.844024517 47778735.244705714 10074460.96609818 52287607.447558925 49377174.00364317 59912963.341179356 50165967.04311827 50752481.63908348 51571125.58882565 33398911.088580366 51555750.21415252 51772053.91471716 28901614.64525046 52094721.58508612 47743492.13169293 121242416.84276874 35916682.101660624 57570462.33232086 49793080.93151117 7308601.103763835 68822149.20635371 24580153.04162674 20383608.569296584 49546719.80862194 36981826.96281772 53601497.70886988 42264834.490978286 55202050.06547769 49436069.226568446 52335278.917498045 50271982.65198925 42725159.18618132 36877568.952501774 50593353.62363204 52776465.0884707 20409005.90554932 20365894.588680558 50001997.1853118 3724789.4078320316 52010635.230413444 53605511.28517161 8300635.072641552 50979736.41329302 51034822.54913104 52599483.13467674 36672669.935677715 50922153.03256913 13105135.906199878 64277829.17068681 73271176.41304156 43843345.35452428 42231463.68604083 28591683.686755158 15352206.64308691 49434872.31332727 52017153.107356414 5692080.125684514 38345970.877729505 25496632.845377546 44794268.660825424 69476823.59321497 45146854.22976176 13713477.422081549 52201590.26253599 17871409.529046103 47367349.5807542 22194311.462982044 52004321.70491528 44220676.68791365 52263333.64798617 56456514.2147484 49874160.950131 50118405.64297715 41826910.15548592 54403685.61729147 33948041.89059812 53864332.430732474 54859512.06530119 36003954.44194922 54840771.27907608 38985614.893466026 21540358.45462584 56456387.960225694 20985652.20618882 36366941.412934534 51453806.217374615 37452970.29931346 31911745.15789152 45090396.27202169 49109706.67960873 46836889.33429482 111882016.81034264 72298860.33844548 49548920.98212021 33802400.56478944 50344948.9345185 41382255.14262162 46639422.190851055 47171653.147588216 43864672.07013275 40098849.21701799 36576287.93018445 40138823.89796794 61810108.72754506 57715471.90288622 38751603.076004244 48814396.54025789 55501101.51387141 50035768.82700464 48195808.33652401 33055393.11104407 68517073.09239715 50936155.509839185 45288847.40627344 48100037.5811764 64986478.12744551 41007717.767534494 8800051.034573521 76348832.75295237 48445812.75079718 49775816.971152045 3174103.9565466843 20307474.098274983 36067374.93472411 52306617.37583481 20166338.385594178 55722606.22382896 49526189.09674287 52561425.92658109 58436938.05081009 73276698.82406066 36885925.28250083 46965914.784574635 39738975.90236378 23875780.293869656 36317017.81078827 48889826.83788831 43807564.6967827 41643125.09379655 53049017.94371211 53146659.42810249 53451366.14113852 46333043.861672275 52240677.88503452 63396392.277178004 52851092.29487347 20132426.26406096 14762387.076023024 33912815.9131124 48131864.698639385 48269611.45571986 48334632.32726712 52835143.05143399 42816774.05043524 17923097.739648484 23656263.02907143 50209499.51181337 28416822.944882225 20221234.204713956 49704509.85855007 27989798.913740203 29331420.812768072 10069982.631786067 21777495.07575591 52388474.07393341 48345188.369599305 25330437.322654765 49712031.134616725 35305576.97193632