# vtk DataFile Version 2.0
Really cool data
ASCII
DATASET POLYDATA
POINTS 2689 float
10.0 25.0 0
9.749999999999998 2.5 0
15.25 2.5 0
15.0 12.5 0
20.0 12.5 0
19.75 2.5 0
25.25 2.5 0
25.0 20.0 0
12.8125 5.0 0
12.5 5.3125 0
12.1875 5.0 0
12.5 4.6875 0
22.8125 5.0 0
22.5 5.3125 0
22.1875 5.0 0
22.5 4.6875 0
12.8125 21.5 0
12.5 21.8125 0
12.1875 21.5 0
12.5 21.1875 0
22.8125 17.5 0
22.5 17.8125 0
22.1875 17.5 0
22.5 17.1875 0
12.5 15.5 0
20.0 15.5 0
20.0 14.5 0
12.5 14.5 0
9.995967741929068 24.63709677361624 0
9.99193548384352 24.27419354591668 0
9.987903225752747 23.91129031774724 0
9.983870967693909 23.54838709245178 0
9.979838709643776 23.1854838679398 0
9.975806451588815 22.82258064299319 0
9.971774193518987 22.45967741670884 0
9.967741935433088 22.0967741889779 0
9.963709677331826 21.73387095986437 0
9.959677419249761 21.37096773247854 0
9.955645161201263 21.00806450811359 0
9.951612903119845 20.64516128078604 0
9.94758064504518 20.28225805406609 0
9.943548386962053 19.9193548265848 0
9.93951612887461 19.55645159871496 0
9.935483870792845 19.19354837135627 0
9.93145161272193 18.83064514497369 0
9.927419354633525 18.46774191701725 0
9.92338709656502 18.10483869085204 0
9.91935483848279 17.74193546345097 0
9.915322580408823 17.37903223679417 0
9.911290322326463 17.01612900938176 0
9.907258064267786 16.65322578410088 0
9.903225806182238 16.29032255640144 0
9.899193548092457 15.92741932832128 0
9.89516129001441 15.56451610129687 0
9.89112903193036 15.20161287373247 0
9.887096773848848 14.83870964639635 0
9.88306451577868 14.47580642008116 0
9.879032257707456 14.11290319367111 0
9.874999999632388 13.7499999669152 0
9.87096774157541 13.38709674178694 0
9.866935483520326 13.02419351682927 0
9.862903225484896 12.66129029364055 0
9.858870967443991 12.29838706995923 0
9.854838709394688 11.93548384552203 0
9.85080645134599 11.57258062113923 0
9.84677419328547 11.2096773956924 0
9.842741935225352 10.84677417028196 0
9.838709677185804 10.48387094672252 0
9.834677419124317 10.12096772118856 0
9.830645161077069 9.758064496936328 0
9.82661290301319 9.39516127118734 0
9.82258064496042 9.032258046437814 0
9.818548386911868 8.669354822068383 0
9.814516128856654 8.30645159709885 0
9.810483870799494 7.943548371954425 0
9.806451612739686 7.580645146572026 0
9.802419354698465 7.217741922862086 0
9.798387096668439 6.85483870015975 0
9.794354838615694 6.491935475412687 0
9.790322580551589 6.129032249643185 0
9.786290322498939 5.766129024904508 0
9.78225806445883 5.4032258012946 0
9.778225806418291 5.040322577646533 0
9.774193548368817 4.677419353193986 0
9.770161290304422 4.314516127397968 0
9.766129032236005 3.951612901240819 0
9.762096774198463 3.588709677861742 0
9.758064516136995 3.225806452329888 0
9.75403225807409 2.862903226668307 0
10.11666666610577 2.5 0
10.48333333385953 2.5 0
10.85000000105818 2.5 0
11.21666666867316 2.5 0
11.58333333336224 2.5 0
11.95000000131839 2.5 0
12.31666666820478 2.5 0
12.68333333056934 2.5 0
13.0499999971377 2.5 0
13.41666666013254 2.5 0
13.78333332331241 2.5 0
14.14999998971309 2.5 0
14.51666665948202 2.5 0
14.88333332845008 2.499999999999999 0
15.24107142855263 2.857142857894746 0
15.23214285711795 3.214285715281784 0
15.22321428568154 3.571428572738167 0
15.21428571423432 3.928571430627341 0
15.20535714279942 4.285714288023047 0
15.19642857135995 4.642857145602022 0
15.18749999993289 5.000000002684433 0
15.17857142846358 5.357142861456524 0
15.16964285700679 5.714285719728339 0
15.16071428553705 6.071428578518076 0
15.15178571407274 6.428571437090492 0
15.14285714259704 6.785714296118296 0
15.13392857114501 7.142857154199406 0
15.12499999971972 7.500000011211233 0
15.11607142832301 7.857142867079478 0
15.1071428569088 8.21428572364799 0
15.09821428549156 8.571428580337546 0
15.0892857140937 8.928571436252073 0
15.08035714273443 9.285714290622575 0
15.07142857134667 9.642857146133258 0
15.06249999994795 10.000000002082 0
15.05357142854956 10.35714285801773 0
15.04464285713485 10.71428571460605 0
15.03571428570876 11.07142857164946 0
15.0267857143025 11.42857142790003 0
15.01785714286502 11.78571428539929 0
15.00892857142013 12.14285714319497 0
15.3571428591223 12.5 0
15.71428571719138 12.5 0
16.07142857423201 12.5 0
16.42857142974857 12.5 0
16.7857142846084 12.5 0
17.14285714112862 12.5 0
17.49999999772317 12.5 0
17.85714285297952 12.5 0
18.21428571083795 12.5 0
18.57142855939082 12.5 0
18.92857141386655 12.5 0
19.28571427430228 12.5 0
19.64285713574168 12.5 0
19.99107142854329 12.14285714173175 0
19.98214285710808 11.7857142843235 0
19.9732142856822 11.42857142728799 0
19.96428571423453 11.07142856938133 0
19.95535714282337 10.71428571293464 0
19.94642857136245 10.35714285449797 0
19.93749999989375 9.999999995749876 0
19.92857142839276 9.642857135710214 0
19.91964285692271 9.285714276908246 0
19.91071428546458 8.928571418583031 0
19.90178571404575 8.571428561829856 0
19.89285714258144 8.214285703257598 0
19.88392857110147 7.857142844058753 0
19.87499999962442 7.499999984976929 0
19.86607142823917 7.142857129566706 0
19.85714285687816 6.785714275126081 0
19.84821428547457 6.428571418982778 0
19.83928571407323 6.071428562929247 0
19.83035714264225 5.714285705690037 0
19.82142857123506 5.357142849402467 0
19.81249999981376 4.999999992550225 0
19.8035714284025 4.642857136099819 0
19.79464285702924 4.285714281169751 0
19.7857142856151 3.928571424604182 0
19.77678571422344 3.571428568937625 0
19.76785714281399 3.214285712559351 0
19.75892857141964 2.857142856785682 0
20.11666666646139 2.5 0
20.48333333599902 2.5 0
20.85000000037297 2.5 0
21.2166666666204 2.5 0
21.58333333661485 2.5 0
21.94999999805711 2.5 0
22.31666666291099 2.5 0
22.6833333246655 2.5 0
23.04999999031157 2.5 0
23.41666665336712 2.5 0
23.7833333158213 2.5 0
24.14999998189816 2.5 0
24.51666665379502 2.5 0
24.8833333260793 2.5 0
25.24479166666316 2.864583333578429 0
25.23958333332243 3.229166667430228 0
25.23437499998316 3.59375000117879 0
25.22916666664224 3.958333335042977 0
25.22395833329952 4.322916669033526 0
25.21874999995567 4.687500003103358 0
25.21354166662136 5.052083336505047 0
25.20833333328796 5.416666669842317 0
25.20312499994325 5.78125000397244 0
25.19791666660968 6.145833337322924 0
25.19270833326647 6.510416671347334 0
25.18749999992573 6.875000005198308 0
25.18229166657996 7.239583339402762 0
25.17708333322847 7.604166674006945 0
25.17187499988757 7.968750007869894 0
25.16666666654491 8.333333341856315 0
25.16145833320392 8.697916675725455 0
25.15624999986355 9.062500009551652 0
25.1510416665306 9.42708334285754 0
25.14583333317543 9.791666677719402 0
25.1406249998306 10.15625001185779 0
25.13541666647126 10.52083334701201 0
25.13020833313536 10.88541668052437 0
25.12499999979433 11.25000001439681 0
25.11979166647349 11.61458334685533 0
25.11458333315809 11.97916667893395 0
25.10937499982347 12.34375001235711 0
25.10416666650693 12.70833334451501 0
25.09895833318476 13.07291667706603 0
25.09374999985275 13.4375000103075 0
25.08854166652795 13.80208334304352 0
25.08333333324327 14.16666667297151 0
25.07812499994489 14.53125000385754 0
25.07291666664035 14.89583333517551 0
25.06770833336538 15.2604166644238 0
25.06250000006882 15.62499999518263 0
25.0572916667336 15.98958332864792 0
25.05208333341046 16.35416666126748 0
25.04687500010878 16.71874999238476 0
25.04166666678705 17.08333332490666 0
25.0364583334479 17.44791665864697 0
25.03125000011321 17.81249999207509 0
25.02604166678298 18.17708332519102 0
25.02083333345432 18.54166665819793 0
25.01562500008643 18.90624999395011 0
25.0104166667187 19.27083332969072 0
25.0052083333458 19.63541666579472 0
24.65909090697006 20.11363636434331 0
24.31818181387862 20.22727272870713 0
23.97727272112545 20.34090909295818 0
23.63636362933978 20.45454545688674 0
23.29545454074166 20.56818181975278 0
22.95454545175678 20.68181818274774 0
22.61363635870555 20.79545454709815 0
22.27272726938004 20.90909091020665 0
21.93181817642107 21.02272727452631 0
21.59090908415283 21.13636363861572 0
21.24999999070893 21.25000000309703 0
20.909090898365 21.36363636721167 0
20.5681818062032 21.4772727312656 0
20.22727271532826 21.59090909489058 0
19.88636362288735 21.70454545903755 0
19.54545453222531 21.81818182259157 0
19.20454544067146 21.93181818644285 0
18.86363634917439 22.0454545502752 0
18.52272726008306 22.15909091330565 0
18.18181816691119 22.27272727769627 0
17.84090907624678 22.38636364125107 0
17.49999998161302 22.500000006129 0
17.15909089129634 22.61363636956789 0
16.81818180107666 22.72727273297446 0
16.47727271035784 22.84090909654739 0
16.13636362113641 22.9545454596212 0
15.79545453028867 23.06818182323711 0
15.4545454400335 23.18181818665549 0
15.11363634812483 23.29545455062506 0
14.77272725866684 23.40909091377772 0
14.43181816866006 23.52272727711332 0
14.09090907805834 23.63636364064723 0
13.74999998745307 23.75000000418231 0
13.40909089754563 23.86363636748479 0
13.06818180839043 23.97727273053652 0
12.72727271853859 24.09090909382047 0
12.38636362812021 24.20454545729326 0
12.04545453791708 24.31818182069431 0
11.70454544876188 24.43181818374604 0
11.36363635991656 24.54545454669448 0
11.02272727049761 24.65909090983413 0
10.68181818161208 24.77272727279597 0
10.34090909059876 24.88636363646708 0
12.7209708686998 5.220970869541787 0
12.27902913024896 5.220970868490556 0
12.2790291313002 4.779029130458213 0
12.72097086975104 4.779029131509444 0
22.72097086840513 5.220970869836465 0
22.27902913044831 5.220970868689902 0
22.27902913159487 4.779029130163535 0
22.72097086955169 4.779029131310098 0
12.72097086902355 21.72097086921805 0
12.27902913070156 21.72097086894315 0
12.27902913097645 21.27902913078195 0
12.72097086929844 21.27902913105685 0
22.7209708691208 17.72097086912079 0
22.27902913087921 17.7209708691208 0
22.2790291308792 17.27902913087921 0
22.72097086912079 17.2790291308792 0
13.0357142863834 15.5 0
13.57142857334916 15.5 0
14.10714285783675 15.5 0
14.64285714470339 15.5 0
15.17857143070267 15.5 0
15.71428571720997 15.5 0
16.25000000702564 15.5 0
16.78571428904744 15.5 0
17.32142857412979 15.5 0
17.8571428511085 15.5 0
18.39285713616606 15.5 0
18.92857142211578 15.5 0
19.46428571101452 15.5 0
20.0 14.99999999601014 0
19.46428571160309 14.5 0
18.92857142040583 14.5 0
18.39285713577575 14.5 0
17.85714284336419 14.5 0
17.32142855637984 14.5 0
16.7857142655791 14.5 0
16.2499999775787 14.5 0
15.71428569556309 14.5 0
15.17857141150299 14.5 0
14.64285712475407 14.5 0
14.10714284117721 14.5 0
13.57142856006613 14.5 0
13.03571428124737 14.5 0
12.5 14.99999999867727 0
11.05174870516124 4.400114670337127 0
21.8198736809872 6.641970178959514 0
20.92157311399403 18.153805823398 0
21.75303950835778 19.33511974184384 0
20.81870380912595 6.464881167850978 0
12.71428767216352 8.47166071565414 0
13.8298320310458 22.43083112458649 0
11.56872117918853 5.860876034141222 0
22.81684697729273 4.206669655010897 0
14.39654590155298 7.242731472590131 0
12.29891899737501 6.217071635984727 0
11.66171848326101 12.45982944416881 0
15.63967480516364 19.66598115563786 0
24.25295117821906 16.33953761183872 0
24.44036487612226 12.16089785363685 0
23.2891155655456 8.497131274659651 0
12.4884901033275 7.96566729924624 0
11.57730746548028 17.18681738603446 0
22.16960807414446 10.38269815623191 0
15.78990230584875 18.36409448771902 0
19.56054310923605 18.79902003027107 0
23.48099940241391 12.14079131371394 0
19.90068163700711 20.67402306488416 0
11.15639170442941 5.512800212199085 0
13.38276213444766 9.4353881131295 0
11.95988433875429 3.664150072244472 0
15.4298269712912 21.0010894058966 0
23.37014773020871 6.674445379710691 0
23.15380582339803 19.07842688600595 0
24.11781128307964 18.96292177300806 0
11.7130364561869 11.31929689500595 0
13.8438271228747 19.90210698319279 0
14.50068025231855 17.93092719842321 0
10.75259482131575 8.812285752755947 0
11.09515306952689 11.50958596016441 0
16.82656233679489 13.02589973354479 0
11.44662950735253 19.10147190372029 0
23.62144686774127 6.097003428959892 0
22.66980507483677 15.6653630497189 0
10.8675899746705 17.91270802252919 0
16.82981561340859 21.34764457034607 0
19.82635176544026 21.19983407412324 0
21.09519145651637 16.91173584191005 0
14.75512049495576 20.37846976126294 0
13.24299619659935 21.3391929688153 0
11.3318592965657 19.99347778149068 0
24.11606045694929 5.990658831319679 0
23.82617150823194 18.02469249919419 0
10.73647636173723 9.83389897060007 0
23.27593937934849 15.24765600429115 0
13.73701595791534 10.85811460525928 0
22.60448165684319 14.60041412579525 0
22.08664864660791 20.33826819040098 0
18.51005524285947 18.85126343829536 0
13.01995695313175 3.732811277301561 0
21.97720401458202 17.7763938250607 0
22.69173833995567 15.94581297852307 0
20.91897146075002 15.99967146254259 0
12.88366395054911 22.78012518912131 0
24.28013309043956 14.08533610319071 0
14.67795511147309 21.47594147550159 0
23.84358749414378 14.8005355654822 0
11.86414867884706 22.95178039939217 0
13.93776475050277 4.404458343241933 0
14.97582927637004 13.45326383190207 0
20.57585899687696 20.03038685996468 0
13.0800910220159 7.447375522335717 0
22.84898834892566 18.39539430136602 0
23.72595034947927 13.5658670160621 0
24.51524523859804 5.658436879092463 0
12.60764230318236 5.821858842270064 0
12.44013690570643 18.6556815178478 0
18.13733306105582 18.87502078262879 0
11.19681258109141 22.04102993041317 0
17.16893857629129 17.88472840163445 0
16.37591514304943 17.73255011662403 0
22.54582529140811 7.965248592545969 0
13.56501462138408 11.68355859674664 0
10.62131688723451 16.15710023890709 0
10.82568382761946 12.83872308356306 0
13.13700486784938 18.0861113061964 0
23.70746884133533 9.939961779528167 0
19.10384474728385 19.34789456559807 0
23.29394329015967 16.79937599356186 0
11.6025435491532 4.634338935875231 0
14.76597295029012 17.19231914039268 0
21.66316189203976 17.15337030617226 0
21.07097308259268 4.639917346358078 0
13.96485250661505 19.28408568086342 0
24.24099732423218 9.82752280433678 0
10.93104260777833 6.696731064956795 0
13.28248755096265 10.13350148541478 0
22.53922634892849 16.7383451115175 0
22.60720803978076 6.206048732076607 0
22.96321099625472 18.03229328833514 0
12.81424168191585 9.413513564845733 0
23.87960008754989 10.66405022224142 0
13.29652756985574 5.644392755599502 0
11.75228109632362 8.524084909379974 0
11.1413967313445 20.93724809988825 0
23.50008029238444 15.92939262740879 0
11.13748654672609 7.946770257613396 0
11.52672671664551 9.413883344834481 0
21.06223525047658 4.404458338517728 0
21.053752447413 20.0480171095347 0
11.858498914815 19.96283247697746 0
23.84974823708976 7.887308838855085 0
22.55547391811835 19.81814671465057 0
13.32428123196186 12.29888855264874 0
21.35167749100896 11.53131948577326 0
24.24715798214497 6.310224879352365 0
24.40367035064561 16.92074178414832 0
21.93215805360791 15.84271887200506 0
10.42533643632846 3.104753963746513 0
13.78311334618645 7.805111424508446 0
13.10746461527588 5.8729580589435 0
22.9325866235056 16.4912359211136 0
19.76639108886624 18.07586744613354 0
24.57883229555763 3.96441562573014 0
19.22758812730291 20.2964007900542 0
13.91603306590086 3.41976680826865 0
21.980510531216 3.733978666525879 0
14.77249100326536 22.41479023720847 0
12.99996335062621 20.39483048854503 0
17.68319065720609 20.20047272378119 0
13.1987908194932 6.616100115654556 0
19.81371659040967 17.30304816953896 0
21.08477984160183 3.419685090414921 0
13.0997886406438 17.24733498779474 0
23.26958183407758 14.28301753604525 0
21.98222096193368 12.74616009221424 0
11.11749597781552 10.59190852937982 0
16.32443218488618 21.15181037077635 0
11.71200187017373 23.68606516489472 0
17.02208545153932 13.5883793562974 0
18.32491215707167 17.03703310463355 0
12.47875666967104 8.972088479765167 0
11.4497277582606 6.65139977324546 0
16.12562674485403 16.32618158468529 0
23.42276052604193 9.389400380995726 0
23.80478647247446 5.552222966766099 0
21.32606415787532 14.00681124109113 0
22.38540283260374 5.779455156330387 0
16.83810136975454 19.15735092863381 0
19.6365594700076 13.39360823825774 0
13.74265452448913 20.98527564319762 0
13.84556206828197 20.27626135466178 0
11.70210981147346 5.195435725249811 0
15.84105554494803 13.54157711546822 0
19.24458147888496 16.53403361869183 0
12.44490079072913 10.82797519861043 0
24.38584303280889 5.045244053689775 0
11.23602824683981 13.97231524229295 0
20.6284879040145 5.014950973748995 0
13.24071235290119 8.49568292472788 0
20.81538603443027 19.10437865322414 0
13.08120118496757 11.32433743823712 0
16.75245670967428 21.96201298021256 0
22.54184172416189 10.82830663376723 0
22.4796957508828 3.213517043354801 0
21.78749344574451 17.53518850807072 0
11.8233848821637 5.748059140613163 0
21.93584798552841 16.73207674541496 0
14.63300624532794 19.1952529639975 0
23.04356641918534 5.393449647454508 0
11.18532717383509 15.21851973238904 0
15.64033495549973 22.05375796135971 0
20.88833509305639 8.772154075586625 0
23.75894667733545 16.97852721194297 0
15.8031803560547 17.07972373029063 0
23.9064018937576 4.374959826329849 0
11.85735663669207 19.16636652454658 0
24.48960943643613 14.68730616537494 0
13.58451717944059 6.244119579016161 0
10.66151546976054 5.031637643709517 0
13.09370863780837 22.1958837513527 0
20.651970626129 7.25281014049667 0
21.09115564322035 10.41512489993177 0
10.68569987035022 21.52237458706711 0
10.27195296481287 9.934635090454528 0
11.01359845497656 23.57482468069844 0
10.85004991995617 20.04024398133035 0
10.89387681953586 11.69350044056411 0
11.16122065493845 15.68665768674627 0
20.94544515500896 11.46400638303522 0
11.30057366067039 9.911950618343294 0
13.64168737225924 18.75624062975974 0
21.48837553642143 20.20607981435975 0
21.59578699406588 9.426640391841422 0
10.74188762466119 2.886693470853637 0
12.6161750720869 6.737764069469267 0
11.51074392674193 20.95940283226894 0
12.57176510789165 13.22611363955073 0
22.51317308929531 8.959251320374156 0
24.17016070775421 8.763807029160256 0
22.47461004261409 16.17344727196839 0
10.86124654253873 14.79317646063477 0
11.31266050730347 19.49817828587363 0
24.16342657986129 12.81316092426438 0
14.347318495218 8.162843776217619 0
23.27215278753603 11.29955063480964 0
12.76217039328464 4.225611302818564 0
20.52723373080985 13.40035159849531 0
21.25540462073836 12.05690783895445 0
23.07459580350918 6.230990304237037 0
13.50219424750825 7.517364344679963 0
12.57706019184939 7.450275307509249 0
18.44775455668381 21.01637828370805 0
13.50374689707421 21.7122528095106 0
17.46745245327354 21.3582396653573 0
11.81249810553101 18.09020046336681 0
24.68703740184961 7.651327878092721 0
22.45027829052708 9.915772761773775 0
10.84217388974713 22.70566989594792 0
20.78508342738319 9.599096785997244 0
15.20064299177235 21.42763869285799 0
20.49766481342169 3.957973174724208 0
21.31983939926461 13.23342738441319 0
22.4938616755421 11.8650348322269 0
12.6083780177184 20.71115300270176 0
18.74891929549341 18.00091187032199 0
22.08046136895811 18.53482746019466 0
21.16603900568325 7.739244488961887 0
23.15669304215623 5.785313349315791 0
14.21365506674335 12.50595026110094 0
13.81234078747807 5.513102298804622 0
13.37525915356931 4.638913924581145 0
12.05797438883727 23.34647276663418 0
20.6724178882411 11.76610478434644 0
14.48702266854974 5.875261057550818 0
13.29996460265034 5.372510536148981 0
13.66497648730444 7.129449791338743 0
11.5865695953587 3.112247902865898 0
13.15264362375985 20.91528957529602 0
21.9372139055967 5.878053565818645 0
14.83456548904993 4.789282212050643 0
12.12768994078627 22.39578372449492 0
14.19434219442248 16.71816396623628 0
24.3539221349535 7.221463527165579 0
24.05846314506602 3.46849644834628 0
21.78837655874316 12.51242590159582 0
10.69723182533226 7.150771005780955 0
20.56671971528324 5.859057511489292 0
24.75531842170211 16.89536780489844 0
11.18331214857697 18.81562708021557 0
14.46795125941497 19.86992470314822 0
23.74885859308218 19.59868513323349 0
21.08783895397948 15.05070707540681 0
14.05082340763354 13.26560258110774 0
12.52033708527056 3.213150997384772 0
23.03910769760041 3.665564791232092 0
10.48538345479068 3.956353524484133 0
10.34419490669458 17.72888081064966 0
13.55339637743194 23.14583442316679 0
10.51114902883474 12.22043277482233 0
22.58228962383966 7.064140317375267 0
21.28558583538951 5.500728259501924 0
21.197516256493 20.39023996686578 0
12.64642251296584 19.50700142048434 0
14.19839334547832 6.469522196250157 0
21.62473918726665 4.638954833889079 0
10.73237617902342 19.30795872242842 0
20.34195622703042 16.55012353720402 0
12.20756894890034 23.78466057431345 0
10.65279996857198 6.271408608130946 0
20.10193833874902 5.601552351808981 0
13.26679427086633 16.36980638782866 0
12.18269216059324 4.205653251594623 0
11.79829995293965 10.15425045814961 0
10.96594044297236 3.439083074241267 0
13.46407687925753 4.096288442861487 0
23.47927963476455 16.49102903763727 0
21.80674133670612 10.85017367658396 0
24.42259905120248 18.40851248986419 0
15.03245704189291 18.42432392101684 0
13.33359409572933 12.95609608698974 0
22.51981898895265 18.65757992824996 0
16.24869029986707 19.69896588047675 0
11.67674528358967 14.63053520190545 0
24.39022371790482 13.40997059223185 0
10.55780621262403 22.10661658160182 0
23.4124278605735 3.112930148434506 0
10.59409582156736 13.56053599934037 0
21.23659411458923 8.344552318052864 0
24.57400136282447 10.3115597595674 0
13.41233631669673 22.57287530115363 0
13.38771668932443 3.075977274302286 0
15.3111772055948 19.1126142800735 0
14.08678093015304 11.72988537133331 0
12.53284142533335 23.45626806668606 0
18.81995215264378 18.69302988912924 0
22.33055725735571 6.635357235116564 0
15.24258699380628 17.7410290935929 0
16.06577523736514 19.07363810370673 0
11.52660413208272 7.357564637621381 0
16.63797556826346 20.18035936473786 0
11.45157235176651 3.594411895141816 0
11.34824851453779 23.02334163438756 0
10.56746883516593 18.70694164580891 0
24.19712795706784 10.20856823470479 0
14.60398765072172 6.787399117224111 0
13.32743582285385 19.92932024650454 0
14.13913621413582 8.765497167435829 0
10.91491406842068 16.32932646652743 0
20.00075565558306 20.13860456737045 0
22.23792265487198 4.226306352484496 0
16.98060868357124 16.62110597445319 0
21.02391943177124 12.54111742170144 0
21.35324591125378 6.139393868945323 0
18.07596587576845 21.5686824808887 0
12.1997590711151 7.101526008142772 0
21.22350326824538 10.90901349778985 0
15.91636400282547 20.29737247093176 0
17.32816626701589 21.95598855583863 0
12.11669423245374 20.57461801687797 0
20.43438429611362 3.255957252572256 0
12.24991938905851 11.31731061784423 0
20.24432267489448 18.60873859171858 0
20.96942878136753 5.958992303873904 0
21.63577942095223 19.70961885790076 0
14.1415500348502 2.99775998889264 0
22.54640710297806 13.66330733392401 0
23.30353098263364 17.83283343079385 0
14.371476514512 5.014965615582508 0
22.28423372265865 8.459746665129359 0
22.91765593522332 16.91353068736233 0
13.52962274410128 5.830793193584289 0
23.63312316321174 19.14698762953038 0
14.40595200738026 9.375307746550828 0
14.1496506648337 10.01778362936306 0
13.53211292741038 20.46086276017932 0
20.40028226180175 4.485668403608415 0
12.46250026671542 11.80513510855025 0
17.40260703329872 18.64003446226832 0
10.65978577729877 24.14710907099973 0
21.83672567037839 12.07234781084853 0
23.32752024589679 18.20085448236854 0
11.5733228297624 22.49359556219538 0
13.77647551296725 11.35719175547541 0
21.60190046880255 17.87594077982457 0
14.82548850048868 20.93267111486407 0
21.99296197748217 11.44095978611495 0
10.56755122742934 20.58373399792443 0
14.31217422243737 22.90509044701142 0
22.45072764940198 19.13083661642724 0
12.58485282875937 9.87489757848625 0
12.37367636419208 16.49070876635515 0
24.56524277007516 9.285514019635432 0
24.18918522436095 11.50381966589066 0
24.66848653482217 4.491417798683318 0
20.58841244143744 8.130826378857423 0
23.27948717087635 17.23228678470728 0
22.10289233581507 16.491963433074 0
19.33767055584305 21.05346818903921 0
12.05090810295133 22.01115020066318 0
12.48902195873973 3.793680287977113 0
10.45118046886481 7.696007493906089 0
12.47683065668436 4.320545813129871 0
15.36546386315391 22.56528982412266 0
22.66444611613007 18.06393401538791 0
22.85708988476873 6.64865854011366 0
11.80936888185042 7.936958461569413 0
24.31892779590034 19.56601168023148 0
23.1790369434921 10.71270458119307 0
21.76170824082914 8.517564670019485 0
22.75822549392063 5.623411492429229 0
23.36326474443306 4.649297603296105 0
23.4899155705259 18.57567506177951 0
21.73321238659618 10.07238053303935 0
18.70588941605887 13.56487965873419 0
12.38483087728191 20.07519485864439 0
13.67918575029946 12.72310678620534 0
21.71805311457355 5.34304528575834 0
21.75737003429584 18.771916452751 0
13.33875378531026 19.38711727576699 0
11.08241507623578 17.42187530653565 0
23.36516562400445 19.24452383673154 0
20.45720047105308 10.66303488458276 0
12.88986055476806 3.413121307019865 0
22.71820814345417 15.18223004915993 0
19.13306661256326 13.06712824727671 0
20.24299328043006 7.3260099292762 0
24.26131869022825 15.49425552482363 0
13.20332618779341 4.975117095719693 0
24.64068187628004 8.555274646701267 0
24.08671306112115 4.159429746624945 0
15.33254435658451 20.4624220234677 0
21.01419798630877 20.65800580002183 0
20.23420394118453 4.222570662212628 0
14.37720888456858 10.61508000448883 0
23.3437991752006 5.224225020398131 0
10.38774268153192 24.45789087398597 0
11.56956272373307 23.32397111155517 0
24.48381667453456 10.88375009030037 0
11.36501712671593 5.215134299677917 0
10.19804787121221 3.571843663768503 0
21.94837841021295 8.946480779960241 0
14.29226480844925 20.99573603547681 0
16.93067070969872 20.81064559973987 0
16.25791106239084 22.28658716411619 0
11.38450487416152 6.087293638364533 0
12.29124295165519 23.16894728696611 0
24.49385182081135 8.152707091373655 0
17.88283261615297 13.34754481112354 0
13.75274373878322 13.87442545132678 0
11.48911716133756 11.88064249727029 0
14.61272623701195 10.1806209235517 0
10.78117769615389 16.82498958004291 0
17.9481099905821 18.09231537351227 0
12.13054344538199 11.01472958701324 0
13.04684156023901 8.958474672668945 0
21.79529055404717 7.445861222336589 0
24.08737284435016 19.94215111536495 0
15.77526386883657 21.40501382348926 0
13.38320236244555 19.66583987244675 0
13.92308164947626 21.4028311809631 0
11.24760525155122 21.43023997385971 0
22.92119858617811 12.73769883184197 0
23.5469941087337 3.595277044219813 0
10.5392471483037 14.22855615853285 0
14.44680383877954 11.21738575227052 0
23.72429651836958 17.51849729608389 0
14.44669589157514 4.751196831201117 0
23.09869523981745 3.300007401986026 0
11.69292062500464 21.16569677675728 0
20.58423866841089 17.43365484815928 0
23.20585493143941 13.84161091319615 0
20.91016981669023 5.631260205337519 0
23.84357811052794 4.954148037072479 0
23.44653343246317 4.118678429977761 0
16.67122811583219 20.54070995612024 0
23.15917697521338 4.916134637746087 0
22.18443208008003 9.405318729748132 0
20.18589016726695 19.14481383128492 0
23.2869708170854 7.39807098343015 0
22.84298395217989 9.484302456018792 0
20.89622787822547 17.75659940196218 0
23.015757717798 15.98376824538817 0
17.42678170383184 20.53182471379356 0
18.47191951203809 19.69256076731809 0
14.72158146231163 5.383457609121894 0
11.97112762039995 6.649923441490378 0
13.07140905669542 23.40238408694236 0
19.72543097752362 19.57115409880333 0
12.23489738144572 5.649229151025829 0
11.97098194750797 11.7537176908752 0
17.75728253180709 21.88101217886855 0
20.69045886576014 3.544841186761615 0
12.8625978971574 19.90989671717082 0
10.38370909504629 4.497608227977465 0
23.17389541591908 10.134822723083 0
20.44167472851087 8.328535177136136 0
13.0764156394544 8.036931643722237 0
14.50245908400741 3.958484938070887 0
11.212285240565 4.943929758808535 0
13.35501397427539 11.0096070228124 0
10.36026507186817 6.69940208097564 0
12.8217465675354 6.269237459258827 0
22.51082202691222 3.794989889215972 0
18.23740991734558 20.75038292359804 0
24.56187539771148 15.90917183757347 0
10.53822291265443 15.42237234069039 0
13.51046490589691 4.393057200304954 0
18.51164225688965 19.22043753411374 0
10.19036555456046 11.32179219499336 0
21.39378208289195 18.71151870636657 0
22.70781207495597 10.33843126097123 0
12.30001491704409 10.33177014383893 0
24.53048455316857 17.91935237042599 0
24.32700435304188 17.47088420519565 0
13.39879230107927 21.07841848480083 0
14.59961370704427 4.485954573310497 0
20.51691981338315 12.83113961788225 0
22.03619083634866 18.97761312463552 0
12.05045737184854 18.86464175690978 0
13.9056095901905 21.88019098459989 0
13.44144869362861 10.57856339116913 0
14.21852663637471 4.099931676269621 0
23.14987992435305 7.959658684698047 0
11.76950607590401 13.27771516550619 0
11.03847119036457 3.931245359685859 0
18.4016394591279 18.42095853393189 0
11.74736365599277 18.62124440558531 0
17.52883388465114 19.37676012061505 0
24.46371764103663 4.728682267865779 0
11.9993537863344 4.543729208059673 0
17.44164963496835 13.89008620859283 0
10.79945041442894 8.20929556286975 0
23.51858410668953 5.612668605714193 0
22.10775362241867 2.932830398569721 0
24.690590336727 19.78756014341666 0
13.86855842879683 10.09998839681001 0
13.09879075511004 9.724096057558 0
12.87790629807994 10.29688828345037 0
11.90125243183424 9.011961278997006 0
20.36334906989079 9.748623669921603 0
12.80214064900187 7.718963399514465 0
13.48419292651059 3.638732369799572 0
20.72863128070859 11.08823917555967 0
24.661795548968 6.761729622180445 0
24.74836721658829 14.37874653292005 0
13.53697719861834 5.311021336933352 0
20.83288783529392 7.639230993324659 0
14.16444402281586 21.84318174608915 0
21.29693133461394 19.17429182309208 0
11.71488962461302 21.76604871775234 0
10.39273848558005 11.54426754459438 0
11.53612867976788 20.4517949736762 0
18.40254802419398 13.07097346396543 0
13.76896874553915 8.378008600192583 0
10.46030213058351 10.39743752981799 0
13.47656682855941 20.7911878112644 0
11.89285022865107 15.94912992580602 0
13.94837613530595 3.937066882884557 0
21.30577138123631 7.08613809301282 0
23.42725581318794 13.28188809731651 0
24.63463527545981 11.70857546666721 0
14.25311735462089 5.416188478234823 0
24.62953001930896 16.50491390679051 0
11.54674201759413 4.106044567175592 0
12.2109828633497 9.969067003973139 0
12.88455716244571 17.75180738172305 0
10.40787469439641 14.69205941826783 0
10.89179912784973 5.264009043040799 0
13.82857194040782 4.923177478945593 0
21.89624468837518 9.697469766497509 0
21.99349091816638 15.09373955263816 0
23.99079980612824 15.89755371282783 0
21.17132976501425 4.923113179604023 0
14.10052885447442 6.905312701942176 0
14.19240149570659 7.648966441267945 0
19.63196252280949 16.80557987155933 0
21.61339961096885 3.076083861680798 0
13.81128530814373 20.6372362357631 0
22.72142903913464 14.18061188270557 0
14.36015400513351 21.49909380678252 0
10.2630087738345 7.360399748573302 0
20.06133919168379 13.94099250602294 0
14.1497274183767 12.12196521148416 0
10.29657669164949 13.88295088555208 0
10.508581214543 10.99406094832941 0
18.94573035901887 19.85273357267572 0
21.94068737623213 13.49539785218525 0
23.52088102328977 12.92887483507191 0
21.34852702370401 15.61323001960892 0
23.88396230666054 16.55364948454128 0
19.26659896917477 21.4864264137092 0
12.26113727413976 17.49919975115656 0
13.83965549326239 22.75949698236968 0
14.56638331513137 3.25728473192328 0
12.11889986996217 5.960970300139408 0
23.7413752791828 15.46201391311435 0
21.53883328570362 10.42604231178397 0
23.14478610236679 18.59261175592425 0
12.82914067245412 23.11317840240075 0
23.67974282709929 5.247429063091187 0
14.11902117813979 20.47077905031765 0
19.20793793536854 18.11422537489837 0
20.85993344924168 2.997690030407 0
10.25373878016007 5.999994478223117 0
24.72219008405896 6.16155989305573 0
20.34277085880745 15.96334928965503 0
14.64209119161537 7.671115704862517 0
21.53583580615787 4.09649924119224 0
11.45930336958571 16.03689270690398 0
11.54837589218595 10.90010993574434 0
20.55399264025965 19.53074789284784 0
12.25097418787604 3.454664552651404 0
23.05115326590241 8.987174504094128 0
20.60919610793482 18.81642534359874 0
21.18658012562956 19.63403265843477 0
16.23483186891335 21.7511413767239 0
10.09949708630839 7.029261860768198 0
20.89575579663481 21.00685394642209 0
23.73351049437909 11.70637916082202 0
10.45738232900051 21.07028976095786 0
12.06010020046538 2.991827417009224 0
11.09676822066568 12.31287653681393 0
12.07874636984734 7.557242143428887 0
21.29636066383874 2.933817155691966 0
19.34300464078567 19.67299292993314 0
21.83632164077908 18.54058969905444 0
13.81848912020613 12.1653884720408 0
19.87563890328835 18.48477374653767 0
11.29271667829918 5.82877947133696 0
20.24562271564383 21.19878195196816 0
15.10897046206147 16.35375924617649 0
20.46734663254734 9.1442198260691 0
15.04658277670096 21.90908043441165 0
13.78740629886261 16.6049610651241 0
15.9974924698456 12.99559774188318 0
22.29113056985216 18.00802948914583 0
10.54914163979339 5.591400673596809 0
21.51766391053976 14.61112465307175 0
13.27855333595337 6.314830213795133 0
12.13286730004213 8.444071428646192 0
24.77985466175731 5.384738431482065 0
15.64980373956696 16.09017238034713 0
10.37374780289675 13.14021343389447 0
24.57303353159305 3.105378270874233 0
21.95906379262034 17.27694320121379 0
15.81239793699469 22.57502581435937 0
11.13740911944845 22.45519943989029 0
23.50707339230575 8.145050770645463 0
12.69428890349374 12.55750564995763 0
24.59612852582383 15.1815768165823 0
11.26921086257306 18.26146699575234 0
24.38004064662438 4.355115121882022 0
22.29337376204574 7.506401717606609 0
22.6989634295041 11.35224061005415 0
12.63012291734449 22.30420913849148 0
11.45059237833633 16.46880233664631 0
11.17698357592156 11.88116498488912 0
24.26012177836276 2.888827310752862 0
24.90299622677335 3.260110226267868 0
22.52300242424559 4.321234438982778 0
22.15185475156409 11.03002017328426 0
23.15854961923423 19.90302699869976 0
12.29107106496071 6.581209148584383 0
10.71006328172594 3.263633672440232 0
11.41615383340931 17.51980452033852 0
22.40655174946803 15.14535829092249 0
12.54860141518572 13.85625774702321 0
14.63056315444284 9.700106473962897 0
21.46331405479289 16.43848399132037 0
17.05278677190834 20.37148716552557 0
16.73027252523899 19.63294001639898 0
24.76746437857775 10.65024650889527 0
13.31449803793617 21.95189274150076 0
12.15672876714676 17.89165905553651 0
22.41898928056132 12.40786284062043 0
19.03475783993948 17.29268781578276 0
10.97422147492734 9.35880649244826 0
23.09526002622364 13.44450596584079 0
14.77536744976862 20.03678947174529 0
22.97779369056357 20.32608783189694 0
22.06076988007592 14.18067148598012 0
14.5428414682868 21.18981726940419 0
11.82181689409284 10.72276294624067 0
13.74501423778541 17.63892033696534 0
24.61799758912808 12.6172199305044 0
20.35503948939863 7.664179449427007 0
19.54946757086265 21.23877360003588 0
22.45477887428715 18.24029038236078 0
13.53005437689231 22.11579285694532 0
20.27860740406182 5.383912146698783 0
21.55426236899352 5.703065904941186 0
14.76579327454402 4.223006810147959 0
21.19233842133767 17.4687907746364 0
10.24922576678082 4.201755945104889 0
21.82609865981988 16.43942685479388 0
20.16543721301932 4.789226397034875 0
10.12154868064644 8.517756787718291 0
23.92944853758122 6.276531157550843 0
10.42593120506071 9.351472584412978 0
21.12038240609773 18.89582186950173 0
10.38418416724915 20.22650162187722 0
22.27964139083062 18.82920142194709 0
10.37595299774748 16.99035039266778 0
13.25212757386227 7.74637491404377 0
19.70285918603381 14.11424131919652 0
23.39106545265517 18.8906235331641 0
15.65474842376124 18.82205695509633 0
10.39330364060626 16.54342572693357 0
19.54129819093969 20.65444378697132 0
21.39911450956071 8.87648052570216 0
21.23299058140385 9.896511915151178 0
13.05348361211959 21.53137932571707 0
20.55494849981533 10.12261001268477 0
23.73450637168695 7.10585293236077 0
20.10351384370853 6.223033719008123 0
10.94366831096757 23.19103067670973 0
17.73940066558231 16.34638634544361 0
18.77091339848533 20.27435044626033 0
22.01593514306847 18.08975296650824 0
18.54528917010219 16.24357273227887 0
14.67147658139702 10.8937372205918 0
16.5947209957164 18.46501875146441 0
12.49948501491652 2.844591774981633 0
17.84989257897659 18.53760853801538 0
15.57802125688802 16.63946836280756 0
12.37850526049656 22.82291056144379 0
14.47512026063392 22.59594899772062 0
18.32783123153169 20.35667725313576 0
12.14990382349807 9.50138845041021 0
22.99048408985742 4.549656476001754 0
17.99129254172429 19.8143855555346 0
20.22033521991423 2.979295248978094 0
14.65190928644717 6.303781807409823 0
14.80428766421818 22.88913787103478 0
13.45206927596348 23.48153137105373 0
13.02040135028473 5.203271078755154 0
13.09685324130137 10.75130418355034 0
14.311366033539 18.57349717216731 0
20.40329388442639 8.587197494429118 0
24.15508295406457 18.17353732561834 0
24.80160420105464 3.569689622430262 0
11.35794914969818 14.43051385145966 0
21.01987230512753 9.193564641955684 0
17.56376910103606 17.16010877825984 0
15.10864534167675 22.28443149472098 0
12.37449733490416 20.89419734870015 0
13.70530083249256 2.933933334454591 0
11.95132811989708 13.9914170821537 0
24.12987596102884 14.44031244759757 0
21.70031045787865 6.22867002008107 0
21.81831999444375 3.963161387748026 0
17.89316063679507 20.85306908725568 0
12.72927866602255 11.21925276860176 0
13.04994247164278 18.86157472955457 0
15.56776832272436 20.08145325676756 0
12.95502031021994 19.28138376888537 0
10.54161356357946 23.2418515952154 0
10.48693389814697 17.38847250076336 0
11.52411174366216 5.554713756219257 0
14.14321181828372 4.770498926830651 0
14.0387172399618 12.84015424868649 0
12.01553412316164 5.172460452267198 0
23.20236640264448 15.67800811570862 0
12.83193525788922 14.07618125551785 0
20.18798074953887 3.579615465530188 0
13.67182224150365 17.03215037112706 0
22.11021762158019 3.413493743791519 0
10.41599748479772 8.359443802212091 0
24.80734625321067 7.966678221824069 0
22.50052155356093 2.84477080156707 0
21.92545522027959 7.98952283615913 0
12.79380979291678 23.68952871898857 0
20.7249151321889 14.42700639713981 0
10.53561440587437 8.027088821684396 0
11.30282724491179 8.956720676679662 0
22.11774987308304 11.77625816087598 0
21.50409291736473 12.55483406221033 0
23.86358452979314 6.590587226865805 0
21.98566401402098 19.79916574430548 0
24.69030539576102 9.73111500611098 0
13.19876591057166 13.7499160002029 0
23.47468376602516 6.964732171111577 0
11.64690905308015 6.107985698789992 0
21.64441631833799 5.969216161765816 0
23.78091406109716 12.03724243513592 0
11.8785880471423 20.29526505692761 0
23.4833632169881 7.731141181992559 0
22.92215384012711 15.43875760018082 0
20.85967236005243 9.972747489641964 0
13.09542937756444 21.75197548307032 0
18.8634167642291 21.47661397627727 0
11.992016820398 21.22659172463529 0
23.18693636875999 18.0239570333787 0
13.31318908134137 18.48593617682254 0
10.7782888172102 20.90610091980009 0
21.31759461990263 4.648794311081261 0
24.63214951911822 13.10860183464784 0
10.3846209022119 18.16648122645273 0
11.29732362294686 24.01245601553589 0
23.12950679516843 14.71395309588581 0
20.32222196320516 11.98731624942312 0
23.90822258073268 3.93577679558111 0
24.2756947871436 18.71044967347632 0
23.06679561085095 11.74566258022077 0
21.58053316052051 20.80415934933531 0
16.70728598313902 18.03340593220558 0
12.422707913097 20.41975910907678 0
20.39421168612585 6.781620138316896 0
22.10403655821221 7.039530173598939 0
22.02153459826909 16.96899239985587 0
19.57779822579399 19.98710257262526 0
21.33167034699897 20.66077474248763 0
16.40472666174269 13.12032318521547 0
14.01136600541719 21.11299064124908 0
13.31305934555791 6.98312504816215 0
23.36459085426852 6.328470396706646 0
22.32698901304883 16.94676220767329 0
22.33956376799469 18.51720611119619 0
21.0516122615717 3.937070048455861 0
21.66281087168603 18.32658468344416 0
22.85366445887124 5.944579588758136 0
11.74502205587556 19.49271210566027 0
23.6272334932043 4.439332956196838 0
11.18439740613068 7.031485982696906 0
22.82485707987888 19.42419660655309 0
14.31006118093882 3.545328436103686 0
23.89070974039269 11.45384242666469 0
12.89276566649408 2.933115621926493 0
22.99747008904337 17.31852258113846 0
11.44491766334486 22.19867258818703 0
12.64295490288564 22.62877188003238 0
21.26983339940238 12.75416915080438 0
14.610216355546 12.95081819176816 0
21.86605227326405 10.54348790186027 0
20.64019215406072 14.92705177480511 0
23.9627173030013 9.342183077154464 0
11.82836545426597 6.26215752625251 0
21.73450033669675 18.09167898737724 0
10.92731338674054 19.61519001103386 0
13.63485253654537 3.872830002272106 0
15.06764288036596 19.76902241076544 0
14.90821676065702 13.91331206508435 0
19.41390441482409 17.17729421800915 0
23.32270879810248 20.25989369343976 0
21.51422682155288 3.647630180635603 0
24.10645076128908 5.092356864983361 0
11.38927512196193 2.805415018356056 0
15.55948293656252 17.4293934523448 0
20.00535859794336 18.84053993515864 0
22.17879534138279 18.28722846440163 0
22.88138787570261 12.22632515875421 0
20.97671164345518 6.905090670416689 0
13.6031447119836 8.911093262780694 0
16.64695341535666 22.26852465004592 0
23.17212481624713 17.52370544737427 0
15.91370764115493 20.89062009062914 0
12.73156512605603 20.18285778036985 0
24.22501381441215 16.63781141743134 0
12.03652415133807 20.9620636355611 0
13.63564687668486 9.908281834862954 0
22.74849690737328 3.455745027790025 0
20.35446686333714 17.99067147680724 0
14.90364971566714 4.501698300210224 0
11.88602077436811 22.37529825445654 0
22.28030678259959 12.10623380665265 0
11.1293570974682 13.31770475447334 0
11.1710452947637 11.20097953807649 0
11.18650686935468 8.479081683687284 0
20.95081948580325 12.94998447719913 0
23.00993059811755 17.77791088328932 0
13.98036299111356 6.62334726863696 0
15.07703306118346 12.96051911142659 0
15.52742358386475 13.01974278295898 0
10.14170773241869 2.887657024870807 0
11.9410986562016 7.272943803453815 0
11.78250799647506 5.520369884312789 0
22.65855906215711 10.10695693152653 0
17.28269021038436 13.02203855497645 0
22.79920203346717 17.91000395225399 0
14.50272448096939 23.1599932359907 0
22.8503498190032 3.917875870337483 0
23.72399640214599 18.78893345550883 0
11.53928095293039 21.57308848546116 0
17.16839066125107 19.86268831863542 0
10.68027202021836 23.52104707368589 0
22.0615080936396 14.63108394657274 0
23.81140871960253 8.40908759072981 0
14.77028638182507 7.989484349689093 0
22.46427256896362 13.08290423430908 0
13.96666363193954 23.22000597116344 0
14.29388290064725 22.32042977622115 0
13.59339314396967 19.11864308938411 0
11.48906131181182 7.790466092537057 0
14.45122431548002 19.52983898525681 0
21.37450321422422 3.335552107421187 0
23.92800420033804 18.5224750721039 0
15.37989113742371 18.14821380126156 0
20.94391028454281 12.14372936557703 0
22.64706215634385 16.45666040304459 0
14.01725987621887 5.979954995263452 0
20.52106381270635 20.95146630076694 0
10.42018195483414 23.69972618590035 0
22.46040457054852 11.1487098480003 0
17.61390009129074 22.19616148102802 0
16.2562547132712 13.52912632441687 0
23.62183827552925 7.408744670327193 0
13.9087591937299 9.500575986053567 0
11.73219014177777 22.17325271359806 0
12.21946408465587 13.61463211978178 0
10.43892229209276 19.76349132558409 0
23.56223706951949 10.5958202149675 0
21.4087815516851 16.11560026862812 0
21.47512985602352 5.307109722628567 0
20.93086025049896 13.40480372751473 0
12.55851973096896 18.01691413669714 0
24.07634866366128 8.19611588953599 0
10.96694320876645 14.38883505688377 0
24.66067580871587 15.48374305498293 0
21.28506876472798 5.827922416701045 0
22.38574951457126 6.359799310036637 0
11.68264707798834 15.28568048490445 0
23.6282915152677 17.82384890976623 0
11.39459281213084 11.51808290829194 0
10.66812744766174 5.923493213001056 0
21.34113424465496 6.604258549612606 0
22.37175753580978 14.3939190411432 0
22.14462351260342 6.244109817361728 0
22.81432695903181 13.11181339225244 0
10.14143818469518 6.304488552439535 0
12.89775723445706 5.565444073191331 0
22.46633594933026 19.47797597488517 0
16.96504848799023 18.75802020037922 0
20.94688577927212 8.077211217809575 0
12.41607423500674 22.51433936430342 0
10.18213129037544 8.056661563543965 0
24.76827540340865 16.17177453538793 0
22.93933436453094 2.992379919724711 0
21.27612142185429 17.81980793343294 0
20.78325948739855 8.452049476719278 0
21.53702864148072 17.63926449026386 0
12.98279120703049 11.86527400103199 0
10.43846988766958 7.071941911372672 0
22.80873779669848 7.529779552665479 0
23.94916359123444 12.35356713654125 0
16.96627131093164 14.04672706222914 0
22.93686454307133 14.43705053911829 0
23.7837305231347 11.16347413936447 0
12.29656779183536 16.02074719320749 0
11.11893295530808 2.953865792901849 0
11.02832050111583 20.44892825639195 0
13.79285572113867 10.36634151037816 0
24.73522570329372 13.50449160724132 0
11.90408115281563 22.64536086077162 0
24.03336715227363 13.24524118798737 0
22.04004637111436 5.533211539081794 0
12.00722456792193 21.71215206607791 0
14.42439880965866 13.84965249673251 0
21.05246251529754 7.393814265210148 0
13.04666756715962 16.75525588260785 0
18.13158433927687 13.21515758685776 0
14.7638943124851 7.348433236308765 0
16.42857142937082 13.87244898555863 0
20.80562890152034 13.8909925142406 0
16.38606431858188 19.32974355431119 0
12.16004985684136 19.54722907066144 0
14.45337742334262 20.31063542198388 0
20.89003152710333 18.63417280454826 0
10.23656910035965 15.04514713501615 0
23.48114356708549 10.86976433575625 0
14.81242407670037 3.580670861355422 0
10.77061854643342 4.097703655668898 0
14.42147876521007 7.521244414093061 0
12.07875057787832 20.09425640677108 0
12.21273626634709 4.520422992450344 0
14.75921448020934 17.63225060412012 0
24.68368986210871 19.46003869468575 0
19.37611566422139 17.70084945798515 0
21.54746346689039 8.063069124896257 0
12.08258942561183 12.86546682329059 0
17.15210287681323 21.56005965723216 0
10.25043649748796 5.38634583761077 0
22.12810075560611 15.47889240563761 0
19.78426271075747 12.79413538475815 0
11.36600037685633 21.17497950311641 0
12.95393371624242 21.36488501276001 0
11.08763597378679 19.18158914266731 0
18.79124744453801 16.77511203647276 0
10.32969253276558 12.60983961015985 0
24.67914235123054 11.25669858928061 0
11.02193583905646 16.03425569504054 0
11.83329652568377 4.239490791346188 0
17.8843405641874 16.84464899873247 0
22.09747166993427 12.42012563790958 0
19.23658703734359 16.02959748843087 0
11.89946978163409 16.56328560312807 0
23.63507983310355 8.904559761445299 0
21.05263232451291 6.599977649476121 0
15.3438634388686 19.50910421041354 0
13.19214184924324 4.74029508045787 0
22.80839899310949 10.64480590728966 0
12.9995986552962 11.03259668399774 0
11.42783121455158 12.20302225138558 0
21.63981024561683 14.23582442649844 0
20.34795294922514 6.30086940247647 0
20.25071214045818 8.007616492991566 0
21.64480306239858 7.278167891742066 0
10.27323660963053 23.41875760229023 0
13.6153645309192 21.30784537079428 0
20.86183340111632 10.70915337102906 0
24.66929601663117 18.19882690192778 0
24.85904257555712 4.143306641284512 0
12.3473188782872 20.65859878593523 0
11.77848040174898 9.73877308360546 0
22.43738643959253 3.482747681779059 0
22.01747409517885 8.307614215776866 0
20.74709849098324 5.421772624854098 0
17.97885246367612 12.97964180989062 0
23.22767580754984 2.816100697471672 0
22.62074277362831 20.29690515041077 0
23.18367114123149 3.947488842157869 0
10.01143396743873 5.980243685255807 0
24.3256770744589 4.076796941422778 0
16.14138540149944 18.63405434615846 0
23.27268131306725 19.53631771720381 0
24.54559503123421 19.12083171099797 0
21.79649766179076 4.975373780668211 0
22.77292722226958 20.03714462220542 0
20.21140594473365 9.468293872753893 0
18.35996198547859 21.38891163228816 0
14.56356508117275 8.744329586770437 0
10.51666237591935 11.34803580019281 0
12.75831897380088 11.58683171513927 0
14.24809471298251 18.97667900477341 0
12.77744487325371 9.118916920378933 0
15.40158057227684 13.46349267535359 0
13.98440337120765 10.63033839931269 0
13.85889825918681 18.20879931174359 0
18.19629636024982 21.93428698848491 0
11.67869778769935 16.85329255175951 0
18.79176494528672 19.53066149353354 0
10.32679724913431 24.00497618110734 0
20.16142608043265 6.572975043969803 0
10.18205173901018 17.27055504055243 0
12.18315117461545 8.780554692351224 0
14.49456887399642 11.9175801546201 0
20.19230351988799 17.62688479045551 0
13.00298109094496 8.63933656977818 0
24.81354904521994 19.08569206484642 0
20.85874901889154 18.86269966771822 0
20.75446146202894 16.50033734336541 0
11.36940696665714 17.79633949895211 0
22.80923323861968 8.41935203154869 0
20.27943530795352 8.881952203043202 0
23.88020365526572 2.954244550108547 0
21.52174536997379 4.832902159770774 0
24.82115064972951 10.05879728380742 0
10.8356553394674 4.735186714688909 0
14.62880811459924 20.64712574660246 0
12.84259530754958 22.03209750826054 0
10.03878845563117 6.675985333951161 0
23.21366005722044 9.710630126274237 0
21.06987256147752 10.15029443036235 0
16.10407325030746 17.38462070515653 0
13.74409789764062 6.666844851953082 0
17.26677121772216 19.06379390331382 0
14.61310309103863 16.65291229197349 0
12.09502661957299 19.80980845592206 0
14.3624036276461 11.56396415333077 0
20.65553023633133 6.975752701174013 0
17.97288517866617 20.49441410449484 0
14.23870293278446 5.199382952114297 0
19.71387682317023 16.08380439132866 0
24.22303750516166 10.56359593061863 0
20.43849249049958 11.45277901949234 0
23.78353624655472 14.26222444488624 0
20.88890229327573 17.21697811910186 0
22.63962437684837 4.05805536380196 0
18.89859107270605 20.75119808761333 0
21.34943859972025 19.91374608335441 0
16.40112433013803 20.64749618155972 0
14.61220555996108 21.97290209238837 0
22.60637455901599 6.509304174425909 0
12.80591093228615 16.48188555281734 0
22.33396735828227 7.203003952042337 0
16.51895697118259 19.88428474430065 0
20.03302341716327 13.03442849477746 0
13.94442820818363 6.279695664855162 0
10.99395476880941 7.506741011123529 0
21.54822859282667 6.787095930284852 0
20.46552208365415 12.28811913473664 0
11.81483053226243 3.945513028799072 0
13.00063531168764 4.553241039185036 0
10.98566654586809 5.868563416192648 0
21.99930175399039 4.55354440079424 0
16.02582719958779 15.90172007842225 0
23.69965540304776 12.61373081711243 0
13.22868935779517 4.233682283144272 0
24.2207043516077 7.845810590848824 0
21.78850921745109 3.47053375133131 0
12.41038602414093 19.03683137464163 0
12.4554982194233 8.292256509825362 0
20.60339130033231 15.50529255691823 0
24.97223083806694 4.500320692588572 0
11.6977231521084 10.44891573926105 0
22.19242006059468 13.75642698639818 0
23.64666791157364 4.707056703111309 0
14.55446699646712 22.24424019918606 0
14.18104841208469 3.292577050107781 0
13.30357142986627 15.89272930668151 0
11.69507459130084 20.77675354165661 0
20.1802376694319 5.873388260542486 0
13.18490115560602 11.62928114822457 0
24.18348684730484 14.697012051326 0
24.30145136002858 3.266362657652218 0
13.01818425260435 7.097067646875755 0
12.97060543747821 21.14663273591598 0
17.63608017187243 15.88672412276652 0
19.24838187133822 13.89911498285026 0
18.26500213776123 20.01602590556532 0
14.82708324541236 5.875765502713005 0
10.08537996928787 5.70157412106869 0
11.47488252952954 4.924397170277677 0
20.27259122076471 20.76257325150501 0
23.29527908030175 6.041645025512135 0
10.54076421180478 4.766231323729537 0
24.3841067922137 13.73183338627495 0
24.15045486978761 12.1376041276786 0
15.82375414215491 17.84327008821035 0
10.35110450163667 19.00566054007736 0
24.64152714879234 13.8215285418679 0
15.64729657979792 20.69041475234514 0
11.95710811502142 5.390123626969435 0
23.44731367696095 16.20093195441537 0
11.00005850136177 9.972927629417434 0
17.16694332008852 16.11759856755532 0
20.22218530788944 17.2405123405359 0
10.27380647505777 8.843879455634617 0
10.75951402160163 19.80862720871469 0
22.83884979150476 7.814566916045361 0
24.27427759123025 9.490850492715909 0
12.56217247714348 3.481217225470481 0
10.73836507988855 12.50628331274207 0
14.60050570327187 12.3182491557984 0
23.97778309127753 19.65189087696741 0
14.21357914242459 9.66243749858037 0
15.17586761110076 18.77361596001376 0
15.01348818882341 19.39261868946436 0
10.26014124946179 18.62455056931643 0
23.55101986850827 11.44476934247297 0
21.08175474753829 16.27433228623093 0
15.39602930615049 13.90022501766357 0
22.25617949608325 8.123080497178323 0
21.7241730845127 11.66635685305347 0
21.19327319130372 18.445110136893 0
16.90272758514787 17.3158347339274 0
12.95007859361748 12.19886618514054 0
19.79572603078625 17.72576777655917 0
12.16347188289195 12.28377343148076 0
14.09530196344613 17.36322617531972 0
10.6963304303308 9.506269017278386 0
14.34473253526036 6.980073943157976 0
10.19352265095483 15.42323482608049 0
22.92198754686103 18.82627060079033 0
13.13301461903656 22.66789131844302 0
18.32190542693144 13.88880767423123 0
10.98547551938303 23.93341493363454 0
23.44117181136028 14.96068723827017 0
20.17359875838152 8.392377911961859 0
13.73030346143362 6.009101132779701 0
10.21128693667444 21.96489318992211 0
13.09660323025713 19.64386869834173 0
23.73233212548507 15.10862428292555 0
12.0558959171528 4.758274790615895 0
23.14655032574275 12.1254249070133 0
12.56267669279429 23.13476648903939 0
21.45080790527884 7.472267308746648 0
11.82523249647666 21.47656088450243 0
20.67153887643363 6.186103453716011 0
13.76511774856859 16.00771573965307 0
14.21290362355963 4.441260113585007 0
13.74245282977498 4.187908000089594 0
14.97759463047261 15.93532926928673 0
11.22593462262442 4.157753268186738 0
19.69259977760525 20.9681525564125 0
23.17527284578002 7.07044686419047 0
10.6937016369618 6.859601053920277 0
14.0425611089239 20.81514680739904 0
12.07004042152129 6.388865697608136 0
23.45626024754731 17.42632237249108 0
12.45402397092251 12.87674009612789 0
22.2422512151808 7.803275609963837 0
11.90534212758001 4.939332687582057 0
20.78141728972886 4.099788073422855 0
23.49574005038464 10.24096829638893 0
12.24683742005529 3.197712711956786 0
13.31194286724335 17.68703429450408 0
21.65138085548168 16.70771491478355 0
12.93249028463744 21.82408619811331 0
16.8685160879137 22.46295066874457 0
22.69164389215707 16.99410070006216 0
10.25667229313153 11.92258308730183 0
20.45251649316123 20.39663438631463 0
22.73699045900615 11.65948518063122 0
12.00660795674536 10.3866823788734 0
14.11351424378036 10.34896274446815 0
11.86036509075893 6.007498210684265 0
24.98364609413112 6.68613458505577 0
20.8952440680579 5.020342016989371 0
18.30535962022902 17.54024865939708 0
22.36076297422741 16.46131622939012 0
23.10504534402042 8.281823648516935 0
24.85702927732576 2.887550319365074 0
10.93629190746545 13.59098187738569 0
21.66129009624649 12.88087574175912 0
10.82316104336597 11.31654939783589 0
11.38478926859178 23.56651295669558 0
17.54527175669178 19.78743560649649 0
21.55680143020256 15.84513965630324 0
12.37402992701561 5.890599114309843 0
10.13728027432423 4.812742503445128 0
12.0172732258419 14.39821731912351 0
21.55334147356112 13.58582311269378 0
11.71235448780692 6.980808447565317 0
11.32496643128776 12.83728870821796 0
23.13044884684107 4.675623594755511 0
11.43127441644132 8.663601784623626 0
12.13925000989185 16.87918293595153 0
24.06998548408842 10.94546545906764 0
22.79123642738379 19.11474964006204 0
10.42088308429602 22.54100324098582 0
12.14901096481244 3.916541060790086 0
23.57068444655854 8.577456838739298 0
14.15027659790454 9.423147209069633 0
20.06759452749701 3.279518856075822 0
12.8346039249638 20.92273176146897 0
14.58281851826793 16.14615199192846 0
10.76876380755444 20.31627974972725 0
24.0171617584922 16.1740289511379 0
18.0480403493779 20.17639510850234 0
12.39103820333647 22.10594769566217 0
13.1619333842665 23.69034564290613 0
16.01296677917248 22.00943353333356 0
15.58364532377105 22.85916035135291 0
21.4964833970448 5.067125579641732 0
16.63107753352375 16.02308891131414 0
22.13804890190362 19.35580248965362 0
20.51679775808561 16.94277233871745 0
21.48953024561307 4.393169305872065 0
18.26210425308443 13.46247026245145 0
20.45032951396699 3.673127988583459 0
23.16475829212712 13.00616521740687 0
20.85674336110681 4.770474487694359 0
16.00501693851131 21.14606157666949 0
23.43732175298103 11.79742556610021 0
23.73645438877092 7.624314861376869 0
20.32580079852075 12.53613812289829 0
20.53076311524033 2.855441007030868 0
10.45167265408109 6.391075236402464 0
24.15033195643197 4.801914904924458 0
24.25750038727993 5.410580709242256 0
17.50221398192221 18.19117815611596 0
22.37847004798328 11.50661587635939 0
20.53549208212499 4.229048872167439 0
10.43694632604852 2.803479656643596 0
15.49990284888849 21.67460719045889 0
14.3260590328971 6.167562629437654 0
11.86885611399391 8.241515140816162 0
10.82543381327427 10.25332798212231 0
11.35003528468428 22.72597357453659 0
24.56162529324411 2.803750858696141 0
12.77058357963423 16.04428287885059 0
23.87419286290085 17.74395597661817 0
23.99086782547658 7.47006475433263 0
22.79333941695645 8.765637466697786 0
10.20057532661086 21.13001520172438 0
11.06101673516844 12.65200554096619 0
16.24192627812104 12.7573630138607 0
20.2338433807241 19.79505697215862 0
13.29137102114808 8.779113950219799 0
13.06913656533595 21.96522226222777 0
12.20229769652549 10.63654833020346 0
10.68846912557118 15.09949410043194 0
13.13846873924349 10.43412465770987 0
16.35480188941842 16.95931211911175 0
11.16844634705446 3.666110827652046 0
21.10599761987331 3.156049455489221 0
24.29329729037686 12.4868226471471 0
21.5335315714842 9.769308611235024 0
23.31888456764607 12.53948737951567 0
17.21636332216001 20.75929993205072 0
23.35595502343427 3.787612883994091 0
22.61096652494284 18.44965472935312 0
23.54538251063316 20.04762635996258 0
12.13814666208544 19.23701527688423 0
14.90330610629717 7.673355885164172 0
21.26327524405673 18.13137271421234 0
24.21551003650335 3.828963106566262 0
21.99021607316936 18.75206924232263 0
20.14086085524907 12.77988385891101 0
24.33074097422683 13.09728928722467 0
22.49449407355849 15.42966493051812 0
10.98275565297962 4.200178468409614 0
20.94754045711948 15.62668784284266 0
10.18387722914873 14.34119570818277 0
22.16179891415482 5.9744005632861 0
22.53259254253476 8.609919854901007 0
20.40621317568142 7.060054200921842 0
13.83010875956031 8.671135346089493 0
24.23155047670714 19.20815672326238 0
21.77133670091292 4.233995893473043 0
12.25123170529957 21.9338752350534 0
20.06917012931867 13.4329153226278 0
11.48799376604936 9.715536744748952 0
24.8634951227671 4.837191892679359 0
23.99258390531773 10.00676420504083 0
13.40419238540221 9.747977300901997 0
21.36364637630459 3.877771262989936 0
12.17787543952465 20.7988592168148 0
12.79725185618531 12.91243656108893 0
11.42375227582543 24.26545758735555 0
23.16537389302262 4.240493554660272 0
21.81147165528533 2.803724926585011 0
23.26864327290124 3.51740076598855 0
23.95916119641687 19.35778042525358 0
14.89843152654164 5.60152747413211 0
13.34811908205736 6.029462094801159 0
24.2366752599019 9.1226555034527 0
12.04871634257546 18.38627457090632 0
17.80427560704484 21.23592781261713 0
11.8405441542276 17.53758862663453 0
11.99347966137542 4.10061117392048 0
14.0734017798177 13.64861977845666 0
22.50014658487989 9.571509891543089 0
24.89111326684644 5.683081876805728 0
21.83557597470425 20.60574216016459 0
12.35934806215531 6.882187949902566 0
15.07034782168486 16.78728378706361 0
13.4021188254738 12.598457981914 0
11.707674160469 18.91203416222409 0
11.1409413411228 21.74972189178949 0
10.40521420146169 21.77241970395702 0
10.99738343525401 9.033318380274052 0
21.67728954138759 7.019505380693727 0
24.84652950917868 11.51229566335755 0
11.07791704368644 4.654208124515677 0
20.66344424036875 21.19487821349259 0
11.07065222228666 6.318363186838816 0
14.06102009536442 7.169320243978884 0
11.33856075212835 19.74115307795788 0
11.35475424844188 4.436255899089665 0
12.64822217955682 5.519295369246527 0
21.10189433610864 11.79409630305636 0
24.65485007166015 17.24910001626195 0
14.62582991333739 18.31869591842872 0
13.50321614628351 5.067157766022394 0
10.74631214842071 22.43946353471295 0
22.350256519589 15.81758797082248 0
10.53109191891616 4.232102469098487 0
10.71298164158624 3.548048253543771 0
10.23083446959014 23.13898851454714 0
20.3566691190198 14.68443333526201 0
13.31086436002709 23.19394296196143 0
12.64952641944543 16.91336749112233 0
12.38270219427542 19.70245488232428 0
13.88714347680723 18.99336208654467 0
21.80781627909995 4.740588466128987 0
13.68240051237863 4.648790745599687 0
20.81977550841491 3.299334175046636 0
23.73428985491969 15.77858992742038 0
18.56092302810313 21.70271527683673 0
22.24988379002083 3.659985058919362 0
11.99887686404584 24.00634822286053 0
21.74795197296136 15.50081635396819 0
14.41777571408306 7.837602033480319 0
13.47817736911653 4.832833647353755 0
15.48936706268005 21.30377257992529 0
15.28567134814604 17.09795989396784 0
12.49996211122097 23.83293704218478 0
21.08973716970796 8.925896868006536 0
14.78814255495695 21.76678521918685 0
24.33483613894352 3.531752473269188 0
10.89892408177242 10.98825734451766 0
10.42829577396867 3.408032846342154 0
20.91192485994287 19.43161976908794 0
24.31545649018702 11.205614023816 0
10.99327854330643 9.688398453775932 0
22.73040681823913 4.509467570193272 0
23.08786993978685 5.995445253185014 0
23.93053227495419 6.840900912104953 0
18.65126464381387 17.21577405050521 0
13.39584520316904 8.05088366822783 0
21.9216657309555 18.31234150793887 0
15.38634383218596 22.27844011744235 0
23.95179928133599 8.983255021601236 0
21.57563985531357 19.96993636893828 0
24.01225994797372 11.76201790285709 0
20.52886824357606 17.75524058751067 0
24.94868703797624 5.976276374499275 0
14.49080051013079 21.76739463824997 0
17.95044091212725 22.14677733111822 0
23.28216656862383 10.42951805595046 0
22.13333333048408 2.687584290035317 0
20.78699411619351 4.441131417195542 0
13.74052272554277 13.05163108089569 0
12.02198659465914 14.93990560886619 0
24.76371163165253 7.166366299207315 0
23.35731641860329 4.388202367073764 0
10.16014089369968 17.51785315372501 0
10.77939491488386 13.93116723135922 0
22.11495823435318 10.03339565076869 0
22.02782051328909 4.804416851834178 0
14.78005096826602 2.979618414189857 0
15.19879847716644 20.79823767910791 0
16.53775848210599 21.7678607476778 0
24.27498110273871 5.753445458630484 0
14.08191327210589 11.3622742000172 0
22.56476180929781 5.951091213870188 0
22.83313673447132 9.895516479094637 0
16.96428571286854 12.70836442144616 0
14.02795055706458 22.15545248784939 0
14.53654972676816 22.84378901128154 0
14.24504288694929 3.823497605423653 0
23.17644578666244 16.56259441616069 0
24.40515995143688 19.91797677102024 0
13.89559829665262 3.156042535720512 0
15.61272473092163 22.345960606802 0
24.87569295125536 12.5194933491981 0
24.29626633235518 6.782576520477843 0
22.47028215601582 10.51677354107406 0
23.63164133962236 9.608877447906622 0
11.47765388323697 8.206026332994545 0
21.82245839922931 19.08600220921618 0
12.03531796677667 6.167312674133809 0
20.2104705065327 11.30966895170544 0
22.72120861971112 20.54998950836277 0
15.35900007152611 19.8457626221567 0
14.55006097660241 3.67387384161202 0
23.84012536318309 17.2743639990631 0
22.37740228880768 6.085369213668899 0
24.12256867337788 17.14463745109982 0
24.89051465567917 7.460443091890689 0
23.12866190891732 17.00014825532345 0
11.57612786124797 19.73498237276591 0
10.0946482474447 3.257959467499971 0
10.87430549920551 21.864563729197 0
21.785515532326 13.87682585080782 0
24.09458347074393 15.03779638790162 0
24.58043191486246 3.406358180604777 0
11.41551123005232 10.32097797753719 0
23.95039861430929 5.313694809265471 0
13.11123729969877 23.00510674517632 0
11.14546147275433 17.99846586610352 0
22.21797798834614 9.108489448615511 0
24.06835427950832 13.69587866585362 0
23.65229380698997 6.765483239284894 0
24.65130085595462 18.75390990272666 0
19.6241167862499 21.48598676689522 0
12.03195979498372 23.11285280554836 0
24.16403128621693 17.83593641553826 0
10.94315259553192 21.25286718602678 0
21.97971659755849 5.199385777957588 0
24.34260237121926 15.74838138493854 0
22.47915666116123 18.00562582128759 0
17.14545468608402 21.1391970039804 0
11.64017140029014 3.78424078538236 0
13.35857509913421 9.107180461580219 0
23.84473235190156 12.90222573526789 0
21.99189239249047 8.634518905203795 0
21.14493750901287 15.36583828603507 0
20.24200885307509 11.66268530070805 0
11.24479441761816 16.87499316840048 0
13.61704336943945 22.84302277468778 0
24.92794679215699 9.207470565779786 0
17.03860768299814 22.20812792655467 0
22.23768794432494 3.151011586190749 0
12.22269353557676 11.60921040533058 0
21.72913866337579 14.81802155623583 0
22.09317295624636 16.19446256657723 0
19.473852300105 12.93747003526667 0
21.27019134242757 8.016090960962298 0
24.95040204885654 5.140188712514849 0
12.86848568270929 18.47315487936799 0
23.99329557275538 15.60905896152035 0
20.61815945702722 18.39266287635727 0
23.50588581730596 4.948336022236963 0
23.74379781103254 16.20042424004651 0
14.16191470697262 20.07927630298893 0
10.92482771637551 18.23414222830326 0
11.69606609208681 4.868483293087157 0
11.89782131918946 19.67494712158448 0
14.23353184211938 5.877110127109788 0
19.21128967978316 16.90706744620425 0
18.86800612337876 18.35220129564112 0
20.09650747049927 4.501351885416923 0
22.61368317981091 18.89616700753279 0
21.71825835690289 16.13490672339798 0
10.30948201857813 15.76447440734537 0
23.00854845595836 5.157699015207158 0
14.14515579173128 10.94830608573673 0
20.62772490681274 9.824779172993104 0
11.9977588673483 6.95451334331957 0
19.27353033822536 19.95230746632208 0
13.07836789316004 12.61472110088899 0
11.2635009852653 9.252795137381261 0
12.93373483408914 20.67575194520006 0
19.83827978998617 19.1879335694611 0
12.5782659886257 10.52871056108978 0
10.10100132462927 7.67702600702227 0
11.09916562403021 8.737676227831464 0
21.60217062050769 11.33492626998321 0
13.0493971785926 6.381952670559325 0
10.21490635749213 10.7015028407333 0
14.77994742166356 19.66692094576571 0
13.91268098832701 7.514094091279287 0
23.53766442096283 15.26866958663418 0
11.06601692790649 24.28334107816175 0
16.50542968290348 18.89825521259303 0
24.40223617843798 17.71758780577706 0
14.84026151469578 22.11915089445916 0
14.07281604808342 9.154267605093771 0
20.50786447804803 19.20353926317165 0
17.30948160966878 12.70633165100368 0
23.43113823254214 16.9984089132183 0
23.26459641863727 16.05509860057418 0
11.8486564254586 21.97515564733091 0
23.46012388550402 17.65100831240938 0
10.53244428677771 10.08248187140501 0
23.07063932153551 19.32866415758527 0
12.56009004266949 7.100819731839956 0
24.42044376894345 18.14919739716416 0
12.84599695842668 19.65936141697412 0
20.82214447685858 20.36717340151622 0
14.74488702728726 9.074245649845459 0
24.27416644495032 16.03924861552966 0
13.40715322111768 3.866204688594543 0
22.09274106455823 6.506749730132548 0
10.97502440904727 21.55461693472028 0
14.70195122319559 11.59269528841272 0
16.52496635472426 14.19355567029203 0
15.16894139981644 22.93580372843441 0
11.83073017876105 23.20558325320984 0
14.73675866680057 8.418015394932647 0
10.86622131017268 17.17998494378509 0
11.1659590943221 21.18753060027861 0
10.74416656923009 10.67946809842247 0
12.16412717263526 6.801297139589632 0
12.88542809543292 10.57390193851749 0
21.46296805435395 19.43752176230293 0
10.6338086590505 19.58751596478364 0
20.90575932235707 18.40643791029913 0
12.72978101717085 4.507352217791123 0
11.81630218760721 20.97299248365359 0
14.3852712756119 9.022729551139266 0
14.71522037422772 10.47666551939583 0
14.11562187110713 22.58898872229065 0
22.90087690969727 11.05370358357909 0
22.27027541710346 4.507662869448941 0
10.43593781487557 8.648793713042318 0
13.31201984951041 5.156801036085053 0
21.18888422146519 19.38205504841996 0
22.21456938438947 16.72462648988253 0
11.90060177393228 3.298976572014767 0
10.59342134051844 11.83558061459623 0
18.34431380830836 17.96285156409059 0
12.91517655623593 22.44850366794058 0
22.74406908517793 12.46052278505094 0
12.04588996516748 16.2560502154772 0
22.78917619171877 16.71308035746347 0
10.42869716551445 3.701958057053937 0
18.71952105410202 14.07056046316314 0
19.55079505925616 16.38844782310704 0
14.11653736265656 19.63301535108624 0
12.79208023805143 7.010685763819843 0
22.91215957683479 15.74188666341282 0
11.68723901959536 24.05421811263957 0
17.63232499372572 17.68186842202066 0
19.8796538440404 16.47865913674663 0
10.35670958175676 22.90680835526909 0
14.63517093738639 6.058071476987084 0
20.40022328746822 14.18735000163289 0
9.988696426801674 4.157014552368998 0
21.24672211799933 9.5085687704852 0
21.35898039760376 16.79523886725868 0
14.34709391008483 17.07385857409453 0
11.42167403334348 18.53436741979105 0
13.10280489115685 9.29657689602186 0
20.34674517336453 13.09071232418972 0
23.78098550723414 19.8469249240774 0
11.33750780336983 3.878839273390239 0
18.76372262560495 12.82976277807278 0
13.06966289588985 20.086566284068 0
18.09548544845303 15.96963570083368 0
23.1632760111689 16.28854020873735 0
17.70815631785454 20.62598650910669 0
12.77461114749973 9.711037538653517 0
19.17918328535142 20.73008151304066 0
12.5780499923299 4.061274253938592 0
12.74802379477615 3.654140852297702 0
22.84731586160204 4.650948501130713 0
18.45164741577516 15.89107554525846 0
12.59171808709507 20.96228595191603 0
22.42182623785882 4.06235235779568 0
22.89513017023373 17.09865671627876 0
21.7682234922893 17.7444542436651 0
10.31757491682813 19.4427316974171 0
16.06177733277354 14.00846579503621 0
13.5510219318671 18.03809745778359 0
18.13780957945722 19.33260757846878 0
23.4901717865709 19.73657228135664 0
10.35907059991825 5.769551025406022 0
20.41669654954969 11.06934301343696 0
20.09359947816638 7.672819785504533 0
13.94993263793138 8.127505331403949 0
23.23891399918121 11.00562279234294 0
22.9876254547898 11.44669386634073 0
23.56783929405454 18.2909966980405 0
12.50461158149905 17.70570159415517 0
19.19552511405056 18.53883267912606 0
21.82896586416037 20.05030072013821 0
11.91143538085246 8.754361126440429 0
10.35446673754572 21.40594434910888 0
22.86666665748851 2.715367731119459 0
14.91547521777677 5.109189131054993 0
21.04370301028867 9.695597349249397 0
16.84435865560192 19.95027487626418 0
17.03399070474168 18.33038802533547 0
12.01654912469406 21.42949369399738 0
20.01329315599785 15.86090895496348 0
16.2707397476116 20.04719975552388 0
10.6688214183434 8.524033852613675 0
22.29090739349003 5.494362216538413 0
21.32875859656387 9.169739841681611 0
21.50121102356487 8.500109550425451 0
23.82901743383104 3.666313276877128 0
13.68830781133625 19.54652808972336 0
24.5810857432965 4.205620039316795 0
24.51019528439362 5.315270792103155 0
17.65757498623918 12.80125527859579 0
14.91739279299547 18.02307850673035 0
12.80674534469686 7.294306637518869 0
16.40853307740784 22.00695231903583 0
21.52162803092573 12.22979911616965 0
23.00427739193868 10.4052997721589 0
24.84058650625525 8.889844335212437 0
14.24017044561796 23.29696716398156 0
14.01054333562503 5.279210950289894 0
14.23290129911034 18.22024954772771 0
14.06452033117708 8.435692252340663 0
14.46896490039352 6.513225773740326 0
20.79595746325161 19.74308193816596 0
21.59189550602943 19.02065314179739 0
13.74464864110737 6.447615490424581 0
23.15079755512916 18.84012805475326 0
10.89587368480812 6.15336156982214 0
21.0043669734502 5.273730805944268 0
14.10368955888546 5.017760683282307 0
22.17273948896994 3.938295423542287 0
24.10898458921092 7.064321668276969 0
11.35934164842404 20.72987298968503 0
18.8485126599182 19.0968878416183 0
20.30178128563589 18.90378636078509 0
11.61159661924568 22.81044362364357 0
24.83530374432842 8.295989069055318 0
24.92893942532251 8.55447161371016 0
17.44432567813093 21.64983783967459 0
21.74434110795989 5.779041479641019 0
22.53527030844606 8.267005887371205 0
13.60173461322144 13.42301235660264 0
21.8845328508123 10.29160091073684 0
22.42702766878528 10.21325044475183 0
20.14318247537443 19.47084565172637 0
11.56511095041814 6.351997484873233 0
21.69835972034035 7.731608572680869 0
10.48320212666694 10.67542095755172 0
12.85594148457651 4.660989177178958 0
12.8666666638535 2.688000718800178 0
22.88955177632735 19.75751203643739 0
21.43574944480501 18.37585378189443 0
11.7654651031062 2.817174410177144 0
14.83933364455961 10.21474923580063 0
12.8514642933058 5.985820702311811 0
14.7095758545207 18.75148306522534 0
10.74384356655313 13.20277356466113 0
14.51363554414566 20.8908426809475 0
13.29105900975097 20.26521936412419 0
13.54122050889151 6.802838116768603 0
14.50371742479261 13.38165553131004 0
22.98210915942968 17.57023754100634 0
10.57267531987422 17.96705291504409 0
10.71040320936327 7.496314876079477 0
10.1318092280267 9.610038527942564 0
13.23101342903266 20.58385699076817 0
21.64130319202837 9.082601643217243 0
17.74116450740652 19.04166044999288 0
10.01483238181684 9.93749198582115 0
12.5819674567108 6.096704078637161 0
12.97237873969652 4.804334320230228 0
21.43781838574882 7.752159879624452 0
9.958753049782638 2.704837864943663 0
12.42078158752986 18.31897536395559 0
24.81025087482585 12.87555371528061 0
24.68267746788735 17.65656441059554 0
11.06123328629399 19.41260182937101 0
17.05435691302485 13.25278301493669 0
12.71435213484255 11.9228544618814 0
11.48423539559124 18.04717654207533 0
13.18911055427054 2.803938953876454 0
10.17017238708548 22.62972802511043 0
11.0500617278082 13.01854901917303 0
22.77670511530998 18.63627972053607 0
11.34062259729751 4.710132590598913 0
10.77333282671947 18.94951882885225 0
20.53598204248971 6.511264734130684 0
22.16700440093787 10.6931488434325 0
10.27570498605705 20.79480965796302 0
22.79686532116058 9.14011107807751 0
22.01627455846314 4.35271429470636 0
14.04148713370678 22.9678015131245 0
22.71819928515963 13.42709281176488 0
12.34290505487726 22.31526333606611 0
10.91388657556193 22.18314626766721 0
20.09218516808293 3.906611041352259 0
11.63269086467128 8.855259517970657 0
14.36581594069073 8.501955720794435 0
18.62901927731455 20.6478944739611 0
12.73237722180792 8.801318565576931 0
21.37166326228241 14.89234120689846 0
12.49361294348943 9.55417919640057 0
19.4519880138088 19.26299786259628 0
11.6640849387283 13.7518494513398 0
24.85538920316874 11.82475203273511 0
11.65847663577665 12.80663864681185 0
23.76963349681893 4.153632789591088 0
19.15744768927538 18.93648480895212 0
16.23773576340163 18.18126256637128 0
20.84276552200759 16.81416995873045 0
20.36706003388926 5.042499835620717 0
22.38713713790237 20.54915426356092 0
22.83222580500371 7.227850296257146 0
24.65891796527001 5.075219358389163 0
13.40547968792847 16.83724376078997 0
11.1175054984331 19.83381476767505 0
16.49955293025393 21.46267323514742 0
16.73185482774473 13.7786982603188 0
10.86618747255516 15.43516140407553 0
13.2921911296115 14.14558060850019 0
13.62630645967966 3.334448206326419 0
10.01088031180866 8.848691814298952 0
22.26030547923239 8.788525758284857 0
20.66516259373703 13.12136762028053 0
14.46977521791544 2.854887875614919 0
14.26317137777476 19.29835509797794 0
20.13858361348908 8.66310213356843 0
18.72195754498927 20.9383283038995 0
18.95040690554242 21.10464445498441 0
23.4573257491418 3.384482759695482 0
13.48812844361374 6.509813017008512 0
22.36818679113358 20.26868521503209 0
12.8766858330699 6.565197830227503 0
11.82818416821564 3.055056575516758 0
12.23805775421574 13.16811252389929 0
12.56605573380282 6.420151805736055 0
21.49941022141856 15.19756948685616 0
24.80709856004104 12.15999264679762 0
11.81479444239819 12.09112669917265 0
21.32729564579641 17.13583941392569 0
15.90506877233912 22.82884273130844 0
15.23262341241486 21.70295740612003 0
14.06325328245042 3.640404134816399 0
10.206947631644 16.19203066033415 0
15.65886949228248 19.26676995360524 0
14.41263485803954 17.53121171252573 0
13.35719673676293 22.90500927327835 0
22.83138375161055 18.18674602133061 0
10.75769749577665 15.74876316012001 0
15.13752297654679 21.10866227102044 0
12.13333333476162 2.715719887311782 0
21.02191164586588 6.299517733905914 0
19.23600100713223 13.43444852974467 0
20.65079813278936 3.098622272789619 0
23.02898759676812 19.56373350849537 0
11.65693669906283 14.20234459903375 0
10.71566938263508 9.184362622296451 0
20.75511223113332 3.823285648263012 0
22.24490664383754 20.00203219611144 0
11.29013857351061 14.8101626679859 0
20.21828870530635 10.7883708118639 0
14.21342987225342 21.27848041244724 0
10.20988467676555 13.472060341909 0
16.79341782428055 21.65652382726927 0
17.70552777971035 21.53773437094302 0
11.2751598578259 20.5126462684827 0
13.57322604703965 20.10740286939177 0
18.63487658312622 21.29965677450473 0
24.43121132265787 6.039433225298917 0
17.1398766875426 19.4610934315088 0
13.28710725953226 19.07524142952701 0
13.43337095412505 11.35375272933414 0
23.69034545868313 3.336517431942957 0
13.21221668588436 3.468643331728314 0
11.31009191615004 3.334475793504848 0
23.9680222926941 9.700175895758656 0
16.16048048456276 22.61602003701276 0
24.84639391244979 6.469394336442872 0
16.83146530453757 16.32607914963793 0
12.44832967223531 5.667103793960469 0
17.15355674016838 17.04658494936867 0
12.72182225250816 18.91721870681834 0
15.90774530828067 19.89682473438734 0
23.63665035602423 5.806896568734011 0
22.55185951322541 7.662632584407376 0
21.25753536637438 4.187938362249025 0
12.76215434573087 3.150572231537077 0
20.08456103466405 5.109276799215181 0
10.23238181516827 22.28640169626322 0
12.37299285172974 17.17527986054889 0
14.71894105618745 22.66511728489142 0
14.9327446338587 3.280254624336552 0
10.06135150963347 12.10333826770388 0
13.03910991989601 13.30790786458547 0
17.0248364143516 21.86346174203915 0
11.42766732551217 21.85915744029547 0
17.41476984577231 16.68940560230218 0
17.46521947136638 13.42129834321541 0
22.30757965279716 13.41969601122049 0
16.59287358477052 20.90112437669944 0
10.11456691010002 3.877999045956743 0
12.76557089180585 23.38333638225488 0
22.54739206990543 5.544151637490931 0
10.10487897853649 10.99403313623927 0
23.03974495603119 16.74666093849757 0
24.31885012972009 8.455533975571505 0
10.47161860992449 6.105107309115151 0
22.06819138940768 7.333268347048433 0
15.31850873833711 22.00915713248294 0
23.55378212900366 13.93253561152068 0
14.88718662580127 21.26351452291127 0
24.018701081739 18.74414547747341 0
10.83762583448118 12.06919092508378 0
21.17381500392268 11.25107894217713 0
12.65668261325825 22.89487693830274 0
20.60403871850341 8.808992845117842 0
12.73926984831736 20.4768704651787 0
11.25201083081105 9.546537994568157 0
11.81871659087617 11.0608243707606 0
22.81618196946641 5.415101687196031 0
21.09100550675858 14.67631218958002 0
12.11570277681803 22.89148032153953 0
23.40228880985787 5.806049121861608 0
21.22089215046478 3.644733238950777 0
21.5258321803186 11.02079030232916 0
10.7287069280881 3.815898111392872 0
22.84784310149793 8.116826015299239 0
10.87561991942347 5.554064151500309 0
10.7568590315309 17.61076407375237 0
22.95514189480819 4.769819965495767 0
24.61677954160934 11.94634178785214 0
12.82653710822217 3.931220281035579 0
22.01196758853846 7.637423093987224 0
19.17486882191066 12.75457914558782 0
10.82931237090492 7.814035685890094 0
20.53266593062822 9.514575625500656 0
13.68842724248497 9.23609125237746 0
22.21659001429124 19.13183750207132 0
13.18165046890158 3.962091236213209 0
13.95431352012829 2.754729485036123 0
24.4972867295798 6.452314597663976 0
13.52090388896987 7.781290282549869 0
22.63371582024301 19.30152056655774 0
23.026613963165 7.414500433524133 0
10.16922080591775 10.23820725985997 0
21.6054057656097 18.54579884767536 0
12.59767126256554 22.03716370109574 0
13.00215156944367 4.995680623676269 0
16.52835913172226 22.53926942501961 0
24.1476650898005 4.510757853883016 0
14.98998591794355 22.62525342181378 0
12.53589122620835 12.17700436237344 0
10.63224143534563 6.574969631351042 0
14.40735786922857 10.32239677216513 0
24.61647942423231 7.410962810254865 0
14.83774556263383 6.576025440311088 0
23.60955008980099 2.805515553822652 0
11.28721490277355 20.28885594730204 0
11.79303984049426 7.614093185353694 0
12.1707859522538 8.054505976064268 0
23.26298309493322 11.54682039798886 0
10.59338397910206 5.323096205781212 0
21.7850551342903 5.578430953950114 0
23.56664146041444 17.21335327368055 0
18.24751724121908 16.55842490498598 0
24.504716537923 10.02751261770547 0
19.00523773927906 17.74821929038719 0
11.24416995264372 23.32507346696231 0
22.60259703962801 12.74528743582956 0
16.53675772453975 17.35857607806444 0
10.93330765149414 8.497429303164191 0
10.75143741052716 24.45756065734915 0
22.80805742286539 16.2195882881769 0
13.07992265909178 5.457671715964626 0
11.60135343732722 20.15656097811405 0
15.11207656112309 20.19434255346401 0
15.27066346540071 13.19177277775114 0
20.2979036488711 10.42376187898379 0
20.96729329264007 9.459853594591305 0
17.52612273927713 20.94334517721423 0
23.45587580686395 7.207151928160138 0
14.09684672877271 5.632185954175341 0
12.82173332761002 18.14550020037998 0
19.69543495277981 20.32919448647438 0
12.06752617892607 15.47865276302864 0
24.04659727669175 11.24482726914642 0
14.35660415890941 22.05036447163743 0
22.50748108914999 16.99505090803855 0
23.53927757736605 14.53417523606745 0
12.17991927805667 22.64561674459576 0
20.368683809074 6.056905319201974 0
23.13090222057242 6.517098996461892 0
10.52442617762109 20.83786584124793 0
13.86672659524962 8.94761692675545 0
12.57389315771232 10.18568692739233 0
22.09740179555502 6.765085620931412 0
17.82886760934703 19.4711534994378 0
10.13471650768929 9.16170338171245 0
20.64283384415267 10.8647739499997 0
11.84400682588094 20.56302651338684 0
19.98447289105204 21.4306914427967 0
23.71043733802644 13.18481937434115 0
9.944614733244178 3.050751147636081 0
23.49822862291375 11.12474632252001 0
23.00363086973037 14.10389838305239 0
15.40457693370232 18.5050067051568 0
23.0969349918103 7.647135117004343 0
10.19668217104453 12.33248506735537 0
24.95490566190599 6.231550740503836 0
24.61651872203299 12.35405026813137 0
16.02251089661697 16.72190273297874 0
12.99229671741004 8.329768589821395 0
22.46003116893715 13.97990124339847 0
24.36439048682384 18.95125395669427 0
13.05572949833622 5.662133219391808 0
12.00593177625824 4.350620318556937 0
10.58948437333671 20.01150720188117 0
22.57849644920415 6.788253531198918 0
13.47545238967972 17.32817429408754 0
14.45124680379309 9.96323610125578 0
20.74951384001198 10.36252547130962 0
16.10115417774464 21.44892589154884 0
14.78663758063829 9.415646261423003 0
21.381123524807 10.13439945023079 0
10.0433991345871 4.439188742144566 0
17.94919359767123 17.33572101223155 0
11.12032173063605 5.15952917531314 0
13.6391367549421 9.571392932598775 0
13.47595528184361 8.331679828337355 0
13.28657534042723 21.61660908681058 0
20.13797000015887 6.97368407278809 0
19.52120723016195 18.40254385539334 0
23.47139239549336 18.0264663753022 0
14.06073844031432 17.87214506038387 0
22.1823636084572 17.09736594293245 0
17.37528431017783 20.15078170564645 0
13.3517196626001 22.26092358308053 0
11.84626156219161 9.330830159184522 0
14.8599823314188 6.978509835835765 0
18.70212447364851 17.57937538490931 0
13.81137742967902 5.764569740589844 0
24.57244438825073 3.689552272252452 0
22.83344274088585 6.358299392168141 0
23.4975035094375 15.56436649456968 0
23.65078048767565 3.881267430388462 0
24.87735115772724 10.35545479515689 0
16.0839734485735 20.62150340285612 0
20.49937087234632 5.576852967978522 0
23.12173290805865 9.309527622949904 0
24.40273375151758 14.404737674947 0
20.76412249148095 5.200139701328045 0
14.77654632867668 11.24076365216491 0
23.07930097138479 18.26493356335588 0
24.83712634745451 10.98522237667949 0
23.55914888754963 16.7667619600937 0
23.36497280203123 9.103343636920489 0
11.09330676149187 8.22220273922704 0
23.86539934519093 10.31710412621289 0
20.20945370848396 12.30166019480411 0
12.73564620991411 10.85848200678707 0
14.28652196669879 6.71517340491909 0
13.58952137196052 22.35225366063503 0
17.2140123516664 17.46225665237366 0
21.89652623493597 9.289086978066068 0
10.86368530904567 18.59778652362282 0
15.3405662398098 15.84249670775799 0
11.27245961445198 10.91254601690325 0
10.22847113775855 19.95976792694423 0
12.92568612493609 21.6482514113694 0
10.37618286400086 5.070268880085209 0
21.14381973823251 8.655216534025998 0
23.32039065236292 8.770954690766091 0
13.21181429889225 4.478630058934493 0
12.66211497279406 17.3689276456626 0
22.85270217957525 6.925410557775898 0
12.18727436398583 9.158231854810403 0
23.42331557743143 9.945141473639165 0
14.00317188702648 18.74661906085035 0
24.69687238480464 5.898895651374724 0
24.78005590804138 14.75550804103464 0
11.59426842020978 14.95887740870894 0
21.99206284803927 17.56949983612775 0
24.12310682063449 6.55420898250661 0
24.0548881082084 5.668117648199103 0
10.22532678578012 20.50649292252336 0
23.8827915366224 8.686745408483691 0
22.15083523458577 17.8724047765474 0
18.13920268202515 21.12062514335241 0
20.56552387976567 7.519852530413032 0
22.08183157885376 13.08972946265155 0
22.84060057068775 13.80078351988178 0
24.75906813059076 18.43556985082684 0
14.90797330271922 3.907673475434104 0
24.92345174258278 3.836134624914082 0
16.60997673795889 12.76728702964476 0
21.90924533216995 6.120318370344632 0
14.060423900154 7.863115962998044 0
11.6351083267538 4.387341687400808 0
11.67992787042717 17.81379478448397 0
24.86494034514806 9.466126937018213 0
14.60124631670553 7.06545157738624 0
21.55836786054912 6.455503310138853 0
23.7955899825034 8.15512682695009 0
24.45847742137552 12.85628948670136 0
22.98730219544646 5.619972961748371 0
12.34019077813682 12.53080537898017 0
20.96287095181541 10.95648938569169 0
21.79572092892983 16.96888881780712 0
20.11795427438913 18.24644180007974 0
13.7724280692905 23.42088537835275 0
18.03586040210329 17.72260100625043 0
23.69120324306826 12.32772102865101 0
11.53998773206935 19.37008281774573 0
14.89653099030907 6.224173304257059 0
10.7768307129708 4.443112301143973 0
11.57863155934862 15.65510612973905 0
12.83205076721031 5.761540321182123 0
17.85714285031339 14.06498105623528 0
24.48331309888181 11.48164831963804 0
22.87454054204589 10.17181371104115 0
12.75584242230458 8.131472068514613 0
23.89878533983129 4.644445255671044 0
11.17927585356792 16.28998857609789 0
24.04992134478181 16.84666128012607 0
24.87324298494602 13.24261601543124 0
22.22921197564307 9.724693360066238 0
20.26338531321333 10.04196799728837 0
11.07959934042708 22.84728761256615 0
20.89042681531244 17.46900578596493 0
10.07371675152559 5.101559766235088 0
21.28063874301045 12.35018354142657 0
20.55319894355451 4.751083952477787 0
12.37685656997605 5.454536492950081 0
20.69688491031482 12.48758074307526 0
12.17662836461411 20.31492954700038 0
24.3534041448972 15.24697782950733 0
20.74108560240161 9.302440425268994 0
13.75594294285726 22.13477301757608 0
21.04735109986247 2.755332602077977 0
24.01426612196352 17.50340556828794 0
22.13537713970864 5.726075634596816 0
22.21902063119153 19.66182336396744 0
11.70768377123184 6.58332262622893 0
11.17105156234139 6.55589509491701 0
14.32365806749652 20.68851637081706 0
22.61545201625478 12.16395660043414 0
13.65724290167092 22.59832608046818 0
21.52314012293483 20.47791895086164 0
20.38945503333831 13.76226213699456 0
15.98446991025681 19.48865389702085 0
13.31912450200747 7.266854805193372 0
14.96662665077037 19.04366267189019 0
13.54105998438683 8.598843089105145 0
22.67015419463232 19.60748792672197 0
14.4643871022262 4.229381240437422 0
24.38721129702677 7.555213254918026 0
13.27551114549266 11.95713452638553 0
11.68768340263154 11.63591567796922 0
13.73326104631409 21.61445231843518 0
12.63735707802408 19.21987199826716 0
20.4936357093876 19.78368733912584 0
13.84125809343659 11.8898286735879 0
20.14404936270362 16.24692164770667 0
11.48923110747329 18.79348514757098 0
14.19361150105039 16.33710819138522 0
11.20396390158406 6.807317704653306 0
22.00331867953234 4.142894670390842 0
23.9582509522541 14.00028338357778 0
10.69382789850132 14.5256567735798 0
15.83996039147714 21.73750093396045 0
23.66353044370017 9.221788193342562 0
10.46021808806972 9.70924716553302 0
12.22555813369556 21.06901399248777 0
22.33498585814379 6.911478944967654 0
18.55627932776704 20.03846958899105 0
11.39561842181968 13.14422170329133 0
22.98331457265149 4.345620267140014 0
20.29570867745628 20.17668209913787 0
24.47169602671683 8.852548288429878 0
23.6496242916408 6.441173080498901 0
12.98374467170179 4.352424673256301 0
24.02972916674681 15.32782253045376 0
10.9422089220509 4.974646745416152 0
10.17360657250322 19.72835947504904 0
21.73775623800901 3.739736081293371 0
21.69231531023619 13.25085642072582 0
24.36057512707081 11.82237772753017 0
10.93265864006363 3.665285281108509 0
14.07857496430796 21.59842793337442 0
24.00311031146896 3.189672438906152 0
13.5681818048825 19.82720844771811 0
11.64485734302493 23.06302400443766 0
21.27803354088005 20.94410454667613 0
16.54723168096677 16.54252314522908 0
10.17445498932653 23.72491916306971 0
11.73049135799365 3.516485875542969 0
11.95967930613678 19.4236540198674 0
21.0781313678015 14.29099719469713 0
14.40574907694637 10.89100596323461 0
20.15770900552436 9.141750319471496 0
11.23100433628346 7.300741406428903 0
12.88155752822394 9.988501295977041 0
11.5420752401209 3.383221540302442 0
14.70340208504488 2.710830898387494 0
10.7038672027996 22.9960957242936 0
12.48637032116735 11.43579688879591 0
21.78819954338156 4.478769683459363 0
20.67884476655901 17.97184643766538 0
16.33023420220737 20.38910685528826 0
20.11122386820614 20.42908554099083 0
11.82783892515661 23.43584829235543 0
15.90074812591154 22.28076659141278 0
21.93523320450313 19.5456175618187 0
12.39641425726846 19.3812414148326 0
22.82402090897492 11.95016918043386 0
13.18119115847554 22.42921552439409 0
21.67925440683089 8.78718134205197 0
23.37704273785444 13.59005836149676 0
23.27932755777127 5.543376308997362 0
20.66751429174303 20.68666199739251 0
10.9735709279924 7.226519543637361 0
21.24768134530233 6.812370574438177 0
12.18963701978833 22.15962886267768 0
14.78153647338267 12.68923968308398 0
10.66190431348433 21.24371475392511 0
18.8157459870541 15.9124127288449 0
14.00120840327205 16.98531815811929 0
18.95588363433884 21.74919303642667 0
22.75356090259363 3.198636196683935 0
10.14531947819421 12.89525405533349 0
12.37096349478142 7.697865695559802 0
11.58217722037086 9.966538682393374 0
10.68101849597419 23.81351635433771 0
12.44948970962056 8.626991731969836 0
11.53422862534578 21.34518130137764 0
21.86902288122173 6.396215269306452 0
21.75095157237197 20.331126923721 0
20.36859329725293 15.21321946720425 0
11.04279765307516 20.69627738472886 0
12.30205561383404 7.371727299116083 0
13.5565088167395 5.575949125773835 0
24.82689228639639 15.80131498600279 0
12.87161638339202 5.373290810111368 0
11.4362642930986 10.61522814162637 0
18.32775861093542 12.76309466459091 0
12.26621361900332 23.53270844739017 0
11.95450790204281 20.76424849467222 0
22.56707564318254 7.365634736725703 0
15.53405614709027 12.68698783197043 0
21.85960777981432 17.93692743648263 0
13.77883691815452 3.642319240923484 0
10.45418891680348 9.012686212094469 0
20.12235016332368 9.807354579573923 0
11.30375299328299 6.337799067391824 0
12.36001764001884 4.056816476285428 0
24.9211256705751 6.922416600555859 0
19.76301282273225 13.13267142044115 0
11.96297216378693 17.2101207633701 0
15.84776879505751 12.74328189511221 0
11.41340907482224 6.991518662100252 0
21.91994230969429 5.39771854240792 0
12.17613828727056 11.96701286479665 0
21.26536748616513 10.63857573754413 0
11.09126326456519 17.71390809515483 0
14.10699268481674 14.09737025366029 0
23.16953331811793 3.055354541904229 0
14.45468790027893 5.268789033181951 0
13.70540953115381 10.60702292786438 0
11.97251706752173 22.18171156720355 0
20.54541502089891 5.269902085103489 0
14.97547275081962 20.56887814646151 0
23.00559867031506 4.101874527471168 0
24.37919597584976 17.2025072203532 0
12.01121718546204 5.604176027565114 0
17.64058296736595 13.13931495876508 0
10.20022291722645 18.33930234044404 0
22.50505263632016 9.262273125259627 0
16.67570120993858 13.44076306825104 0
20.01903724937794 2.761683030349085 0
23.83634421749092 20.10462377757936 0
21.49594951328194 18.09473760277518 0
21.59764649088934 17.37958054432823 0
13.35784306952544 18.81741870154348 0
11.36181189834993 12.53334363499289 0
22.10760217404389 20.68038975328706 0
20.62535548497203 15.82584157853115 0
18.01529188406937 12.70576737490152 0
11.48437937308574 23.81471296425388 0
11.64000022200912 18.33409728528626 0
23.70847161801237 18.48366499210172 0
14.49211795529839 5.596485429919339 0
20.61718132132962 16.19150584474155 0
11.84168614628795 4.701912212679359 0
19.65905180925238 13.70255348311665 0
11.97073779169448 12.53750581276813 0
13.64167169055278 11.13316740463559 0
23.58164774424891 19.41140110305293 0
21.2056696077013 13.65433834581872 0
11.97128539853615 11.38914898867567 0
10.1272042098894 11.66239140255994 0
13.06629809584092 3.153506563240408 0
24.81541332403499 14.05428326303076 0
13.68677308880478 18.44118473347556 0
11.2021258107406 23.76597261051486 0
24.49735968871969 16.19292930142405 0
11.76688565952482 16.25637958888928 0
23.87907839353538 14.51332843552478 0
14.21888115514207 15.89274409339592 0
16.21341040731056 20.86996987321199 0
13.9290269178221 4.639917351171774 0
12.30916982345138 14.11148283447275 0
24.78794994091666 17.95286540004308 0
10.73175299719031 16.51328550590783 0
13.07120933691113 6.144397733860602 0
18.81044379002114 13.18061331994233 0
18.93825277990937 16.28848385704365 0
20.58645206382354 7.838523342832159 0
10.09408194549553 13.20314368116424 0
12.48964721473163 9.271529343394961 0
13.84773275638995 6.897129680395094 0
13.61818949197702 12.3808876132734 0
20.80173592022404 9.024544780334129 0
24.46111232252111 6.969550732777277 0
20.73896195700682 6.706431176894229 0
23.96666664885977 2.71299291574387 0
21.45875340699295 11.86629182302617 0
12.7546012921659 13.57974807084707 0
11.03333333486568 2.712470537680823 0
13.57379061740972 12.0626144057805 0
10.1892413879208 18.00209628598153 0
10.16005809217499 16.74186665456625 0
22.1182151168349 5.355453569577162 0
13.91791865288793 9.788820882018365 0
12.62984169070451 19.86737894041079 0
13.26068839534944 3.726024200166347 0
10.19280527331708 21.63397022787326 0
11.46265214707569 11.17879261207485 0
11.26302951291465 17.20775505000208 0
20.91281451432124 7.160055928479937 0
13.75086595783176 5.203907601639243 0
16.81289381758074 17.64059747681712 0
13.66764048784418 8.084506434671354 0
21.27364254433328 5.208801034245723 0
14.78282640729528 9.961067882948527 0
21.53090453054774 10.7336931198221 0
23.89014396671532 18.31662302963476 0
21.25809744256255 6.402002528166292 0
13.23011124961606 8.251543295299298 0
19.41366332016579 13.19876204187642 0
11.34357715171245 13.53479746441245 0
15.71007984371199 21.07282870482582 0
19.93888888828613 19.81955525152934 0
13.91508731833647 12.46018101535361 0
14.97218891218658 21.59098629183156 0
21.88399463990738 11.16076115481955 0
21.75066240934857 8.275576079455439 0
21.93491588680382 3.152602270794239 0
13.87644644505451 11.13181081022484 0
11.14169754351167 10.20767796234966 0
23.0395035440219 15.04911886218231 0
11.13690402248537 6.088429770905013 0
13.60176441345545 10.16973977976936 0
23.91140559213625 19.07572129999348 0
15.07595520362687 17.40986107656283 0
10.63075644591036 21.81649365045574 0
14.31347947730345 13.06456659610456 0
21.53651090822254 16.95138580152815 0
14.87896866876689 23.15963332831466 0
23.95733438307931 12.63271588600824 0
13.82311667757545 21.20223570905102 0
21.09468185619036 16.61824355492865 0
16.60737483510751 21.18473511664132 0
24.83856925528431 15.079110362179 0
22.62188933291977 5.768537817775774 0
20.06209776409546 16.88512932156015 0
12.44999364813889 11.10790406343998 0
21.09562735231286 17.97718746934173 0
11.20989262091818 7.671338031257992 0
13.50309710427595 2.755470422731426 0
24.51779781139145 7.847524865553494 0
22.27456384997911 12.7486782839224 0
17.321852638869 22.29822409786336 0
11.06395232106647 20.15360008065289 0
21.87051251532027 7.167389922718906 0
10.11969646270646 14.67858366558885 0
12.98996977903987 4.133190099916832 0
19.98756942329223 20.96067297977862 0
22.51244746979747 20.08458277968206 0
15.03342831584725 3.018592180766698 0
23.04708198641601 8.60197889586354 0
21.49797881046126 2.755363121972313 0
12.00228267550363 23.634158435352 0
20.04536835545335 17.93312665800704 0
20.31555977506363 15.66033337749127 0
20.93671994449525 3.640486875831528 0
14.8597282921362 8.7466482637844 0
14.77790042400693 11.95364787135644 0
12.84594518895453 22.24362807331021 0
10.11516388917042 16.46944170409616 0
24.93158467384432 7.723583857023883 0
11.13254201398294 18.48867804953701 0
10.58316330775132 22.74432136337703 0
12.95920647819954 6.823470733395365 0
23.07722297218103 6.767212067650522 0
10.97250303281791 6.947254519876678 0
14.83955397732593 13.15155577570283 0
15.21286535410724 12.72608156823999 0
10.52610871465295 12.86551451005901 0
11.62338477550482 21.99353649751516 0
23.86054679982981 5.898571766921603 0
14.42635171936819 12.72816302275709 0
21.05764558328856 19.20716634934865 0
12.0443704989139 7.80053987227768 0
21.19802166800671 15.8885033987562 0
21.87303153040283 6.884347688336296 0
24.51207998027461 10.60228807234542 0
10.99732625659316 3.189515704799398 0
10.6509701754306 11.55213594688648 0
10.86109190197489 6.449911223864365 0
13.19125938972917 21.11988344120703 0
20.98795885686901 4.214077247968202 0
14.01200479510361 4.214125003214142 0
15.78888327969799 13.22967829852508 0
21.35074783240826 18.95057138518944 0
23.31435597591234 18.40801397806584 0
21.99788369315958 4.994794102614994 0
22.68211272317925 18.26720388995969 0
13.47638880226682 21.51807051087319 0
20.67417661491752 11.35626939234249 0
13.79227277193103 23.05303007840222 0
22.77459917288857 14.86095530521234 0
9.999276420381602 7.397028635420809 0
23.74729967249716 10.89605139385023 0
21.56361726185408 5.486476025356026 0
15.6159371878683 20.37569613217557 0
16.0576825339011 13.28326053310177 0
11.04963361244041 16.5806656753712 0
14.6393019455841 5.034813192106393 0
20.77142861854309 2.750512361255147 0
11.57887663425329 9.13690835250793 0
16.83693637753745 21.07443860800807 0
14.22903888088465 2.750293478750214 0
20.64415337233202 12.11999194246271 0
14.98113169144095 2.761659292130546 0
24.14481511478857 18.42387360048854 0
21.69005861773392 5.145816344409476 0
22.36873152113592 14.78757837704736 0
14.01862211353348 18.43806996519291 0
23.00634066385334 12.43741536163641 0
10.57477555398411 18.37911430024808 0
17.91885044080334 13.71262320198952 0
12.14809103259284 5.386378232847736 0
22.21116515295503 11.27981371538798 0
24.47798920712453 14.95667266229976 0
22.14410670399446 4.661163313060223 0
13.7288485418981 4.441312440798853 0
21.27113884001183 4.441324957279224 0
10.51711493171235 7.332215718217659 0
16.74594738396874 16.97398950002575 0
20.29704933812239 2.711084021419894 0
13.79775984713739 17.26955786712379 0
21.80177815864958 14.49534521367178 0
14.16671941704184 7.426082111401278 0
14.35032097614218 3.097585517062164 0
13.86665227998247 11.60292594772138 0
14.70304056786958 13.64947098125724 0
19.96675054220457 3.018385140949607 0
12.71152803964887 21.09621450757947 0
24.05611358686526 8.487279991894798 0
20.80112275983595 15.24529925981458 0
24.54367884735172 14.06692807600824 0
13.62385214854409 21.90155912142797 0
18.95653320924627 20.51626482081232 0
19.46428570502193 12.69311381291077 0
11.31449772905881 3.081295434542381 0
23.68463328206724 3.081857905565167 0
21.9395863053004 5.695465732233171 0
24.45606322718972 19.34717495311462 0
14.63206087157304 14.14176163855403 0
11.81403225721555 4.493814493970317 0
25.0407993165493 2.705355448374128 0
25.05361764824361 3.052410663944614 0
11.34339514437096 21.65886320185958 0
22.72490103605347 3.690491423190987 0
12.27483541284299 3.68919034942544 0
21.59203064103297 3.870221570615894 0
10.8317788410303 20.57325165061042 0
23.51438000891601 5.399725322052435 0
23.17919351005996 4.488421273896994 0
POLYGONS 5068 20272
3 1906 1251 2555
3 601 1251 1906
3 1212 601 2270
3 64 782 2499
3 663 838 2001
3 859 437 991
3 655 920 1103
3 1436 346 1502
3 540 820 1231
3 838 1002 2001
3 1252 797 2005
3 82 83 1493
3 1427 783 973
3 864 1064 2028
3 1449 540 1231
3 218 1191 2572
3 291 292 1452
3 636 560 745
3 590 1107 1987
3 1648 701 1272
3 1299 1328 1639
3 9 274 1624
3 810 409 2401
3 1110 1461 2342
3 64 65 782
3 409 811 2401
3 82 1493 2329
3 1227 597 1727
3 662 975 1768
3 384 1388 2350
3 341 1366 2127
3 781 757 1881
3 1303 620 1997
3 364 428 971
3 705 1085 2392
3 333 921 1505
3 2175 704 2470
3 356 1630 1574
3 1297 935 2054
3 626 636 1192
3 820 540 1206
3 934 590 1987
3 620 1303 1826
3 465 1032 712
3 282 1332 2146
3 1118 1168 1372
3 739 1462 2163
3 981 725 976
3 248 249 1643
3 1345 302 1901
3 1508 537 1778
3 2020 815 2073
3 557 1570 1907
3 1424 466 1879
3 1969 328 1492
3 1500 664 1636
3 416 913 1893
3 920 391 1103
3 767 1493 2224
3 1247 276 1446
3 409 810 1589
3 671 864 2028
3 435 875 1250
3 1391 687 2052
3 757 1004 1881
3 1623 1984 1618
3 722 1054 1941
3 580 1323 1520
3 581 267 1645
3 1127 475 1747
3 797 1252 2034
3 297 298 1408
3 2098 1162 1992
3 964 574 2633
3 820 494 1231
3 342 810 1859
3 304 305 1391
3 913 416 1540
3 810 413 1859
3 925 802 2149
3 1870 673 2131
3 946 1063 2229
3 1073 447 2188
3 1366 341 902
3 713 86 1717
3 1191 923 2572
3 666 1669 1100
3 526 946 2229
3 26 855 1853
3 1691 530 1606
3 776 1875 1930
3 308 804 2317
3 1438 306 2317
3 1336 1401 1121
3 688 1246 1340
3 881 1583 1521
3 1370 588 780
3 753 1691 1606
3 963 162 2087
3 1347 546 1743
3 607 1045 1651
3 1669 892 1100
3 1521 1583 2406
3 466 1424 1308
3 543 1919 2181
3 1424 382 1308
3 110 758 1896
3 1370 780 2272
3 2131 673 1871
3 1644 776 1930
3 186 1014 932
3 389 1373 792
3 697 939 2630
3 311 312 1424
3 1624 274 2442
3 430 1255 1630
3 706 165 1995
3 637 1052 1892
3 1276 911 2397
3 675 11 1247
3 993 1260 2164
3 2127 1366 1197
3 318 1623 1618
3 1318 606 1341
3 107 965 2292
3 1678 317 2184
3 1758 746 873
3 162 963 583
3 636 626 2051
3 386 1227 1727
3 1760 563 1239
3 1130 766 1864
3 1541 449 1818
3 15 933 1660
3 914 191 1607
3 340 982 2183
3 758 110 1598
3 737 857 1682
3 437 859 1775
3 857 600 1682
3 248 1643 2427
3 1168 850 1372
3 557 1654 1570
3 328 868 1492
3 935 1297 1882
3 86 713 2100
3 828 1541 1818
3 838 663 2194
3 955 853 2061
3 1508 551 1389
3 378 853 955
3 1142 535 1187
3 785 838 2194
3 1053 407 1413
3 665 1053 1413
3 730 233 2479
3 607 1651 2445
3 604 2020 2073
3 433 415 1599
3 315 722 2464
3 363 2157 2582
3 221 222 836
3 687 1391 1843
3 894 996 1468
3 1043 1210 2428
3 428 364 2068
3 1302 627 2287
3 297 1408 1518
3 354 515 1259
3 1637 688 1340
3 925 667 802
3 1630 1255 1574
3 1628 701 1648
3 441 1130 1864
3 1299 1517 1328
3 820 1206 2516
3 606 1318 856
3 1829 518 1888
3 1424 312 1115
3 302 1345 1267
3 749 12 2129
3 674 854 2657
3 797 1182 2003
3 1452 584 1382
3 1133 409 1589
3 1450 742 1065
3 1520 1323 2009
3 627 1602 2287
3 676 919 1516
3 1348 447 2109
3 1236 520 1187
3 915 456 998
3 501 483 2315
3 393 1401 1336
3 2301 319 1362
3 24 1221 2184
3 291 1452 1382
3 396 1770 2048
3 1598 1393 2490
3 1393 547 2490
3 1384 583 2247
3 232 233 730
3 27 1678 1494
3 1318 1416 856
3 1785 67 2144
3 1691 753 1334
3 560 1384 2247
3 967 767 2224
3 411 1094 2242
3 81 1254 1394
3 1128 640 1143
3 386 1727 2367
3 1465 465 1762
3 872 376 1724
3 749 684 1758
3 1240 1427 973
3 624 1408 2096
3 687 1438 1522
3 804 452 2097
3 891 1174 2419
3 11 675 1824
3 720 702 2105
3 920 655 1542
3 546 1347 2628
3 108 109 553
3 163 164 969
3 273 28 709
3 335 1312 2457
3 875 435 2231
3 1162 1201 1992
3 385 871 1983
3 1096 488 2321
3 10 1465 1446
3 933 15 1830
3 1919 835 2181
3 428 2068 2140
3 1379 1096 2321
3 863 589 1759
3 1254 910 1883
3 452 804 1218
3 518 1829 1887
3 912 491 2030
3 679 1704 1166
3 2630 939 2646
3 951 744 2290
3 1114 1271 1709
3 957 1432 2233
3 836 222 561
3 1886 517 1921
3 791 1519 1705
3 611 1237 2349
3 311 1424 1879
3 1255 430 1646
3 851 463 829
3 17 282 2146
3 389 1755 2081
3 1241 55 2584
3 921 1160 1505
3 1002 838 1286
3 1438 687 1843
3 1114 1420 1271
3 517 1997 1921
3 574 1186 2633
3 687 826 2514
3 2015 363 2582
3 910 1254 2161
3 838 586 1286
3 1755 1027 2081
3 1388 1088 2350
3 2109 386 2367
3 339 1562 1447
3 424 1546 1371
3 792 1373 1567
3 702 720 1936
3 1408 990 2096
3 514 483 1555
3 447 1348 2188
3 838 785 1477
3 739 2163 1711
3 1157 2069 1490
3 1085 705 575
3 267 581 1651
3 586 838 1477
3 725 1744 1816
3 560 636 1451
3 1416 542 856
3 708 1758 873
3 760 872 1724
3 1519 791 2137
3 2068 878 2140
3 1391 305 1843
3 215 216 818
3 832 1449 1231
3 871 685 979
3 593 2093 1592
3 1312 1500 2457
3 855 26 978
3 1776 593 1592
3 999 1207 1104
3 1031 976 1816
3 1008 571 2309
3 489 792 1567
3 1135 1757 2308
3 800 1601 792
3 975 662 2137
3 2052 462 2493
3 976 725 1816
3 1496 612 2459
3 722 315 2019
3 382 1424 1115
3 662 1519 2137
3 12 749 1771
3 2221 889 2369
3 2279 2572 2653
3 695 2177 2220
3 551 1508 1778
3 391 920 1994
3 585 675 1247
3 1704 419 1166
3 1704 416 1499
3 2069 801 1490
3 1401 337 1170
3 165 166 1995
3 989 498 1158
3 951 2290 1992
3 1239 563 952
3 1090 1083 1834
3 553 789 1136
3 1167 481 1786
3 1032 341 712
3 921 796 1060
3 2309 571 2629
3 649 969 1767
3 910 2127 1197
3 562 1259 1985
3 759 1496 2342
3 546 1074 1743
3 319 2301 2435
3 1834 1083 480
3 803 1247 1446
3 933 326 1660
3 857 58 2062
3 1243 105 2292
3 625 1142 2333
3 270 1789 1593
3 787 1626 1975
3 884 1944 1794
3 1879 466 1178
3 458 2283 2609
3 766 1444 1864
3 167 1038 1995
3 1892 1052 2058
3 106 107 2292
3 1465 10 1035
3 1519 662 1204
3 888 422 1923
3 415 644 1599
3 1962 1761 2649
3 523 549 1787
3 617 602 1346
3 749 708 1771
3 203 1053 2299
3 483 1194 2315
3 1261 572 1415
3 1450 823 1156
3 826 687 1522
3 920 531 1629
3 1601 528 947
3 278 1771 2119
3 1094 522 2242
3 1941 1054 2093
3 1760 349 1845
3 1440 1073 2188
3 1012 1212 2115
3 1261 61 2207
3 617 407 2165
3 648 851 829
3 1924 321 1821
3 602 617 2165
3 562 354 1259
3 441 1958 1965
3 745 560 2247
3 708 482 1771
3 885 343 1835
3 919 676 1699
3 531 920 2327
3 444 1250 1116
3 417 1733 1068
3 1845 349 1908
3 568 1134 741
3 13 278 2119
3 914 387 1910
3 1509 904 1339
3 1221 830 2184
3 57 58 857
3 1757 635 2308
3 836 429 1131
3 1444 619 1864
3 1405 465 1035
3 2177 986 2220
3 1496 455 2342
3 502 816 2113
3 1383 825 2199
3 1030 989 1158
3 716 943 1563
3 377 1022 2367
3 337 1401 2008
3 814 334 2430
3 1447 1562 2648
3 306 1438 1843
3 804 308 1218
3 54 55 1241
3 1323 580 2491
3 1254 81 2329
3 1452 292 2507
3 481 1420 1786
3 701 1628 1832
3 708 749 1758
3 1027 1755 1067
3 288 22 918
3 2102 13 2119
3 1182 1021 2003
3 1141 1704 1499
3 610 1401 1170
3 1467 399 2257
3 331 836 1131
3 66 67 1785
3 1142 790 2333
3 502 546 2628
3 2459 612 2400
3 1229 283 1584
3 1094 683 2304
3 871 1436 1983
3 2246 630 2408
3 317 24 2184
3 593 1941 2093
3 1517 1299 2645
3 1828 324 1693
3 514 1190 2059
3 485 1212 2270
3 1395 465 712
3 1475 383 1805
3 1458 752 2143
3 584 1452 907
3 491 912 1599
3 396 981 2043
3 340 2183 2409
3 579 1402 1985
3 660 974 1510
3 432 523 1787
3 746 1532 1119
3 368 773 794
3 399 1588 2257
3 369 852 1219
3 1519 321 1705
3 465 1465 1035
3 854 674 1781
3 422 383 1923
3 737 840 1577
3 1237 595 2349
3 27 317 1678
3 921 333 1484
3 200 1917 1937
3 361 2175 2470
3 387 914 1607
3 463 1281 788
3 487 1650 998
3 422 888 1352
3 24 1544 1221
3 515 354 2312
3 1042 198 1936
3 943 756 1563
3 243 903 1619
3 999 1104 2114
3 639 2098 1992
3 1601 947 1973
3 998 456 2210
3 1023 626 1057
3 1022 1348 2367
3 1770 779 2048
3 23 288 2234
3 1816 1744 2537
3 822 1924 1821
3 43 44 1402
3 768 1691 1334
3 966 1349 2039
3 218 219 1191
3 370 1892 2058
3 198 199 1936
3 413 810 1868
3 505 422 1352
3 1255 844 939
3 520 1236 2348
3 823 1450 1229
3 443 912 2030
3 1373 389 2081
3 773 1010 794
3 570 1031 2128
3 1206 601 1212
3 1601 389 792
3 762 868 2473
3 422 505 575
3 647 2219 2153
3 357 1761 1962
3 1314 1175 2432
3 664 1500 1268
3 897 850 1168
3 409 1133 2561
3 2375 797 2549
3 1213 966 2481
3 459 1276 2397
3 604 1020 2020
3 574 964 1192
3 704 1686 2470
3 652 1314 2432
3 1231 494 2538
3 181 182 931
3 637 1892 1668
3 1212 485 2115
3 90 91 507
3 966 2039 2481
3 429 836 561
3 1128 669 1462
3 1391 2052 2493
3 200 201 1917
3 1402 616 1985
3 1760 874 464
3 2140 1701 2282
3 24 290 1544
3 731 2221 2369
3 646 941 1418
3 1250 949 1116
3 2572 923 2653
3 1562 861 1524
3 189 190 1587
3 1555 483 2018
3 818 216 2279
3 1202 79 1294
3 975 594 1768
3 334 814 2320
3 2012 1458 2143
3 540 1449 1971
3 129 3 1416
3 270 271 1789
3 345 1458 2603
3 1546 987 1931
3 519 675 1870
3 735 1562 1524
3 570 2128 1962
3 1630 356 374
3 73 1208 970
3 455 1496 2459
3 811 409 1556
3 656 395 2071
3 1461 759 2342
3 630 1902 2408
3 933 623 1875
3 57 857 1577
3 1783 427 2113
3 799 390 997
3 672 1229 1584
3 395 656 2664
3 1401 393 2008
3 287 21 909
3 1053 203 1329
3 43 1402 1878
3 1235 1879 1178
3 850 897 2590
3 534 1995 1523
3 442 756 2235
3 2292 771 1710
3 465 1395 1762
3 1020 604 2578
3 1364 1504 1604
3 789 553 740
3 1164 1828 1693
3 825 1383 1932
3 969 649 2331
3 1157 943 1898
3 1519 2341 2412
3 349 1760 464
3 320 1569 1427
3 2233 1432 2045
3 783 691 1924
3 565 1108 2120
3 1019 19 2372
3 974 660 2284
3 871 979 1926
3 1174 891 1619
3 1036 367 2243
3 1115 312 2678
3 1284 436 2293
3 1260 453 2164
3 742 1450 2434
3 789 965 1136
3 1162 2289 2580
3 1021 1182 2510
3 706 649 1767
3 9 1624 2332
3 534 706 1995
3 1154 1293 2471
3 965 771 2292
3 1509 293 1455
3 369 2630 2646
3 916 600 2062
3 427 1783 1426
3 2400 612 2577
3 2083 458 2609
3 1260 993 2515
3 671 982 1457
3 383 1475 2377
3 1206 668 2516
3 1332 282 1471
3 390 781 1881
3 1038 167 1507
3 2283 1533 1688
3 494 820 2288
3 541 1094 2304
3 1388 384 1913
3 379 1720 1445
3 918 478 2481
3 1168 1118 2123
3 844 1255 1646
3 28 29 709
3 684 749 1498
3 1261 1415 2607
3 563 1760 1845
3 615 710 2167
3 272 273 709
3 2218 446 2014
3 2007 338 2002
3 1944 751 1794
3 1190 737 1682
3 1408 624 2078
3 675 519 1824
3 852 369 1199
3 1310 1880 2233
3 307 308 2317
3 306 307 2317
3 105 1243 2091
3 683 1094 2573
3 1623 402 1984
3 1783 659 1426
3 22 287 2281
3 338 1779 2002
3 341 841 2226
3 1778 441 1965
3 640 1128 1799
3 496 1614 1894
3 772 1395 712
3 815 2020 2450
3 2113 816 2306
3 825 1059 2199
3 1190 470 1015
3 863 486 2254
3 626 1192 1057
3 623 933 1830
3 1599 644 1442
3 589 863 2254
3 612 1496 1148
3 129 1416 2596
3 214 1403 1225
3 1546 424 1528
3 383 422 1805
3 1054 722 2019
3 1783 2113 2124
3 669 1128 1102
3 996 894 2050
3 246 247 864
3 829 463 788
3 632 1059 2334
3 1601 800 2488
3 1142 1187 2023
3 1305 474 1385
3 477 1043 2428
3 537 1080 2116
3 1458 345 1055
3 2118 727 2498
3 1493 767 1398
3 489 1095 2312
3 1640 544 780
3 943 1157 2235
3 637 321 2412
3 1226 380 1935
3 578 1069 1521
3 1371 720 1189
3 817 1701 2140
3 648 464 851
3 556 1546 1931
3 1210 1043 1895
3 1789 1072 1593
3 996 567 1468
3 1503 598 1629
3 406 1845 1908
3 1182 940 2510
3 1790 995 1205
3 1685 867 2024
3 1281 733 2358
3 243 244 903
3 877 1202 1294
3 343 1504 1364
3 987 1546 1179
3 710 451 1489
3 1402 579 1878
3 1346 602 2615
3 429 1713 2323
3 810 342 1589
3 1963 674 2657
3 424 921 1060
3 1520 743 1409
3 17 1513 1584
3 287 373 2281
3 1347 1884 2628
3 612 1166 2577
3 600 916 1956
3 677 21 1152
3 1496 759 1774
3 449 1541 2558
3 491 1599 1442
3 633 1005 1530
3 1059 632 2199
3 1755 389 1973
3 2444 1290 2486
3 1334 753 2248
3 797 2003 2549
3 1281 2358 2627
3 982 437 2183
3 1483 410 1834
3 1154 568 1293
3 1932 2438 2065
3 459 1236 2497
3 387 1533 1910
3 725 981 2512
3 331 863 1511
3 626 1023 2301
3 465 1405 1149
3 223 224 1626
3 655 1226 1935
3 597 1070 1225
3 764 631 1938
3 871 385 2252
3 1148 628 2439
3 1026 474 1305
3 870 686 1942
3 115 116 1234
3 346 1436 1926
3 1502 346 1801
3 1533 387 1688
3 726 799 997
3 1071 1962 2649
3 1643 1064 2427
3 86 87 1717
3 147 2177 2060
3 1236 459 2397
3 868 479 2473
3 891 705 2392
3 1028 704 2175
3 1945 1110 2342
3 365 1889 2232
3 866 324 1828
3 189 1587 1376
3 1478 647 2153
3 156 157 699
3 324 866 2346
3 1195 365 2232
3 1532 469 1119
3 840 514 1555
3 185 186 932
3 1270 2051 2546
3 544 1648 1272
3 2370 1109 1703
3 1733 417 1817
3 1192 964 1057
3 1328 578 1639
3 482 708 2418
3 2243 367 1788
3 1389 551 2619
3 1173 1539 1360
3 1880 957 2233
3 828 1785 2144
3 354 489 2312
3 754 966 1211
3 2144 497 1800
3 481 1306 1955
3 931 182 1543
3 341 1032 902
3 812 2237 2639
3 1090 23 2234
3 1779 751 1944
3 1163 262 2309
3 105 106 2292
3 2111 1169 2644
3 147 148 2177
3 1713 787 2339
3 1570 1075 1907
3 1097 2459 2400
3 1033 842 2509
3 1616 832 1362
3 1562 339 2311
3 846 1525 405
3 684 1096 1379
3 90 507 1537
3 562 1985 2264
3 166 167 1995
3 1928 574 745
3 569 967 2100
3 469 1533 1119
3 302 25 1901
3 1052 637 2412
3 268 269 1848
3 424 1371 1189
3 262 1163 1918
3 293 1509 2507
3 598 1503 2088
3 727 634 2498
3 1398 492 2269
3 2181 2490 1764
3 743 1520 1349
3 1107 870 1942
3 1268 1500 1312
3 428 2140 2282
3 896 1148 2439
3 390 1881 1967
3 2097 721 2650
3 1289 745 2247
3 274 8 1009
3 1482 453 1663
3 1125 832 2538
3 528 1601 2488
3 1349 360 2039
3 14 279 1734
3 1014 186 2293
3 1449 729 1946
3 764 627 1311
3 793 2358 2388
3 549 523 2350
3 689 593 1611
3 1587 667 1376
3 1059 423 1246
3 2293 436 2241
3 1172 410 1483
3 1257 417 509
3 1182 510 2526
3 1513 17 2146
3 1449 832 1279
3 840 1241 2584
3 78 79 1202
3 1500 1636 2089
3 1060 796 2206
3 1124 1447 2648
3 1076 2111 2644
3 1108 1046 2120
3 974 40 2267
3 1196 930 352
3 1561 686 2223
3 1509 1339 2364
3 1614 496 2564
3 597 1227 1573
3 757 781 1313
3 675 585 2454
3 1487 448 2289
3 756 442 1867
3 21 286 1152
3 766 1130 2533
3 1102 1876 1715
3 2341 1052 2412
3 1932 417 2438
3 1029 692 1444
3 667 1587 802
3 73 74 1208
3 296 1518 1368
3 584 1544 1382
3 1224 794 2561
3 1004 442 1490
3 940 1037 2510
3 763 2038 2357
3 1174 903 1396
3 1227 516 1573
3 1884 816 2628
3 915 904 2265
3 1647 517 2296
3 326 933 1350
3 1493 1398 2269
3 419 805 2134
3 705 891 2419
3 1243 2292 1710
3 1109 2075 1703
3 1995 1038 1523
3 1603 865 947
3 61 62 2207
3 1281 362 788
3 58 59 2062
3 1538 484 2108
3 1532 746 2321
3 1614 598 1443
3 1038 633 1523
3 729 1449 1279
3 1037 27 2510
3 321 637 1821
3 1339 555 2364
3 417 1932 509
3 163 969 2087
3 404 918 2481
3 859 400 898
3 553 109 1896
3 828 2144 1800
3 1436 1768 1983
3 1487 2289 2385
3 524 814 2430
3 629 1282 2462
3 867 1243 1710
3 1282 629 2306
3 1772 738 1689
3 2491 580 2362
3 1757 1240 887
3 688 1080 2334
3 804 2097 2650
3 757 859 2374
3 1539 577 1360
3 202 203 2299
3 752 1458 2180
3 1755 1973 2182
3 630 1028 2082
3 1171 2333 2642
3 535 1142 1105
3 1752 2133 2673
3 85 86 2100
3 1544 664 1221
3 845 1759 1642
3 1306 1011 1955
3 947 1188 1973
3 1432 957 2660
3 2038 723 2357
3 1046 1236 2397
3 537 1508 1874
3 840 737 2368
3 1866 434 2172
3 279 13 1904
3 432 1787 2296
3 464 874 851
3 322 2051 1270
3 517 1886 2296
3 645 1597 2496
3 191 914 1754
3 1027 1029 2081
3 755 1036 1797
3 913 1317 1893
3 447 744 2109
3 10 275 1035
3 821 793 2388
3 1915 653 558
3 470 1190 1682
3 2181 835 2490
3 1036 418 1797
3 19 1019 1874
3 1396 903 2586
3 442 1004 1512
3 490 818 2279
3 437 982 1869
3 444 849 2574
3 402 1395 1984
3 859 991 2374
3 794 409 2561
3 1225 1070 2324
3 1287 1040 1748
3 1402 44 1421
3 1185 942 1423
3 696 1414 2086
3 1211 657 2480
3 1787 848 2296
3 439 1040 1644
3 156 699 1885
3 1289 1928 745
3 791 691 1571
3 265 266 1045
3 664 1544 1356
3 796 921 1484
3 1143 640 1066
3 365 1732 1013
3 1759 418 1642
3 1086 353 2477
3 1538 2108 2041
3 490 2279 2653
3 875 538 2166
3 127 128 1811
3 1346 414 2257
3 1103 2095 2608
3 680 730 1417
3 1882 1297 2496
3 486 863 2323
3 366 1541 1800
3 696 372 1871
3 463 851 1460
3 761 1779 1944
3 1967 1881 2196
3 516 1227 1740
3 1040 439 1372
3 415 548 2440
3 935 953 1300
3 1541 828 1800
3 372 696 2073
3 1027 1067 2482
3 1795 1151 1692
3 227 228 1729
3 416 1704 1540
3 982 340 1457
3 2134 1361 2577
3 653 1915 2525
3 1908 692 1165
3 1334 1703 2276
3 903 1174 1619
3 904 1509 1455
3 819 548 1832
3 1234 116 1568
3 1151 353 1692
3 867 1685 2091
3 690 1186 2645
3 263 264 1008
3 861 1562 1369
3 1065 742 1825
3 1171 625 2333
3 469 802 2013
3 1146 2448 2458
3 1473 410 1841
3 685 1155 979
3 191 192 1607
3 207 1262 2253
3 941 122 2543
3 1214 1305 1385
3 826 1290 2444
3 873 746 1723
3 832 1125 2421
3 908 1146 2458
3 423 1059 2174
3 863 1759 1511
3 1751 430 1630
3 1005 633 1507
3 2448 1146 2606
3 304 1391 978
3 120 121 1806
3 981 396 2512
3 990 1865 2164
3 407 617 1588
3 1848 451 1645
3 912 443 1784
3 320 1427 1823
3 841 341 2127
3 1623 837 2297
3 947 528 2298
3 447 1073 1219
3 864 247 2427
3 1032 465 1149
3 314 315 2464
3 712 341 2226
3 1242 681 1184
3 730 680 1697
3 1636 664 1356
3 2076 919 2411
3 1996 812 2639
3 2477 353 1977
3 2332 1624 2079
3 1768 594 1983
3 470 2055 1015
3 1259 515 1976
3 670 1834 480
3 1541 366 1407
3 384 523 977
3 234 1566 2479
3 1394 1254 1883
3 1236 1046 1853
3 1722 449 2558
3 1724 376 1437
3 437 1084 2183
3 125 126 994
3 1229 672 1798
3 1028 2175 1709
3 998 1650 1610
3 296 297 1518
3 453 1482 2225
3 187 188 1284
3 278 12 1771
3 717 2076 2411
3 747 1096 1680
3 802 1587 2013
3 652 709 1314
3 821 853 1672
3 617 1346 2257
3 940 1182 2526
3 576 1029 1804
3 1155 645 979
3 1879 1235 1812
3 1029 1444 1804
3 52 53 1770
3 1533 469 1910
3 1157 944 2069
3 346 979 694
3 459 1495 1719
3 837 1264 2297
3 1643 249 1311
3 842 1033 1929
3 746 1758 1379
3 1902 630 2082
3 1525 846 1481
3 445 1168 2123
3 457 1334 2248
3 1664 770 977
3 1771 482 2119
3 593 689 1677
3 969 164 1767
3 118 119 1815
3 637 888 1821
3 108 553 1136
3 904 915 998
3 335 1603 938
3 1067 398 1880
3 1404 630 2246
3 1597 564 2496
3 2059 1190 1015
3 1170 592 1912
3 1208 1041 970
3 514 840 2368
3 1004 757 1392
3 944 595 1237
3 1227 386 2201
3 580 1520 2574
3 996 1101 2086
3 1752 698 2133
3 709 29 1314
3 956 883 2443
3 1334 457 1703
3 1963 1361 2134
3 1640 842 1648
3 846 1069 1328
3 844 1159 2646
3 710 615 2391
3 2020 438 2450
3 1628 819 1832
3 11 276 1247
3 1250 875 2166
3 839 446 1469
3 451 710 2410
3 1186 1517 2645
3 2064 764 1938
3 807 1043 1748
3 756 943 2235
3 1594 747 1680
3 1440 367 2559
3 492 1330 2382
3 843 686 1561
3 841 492 2382
3 1416 1318 2596
3 832 1616 1279
3 681 1674 1184
3 1958 648 1965
3 1544 290 1382
3 1030 1158 1280
3 281 15 1660
3 711 1262 1658
3 1711 1713 2339
3 616 1402 1421
3 548 819 2440
3 1131 429 2323
3 351 2451 1831
3 574 1192 745
3 653 1266 558
3 984 1561 2223
3 1626 224 1975
3 412 1143 1066
3 781 390 371
3 980 605 1419
3 1426 659 1049
3 196 1679 2455
3 941 646 2222
3 691 791 1705
3 205 206 945
3 407 1053 2165
3 1053 665 2299
3 633 1038 1507
3 268 1848 1645
3 464 648 2066
3 935 1950 2054
3 870 495 2223
3 1192 636 745
3 1002 1286 2237
3 458 806 2687
3 1243 867 2091
3 735 1201 2168
3 1032 325 902
3 1146 1145 2606
3 814 384 977
3 800 792 1612
3 686 843 1683
3 1286 420 2237
3 1747 475 2094
3 1414 567 2086
3 1704 679 1540
3 1072 1789 1439
3 1266 653 1138
3 661 1918 1991
3 799 538 1766
3 1595 850 2590
3 1597 645 2562
3 426 1776 1429
3 714 2416 1741
3 1546 556 2355
3 1409 444 2574
3 787 1975 1791
3 904 1455 2265
3 1044 1251 1946
3 752 1060 2206
3 1755 398 1067
3 473 1657 1794
3 423 2174 1716
3 343 1364 1738
3 523 432 2141
3 2105 702 2378
3 477 1287 1748
3 604 1980 2578
3 487 1336 1121
3 499 2015 2582
3 644 2440 2240
3 979 645 694
3 1158 1175 1280
3 863 331 1131
3 884 1551 1944
3 1634 1108 2437
3 370 1608 2436
3 1317 454 2275
3 909 961 1123
3 523 384 2350
3 717 1127 2148
3 1603 947 2298
3 812 1317 2275
3 446 1636 1232
3 533 2049 1649
3 1032 479 325
3 232 730 1697
3 1132 1065 1825
3 653 1426 1049
3 1544 584 1356
3 627 764 2064
3 655 1181 1137
3 406 1908 1165
3 1064 1643 2067
3 842 1628 1648
3 1657 884 1794
3 792 489 1612
3 1517 846 1328
3 633 765 1523
3 1276 459 1719
3 843 506 2263
3 2168 1162 2580
3 1196 723 930
3 995 1899 1205
3 717 1515 1914
3 443 1088 2602
3 1785 858 2103
3 80 81 1394
3 1127 717 1914
3 522 1089 2191
3 1552 728 1320
3 865 1603 2457
3 1917 702 1937
3 750 843 2263
3 1201 1162 2168
3 461 1790 1205
3 61 1261 2429
3 966 754 2328
3 2005 1497 2483
3 1099 867 1710
3 2024 867 2663
3 1718 391 1994
3 1566 234 1117
3 2283 364 2609
3 2220 1062 1335
3 1395 402 1762
3 1185 1423 2613
3 653 1049 1138
3 329 2005 2483
3 483 514 2059
3 943 613 1898
3 1293 568 1564
3 837 1623 1456
3 1198 2301 1362
3 398 839 1469
3 1608 370 2484
3 671 1457 960
3 1849 726 1534
3 502 427 1625
3 805 419 2256
3 1426 653 2525
3 2395 343 1738
3 498 1439 2432
3 821 1672 2186
3 661 1153 1918
3 587 1632 937
3 1058 1669 1400
3 944 461 2069
3 1645 451 2591
3 1515 889 1914
3 661 1828 1000
3 615 989 2327
3 918 22 2281
3 1217 1058 1400
3 1757 1135 2407
3 888 637 1352
3 1626 787 2472
3 986 1062 2220
3 1188 839 2182
3 1362 832 2421
3 1770 396 2043
3 1493 83 2224
3 1129 1404 2246
3 1566 935 1882
3 868 762 1492
3 18 283 1229
3 1569 1211 2480
3 1732 786 1803
3 461 944 1237
3 1096 747 2006
3 49 976 1316
3 767 967 1631
3 479 1032 1149
3 598 2088 1443
3 487 1557 1336
3 1470 942 968
3 770 814 977
3 892 1527 1422
3 606 856 2361
3 1421 2475 2649
3 992 909 1123
3 1445 1720 2381
3 475 1127 1914
3 658 1331 2470
3 568 1596 1564
3 38 1988 1548
3 517 1815 1997
3 868 328 1706
3 794 1224 2467
3 522 1397 1089
3 1562 735 2648
3 402 1623 2297
3 680 1249 808
3 1422 1527 2160
3 183 1485 1543
3 165 706 1767
3 344 1686 1404
3 1815 1303 1997
3 699 959 1885
3 391 2095 1103
3 965 107 1136
3 213 214 1225
3 392 1849 1534
3 1811 128 2596
3 583 963 2247
3 967 569 1631
3 1147 89 1537
3 590 934 2554
3 928 1513 2146
3 874 1239 2344
3 42 43 1878
3 1654 557 1387
3 880 1234 1568
3 1158 498 2432
3 816 502 2628
3 913 1374 2433
3 1450 1156 2434
3 982 671 1869
3 1360 1144 1925
3 538 875 1766
3 1094 1690 2573
3 1039 2218 2014
3 758 1598 2490
3 1019 537 1874
3 1264 837 1364
3 1142 625 1105
3 746 1119 1723
3 551 829 788
3 1246 688 2334
3 1751 670 968
3 1487 535 1105
3 989 615 2167
3 2289 448 2580
3 1208 74 1781
3 493 946 2236
3 649 706 1536
3 20 289 1102
3 965 789 2354
3 782 824 2499
3 633 1530 2053
3 1597 680 1417
3 512 2105 2378
3 1112 515 2015
3 1418 941 2219
3 367 1036 1061
3 1059 825 2174
3 1626 429 561
3 492 841 2161
3 2327 989 2404
3 1519 1204 2341
3 935 1566 1117
3 40 974 2284
3 310 1879 1812
3 125 994 1827
3 1096 684 1680
3 765 633 1641
3 1818 449 1655
3 564 1882 2496
3 591 1729 1076
3 572 1261 2207
3 818 490 2249
3 1758 684 1379
3 706 534 1536
3 2177 148 2326
3 1045 760 1514
3 1226 655 1137
3 1226 554 2189
3 771 965 2354
3 355 1397 2122
3 303 1634 2437
3 2430 2159 2612
3 842 1640 2509
3 1069 578 1328
3 544 1640 1648
3 1069 846 405
3 669 1102 1715
3 775 2032 2035
3 680 1597 1582
3 513 1630 374
3 120 1806 2595
3 258 259 1813
3 1779 338 1122
3 867 1099 1381
3 859 757 1313
3 1033 641 1929
3 944 1157 1898
3 471 1525 1481
3 388 1969 1492
3 1073 1440 2559
3 312 313 2678
3 710 1489 2167
3 747 1594 1293
3 610 1170 1912
3 1067 1880 2502
3 1780 468 1554
3 785 1780 1554
3 760 1008 1514
3 267 268 1645
3 1282 495 2462
3 1729 1298 2213
3 235 236 953
3 1331 658 1957
3 839 398 2182
3 1429 1214 2356
3 1080 1130 2116
3 1262 711 2253
3 1830 1367 1990
3 1644 1040 1287
3 361 1331 1239
3 1024 1930 2366
3 379 1440 2188
3 1365 1824 2380
3 2295 1200 2435
3 1520 1409 2574
3 598 1614 2564
3 1828 1164 1000
3 148 149 2326
3 911 2120 2397
3 832 1231 2538
3 897 173 2590
3 1815 517 1161
3 927 1829 1888
3 616 1421 2649
3 1239 1331 2344
3 1088 1388 2602
3 28 273 0
3 2271 886 2589
3 2008 995 1296
3 1813 1007 2150
3 611 980 1296
3 554 1226 1137
3 886 1547 2589
3 1369 1562 2311
3 99 1020 2578
3 696 1871 1414
3 1259 579 1985
3 1013 1732 1803
3 1088 549 2350
3 284 18 1900
3 486 2163 1796
3 885 1835 1468
3 470 2003 2055
3 542 1416 2610
3 2131 2138 2585
3 585 1247 2215
3 1159 954 1199
3 2301 1023 2435
3 744 951 2417
3 1416 2423 2610
3 426 1429 2356
3 1451 636 2051
3 2423 3 2606
3 2219 724 2153
3 2049 344 1649
3 320 1757 2407
3 1423 1323 2491
3 946 962 2236
3 2043 981 2598
3 498 989 2167
3 305 306 1843
3 1849 1017 2225
3 871 2252 2624
3 1732 365 1545
3 1083 918 2307
3 605 980 2044
3 314 2464 2678
3 836 331 2504
3 1191 700 2335
3 853 821 2388
3 277 11 1824
3 362 1281 2627
3 1518 456 1368
3 2032 508 2035
3 1513 928 1993
3 1087 463 1460
3 2081 1029 2359
3 1650 403 1610
3 19 284 2372
3 1967 651 997
3 608 799 1766
3 531 2327 2404
3 513 1751 1630
3 1660 326 2376
3 1367 1830 2654
3 858 782 2103
3 15 280 1830
3 857 737 1577
3 1241 840 1555
3 1253 358 1737
3 709 652 2171
3 286 20 1961
3 375 1423 2491
3 755 1866 2172
3 814 770 2320
3 1035 275 2651
3 288 918 2234
3 720 1371 2579
3 1793 1180 2136
3 946 526 2671
3 1776 922 1429
3 1772 1689 2557
3 446 1232 2014
3 1470 968 480
3 1065 284 1900
3 1128 1462 1799
3 118 1815 1161
3 1686 704 1404
3 400 859 1313
3 741 1134 2428
3 856 900 2361
3 635 1757 887
3 873 458 2687
3 1824 1365 1948
3 2083 355 2122
3 474 1026 1274
3 1094 541 1661
3 2239 538 1837
3 1950 935 1300
3 380 1226 2121
3 1557 487 2210
3 579 1259 1976
3 1262 207 1617
3 1098 1502 1801
3 1409 743 1319
3 1415 397 2607
3 1043 477 1748
3 1112 579 1976
3 1389 285 2667
3 1815 119 2595
3 1095 489 2396
3 1080 688 1130
3 600 857 2062
3 173 897 2338
3 567 996 2086
3 308 309 1218
3 793 821 1693
3 527 1253 1737
3 874 1760 1239
3 1697 680 808
3 1101 996 1949
3 334 2159 2430
3 1678 596 1494
3 994 707 1827
3 1020 99 2139
3 598 1718 1994
3 167 168 1507
3 239 1608 2484
3 1911 137 2486
3 823 1229 1798
3 1143 286 1961
3 422 575 1805
3 939 844 2646
3 221 836 1209
3 81 82 2329
3 284 1065 2372
3 2205 980 1419
3 546 502 1625
3 1646 862 2036
3 1060 752 1179
3 373 287 2286
3 1716 515 2312
3 1277 1451 1986
3 1145 2423 2606
3 1043 807 1675
3 631 764 1177
3 1377 956 2443
3 1940 1325 1579
3 1330 492 1398
3 986 2326 1773
3 104 105 2091
3 595 944 1358
3 469 1532 802
3 1941 566 1605
3 384 814 1913
3 1008 264 1514
3 21 677 1736
3 182 183 1543
3 2440 543 2240
3 1482 2239 1837
3 2254 486 1796
3 856 542 2552
3 697 1061 1574
3 814 524 1913
3 467 849 1765
3 122 941 2222
3 321 1519 2412
3 670 1751 1483
3 515 1112 1976
3 990 1408 1390
3 1789 652 1439
3 538 799 1837
3 511 1547 1989
3 1401 610 1121
3 1403 214 2501
3 1547 886 1989
3 223 1626 561
3 549 1088 1959
3 1963 559 2420
3 327 1234 1245
3 89 90 1537
3 1094 411 1690
3 1994 920 1629
3 627 1643 1311
3 476 1829 1176
3 1068 1733 2424
3 376 872 2114
3 2326 813 1773
3 651 1899 1534
3 396 621 2512
3 1086 908 1550
3 1636 446 2273
3 1744 725 2636
3 1064 864 2427
3 1632 587 2387
3 143 144 1074
3 1988 893 1548
3 575 705 1805
3 388 1954 1969
3 1080 537 1285
3 203 204 1329
3 322 1451 2051
3 648 1958 2066
3 667 1284 1376
3 1865 993 2164
3 503 1407 1659
3 320 754 2576
3 265 1045 1514
3 1145 1106 2423
3 431 507 937
3 507 1222 2616
3 2039 1856 2566
3 139 140 1863
3 1079 995 2008
3 806 458 2083
3 1182 797 2034
3 1623 318 1456
3 586 1722 2431
3 887 473 1794
3 660 1988 2284
3 2117 503 1659
3 1787 549 1621
3 931 917 1387
3 900 856 2552
3 1718 496 1810
3 737 1190 2368
3 1722 503 2431
3 1643 627 1302
3 1234 880 1245
3 1361 1963 2420
3 654 1889 2624
3 506 843 1561
3 980 337 1296
3 272 709 2171
3 920 1542 2327
3 38 39 1988
3 1360 577 1144
3 889 1515 2369
3 918 404 2307
3 1225 1403 1399
3 715 955 2061
3 1307 728 1859
3 1203 1624 2442
3 1298 1729 1321
3 1327 931 2389
3 1061 356 1574
3 851 874 1460
3 1049 659 1535
3 1194 1678 2184
3 551 1778 1965
3 537 1019 1285
3 1829 927 1176
3 641 1033 740
3 1525 471 2331
3 646 1793 1826
3 2145 783 1951
3 2155 114 2238
3 1187 535 2497
3 934 476 1176
3 391 1718 1613
3 597 1225 1399
3 926 2132 2107
3 1618 772 2382
3 488 1096 2006
3 761 1084 898
3 2388 733 2061
3 527 1737 2179
3 429 1626 2472
3 1148 1496 1774
3 1729 591 2291
3 1181 655 1103
3 805 1041 1047
3 791 975 2137
3 1806 646 1826
3 122 123 2543
3 215 818 2501
3 483 501 2018
3 1041 805 1903
3 1095 1716 2312
3 621 396 1263
3 535 1495 2497
3 1031 570 1681
3 439 1930 1024
3 1159 844 1750
3 158 1315 2230
3 419 1704 2256
3 476 934 1987
3 646 1806 2222
3 1704 1141 2256
3 301 302 1267
3 1299 1734 2645
3 829 551 1965
3 699 494 2288
3 2003 1021 2055
3 1121 610 2563
3 2131 372 2138
3 1232 1636 1356
3 671 2028 1869
3 536 1049 1535
3 1501 414 1346
3 1806 1303 2595
3 486 1713 1711
3 628 1148 1774
3 991 437 2672
3 390 799 371
3 691 783 2145
3 1282 695 2220
3 849 444 1116
3 1009 701 1832
3 1045 607 2101
3 686 870 2223
3 33 1851 1633
3 1884 1347 1707
3 1371 1546 2355
3 150 1301 2452
3 2174 363 1716
3 1917 665 2378
3 1338 651 1967
3 74 75 1781
3 403 1650 2563
3 439 1644 1930
3 2277 504 2502
3 1436 1502 1768
3 1165 2070 2482
3 495 870 2462
3 2151 1431 2461
3 865 2457 2089
3 589 401 1696
3 787 1732 2339
3 1718 598 2564
3 1870 675 2454
3 1318 1811 2596
3 1159 1199 2646
3 632 1080 1285
3 909 21 1736
3 1539 1006 1922
3 1250 444 1430
3 1734 690 2645
3 2074 614 1558
3 1849 2225 2310
3 310 311 1879
3 372 2131 1871
3 1130 688 2533
3 924 1761 1725
3 959 699 2288
3 599 1291 2156
3 1608 1078 2347
3 1650 487 1121
3 508 2032 2602
3 1200 1809 2435
3 1408 298 1390
3 1778 537 2116
3 1474 572 2207
3 345 2379 1728
3 799 608 371
3 643 1473 1841
3 1602 527 2179
3 390 1967 997
3 933 1875 1350
3 410 1473 2187
3 700 1191 1735
3 1395 772 1984
3 1952 550 1120
3 2490 547 1764
3 1761 357 1725
3 313 314 2678
3 693 1816 2537
3 1331 361 2470
3 1036 755 1847
3 760 1724 1635
3 474 773 2071
3 1453 381 2621
3 780 544 2272
3 421 1676 2620
3 936 328 2035
3 976 49 2530
3 578 1521 2406
3 389 1601 1973
3 707 1772 1309
3 195 196 2455
3 1202 877 2106
3 1303 1815 2595
3 736 2072 1907
3 548 1009 1832
3 692 1029 2070
3 817 1679 2522
3 1194 483 2280
3 479 868 1479
3 1057 552 2295
3 1078 1085 2347
3 2418 708 2687
3 2093 510 1592
3 338 901 1122
3 1088 443 1959
3 435 1250 1430
3 392 1899 1079
3 1495 860 1719
3 783 1427 1951
3 1451 322 1986
3 1608 239 1078
3 1108 565 2669
3 1679 556 2522
3 1190 514 2368
3 1779 761 2002
3 2028 1351 1869
3 360 1349 2009
3 393 1079 2008
3 504 1165 2482
3 1332 493 2597
3 1466 1676 1536
3 52 1770 2043
3 1809 1200 1193
3 258 1813 1516
3 790 1142 2023
3 1899 392 1534
3 1855 506 1561
3 1603 335 2457
3 984 1855 1561
3 1453 795 2354
3 1828 661 1991
3 337 2008 1296
3 609 1809 1193
3 1793 620 1826
3 1637 576 2533
3 325 479 1479
3 930 500 352
3 734 1733 1817
3 1650 1121 2563
3 839 1188 1890
3 744 447 2204
3 1813 676 1516
3 176 177 1043
3 577 1539 1922
3 1187 520 2023
3 943 716 748
3 95 96 996
3 136 137 1911
3 1729 228 1321
3 549 1959 2519
3 1070 597 1573
3 760 1045 2101
3 926 1464 2132
3 367 1440 1788
3 2055 1021 1494
3 1587 190 1754
3 427 502 2113
3 2438 1223 2065
3 2386 332 1400
3 1338 801 2069
3 1789 271 2171
3 40 41 2267
3 997 651 1534
3 1691 768 2319
3 456 915 1368
3 751 1779 1122
3 1510 974 2216
3 866 1828 1991
3 1679 196 1714
3 2469 963 2010
3 628 1802 2439
3 1551 383 2377
3 1824 519 2380
3 588 1370 2138
3 623 1830 1990
3 929 1744 2636
3 279 1904 2531
3 1583 881 1024
3 923 1191 2335
3 345 1089 2379
3 508 936 2035
3 1199 369 2646
3 328 936 1461
3 596 2055 1494
3 1166 612 2158
3 801 1338 1967
3 2134 805 1047
3 1025 1602 2179
3 1236 1187 2497
3 758 2466 2637
3 430 1751 1769
3 682 1906 2555
3 2015 515 1622
3 1284 188 1376
3 233 234 2479
3 227 1729 2291
3 938 1603 2298
3 1281 463 2569
3 571 1008 1635
3 111 112 1393
3 160 161 1384
3 1467 768 2276
3 648 829 1965
3 2022 714 1741
3 349 464 2066
3 1899 995 1079
3 1713 486 2323
3 980 611 2044
3 714 1726 2263
3 1423 375 2613
3 1147 431 1717
3 1163 2309 2629
3 399 1467 2276
3 1107 336 1987
3 1889 685 2624
3 489 354 1612
3 150 151 1301
3 368 794 2467
3 1084 622 2183
3 798 1244 2125
3 770 1664 2547
3 945 206 2253
3 496 1894 2424
3 1001 991 1998
3 1577 840 2584
3 954 1159 2661
3 915 295 1368
3 837 1456 1862
3 917 1485 932
3 1724 1437 2046
3 287 909 2286
3 1924 691 1705
3 1651 581 2445
3 1148 896 2158
3 572 1474 1836
3 1669 666 2386
3 436 1284 1909
3 2533 576 1804
3 418 1036 2243
3 2277 2502 2647
3 377 1727 1399
3 1811 1318 1341
3 2038 1431 2494
3 154 155 1278
3 1703 399 2276
3 254 2148 1472
3 32 33 1633
3 1727 597 1399
3 493 1332 1553
3 2562 1155 2111
3 989 1030 2404
3 1303 1806 1826
3 2283 458 1723
3 1679 817 2455
3 2636 621 2322
3 611 1790 1237
3 657 1211 1213
3 883 956 2118
3 665 1600 2378
3 23 1090 2187
3 12 281 2129
3 1508 1389 2667
3 2001 1002 2518
3 276 10 1446
3 1247 803 2215
3 117 118 1161
3 728 1999 1320
3 508 2602 1846
3 1080 632 2334
3 981 976 2530
3 433 2316 2214
3 1251 601 1753
3 1186 574 2542
3 892 1669 1058
3 1751 968 1769
3 507 431 1537
3 1516 919 2040
3 543 819 2539
3 556 1679 2154
3 1751 513 1483
3 650 2151 2461
3 76 77 890
3 2006 747 2244
3 545 719 2445
3 478 918 2281
3 2406 1367 1639
3 343 885 2684
3 2146 1332 2597
3 1134 568 2683
3 34 2088 1981
3 1301 813 2452
3 574 1928 2542
3 618 2155 2238
3 1919 543 2539
3 1076 1729 2213
3 1365 2272 1272
3 722 1941 1605
3 564 1597 1417
3 795 1453 2621
3 1065 1132 2372
3 1003 1660 2376
3 1643 1302 2067
3 1676 1466 2620
3 1747 631 2581
3 667 925 1909
3 887 1794 1934
3 2451 1410 1831
3 1278 959 2516
3 1155 685 2489
3 1954 775 1969
3 530 1691 1150
3 613 943 748
3 917 931 1543
3 2294 134 1692
3 1008 760 1635
3 1585 462 2456
3 246 864 1730
3 401 589 2254
3 853 2388 2061
3 994 126 2251
3 1029 1027 2070
3 1315 1081 2230
3 433 1954 2316
3 206 207 2253
3 995 1790 1296
3 1878 579 1822
3 1420 481 2351
3 1317 913 2433
3 1602 627 2064
3 1722 586 1377
3 1475 1805 2419
3 1009 8 2147
3 622 1084 2551
3 289 23 1473
3 1533 2283 1723
3 1286 586 2431
3 942 1856 2570
3 780 588 1454
3 1531 1202 2106
3 1701 817 2522
3 1330 1618 2382
3 881 1521 2085
3 419 2134 2577
3 1028 330 2082
3 1894 893 2424
3 260 261 1153
3 2088 1503 1981
3 2039 360 1856
3 922 1776 1592
3 976 1031 1316
3 14 1734 2625
3 1284 667 1909
3 1802 524 2439
3 420 1286 1586
3 929 2636 2322
3 708 873 2687
3 569 2100 1842
3 677 961 1736
3 1790 461 1237
3 572 2112 1415
3 726 997 1534
3 235 953 1117
3 698 2052 2514
3 1156 823 2095
3 1045 266 1651
3 928 2146 2597
3 921 424 2302
3 1713 429 2472
3 1404 1129 2550
3 593 1776 1611
3 328 1969 2035
3 2057 534 1523
3 224 225 1975
3 801 1967 2196
3 738 994 2251
3 719 607 2445
3 69 70 1964
3 1160 921 2302
3 462 1585 2493
3 771 1695 1710
3 1892 370 2436
3 241 242 891
3 2039 404 2481
3 1251 1044 2555
3 1940 394 2126
3 765 2057 1523
3 229 230 1249
3 652 1789 2171
3 1056 325 1479
3 754 320 2407
3 468 1780 2259
3 329 2038 2494
3 844 2036 1750
3 496 1718 2564
3 1695 1099 1710
3 249 250 1311
3 383 1551 2360
3 1669 2386 1400
3 991 1001 2374
3 858 1818 1655
3 2161 1254 2269
3 963 2087 2010
3 1733 734 1810
3 787 1713 2472
3 2416 682 1741
3 1023 1057 2295
3 350 1912 1627
3 1183 1878 1822
3 783 1924 2623
3 853 378 1672
3 460 1904 2102
3 1896 758 2637
3 1161 517 1647
3 795 831 1695
3 472 1552 1320
3 1092 1466 2057
3 1969 775 2035
3 1175 1314 2394
3 2346 603 2261
3 1551 884 2360
3 522 1094 1661
3 2179 1737 1563
3 961 909 1736
3 1955 1011 1627
3 1744 929 1312
3 1727 377 2367
3 1123 961 1091
3 1440 379 1445
3 354 562 2363
3 93 94 1952
3 178 179 1291
3 2148 1127 1472
3 1466 1092 2620
3 1672 1354 2186
3 366 1800 2371
3 1199 954 2212
3 1222 507 2527
3 831 795 2621
3 1923 884 1657
3 1744 335 2537
3 1351 1998 2672
3 1458 1055 2180
3 674 1208 1781
3 446 839 2273
3 503 1722 2558
3 299 300 1865
3 768 1467 1674
3 1002 2275 2518
3 2239 1482 1663
3 1423 942 2570
3 403 1339 1610
3 548 415 2173
3 240 2392 1078
3 1621 549 2519
3 353 1086 2294
3 825 2157 2174
3 367 1061 2559
3 1029 576 2359
3 860 1378 1719
3 8 277 1970
3 2264 616 2649
3 931 1327 2524
3 953 935 1117
3 335 1744 1312
3 449 1722 2443
3 1750 2036 2000
3 280 14 1684
3 949 1250 2166
3 361 1239 952
3 410 1172 1841
3 527 1602 2064
3 741 599 2029
3 26 1853 1634
3 1091 961 1565
3 48 49 1316
3 622 1551 2377
3 854 890 1215
3 631 1747 2094
3 18 1229 1900
3 849 467 1844
3 734 1257 2434
3 508 1802 1609
3 929 1268 1312
3 437 1869 2672
3 953 1292 1300
3 894 1952 2050
3 2044 611 2349
3 1998 991 2672
3 1569 320 2576
3 936 759 1461
3 802 1532 2149
3 1974 212 2324
3 295 915 2265
3 668 1278 2516
3 1899 651 1205
3 1956 1139 1486
3 645 1155 2562
3 928 1838 1104
3 1291 1210 1895
3 1338 461 1205
3 668 1206 1212
3 466 1308 2622
3 1025 1343 777
3 1720 379 1386
3 610 1912 1248
3 444 1409 1319
3 283 17 1584
3 1931 1701 2522
3 2175 1114 1709
3 843 750 2325
3 918 1083 2234
3 47 570 2529
3 733 1281 2569
3 162 163 2087
3 1212 1012 769
3 109 110 1896
3 704 1028 2634
3 369 1219 2630
3 286 1143 1152
3 1007 1813 2567
3 738 1811 1341
3 2112 895 1415
3 1772 368 1309
3 467 1260 2515
3 293 294 1455
3 676 1813 2150
3 344 1404 2550
3 872 760 2101
3 124 125 1827
3 1244 569 2125
3 550 1835 2402
3 1325 1547 1579
3 501 882 1263
3 2041 906 2553
3 1006 2155 1922
3 510 2034 1463
3 1170 337 2205
3 1802 508 1846
3 844 1646 2036
3 1349 1520 2009
3 605 1420 2351
3 1315 1277 1986
3 762 2473 2651
3 1759 845 1511
3 554 1207 2189
3 187 1284 2293
3 115 1234 2238
3 655 1935 1542
3 1374 323 2433
3 906 1653 2553
3 992 1123 1665
3 1440 1445 1788
3 773 368 2495
3 1800 497 2371
3 679 1166 2158
3 1732 787 1791
3 799 726 1837
3 409 794 1556
3 2155 618 1922
3 1050 1487 1105
3 849 1116 1765
3 893 1068 2424
3 612 1148 2158
3 603 2236 2261
3 20 1102 1961
3 961 677 2626
3 904 998 1610
3 337 980 2205
3 1081 1315 1986
3 1761 2264 2649
3 1084 761 2551
3 1835 894 1468
3 237 238 2011
3 1734 279 2531
3 845 1756 1735
3 1169 1155 2489
3 316 27 1037
3 1621 847 1434
3 928 1207 1993
3 764 1311 1673
3 386 2109 2417
3 347 2562 2111
3 230 7 808
3 143 1074 2258
3 519 1870 2131
3 1952 94 2050
3 739 1195 1799
3 26 304 978
3 1290 1911 2486
3 178 1291 1895
3 1210 741 2428
3 347 1582 2562
3 1488 858 1655
3 699 157 2230
3 133 134 2294
3 794 1010 1556
3 754 1211 2576
3 640 1195 2232
3 1244 798 1575
3 413 1307 1859
3 1676 649 1536
3 1875 623 1930
3 1813 259 2567
3 2052 687 2514
3 54 1241 1435
3 592 1955 1627
3 1156 734 2434
3 34 35 2088
3 968 670 480
3 2139 638 1698
3 789 1453 2354
3 1020 2139 1698
3 461 1338 2069
3 76 890 2631
3 1058 1217 2311
3 1389 362 1258
3 1010 773 1274
3 587 2074 1558
3 556 1931 2522
3 1683 843 2325
3 888 1923 1657
3 1030 1851 2404
3 1343 1001 777
3 127 1811 2251
3 1244 2314 1631
3 1354 1653 1792
3 1234 327 2300
3 2314 1330 1398
3 909 992 2286
3 876 2338 1559
3 1054 1037 2526
3 318 2314 1575
3 2338 897 1559
3 753 1606 2476
3 1582 1597 2562
3 2020 1020 1698
3 937 507 2616
3 353 1151 1977
3 555 907 2364
3 2177 695 2060
3 761 898 2002
3 2109 744 2417
3 274 1009 2442
3 1964 70 2197
3 897 1168 1559
3 1624 1203 2316
3 881 2085 1590
3 954 1378 2212
3 1249 1298 1321
3 495 2220 1335
3 2113 629 2124
3 1189 720 2105
3 1089 345 2191
3 1454 588 1113
3 1505 1269 2271
3 1213 478 1877
3 2072 557 1907
3 1188 947 1890
3 651 1338 1205
3 1191 778 1735
3 786 1732 1791
3 1059 1246 2334
3 1028 630 2634
3 742 1257 509
3 1146 908 2622
3 1316 1031 1681
3 1263 882 2322
3 711 1501 1346
3 931 1387 2389
3 1474 63 2499
3 263 1008 2309
3 719 999 1448
3 1420 1114 1786
3 97 98 1980
3 1876 643 1715
3 174 175 1595
3 370 2011 2484
3 1790 611 1296
3 2047 677 1152
3 1811 738 2251
3 507 91 2527
3 1912 592 1627
3 1451 1277 2190
3 1999 728 1307
3 1785 828 1947
3 883 2118 2536
3 1504 673 2454
3 253 1747 2581
3 1171 521 2330
3 1628 842 2539
3 786 1975 2511
3 2157 363 2174
3 771 795 1695
3 365 1195 1545
3 2197 1410 2451
3 1466 534 2057
3 440 1018 2150
3 625 1171 2330
3 1462 669 2163
3 181 931 2524
3 525 777 1998
3 1226 2189 2121
3 846 1517 2542
3 768 1334 2276
3 1975 225 2511
3 379 2188 2506
3 2108 484 1666
3 300 301 2425
3 1431 2151 2305
3 1802 628 1609
3 2184 830 2315
3 776 1154 1350
3 773 474 1274
3 1070 1974 2324
3 2076 717 2148
3 365 1013 2545
3 1489 498 2167
3 711 945 2253
3 539 1123 1091
3 1980 604 2500
3 659 1783 2554
3 1251 1753 1971
3 209 210 2037
3 592 1170 2205
3 595 1902 2082
3 234 235 1117
3 1578 460 1712
3 1123 539 1665
3 1308 1146 2622
3 1915 521 2525
3 890 854 2631
3 1127 1747 1472
3 850 1595 2556
3 1503 1629 2601
3 229 1249 1321
3 2314 1244 1575
3 2314 318 1618
3 1145 1146 2176
3 1292 953 1708
3 790 1860 1572
3 494 699 1580
3 327 1621 1434
3 1747 253 1472
3 1499 1048 1782
3 285 1389 1258
3 2191 678 2242
3 1353 2246 2408
3 1538 533 1649
3 2532 1133 2227
3 1806 121 2222
3 524 1802 1913
3 947 865 1890
3 1945 455 2453
3 1655 449 2266
3 754 743 2328
3 1018 676 2150
3 972 1964 2197
3 959 1278 1885
3 1770 53 1435
3 1487 1050 558
3 630 1404 2634
3 2282 1701 1662
3 431 1147 1537
3 164 165 1767
3 2259 1780 1820
3 942 1470 1856
3 107 108 1136
3 412 2047 1152
3 1776 426 1611
3 348 2118 2498
3 1037 940 2526
3 470 1682 1486
3 496 1733 1810
3 484 1699 1666
3 1283 226 2291
3 975 539 1091
3 1043 177 1895
3 1637 1238 2413
3 1474 2207 2092
3 1075 1570 703
3 95 996 2050
3 1849 392 2262
3 1359 1585 2456
3 1693 821 2186
3 51 52 2043
3 701 1009 2147
3 1973 1188 2182
3 1172 434 1841
3 300 2425 1873
3 1207 928 1104
3 1882 564 1861
3 880 1161 1647
3 176 1043 1675
3 1107 590 2544
3 1955 592 1419
3 1462 739 1799
3 996 96 1949
3 870 1107 2544
3 988 1384 2190
3 483 2059 2280
3 1527 892 1058
3 1734 1299 2625
3 642 1940 1579
3 576 1637 2413
3 251 1177 1673
3 1566 1882 1861
3 1485 917 1543
3 1653 906 1792
3 1194 2184 2315
3 657 1213 1877
3 1759 589 1406
3 939 697 1574
3 570 47 1681
3 226 227 2291
3 2085 1092 1590
3 271 272 2171
3 1257 734 1817
3 831 1454 1113
3 2112 572 1836
3 2019 316 1037
3 2150 1007 2090
3 1268 929 2505
3 740 553 2637
3 1101 1980 2500
3 1355 678 2217
3 1084 437 1775
3 594 1091 1565
3 579 1112 1822
3 969 2331 2010
3 860 1495 2385
3 594 975 1091
3 1393 2313 1852
3 907 555 2426
3 690 1734 2460
3 936 508 1609
3 1889 654 2232
3 339 1527 1058
3 1595 807 2556
3 942 1185 1769
3 1397 355 1089
3 1772 707 2398
3 388 1624 2316
3 1478 707 1309
3 673 1870 2454
3 1410 970 1831
3 1257 742 2434
3 7 231 808
3 861 1369 1740
3 484 1515 2411
3 858 1785 1947
3 1208 674 1047
3 970 1410 2021
3 1171 546 1625
3 1592 510 1463
3 1022 377 2249
3 1410 2197 2021
3 1635 1724 2046
3 460 1690 1712
3 2333 1363 2642
3 1195 640 1799
3 1079 393 2540
3 707 994 2398
3 1348 1022 2506
3 1875 776 1350
3 448 1487 558
3 1793 2136 2193
3 1838 928 2597
3 1980 1101 1949
3 364 971 2609
3 2183 622 2409
3 1495 535 2385
3 1068 660 2686
3 186 187 2293
3 1041 1208 1047
3 456 1518 2393
3 807 1595 1675
3 515 1716 1622
3 864 671 960
3 967 2224 1854
3 1504 585 1604
3 1726 750 2263
3 738 1772 2398
3 1596 741 2029
3 994 738 2398
3 1219 1073 2630
3 1393 112 2313
3 779 1770 1435
3 160 1384 988
3 1625 427 2525
3 1469 957 1880
3 1372 850 2556
3 879 2491 2362
3 1941 593 1677
3 1958 619 2066
3 1456 798 1862
3 417 1068 2438
3 1761 924 2600
3 568 741 1596
3 1629 531 2601
3 720 1042 1936
3 1140 1488 1655
3 2045 1432 1857
3 443 2030 1959
3 326 1154 2471
3 1000 1164 1380
3 266 267 1651
3 600 1956 1486
3 1884 146 2060
3 1204 662 2142
3 999 2114 1448
3 1139 2375 2549
3 522 2191 2242
3 1989 753 2476
3 303 26 1634
3 683 2102 2119
3 361 952 2175
3 1143 412 1152
3 338 1891 2231
3 2392 1085 1078
3 1474 824 1836
3 1835 343 2395
3 1805 705 2419
3 1104 376 2114
3 1585 1359 1860
3 953 236 1708
3 767 2314 1398
3 1265 1017 2096
3 1829 476 1273
3 605 2044 1271
3 1904 13 2102
3 1211 966 1213
3 714 2022 1726
3 563 1845 1167
3 1535 927 1476
3 255 256 2076
3 158 159 1315
3 665 1917 1746
3 396 2048 1263
3 1905 1016 1652
3 992 1665 1111
3 113 114 2155
3 908 1086 2635
3 1835 2395 2402
3 1524 861 833
3 1753 540 1971
3 571 1635 2046
3 1075 2006 2244
3 1265 990 2164
3 488 703 2149
3 1228 1904 2340
3 1676 1525 2331
3 1033 1453 740
3 1017 1849 2262
3 315 316 2019
3 403 2045 1857
3 493 1838 2597
3 2286 992 2449
3 681 1829 1273
3 510 1182 2034
3 1330 2314 1618
3 468 2259 2575
3 604 2073 2500
3 1267 1345 1844
3 231 232 1697
3 2224 84 1854
3 599 2156 2675
3 2075 1109 1413
3 467 1267 1844
3 1855 1016 1905
3 1436 871 1926
3 2099 1353 748
3 407 2075 1413
3 724 1827 2153
3 901 635 1122
3 1360 491 1442
3 1009 548 2173
3 2372 1132 1591
3 1793 646 1506
3 1733 496 2424
3 1699 484 2411
3 292 293 2507
3 31 32 1280
3 716 2099 748
3 1153 1007 2567
3 927 1535 1176
3 826 1863 2514
3 495 1282 2220
3 368 1772 2557
3 774 2152 1459
3 477 1134 1287
3 1229 1450 1900
3 1106 1145 2605
3 1290 826 1233
3 885 567 1414
3 1305 650 2405
3 1120 550 2674
3 29 30 1314
3 578 2406 1639
3 251 252 1177
3 2163 486 1711
3 1278 155 1885
3 536 1535 1476
3 2545 1013 2644
3 534 1466 1536
3 1201 735 1524
3 983 1905 1652
3 2125 569 1842
3 795 771 2354
3 1863 140 2133
3 1632 2125 1842
3 1757 320 1823
3 66 1785 2103
3 401 1715 2104
3 2097 452 1977
3 1504 343 2684
3 2272 544 1272
3 438 1381 2042
3 2358 526 2627
3 1074 1363 2258
3 139 1863 2444
3 1207 554 1993
3 1935 615 1542
3 1818 858 1947
3 1932 1383 509
3 1214 1429 1978
3 542 1034 2552
3 1002 2237 2275
3 400 2007 2002
3 841 2127 2161
3 2237 812 2275
3 1004 1490 2196
3 1416 3 2423
3 2351 1955 1419
3 1240 1757 1823
3 1381 1099 2042
3 373 2286 2449
3 1348 2109 2367
3 1641 445 2594
3 568 1154 2683
3 2389 2072 2675
3 563 1167 1786
3 1014 2293 2241
3 1039 907 2426
3 418 1759 1406
3 978 1391 2493
3 497 2144 1968
3 733 1087 2061
3 615 1935 2391
3 774 890 1333
3 1172 513 2172
3 2259 1026 2575
3 674 1963 2134
3 951 1524 833
3 97 1980 1949
3 238 239 2484
3 591 1283 2291
3 1557 2210 2393
3 1006 1539 1852
3 2237 420 2639
3 1469 446 2218
3 765 1641 2594
3 1904 460 2340
3 2457 1500 2089
3 521 1171 1625
3 685 871 2624
3 1051 2282 1662
3 56 57 1577
3 1918 1163 1991
3 1093 1665 899
3 2017 1218 1812
3 723 2038 1275
3 1595 175 1675
3 854 1215 2657
3 520 1585 1860
3 774 1202 1531
3 153 154 1441
3 1913 1802 1846
3 891 242 1619
3 1026 2259 1274
3 1155 1169 2111
3 1102 1128 1961
3 262 263 2309
3 2016 358 2063
3 2074 2616 2674
3 1838 376 1104
3 398 1469 1880
3 260 1153 2567
3 1180 1793 1506
3 1361 2400 2577
3 585 1504 2454
3 951 1201 1524
3 2016 2063 1687
3 1327 2156 2524
3 1072 1439 2503
3 698 1752 2548
3 1202 774 1333
3 1207 999 2189
3 2159 334 1374
3 1278 668 769
3 1134 477 2428
3 1120 1222 2527
3 913 2159 1374
3 530 1683 2325
3 1306 406 1638
3 1019 2372 1591
3 567 885 1468
3 442 1343 1867
3 424 1060 1528
3 452 2477 1977
3 979 346 1926
3 1154 326 1350
3 1249 230 808
3 1105 625 2330
3 743 754 1670
3 1585 520 2348
3 362 985 1258
3 878 2077 2140
3 1306 481 2025
3 1641 633 2053
3 1241 779 1435
3 1177 764 1673
3 53 54 1435
3 2095 391 1613
3 1413 1109 1600
3 1865 990 1390
3 440 1000 1380
3 1151 2097 1977
3 620 1793 2193
3 261 262 1918
3 692 1908 732
3 665 1413 1600
3 731 1538 1649
3 2223 495 1335
3 566 1960 1605
3 828 1818 1947
3 1490 442 2235
3 92 93 1120
3 179 180 2156
3 1034 689 2552
3 591 1076 2644
3 895 930 1275
3 1501 711 1658
3 436 1570 2241
3 516 1560 2303
3 867 1381 2663
3 441 1778 2116
3 350 1627 1920
3 1031 1816 2128
3 827 1886 1921
3 1173 1360 1442
3 1458 2012 2274
3 2128 357 1962
3 681 1242 1887
3 1235 2017 1812
3 1743 145 1707
3 990 1265 2096
3 2156 180 2524
3 1866 589 1696
3 1912 350 1248
3 2289 860 2385
3 659 2554 2652
3 937 1632 1656
3 1018 906 2108
3 92 1120 2527
3 492 2161 2269
3 1560 958 2303
3 848 1787 2662
3 301 1267 2425
3 63 64 2499
3 952 1114 2175
3 67 68 2144
3 44 45 1421
3 1195 739 1545
3 353 2294 1692
3 971 355 2609
3 110 111 1598
3 161 162 583
3 451 1848 2487
3 1845 406 2025
3 2540 393 2169
3 1290 721 2474
3 1050 1105 2330
3 674 2134 1047
3 1224 1478 1309
3 569 1244 1631
3 1570 1654 2241
3 1609 628 1819
3 987 1055 1728
3 2145 1093 899
3 434 1866 1696
3 1602 1025 2287
3 1367 1684 1639
3 772 712 2226
3 488 2006 703
3 1970 1365 1272
3 1157 1490 2235
3 1164 1693 2186
3 1388 1913 1846
3 1046 1108 1634
3 1420 605 1271
3 2355 529 2579
3 1074 546 2642
3 394 1412 2126
3 1683 530 1943
3 1829 681 1887
3 1371 2355 2579
3 336 1683 1943
3 1964 972 2371
3 1215 774 1459
3 806 2418 2687
3 2332 762 2651
3 598 1994 1629
3 890 77 1333
3 240 241 2392
3 207 208 1617
3 1077 1447 2414
3 1018 440 1792
3 1349 966 2328
3 1959 1337 2519
3 2210 456 2393
3 1490 801 2196
3 907 1452 2364
3 1090 410 2187
3 1255 939 1574
3 906 1018 1792
3 93 1952 1120
3 1578 552 2340
3 658 1686 2049
3 386 833 2201
3 560 1451 2190
3 1291 179 2156
3 2071 395 1385
3 1894 1614 2535
3 457 2370 1703
3 473 973 2611
3 434 1172 2172
3 1984 772 1618
3 649 1676 2331
3 1453 789 740
3 468 727 1554
3 628 1774 1819
3 1429 922 2151
3 919 2076 2040
3 650 1749 2405
3 490 1386 2249
3 245 246 1730
3 2127 910 2161
3 78 1202 1333
3 2038 329 1275
3 1141 1499 1782
3 1676 421 405
3 1732 1545 2339
3 1503 1851 1981
3 154 1278 1441
3 2100 713 1842
3 1238 1637 1340
3 573 2012 2447
3 381 1453 2509
3 257 258 1516
3 1956 916 2607
3 1450 1065 1900
3 1135 1319 1670
3 1118 1590 2123
3 190 191 1754
3 584 1232 1356
3 886 2248 1989
3 1040 1372 2556
3 1919 842 1929
3 1363 1074 2642
3 2248 753 1989
3 2314 767 1631
3 355 971 2379
3 846 1928 1481
3 1964 497 1968
3 506 1855 1905
3 956 1377 1477
3 999 719 2121
3 63 1474 2092
3 887 1240 1322
3 452 1218 2017
3 83 84 2224
3 1204 425 2341
3 69 1964 1968
3 2294 1086 1550
3 1319 743 1670
3 1613 1718 1810
3 703 925 2149
3 425 1950 1300
3 2005 329 2494
3 1113 815 2450
3 220 221 1209
3 1051 971 2282
3 1386 1022 2249
3 121 122 2222
3 1072 1848 1593
3 525 1998 2027
3 1658 1262 2318
3 727 956 1554
3 146 147 2060
3 862 1646 1491
3 1062 986 1773
3 1908 349 2390
3 1816 693 2128
3 1654 1387 1721
3 114 115 2238
3 431 937 1656
3 1180 2532 2227
3 1166 419 2577
3 859 898 1775
3 1985 616 2264
3 406 1306 2025
3 1686 344 2049
3 1050 1915 558
3 1139 1956 1982
3 1067 504 2482
3 948 1266 1138
3 1502 662 1768
3 2073 696 2500
3 458 873 1723
3 1848 1072 2487
3 398 1755 2182
3 1554 956 1477
3 746 1379 2321
3 1881 1004 2196
3 715 1087 1460
3 1904 1228 2531
3 2101 607 1448
3 397 1956 2607
3 1827 724 1953
3 499 1510 2216
3 1269 2255 2271
3 631 1177 2581
3 1665 1093 1111
3 1539 547 1852
3 872 2101 1448
3 2011 1292 1708
3 173 174 2590
3 49 50 2530
3 2217 678 2274
3 1128 1143 1961
3 157 158 2230
3 1530 171 2638
3 1083 1090 2234
3 1689 738 1341
3 299 1865 1390
3 330 1028 1709
3 98 99 2578
3 971 428 2282
3 2281 373 1877
3 484 1538 2369
3 473 887 1322
3 196 197 1714
3 2249 377 2670
3 1252 2005 2494
3 254 255 2148
3 371 608 1933
3 1386 379 2506
3 895 2112 930
3 973 473 1322
3 679 2159 1540
3 779 1241 1555
3 101 2024 2641
3 1324 938 2298
3 60 61 2429
3 209 2037 2004
3 566 1941 1677
3 2037 210 1700
3 2091 1685 2588
3 1585 855 2493
3 1267 467 2515
3 171 172 2638
3 1627 1011 1920
3 1853 1046 1634
3 350 2233 2045
3 45 46 2475
3 46 47 2529
3 743 1349 2328
3 726 1849 2310
3 70 71 2197
3 2016 889 2221
3 1271 330 1709
3 100 101 2641
3 146 1884 1707
3 903 244 2200
3 775 1954 2513
3 938 1324 2463
3 1076 347 2111
3 759 936 1819
3 2118 348 2536
3 1975 786 1791
3 1851 1503 2601
3 1715 643 2104
3 152 153 2026
3 1049 536 1138
3 455 2343 2453
3 2006 1075 703
3 1165 692 2070
3 501 2048 2018
3 695 1282 2198
3 487 998 2210
3 277 1824 1948
3 214 215 2501
3 1005 1507 2666
3 1022 1386 2506
3 1442 644 2240
3 377 1399 2670
3 385 1565 2626
3 332 2386 2130
3 1851 33 1981
3 295 296 1368
3 1946 1251 1971
3 945 602 2245
3 721 1290 1233
3 779 1555 2018
3 470 1486 2549
3 1957 715 2344
3 2036 862 1742
3 1848 269 1593
3 2151 922 2305
3 1830 280 2654
3 205 945 2245
3 298 299 1390
3 1011 1306 2277
3 1538 731 2369
3 2044 330 1271
3 1851 1030 1633
3 322 1270 2523
3 1387 917 1721
3 693 938 2463
3 647 1478 809
3 376 1838 1437
3 1827 707 2153
3 1478 1224 809
3 819 1628 2539
3 1807 845 1735
3 1102 289 1876
3 2159 913 1540
3 1525 1676 405
3 450 1526 2508
3 1883 1197 2106
3 425 1204 2353
3 432 1886 2541
3 1453 1033 2509
3 231 1697 808
3 1460 874 2344
3 613 1902 1358
3 211 212 1974
3 1960 1106 2605
3 824 1474 2499
3 1517 1186 2542
3 1488 1140 352
3 1301 905 2135
3 1270 1125 2523
3 450 2016 2221
3 424 1189 2302
3 1539 1173 1764
3 678 1355 2242
3 474 2071 1385
3 1886 827 2541
3 413 2001 2518
3 2169 1557 2658
3 220 1209 2441
3 1878 1183 2383
3 1189 1160 2302
3 382 1960 2605
3 1314 30 2394
3 848 1647 2296
3 2001 413 1868
3 1497 2005 2375
3 1209 778 2441
3 663 2001 1868
3 1062 532 1897
3 1689 656 2557
3 2076 256 2040
3 2012 1216 2447
3 2099 450 2508
3 581 1645 2591
3 359 903 2200
3 144 145 1743
3 541 2418 2122
3 1646 430 1491
3 1016 1855 2178
3 521 1625 2525
3 504 1067 2502
3 1880 1310 2502
3 775 2513 1784
3 1054 2019 1037
3 984 1062 1897
3 290 291 1382
3 237 2011 1708
3 2299 665 1746
3 2252 654 2624
3 1355 411 2242
3 954 1276 1719
3 1664 977 2141
3 1429 2151 1978
3 2085 1521 2656
3 660 1068 2192
3 855 1585 2348
3 609 1355 2217
3 2038 763 2461
3 1269 1505 2285
3 780 1454 2655
3 642 1288 1425
3 1431 2038 2461
3 37 1894 2535
3 1061 697 2559
3 51 2043 2598
3 1384 560 2190
3 410 1090 1834
3 547 1393 1852
3 1001 1343 1512
3 1325 1940 2126
3 1297 694 2496
3 500 2112 1836
3 1884 695 2198
3 1891 875 2231
3 1960 1230 1605
3 557 2072 2389
3 1161 880 1568
3 2225 1482 2310
3 1001 1392 2374
3 362 1389 2619
3 698 1863 2133
3 525 1302 2287
3 664 1268 1840
3 1144 1337 1925
3 552 1578 2295
3 281 1660 1872
3 323 1999 2433
3 1886 432 2296
3 1794 751 1934
3 1153 661 1694
3 1551 622 2551
3 2108 906 2041
3 816 1884 2198
3 1958 441 1864
3 1110 1945 1056
3 778 1191 2441
3 1253 631 2094
3 1999 454 2433
3 325 718 902
3 987 1179 2180
3 500 1488 352
3 2074 587 2616
3 2173 415 2214
3 2056 950 1433
3 478 2281 1877
3 1682 600 1486
3 481 1955 2351
3 962 946 2671
3 972 2056 1433
3 438 2020 1698
3 1168 445 1559
3 539 975 1571
3 662 1502 2142
3 2216 974 2267
3 1863 826 2444
3 72 73 970
3 117 1161 1568
3 639 1378 2098
3 126 127 2251
3 222 223 561
3 1363 2333 1529
3 1902 595 1358
3 890 774 1215
3 2158 896 2612
3 1206 540 1753
3 1923 383 2360
3 702 1917 2378
3 2475 46 2529
3 1017 1265 2225
3 1068 893 2192
3 2047 385 2626
3 42 1878 2383
3 460 2102 2573
3 1606 750 2476
3 2438 1068 2686
3 2418 806 2122
3 703 1570 1295
3 601 1206 1753
3 351 2056 2451
3 2049 533 2110
3 1277 988 2190
3 1265 453 2225
3 1855 984 1897
3 1458 2274 2603
3 1997 620 1921
3 945 711 2615
3 2554 934 2652
3 449 2443 2266
3 415 433 2214
3 1378 860 2098
3 957 1469 2218
3 599 741 2465
3 2211 323 2320
3 2289 1162 2098
3 1183 2216 2267
3 1191 219 2441
3 842 1919 2539
3 869 1445 2381
3 1327 2389 2675
3 972 2197 2451
3 89 1147 1972
3 893 1894 1548
3 1928 846 2542
3 1437 603 2046
3 346 694 1801
3 399 2075 1588
3 635 901 2308
3 193 194 2208
3 640 2232 1066
3 2473 1405 2651
3 2015 499 1411
3 1588 617 2257
3 433 1599 2513
3 1835 550 2033
3 2075 407 1588
3 1825 1383 2446
3 2012 573 2274
3 1838 493 2415
3 417 1257 1817
3 1326 152 2026
3 2331 471 2010
3 930 723 1275
3 641 740 2637
3 603 2346 1745
3 1485 183 2680
3 1441 1278 769
3 1353 2099 2508
3 1217 1560 2568
3 676 1018 1666
3 547 1539 1764
3 1313 781 1933
3 2046 603 1745
3 2082 330 2349
3 1756 700 1735
3 2022 642 1579
3 2443 883 2266
3 2379 1051 1728
3 2313 1006 1852
3 2144 68 1968
3 1319 1135 2592
3 533 1538 2041
3 2219 941 2543
3 511 2022 1579
3 949 1260 1765
3 724 2219 2543
3 1246 423 1340
3 1902 613 2408
3 952 563 1786
3 1447 1124 2414
3 1678 1194 2280
3 2616 1222 2674
3 505 1892 2436
3 216 217 2279
3 695 1884 2060
3 1112 2015 1411
3 2172 513 374
3 858 1488 1304
3 1125 1270 2421
3 1130 441 2116
3 1153 261 1918
3 455 1945 2342
3 884 1923 2360
3 1273 476 1702
3 2316 1203 2214
3 1489 451 2487
3 741 1210 2465
3 847 1621 2519
3 1355 609 1193
3 1945 718 1056
3 1160 1189 2668
3 16 285 1258
3 1077 1527 1447
3 602 945 2615
3 2317 804 2650
3 1366 902 2560
3 715 1460 2344
3 596 1678 2280
3 2333 790 1529
3 788 362 2619
3 755 2172 374
3 1007 1153 1694
3 2194 663 2401
3 2005 797 2375
3 1235 1178 2477
3 819 543 2440
3 619 1958 1864
3 1392 1001 1512
3 2095 1613 2682
3 2124 590 2554
3 257 1516 2040
3 2028 1064 2067
3 776 1287 2683
3 589 1866 1406
3 1089 355 2379
3 245 1730 2200
3 811 2194 2401
3 971 1051 2379
3 1253 527 1938
3 894 1835 2033
3 1444 766 1804
3 1347 1743 1707
3 1502 1098 2142
3 111 1393 1598
3 742 509 1825
3 1384 161 583
3 972 1433 2371
3 1578 1200 2295
3 1903 351 1831
3 1085 575 2347
3 443 2032 1784
3 1529 790 1572
3 755 374 1847
3 639 2290 2212
3 2475 1071 2649
3 781 371 1933
3 1783 2124 2554
3 1740 1369 2568
3 1988 39 2284
3 860 2289 2098
3 1405 1035 2651
3 1954 388 2316
3 56 1577 2584
3 541 1397 1661
3 39 40 2284
3 1236 1853 2348
3 1439 498 2503
3 852 1199 2212
3 903 359 2586
3 2004 2037 2130
3 1074 144 1743
3 750 1606 2325
3 194 2077 2208
3 1414 673 2684
3 1326 1012 2115
3 1894 37 1548
3 241 891 2392
3 498 1489 2503
3 2321 488 2149
3 1606 530 2325
3 905 1326 2115
3 1055 987 2180
3 929 882 2505
3 986 2177 2326
3 2255 1269 2370
3 1378 954 1719
3 1944 1551 2551
3 457 2255 2370
3 1457 359 960
3 1106 1960 2565
3 713 1717 1656
3 559 1459 2604
3 204 205 2245
3 1495 459 2497
3 1119 1533 1723
3 1526 1129 2508
3 142 4 1256
3 987 1728 1662
3 1664 2141 2541
3 1730 359 2200
3 973 822 2611
3 427 1426 2525
3 481 1167 2025
3 1179 1546 1528
3 782 65 2103
3 595 2082 2349
3 1717 431 1656
3 275 9 2332
3 172 173 2338
3 1260 949 1663
3 1397 541 2122
3 932 1014 1721
3 35 36 1443
3 1133 1589 2227
3 2232 654 1066
3 330 2044 2349
3 1560 516 2568
3 1025 777 2287
3 2132 729 2107
3 2096 1017 2080
3 99 100 2139
3 1336 1557 2169
3 1427 1569 1951
3 917 932 1721
3 358 1253 2063
3 1892 505 1668
3 898 1084 1775
3 497 1964 2371
3 1443 36 2535
3 532 1062 1773
3 670 1483 1834
3 1276 954 2661
3 642 1425 1940
3 1044 1946 2132
3 1062 984 1335
3 1216 2206 1412
3 2290 852 2212
3 739 1711 2339
3 1167 1845 2025
3 2136 1126 2193
3 1497 2375 1982
3 400 1313 1933
3 2197 71 2021
3 784 1273 1702
3 1218 309 1812
3 1198 1270 2546
3 689 1034 1677
3 1946 729 2132
3 901 435 2308
3 319 1809 2195
3 1620 2343 2618
3 1114 952 1786
3 351 1903 2170
3 1865 300 1873
3 239 240 1078
3 610 1248 2563
3 1299 1684 2625
3 896 2430 2612
3 151 152 2399
3 36 37 2535
3 1782 351 2170
3 1098 1950 2353
3 340 1396 2586
3 411 1355 1193
3 392 1079 2540
3 425 2058 2341
3 2058 1052 2341
3 535 1487 2385
3 614 2395 1738
3 1607 192 1671
3 1339 403 1857
3 1464 926 2084
3 404 2039 2566
3 619 1444 732
3 1518 1408 2078
3 453 1265 2164
3 526 2358 2671
3 1599 912 2513
3 2464 1230 2678
3 1970 701 2147
3 631 1253 1938
3 512 1600 1667
3 1600 1109 1667
3 198 1042 2599
3 1858 924 2488
3 1264 1364 1604
3 252 253 2581
3 1181 1103 2608
3 1917 201 1746
3 975 791 1571
3 414 1501 2632
3 1249 680 2677
3 673 1504 2684
3 2112 500 930
3 614 1862 1558
3 777 525 2287
3 1860 1359 1572
3 1596 736 1564
3 776 1644 1287
3 188 189 1376
3 197 198 2599
3 1053 1329 2165
3 983 2270 1906
3 1956 397 1982
3 2404 1851 2601
3 2252 412 1066
3 1488 500 2617
3 321 1924 1705
3 1501 1220 2632
3 1950 1098 2054
3 2375 1139 1982
3 1004 1392 1512
3 333 1505 2271
3 1397 522 1661
3 294 295 2265
3 1853 855 2348
3 818 2249 2670
3 1154 776 2683
3 264 265 1514
3 1640 780 2655
3 1935 380 2391
3 1293 1594 2471
3 430 1769 1491
3 1701 1931 1662
3 1871 673 1414
3 718 1945 2453
3 1576 2669 1742
3 401 2254 1796
3 1521 1069 2656
3 2206 796 1412
3 453 1260 1663
3 1399 1403 2670
3 1298 1249 2677
3 910 1197 1883
3 145 146 1707
3 685 1889 2489
3 65 66 2103
3 1196 1140 2536
3 102 2 2643
3 1063 985 2229
3 2034 1252 1463
3 817 2077 1480
3 647 1418 2219
3 1044 1464 1425
3 5 170 2478
3 348 1196 2536
3 749 2129 1498
3 970 1041 1831
3 1342 1125 2538
3 513 1172 1483
3 1186 690 2633
3 2343 408 2618
3 668 1212 769
3 2244 736 1907
3 2320 323 1374
3 192 193 1671
3 1378 639 2212
3 2155 1006 2313
3 882 501 2315
3 423 1716 1763
3 551 788 2619
3 1291 599 2465
3 25 303 2437
3 694 1297 1801
3 450 2221 1526
3 550 1952 2033
3 72 970 2021
3 77 78 1333
3 460 1578 2340
3 644 415 2440
3 1305 1214 1978
3 863 1131 2323
3 1532 2321 2149
3 454 1999 1307
3 1684 1299 1639
3 2340 552 2676
3 2028 2067 2027
3 509 1383 1825
3 968 942 1769
3 830 882 2315
3 983 1906 2416
3 731 1649 2550
3 8 1970 2147
3 905 2336 2135
3 2141 432 2541
3 1960 566 2565
3 1126 2136 1739
3 1491 1185 2613
3 1684 14 2625
3 1730 864 960
3 777 1001 1998
3 1624 388 2079
3 2136 342 1739
3 1364 837 1738
3 2 103 2643
3 478 1213 2481
3 1439 652 2432
3 1266 948 2580
3 2191 345 2603
3 2011 238 2484
3 1373 2081 2359
3 169 5 2478
3 2583 1082 2107
3 1280 32 1633
3 382 1115 2665
3 701 1970 1272
3 2274 678 2603
3 285 19 2667
3 747 1293 1564
3 124 1827 1953
3 2168 948 1839
3 2248 886 2255
3 650 1305 1978
3 555 1339 1857
3 575 505 2347
3 2048 779 2018
3 2279 217 2572
3 1375 2437 2669
3 1383 2199 2446
3 1515 484 2369
3 1260 467 1765
3 457 2248 2255
3 932 1485 2681
3 629 2113 2306
3 1220 1501 2185
3 1323 1423 2570
3 2037 1700 2209
3 1889 365 2545
3 1184 1467 2257
3 1071 2529 1962
3 2022 511 1726
3 1132 1825 2446
3 1210 1291 2465
3 414 1184 2257
3 1165 504 1638
3 635 887 1934
3 1952 894 2033
3 734 1156 2682
3 830 1221 1840
3 1999 323 1320
3 762 2332 2079
3 2030 491 1925
3 1515 717 2411
3 1196 348 2357
3 1235 2477 2017
3 1277 1315 988
3 2529 570 1962
3 41 42 2383
3 735 2168 1839
3 721 1522 2650
3 1200 1578 1712
3 1660 1003 1872
3 1362 319 2614
3 1996 1048 1499
3 1147 1717 2202
3 448 1266 2580
3 985 362 2229
3 1082 1357 2107
3 349 2066 2390
3 2125 1632 2387
3 1329 204 2245
3 1288 1044 1425
3 2336 905 2521
3 2217 573 2373
3 573 1357 2373
3 2068 387 2278
3 494 1342 2538
3 387 1607 2278
3 1950 425 2353
3 761 1944 2551
3 1960 382 2665
3 1232 584 2014
3 1667 1269 2285
3 289 1473 1876
3 2152 774 1531
3 1696 401 2104
3 1216 1412 2084
3 1970 277 1948
3 394 1464 2084
3 688 1637 2533
3 2229 362 2627
3 2030 1337 1959
3 2048 501 1263
3 1169 2545 2644
3 1111 657 2449
3 681 1273 1916
3 113 2155 2313
3 2077 817 2140
3 280 1684 2654
3 2437 1108 2669
3 1674 681 1916
3 2110 533 2553
3 454 1317 2433
3 1954 433 2513
3 905 2115 2521
3 269 270 1593
3 1211 1569 2576
3 1060 1179 1528
3 782 858 1304
3 1198 1362 2421
3 2488 924 1979
3 2358 793 2671
3 679 2158 2612
3 1769 1185 1491
3 835 1919 1344
3 1928 1289 2250
3 242 243 1619
3 1204 2142 2353
3 37 38 1548
3 247 248 2427
3 2604 408 2365
3 1023 2295 2435
3 2358 733 2388
3 2097 1151 2474
3 1287 1134 2683
3 2142 1098 2353
3 1262 1617 2318
3 1583 1024 2366
3 883 2536 2266
3 1184 414 2632
3 723 1196 2357
3 584 907 2014
3 1615 1048 1777
3 1464 394 1425
3 2138 1370 2585
3 1449 1946 1971
3 950 1615 1777
3 1617 834 2318
3 1242 1184 2632
3 2632 1220 2203
3 397 1549 1982
3 1311 250 1673
3 885 1414 2684
3 1988 660 2192
3 1444 692 732
3 199 200 1937
3 132 133 1550
3 1329 602 2165
3 1542 615 2327
3 1446 1465 2492
3 824 782 1304
3 1310 2233 1920
3 1716 1095 1763
3 955 658 2110
3 642 2022 1741
3 253 254 1472
3 1911 1290 2474
3 1138 536 2345
3 1034 566 1677
3 1780 785 2194
3 958 1974 2303
3 219 220 2441
3 624 2096 2080
3 1908 2390 732
3 2003 470 2549
3 1369 1217 2568
3 1974 1070 2303
3 2536 1140 2266
3 734 1613 1810
3 862 1491 2613
3 2420 559 2604
3 2051 626 2546
3 811 1780 2194
3 827 1921 1581
3 878 2068 2278
3 793 1693 2337
3 2052 698 2548
3 545 2445 2591
3 445 1641 1559
3 1315 159 988
3 2016 450 2571
3 1526 731 2550
3 1092 2057 2594
3 1924 822 2623
3 1921 620 1581
3 1381 438 1698
3 2093 1054 2526
3 529 1042 2579
3 1547 511 1579
3 2105 512 2668
3 1357 573 2447
3 901 338 2231
3 1217 1369 2311
3 1695 831 2042
3 1581 1126 2352
3 1026 1305 2405
3 2290 639 1992
3 1055 345 1728
3 1110 1479 1706
3 152 1326 2399
3 527 2064 1938
3 1693 324 2337
3 2393 1518 2078
3 140 141 2133
3 1145 2176 2605
3 1600 512 2378
3 1209 836 2504
3 420 2117 1777
3 2239 949 2166
3 282 16 2268
3 893 1988 2192
3 138 139 2444
3 1200 1712 1193
3 1042 720 2579
3 656 1689 2664
3 559 1963 2657
3 1025 2179 1867
3 1454 381 2655
3 2117 950 1777
3 1653 1354 1672
3 130 131 2448
3 421 2085 2656
3 654 2252 1066
3 2437 1375 2593
3 1269 1667 2370
3 1576 1375 2669
3 565 2036 1742
3 608 2007 1933
3 683 2119 2304
3 123 124 1953
3 135 136 1795
3 1560 1217 1400
3 1146 1308 2176
3 1667 1109 2370
3 813 1301 2135
3 2262 392 2540
3 1689 606 2664
3 2152 408 1459
3 1354 1792 1380
3 948 1138 2345
3 1560 332 2209
3 806 2083 2122
3 1505 1160 2285
3 1044 1288 2555
3 2176 382 2605
3 770 2211 2320
3 958 1560 2209
3 358 2016 2571
3 1307 413 2518
3 2179 756 1867
3 1394 877 1294
3 877 1883 2106
3 1337 2030 1925
3 1686 658 2470
3 2361 395 2664
3 225 226 2511
3 1863 698 2514
3 1616 1362 2614
3 898 400 2002
3 2066 619 2390
3 1433 366 2371
3 378 1653 1672
3 518 1422 2160
3 2055 596 1015
3 244 245 2200
3 825 1932 2065
3 1242 2632 2203
3 1412 394 2084
3 1179 752 2180
3 1042 529 2599
3 666 1658 2318
3 1283 591 1803
3 905 1301 2399
3 754 2407 1670
3 658 2049 2110
3 750 1726 2476
3 1017 2262 2080
3 748 1353 2408
3 854 1781 2631
3 2409 1475 1396
3 1140 1196 352
3 2011 370 2031
3 201 202 1746
3 1535 659 2652
3 1292 2011 2031
3 338 2007 1891
3 1124 1839 2345
3 766 2533 1804
3 2032 775 1784
3 973 783 2623
3 2359 576 2413
3 153 1441 2026
3 94 95 2050
3 2263 506 1966
3 2221 731 1526
3 2119 482 2304
3 177 178 1895
3 993 1865 1873
3 1479 868 1706
3 1010 2259 1820
3 1473 23 2187
3 718 325 1056
3 378 955 2110
3 1087 733 2569
3 19 1874 2667
3 1473 643 1876
3 2062 59 2517
3 602 1329 2245
3 416 1996 1499
3 573 2217 2274
3 408 2343 2365
3 1839 948 2345
3 1530 876 2053
3 902 718 2560
3 2436 1608 2347
3 1866 755 1797
3 911 1750 2000
3 711 1346 2615
3 112 113 2313
3 2513 912 1784
3 142 1256 2673
3 1781 75 2631
3 212 213 2324
3 658 955 1957
3 463 1087 2569
3 180 181 2524
3 1614 1443 2535
3 1576 375 2485
3 1385 395 2356
3 638 2024 2663
3 1308 382 2176
3 91 92 2527
3 444 1319 1430
3 1464 1044 2132
3 406 1165 1638
3 956 727 2118
3 159 160 988
3 657 1877 2449
3 546 1171 2642
3 889 2016 1687
3 332 1560 1400
3 1428 2262 2540
3 1115 1230 2665
3 59 60 2517
3 1792 440 1380
3 340 2409 1396
3 1712 411 1193
3 786 1283 1803
3 855 978 2493
3 2075 399 1703
3 210 211 1700
3 2071 773 2495
3 2117 420 1586
3 656 2071 2495
3 1690 411 1712
3 798 2125 2387
3 950 2117 1659
3 1339 904 1610
3 25 2437 2593
3 462 2052 2548
3 309 310 1812
3 926 1357 2447
3 1527 339 1447
3 2277 1306 1638
3 47 48 1681
3 2329 1493 2269
3 2063 475 1687
3 1418 647 2532
3 950 2056 1615
3 1725 1324 1979
3 1180 1418 2532
3 594 1565 1983
3 1922 618 2260
3 2056 351 1615
3 727 468 2575
3 1641 876 1559
3 638 1381 1698
3 813 2135 1773
3 700 2381 2335
3 1428 2169 2658
3 591 1013 1803
3 2233 350 1920
3 876 1530 2638
3 440 2150 2090
3 1549 1497 1982
3 596 2059 1015
3 1317 812 1893
3 1224 1309 2467
3 1 89 1972
3 412 2252 2047
3 1093 2145 1951
3 1214 1385 2356
3 1683 336 1942
3 80 1394 1294
3 613 748 2408
3 2024 638 2641
3 721 2097 2474
3 208 209 2004
3 116 117 1568
3 826 1522 1233
3 183 6 2680
3 79 80 1294
3 1264 2215 2679
3 1013 591 2644
3 236 237 1708
3 228 229 1321
3 1522 1438 2650
3 1283 786 2511
3 170 171 2659
3 259 260 2567
3 397 1415 1549
3 888 1657 1833
3 2381 1720 2335
3 919 1699 2411
3 2466 641 2637
3 101 102 2403
3 471 2469 2010
3 1476 927 1888
3 680 1582 2677
3 155 156 1885
3 1081 1986 2523
3 1545 739 2339
3 2211 770 2547
3 865 2273 1890
3 882 929 2322
3 1301 151 2399
3 607 719 1448
3 1365 1970 1948
3 217 218 2572
3 6 184 2680
3 88 1 1972
3 2120 1046 2397
3 4 143 2258
3 96 97 1949
3 175 176 1675
3 1684 1367 2654
3 333 2271 2589
3 822 973 2623
3 1077 1476 1888
3 119 120 2595
3 907 1039 2014
3 1404 704 2634
3 977 523 2141
3 2505 830 1840
3 1122 635 1934
3 1373 2359 2413
3 84 85 1854
3 922 1592 1463
3 2273 839 1890
3 1331 1957 2344
3 33 34 1981
3 1176 1535 2652
3 128 129 2596
3 1048 1615 1782
3 194 195 1480
3 916 2062 2517
3 1980 98 2578
3 174 1595 2590
3 877 1394 1883
3 2429 1261 2607
3 1266 448 558
3 255 2076 2148
3 1215 559 2657
3 372 2073 2534
3 609 2217 2373
3 2120 911 2000
3 2236 603 2415
3 403 1248 2045
3 719 545 1731
3 587 937 2616
3 75 76 2631
3 714 2263 1966
3 634 727 2575
3 1821 888 1833
3 2067 525 2027
3 2376 1594 2688
3 370 2058 2031
3 1530 1005 2659
3 62 63 2092
3 1547 1325 2589
3 1936 199 1937
3 1859 728 1739
3 324 2346 2261
3 1909 925 1295
3 1427 1240 1823
3 342 1859 1739
3 50 51 2598
3 256 257 2040
3 984 2223 1335
3 1869 1351 2672
3 606 1689 1341
3 30 31 2394
3 661 1000 1694
3 565 2120 2000
3 1063 946 1553
3 55 56 2584
3 27 1494 2510
3 184 185 2681
3 2252 385 2047
3 2262 1428 2080
3 2188 1348 2506
3 1685 2024 2403
3 2123 1092 2594
3 87 88 2202
3 1372 439 2384
3 1482 1837 2310
3 768 1674 1916
3 686 1683 1942
3 812 1996 1893
3 1387 557 2389
3 1996 416 1893
3 2520 426 2528
3 2058 425 2587
3 339 1058 2311
3 831 2450 2042
3 347 1076 2213
3 1407 366 1659
3 71 72 2021
3 2136 1180 2227
3 226 1283 2511
3 1850 580 2574
3 103 104 2588
3 168 169 2666
3 916 2429 2607
3 524 2430 2439
3 1197 1366 1927
3 1557 2393 2658
3 2352 1126 1552
3 618 1434 2260
3 503 2117 1586
3 2068 364 1688
3 1116 949 1765
3 342 2136 2227
3 2492 1465 1762
3 68 69 1968
3 510 2093 2526
3 2430 896 2439
3 985 1063 2268
3 149 150 2452
3 250 251 1673
3 1850 849 1844
3 2135 532 1773
3 1809 609 2195
3 327 1434 2300
3 1454 831 2621
3 1377 586 1477
3 1092 2085 2620
3 1837 726 2310
3 827 1581 2352
3 104 2091 2588
3 132 1550 2458
3 1075 2244 1907
3 1862 798 1558
3 1507 168 2666
3 1415 895 1549
3 1475 2419 1396
3 2419 1174 1396
3 1216 2012 2143
3 2073 815 2534
3 136 1911 1795
3 1565 385 1983
3 1228 2162 2460
3 552 1057 1939
3 2455 817 1480
3 476 1987 1702
3 2121 719 1731
3 1000 440 2090
3 2032 443 2602
3 1071 2475 2529
3 2133 141 2673
3 332 2037 2209
3 1326 905 2399
3 2244 747 1564
3 837 1862 1738
3 985 16 1258
3 2037 332 2130
3 2357 348 2498
3 2448 131 2458
3 134 135 1692
3 707 1478 2153
3 131 132 2458
3 135 1795 1692
3 1494 1021 2510
3 2095 823 2608
3 751 1122 1934
3 1118 1372 2384
3 1657 473 2611
3 16 985 2268
3 1425 394 1940
3 2393 624 2658
3 1222 1120 2674
3 138 2444 2486
3 1422 1220 1100
3 171 1530 2659
3 785 1554 1477
3 450 2099 2571
3 1252 2494 2305
3 1357 1082 2373
3 798 1456 1575
3 2156 1327 2675
3 1522 721 1233
3 1230 1115 2678
3 374 356 1847
3 1421 45 2475
3 2189 999 2121
3 2199 632 2446
3 869 2243 1788
3 1223 1510 2582
3 2024 101 2403
3 1342 494 1580
3 491 1360 1925
3 319 2195 2614
3 2264 1761 2600
3 336 1943 1702
3 892 1422 1100
3 559 1215 1459
3 2100 967 1854
3 1943 784 1702
3 1433 950 1659
3 1860 790 2023
3 130 2448 2606
3 436 1909 1295
3 1110 1056 1479
3 1343 1025 1867
3 603 1437 2415
3 2502 1310 2647
3 2084 926 2447
3 2036 565 2000
3 2259 1010 1274
3 849 1850 2574
3 387 2068 1688
3 3 130 2606
3 1342 1081 2523
3 1189 2105 2668
3 2099 716 2640
3 1034 542 2610
3 672 1584 2422
3 2087 969 2010
3 141 142 2673
3 137 138 2486
3 1288 642 1741
3 504 2277 1638
3 447 1219 2204
3 323 2211 1320
3 381 1454 2621
3 553 1896 2637
3 1351 2028 2027
3 2085 421 2620
3 133 2294 1550
3 1345 1901 2362
3 1375 1576 2485
3 435 901 2231
3 1256 1752 2673
3 1737 716 1563
3 533 2041 2553
3 2072 736 2029
3 1230 1960 2665
3 1216 2084 2447
3 582 1197 1927
3 614 2074 2402
3 1737 358 2640
3 1584 1513 2422
3 763 2357 2498
3 2270 601 1906
3 1149 1405 2473
3 334 2320 1374
3 1309 368 2467
3 388 1492 2079
3 2272 1365 2380
3 1030 1280 1633
3 1486 1139 2549
3 336 1107 1942
3 756 2179 1563
3 482 2418 2304
3 2461 763 1749
3 2129 1003 1498
3 1273 784 1916
3 1367 2406 1990
3 882 830 2505
3 1445 869 1788
3 650 2461 1749
3 2152 582 2618
3 1256 1359 2456
3 2077 878 2208
3 924 1725 1979
3 1280 1175 2394
3 834 2386 2318
3 2386 666 2318
3 831 1113 2450
3 2337 962 2671
3 582 2152 1531
3 1140 1655 2266
3 1590 1092 2123
3 1987 336 1702
3 2057 765 2594
3 2509 1640 2655
3 1069 405 2656
3 1658 666 2185
3 2548 1752 2456
3 2480 1093 1951
3 1332 1471 1553
3 1061 1036 1847
3 803 1446 2492
3 1099 1695 2042
3 1550 908 2458
3 2162 690 2460
3 1604 585 2215
3 519 2131 2585
3 1087 715 2061
3 869 1756 1642
3 1219 852 2204
3 2345 536 2414
3 1111 1093 2480
3 1510 1223 2686
3 1492 762 2079
3 1722 1377 2443
3 778 1209 2504
3 1343 442 1512
3 2423 1106 2610
3 1057 964 1939
3 1201 951 1992
3 1856 1470 2566
3 1930 623 2366
3 1221 664 1840
3 1510 499 2582
3 1929 641 1344
3 1605 1230 2464
3 471 1481 2250
3 1203 2173 2214
3 2129 281 1872
3 1129 1526 2550
3 326 2471 2376
3 722 1605 2464
3 506 1905 1966
3 716 1737 2640
3 718 2453 2560
3 1009 2173 2442
3 1282 2306 2198
3 2157 825 2065
3 2306 816 2198
3 2007 400 1933
3 1323 2570 2009
3 1906 682 2416
3 1752 1256 2456
3 1581 620 2193
3 1418 1180 1506
3 213 1225 2324
3 31 1280 2394
3 793 2337 2671
3 85 2100 1854
3 1175 1158 2432
3 2059 596 2280
3 1565 961 2626
3 1248 350 2045
3 1690 460 2573
3 2445 581 2591
3 1240 973 1322
3 2297 1264 2679
3 516 1740 2568
3 426 2356 2528
3 512 2285 2668
3 946 493 1553
3 1665 539 899
3 355 2083 2609
3 599 2072 2029
3 366 1433 1659
3 2377 1475 2409
3 2007 608 1891
3 2074 550 2402
3 381 2509 2655
3 690 2162 2633
3 405 421 2656
3 1302 525 2067
3 1392 757 2374
3 1780 811 1820
3 646 1418 1506
3 725 2512 2636
3 536 1476 2414
3 2151 650 1978
3 1461 1110 1706
3 682 1288 1741
3 2173 1203 2442
3 1264 1604 2215
3 357 2128 2463
3 2386 834 2130
3 1594 1680 2688
3 1731 545 1814
3 554 1137 2468
3 1178 1086 2477
3 660 1510 2686
3 880 1647 1245
3 1647 848 1245
3 2270 983 1652
3 1558 798 2387
3 895 1275 2483
3 2077 194 1480
3 613 1358 1898
3 2162 1228 2676
3 2471 1594 2376
3 2420 1097 2400
3 356 1061 1847
3 408 2152 2618
3 472 2352 1552
3 815 1113 1808
3 1527 1077 2160
3 948 2168 2580
3 955 715 1957
3 2290 744 2204
3 479 1149 2473
3 1151 1911 2474
3 951 833 2417
3 2541 827 2228
3 511 1989 2476
3 1471 282 2268
3 2494 1431 2305
3 810 2401 1868
3 500 1836 2617
3 949 2239 1663
3 1156 2095 2682
3 1590 1118 2685
3 629 2462 2544
3 592 2205 1419
3 2138 372 2534
3 2618 582 1927
3 2453 1620 2560
3 1126 1739 1552
3 626 2301 2546
3 2215 803 2679
3 1164 2186 1380
3 439 1024 2384
3 1223 2157 2065
3 512 1667 2285
3 1739 728 1552
3 820 2516 2288
3 1576 862 2613
3 2516 959 2288
3 1373 2413 1567
3 88 1972 2202
3 957 2218 2660
3 2163 669 1796
3 2088 35 1443
3 1674 1467 1184
3 543 2181 2240
3 1901 879 2362
3 2355 556 2154
3 1501 1658 2185
3 2072 599 2675
3 2243 869 1642
3 2680 184 2681
3 1485 2680 2681
3 550 2074 2674
3 609 2373 2195
3 1972 1147 2202
3 2418 541 2304
3 702 1936 1937
3 1407 503 2558
3 2124 629 2544
3 1352 637 1668
3 2401 663 1868
3 2216 1183 1411
3 2181 1173 2240
3 1288 682 2555
3 1048 1996 2639
3 900 2520 2528
3 1664 2541 2228
3 1285 1019 1591
3 834 2004 2130
3 1573 516 2303
3 1459 408 2604
3 2211 472 1320
3 2275 454 2518
3 1456 318 1575
3 2157 1223 2582
3 566 1034 2565
3 2273 865 2089
3 2356 395 2528
3 2128 693 2463
3 505 1352 1668
3 2186 1354 1380
3 480 1083 2307
3 2308 435 2592
3 822 1821 1833
3 1428 2540 2169
3 1455 294 2265
3 1679 1714 2154
3 2352 472 2228
3 2512 621 2636
3 1003 2376 2688
3 1905 983 1966
3 1986 322 2523
3 1370 2272 2380
3 395 2361 2528
3 1714 529 2154
3 2410 545 2591
3 2267 41 2383
3 2406 1583 1990
3 1132 2446 1591
3 202 2299 1746
3 1361 2420 2400
3 1911 1151 1795
3 577 1922 2260
3 694 645 2496
3 2070 1027 2482
3 1003 2129 1872
3 2159 679 2612
3 1612 354 2363
3 1699 676 1666
3 2469 1289 2247
3 1358 944 1898
3 462 2548 2456
3 359 1730 960
3 622 2377 2409
3 1570 436 1295
3 472 2211 2547
3 835 2466 2490
3 1238 1340 1763
3 1749 634 2405
3 800 1858 2488
3 833 861 2201
3 992 1111 2449
3 735 1839 2648
3 1649 344 2550
3 1070 1573 2303
3 1998 1351 2027
3 1441 1012 2026
3 1807 331 1511
3 375 1576 2613
3 1858 800 2363
3 1137 1181 2468
3 691 2145 899
3 1248 403 2563
3 2207 62 2092
3 911 1276 2661
3 1620 2618 1927
3 845 1807 1511
3 425 1300 2587
3 678 2191 2603
3 1063 1471 2268
3 60 2429 2517
3 1177 252 2581
3 331 1807 2504
3 2478 170 2659
3 529 1714 2599
3 393 1336 2169
3 493 2236 2415
3 2485 375 2491
3 2382 772 2226
3 1481 1928 2250
3 2230 1081 1580
3 2381 700 1756
3 48 1316 1681
3 1012 1326 2026
3 1919 1929 1344
3 1181 1798 2468
3 1124 2345 2414
3 2602 1388 1846
3 328 1461 1706
3 1862 614 1738
3 2162 964 2633
3 1615 351 1782
3 102 2643 2403
3 1086 1178 2635
3 562 2264 2600
3 2463 1324 1725
3 2343 1620 2453
3 736 2244 1564
3 2080 1428 2658
3 538 2239 2166
3 2373 1082 2195
3 1489 2487 2503
3 2255 886 2271
3 402 2297 2679
3 1471 1063 1553
3 1549 895 2483
3 618 2238 2300
3 1126 1581 2193
3 521 1915 2330
3 1653 378 2553
3 1717 87 2202
3 2500 696 2086
3 1016 2336 2521
3 1756 845 1642
3 2206 1216 2143
3 1726 511 2476
3 1734 2531 2460
3 1275 329 2483
3 1680 684 2688
3 404 2566 2307
3 2056 972 2451
3 1809 319 2435
3 1582 347 2213
3 1412 796 2126
3 1589 342 2227
3 1914 889 1687
3 2336 532 2135
3 1183 1822 1411
3 485 2270 1652
3 1253 2094 2063
3 1836 824 2617
3 2532 647 809
3 545 2410 1814
3 632 1285 1591
3 1040 2556 1748
3 1133 2532 809
3 2115 485 2521
3 1807 778 2504
3 588 2138 1808
3 185 932 2681
3 1024 881 2685
3 963 2469 2247
3 936 1609 1819
3 983 2416 1966
3 526 2229 2627
3 378 2110 2553
3 475 1914 1687
3 1858 562 2600
3 2416 714 1966
3 657 1111 2480
3 2466 758 2490
3 1325 1484 2589
3 1484 333 2589
3 402 2492 1762
3 2575 1026 2405
3 1173 2181 1764
3 1005 2478 2659
3 833 386 2417
3 1915 1050 2330
3 1613 734 2682
3 1636 2273 2089
3 434 1696 2104
3 1082 2583 2614
3 2643 1685 2403
3 1300 1292 2587
3 2336 1016 2178
3 2425 1267 2515
3 634 2575 2405
3 532 2336 2178
3 2531 1228 2460
3 752 2206 2143
3 2413 1238 1567
3 2429 916 2517
3 1097 2604 2365
3 643 1841 2104
3 934 1176 2652
3 1452 2507 2364
3 1874 1508 2667
3 2487 1072 2503
3 1256 4 1572
3 881 1590 2685
3 1113 588 1808
3 454 1307 2518
3 2507 1509 2364
3 1856 360 2570
3 811 1556 1820
3 666 1100 2185
3 869 2381 1756
3 2583 1616 2614
3 624 2080 2658
3 862 1576 1742
3 1463 1252 2305
3 1476 1077 2414
3 1556 1010 1820
3 796 1484 2126
3 531 2404 2601
3 577 2260 1144
3 1434 847 2260
3 2519 1337 1144
3 1125 1342 2523
3 1943 530 1150
3 861 1740 2201
3 800 1612 2363
3 841 2382 2226
3 608 1766 1891
3 1220 1422 2203
3 1484 1325 2126
3 172 2338 2638
3 1270 1198 2421
3 605 2351 1419
3 2236 962 2261
3 2431 503 1586
3 1101 2500 2086
3 852 2290 2204
3 1910 469 2013
3 1286 2431 1586
3 1228 2340 2676
3 699 2230 1580
3 2669 565 1742
3 2301 1198 2546
3 2260 847 1144
3 1841 434 2104
3 211 1974 1700
3 418 2243 1642
3 539 1571 899
3 1298 1582 2213
3 768 1916 2319
3 472 2547 2228
3 2102 683 2573
3 1381 638 2663
3 2139 100 2641
3 2390 619 732
3 2556 807 1748
3 1437 1838 2415
3 876 1641 2053
3 1766 875 1891
3 1920 1011 2647
3 2238 1234 2300
3 1974 958 1700
3 1173 1442 2240
3 1671 878 2278
3 1931 987 1662
3 1728 1051 1662
3 2566 1470 2307
3 2094 475 2063
3 1720 1386 2653
3 4 1529 1572
3 2543 123 1953
3 938 693 2537
3 1569 2480 1951
3 2521 485 1652
3 1359 1256 1572
3 2114 872 1448
3 879 2485 2491
3 1197 582 2106
3 520 1860 2023
3 1016 2521 1652
3 993 2425 2515
3 1310 1920 2647
3 1607 1671 2278
3 1386 490 2653
3 964 2162 1939
3 1012 1441 769
3 2498 634 1749
3 1238 1763 2396
3 2361 900 2528
3 1529 4 2258
3 1714 197 2599
3 847 2519 1144
3 1438 2317 2650
3 1798 672 2468
3 1716 363 1622
3 1740 1227 2201
3 1611 426 2520
3 1497 1549 2483
3 924 1858 2600
3 1178 466 2635
3 2338 876 2638
3 564 1417 1861
3 638 2139 2641
3 729 2583 2107
3 435 1430 2592
3 1700 958 2209
3 1135 2308 2592
3 2422 554 2468
3 925 703 1295
3 1774 759 1819
3 528 2488 1979
3 1850 1345 2362
3 1254 2329 2269
3 914 1910 2013
3 1098 1801 2054
3 2508 1129 2246
3 1470 480 2307
3 763 2498 1749
3 335 938 2537
3 689 1611 2520
3 275 2332 2651
3 2570 360 2009
3 1541 1407 2558
3 1839 1124 2648
3 1787 1621 2662
3 359 1457 2586
3 2343 455 2365
3 1582 1298 2677
3 582 1531 2106
3 2479 1566 1861
3 1457 340 2586
3 489 1567 2396
3 562 1858 2363
3 1011 2277 2647
3 1406 1866 1797
3 2058 2587 2031
3 2256 1141 2170
3 805 2256 2170
3 1081 1342 1580
3 1430 1319 2592
3 2218 1039 2660
3 418 1406 1797
3 1417 730 1861
3 1357 926 2107
3 778 1807 1735
3 827 2352 2228
3 2495 368 2557
3 529 2355 2154
3 2534 815 1808
3 1571 691 899
3 1041 1903 1831
3 1617 208 2004
3 1434 618 2300
3 1279 1616 2583
3 1353 2508 2246
3 2492 402 2679
3 1513 1993 2422
3 834 1617 2004
3 1754 914 2013
3 364 2283 1688
3 1118 2384 2685
3 1375 2485 2593
3 2446 632 1591
3 2520 900 2552
3 1018 2108 1666
3 1587 1754 2013
3 684 1498 2688
3 1857 1432 2426
3 656 2495 2557
3 1363 1529 2258
3 1903 805 2170
3 677 2047 2626
3 962 2337 2261
3 1183 2267 2383
3 363 2015 1622
3 813 2326 2452
3 1097 2420 2604
3 2326 149 2452
3 689 2520 2552
3 2337 324 2261
3 1993 554 2422
3 621 1263 2322
3 1801 1297 2054
3 1422 518 2203
3 824 1304 2617
3 1340 423 1763
3 357 2463 1725
3 499 2216 1411
3 866 1991 2629
3 1657 2611 1833
3 624 2393 2078
3 1304 1488 2617
3 669 1715 1796
3 729 1279 2583
3 606 2361 2664
3 380 2121 1731
3 2195 1082 2614
3 1621 327 2662
3 2571 2099 2640
3 380 1731 1814
3 528 1979 2298
3 2478 1005 2666
3 878 1671 2208
3 1685 2643 2588
3 1654 1721 2241
3 823 1798 2608
3 2530 50 2598
3 1979 1324 2298
3 169 2478 2666
3 2643 103 2588
3 420 1777 2639
3 1656 1632 1842
3 1777 1048 2639
3 1888 518 2160
3 1887 1242 2203
3 1141 1782 2170
3 922 1463 2305
3 2489 1889 2545
3 518 1887 2203
3 784 1943 1150
3 1916 784 2319
3 2346 866 1745
3 571 2046 1745
3 1077 1888 2160
3 555 1857 2426
3 451 2410 2591
3 1877 373 2449
3 455 2459 2365
3 641 2466 1344
3 2469 471 2250
3 1721 1014 2241
3 1366 2560 1927
3 1991 1163 2629
3 445 2123 2594
3 713 1656 1842
3 2466 835 1344
3 2450 438 2042
3 809 1224 2561
3 1133 809 2561
3 1289 2469 2250
3 1671 193 2208
3 2560 1620 1927
3 519 2585 2380
3 1798 1181 2608
3 2485 879 2593
3 2366 623 1990
3 195 2455 1480
3 1169 2489 2545
3 981 2530 2598
3 2653 923 2335
3 1720 2653 2335
3 327 1245 2662
3 736 1596 2029
3 1715 401 1796
3 2395 614 2402
3 1822 1112 1411
3 1245 848 2662
3 1432 2660 2426
3 2407 1135 1670
3 2425 993 1873
3 1100 1220 2185
3 2459 1097 2365
3 505 2436 2347
3 2660 1039 2426
3 2585 1370 2380
3 1583 2366 1990
3 587 1558 2387
3 2565 1034 2610
3 580 1850 2362
3 2285 1160 2668
3 1106 2565 2610
3 2501 818 2670
3 730 2479 1861
3 2477 452 2017
3 879 1901 2593
3 1694 1000 2090
3 2410 710 1814
3 1403 2501 2670
3 2622 908 2635
3 1159 1750 2661
3 2462 870 2544
3 1268 2505 1840
3 1223 2438 2686
3 590 2124 2544
3 1567 1238 2396
3 803 2492 2679
3 358 2571 2640
3 1750 911 2661
3 2547 1664 2228
3 672 2422 2468
3 1007 1694 2090
3 2391 380 1814
3 1345 1850 1844
3 1855 1897 2178
3 1073 2559 2630
3 1498 1003 2688
3 2559 697 2630
3 466 2622 2635
3 724 2543 1953
3 1939 2162 2676
3 866 2629 1745
3 2384 1024 2685
3 552 1939 2676
3 2138 2534 1808
3 1897 532 2178
3 1763 1095 2396
3 2629 571 1745
3 1901 25 2593
3 2611 822 1833
3 710 2391 1814
3 2587 1292 2031
3 2319 784 1150
3 1691 2319 1150
CELL_DATA 5068
SCALARS Von_Mises float 1
LOOKUP_TABLE default
32626350.44277467 32418865.831655234 31382297.409073245 28754401.154634755 31512302.20558155 31540753.79749279 6238746.196718812 24352803.478799257 30863185.033249076 31378048.046829786 32422781.684812445 9696744.964649044 14399676.120096233 40214219.46119711 31831376.012217417 33065318.3946957 21993796.735651366 20317538.145215258 28671347.505151447 15392240.427803615 15522274.6200807 82380088.19473384 31595981.91123146 41272420.482338876 29023657.61584139 31457919.028862264 11223264.836279178 28750007.291050483 21603470.84215046 37767496.31253777 20535039.97529499 27105986.831102345 30314911.916287564 22556833.21631057 28210021.282625966 31600914.438681476 25573737.853904072 4726966.973530743 8692169.483739255 27238638.931336693 30688049.475297507 28128123.77058718 31101056.928265672 23843028.73774375 50113937.323609 5703630.644876324 9259016.374044161 3187451.3129853206 43618227.48040351 81285500.28912334 62645303.49449898 5767217.535391908 4208887.4275624985 3872185.733683988 59214541.53033703 27239064.278674003 32614629.463731278 11774661.541518886 10434622.694174983 38366706.89744031 31574816.86577478 35648865.298412316 41775514.698291965 39907546.46110365 29691747.83665142 13461224.178192714 35854041.786555395 43282320.15368327 11886019.435828246 30267796.418437038 35931280.265395015 21446791.77824003 28266873.63058162 27643275.249016777 29243030.159288723 31768785.966505256 20659160.713165633 33107986.0339623 31881948.895194568 11341673.82886024 28696344.357516095 18042152.029679175 16729881.95564785 20600662.65122096 2722222.1335995696 30609190.54193646 30711416.35269591 17402318.475491747 138664084.18870598 29655787.22150188 28689765.193614714 9834160.659441154 8801287.750343397 20953146.225858815 43777744.83035011 7099851.1577365 7003930.616653735 29828277.561503176 11934162.311960572 36190255.548619926 15107811.795762487 30557497.45135052 5106239.200049069 12432742.215013424 17553094.675397668 11686367.965007117 12006740.22375578 5015117.731986577 19650613.194656614 19693332.719942927 2684005.285429789 33446480.44999809 5979848.451519096 3744840.914215303 93959776.10585444 6659876.49118779 6697123.0373876 11901039.740544591 25821987.677770324 62794211.680271186 42363856.752030924 18704053.75080734 13621387.979108838 31975207.342620287 6721379.224803289 6135351.7564835455 18717418.210579738 14075811.833057242 25110774.58242717 29367430.297596615 26239283.921709877 45779153.89682978 29569754.55990378 64098948.04000661 13989731.26726896 33126360.383974284 14164620.82989885 21957029.07318691 27539848.42843736 24078934.38641333 40176103.323680826 5649092.623449234 5265070.318392429 55935951.987678155 9806793.68805831 5340937.865244956 29451381.277466357 31497110.36828053 21849379.08836911 53875018.82761493 23747851.575588424 51383549.135034874 31256320.955760106 30137025.16589642 30102057.059278198 1775143.996657969 11593940.934913997 5689981.090125572 36105584.00636518 31066422.460685708 25949386.455424063 32120544.896678153 14711919.514181882 17180972.359589636 17175702.968925085 22240166.297736723 36266038.00585585 20158126.494299017 24891648.185386002 44777323.54864321 11860003.163857132 8946301.72574003 15723557.835038664 47603871.19794695 15797404.635825913 29974033.716925543 31205513.77608549 28381964.82821732 9371267.765811395 83124696.11837466 4494257.928269859 25984237.164723407 31651162.664355457 27121656.421405338 31475721.846808657 20207387.85213114 39102937.23673926 31276377.154008113 19520035.6866473 22708970.07620736 55942651.41428538 19095511.608446676 10440720.902123835 22673151.625761557 36428174.87633557 24993081.52244859 23660790.74515127 8853422.238170674 15763686.532302778 17203867.07526313 15811162.795668785 2369854.29904887 32520507.523247223 31798099.02618953 29193141.610454045 29803407.460198868 16505515.391690291 8807457.393284978 51954503.74349964 13654272.208072247 14078377.747018604 25857073.153329924 19895781.870258193 10363112.948750876 12587686.053895261 14900233.860776337 23121457.38514805 24551054.090795442 14805560.72161761 35862818.955002464 68593624.94715764 28150944.382779256 4485292.156639591 32557022.109194234 10023705.455794442 9953893.309004053 85860.59078135135 16235078.177025516 33770726.71877708 25906310.6348337 38503727.7077734 13624094.983058376 3914682.97466274 69284305.74334751 18932687.481439658 20228421.471497536 13658261.258839777 11343928.660977917 15041726.449939897 9935069.375313008 28893405.226266656 34342978.65543685 32532771.7531336 5975910.499056927 24045444.860876426 24711173.542769596 27976930.439075705 23467801.054347266 30960513.047773387 14167417.189416993 25176518.60438585 5057278.387772759 11097937.596285934 26441912.6237009 51755018.86303003 34160503.57995564 21832879.932957675 31435117.122490693 31296893.9285185 15398183.06630115 25779780.26505107 30061414.91354127 21243632.309063748 46063031.578151904 22958515.968302313 15789798.728851682 30872778.573916383 34168536.34100432 36754069.28066589 26084057.54959438 28313016.527232077 29611409.85021125 34037370.852380835 28319038.33300783 22949306.45027164 17741887.562771354 18834617.247930825 31208835.554729663 13174559.421290657 26859658.76717155 28350447.449488837 13121121.588928042 31025996.87667519 4730970.650925426 20839299.64437229 32834649.231845524 15302600.643387524 6666663.464057573 13685851.289120566 20641942.628058765 18419353.81961716 39052768.14596306 32567859.218321856 16897991.665552314 43672791.585670605 20188088.33745288 144164048.89782223 40002041.86825201 24794635.27228624 2132859.5530005964 5401897.221900571 32289516.083123747 32153873.5668442 29273918.83149807 20055566.716418516 63984679.52978243 2540543.1821809136 34186946.142140344 30603725.04898848 13915542.840903707 16071766.320369663 36688825.40032751 25163745.476889256 33851118.471458234 34555755.57772217 52460098.427479856 8917038.498151252 37206942.594648965 32207516.23015576 31630006.512129672 25438769.357794926 23073712.534384698 6832073.4151685815 1714938.298125007 23141826.126909725 27218459.89481426 32872015.289715357 10842968.30367404 27411903.682381906 19316571.119999293 32615289.395175412 3823638.157470552 10785095.52501821 18431240.67382378 20627051.608001977 37835819.837497406 38162507.430421546 40219615.22800916 25043667.745423235 8962041.350158084 42478306.979225144 24744325.518484145 5465712.815630233 51350762.38781251 4076230.906882988 16236394.567981312 23603797.693953328 9333291.654710678 22312662.983721487 42155663.016281344 5446570.777662161 12979376.171837756 6861439.112677468 38599013.28397214 16470405.434691908 18600835.446390003 35463225.00375715 11418257.661064846 32788463.434675325 30665602.54308475 11588664.77907539 30355757.57362505 6596779.923537361 27912049.074653044 9693744.106375298 25632820.176187165 7975837.368776697 27000362.0464993 65495325.0475972 51346696.094480805 44821525.30844805 29467868.15302554 15199456.996727008 30881349.520864595 27557529.58314913 30317913.210757226 33652860.263229184 10406191.281654837 30907372.014342275 21667187.72553331 41614084.292038396 17814069.333932288 40051810.03679193 13606992.658701403 20697840.07578878 5014619.102860343 48985139.26602595 14256557.565408183 32464117.33300146 13629310.306383561 94306394.78131463 15321886.648352774 21203398.60881447 10842041.869747883 25009971.796797212 27450650.245632194 21066808.950806085 41710767.041008234 39700311.46474162 33331832.649032306 37147703.67387415 31092325.23962751 33824096.079974204 1999127.760736548 28485410.389498092 25970951.87978788 23548731.803983502 36276566.92861683 29079894.34331763 8794934.079964647 9838545.576368403 24008942.720545545 46450703.60872719 11568663.342225572 21288237.77129697 26852250.28115476 24223577.468683183 22070076.566859365 33883712.572669715 37985776.78884079 83267437.95328394 32179229.41729525 31411647.789848603 22896202.79386618 29832706.572285574 19033204.34492049 29360465.61632597 66077692.479631595 33438349.14395274 33020504.126564737 45801901.93967253 56683400.50286518 27222968.270544846 24096327.224120155 1162673.3539169442 40209601.48363646 24476862.68732213 18327682.54203914 19586050.631188527 31077150.163144518 15906199.012088155 27308511.60765054 37074621.31175581 25610437.30441312 37201528.68846449 7579224.627231879 29263168.687955018 16954382.967835058 15224094.442951493 32350095.8354848 14762411.563001772 31669868.86936228 30010745.410131875 15649170.97263238 10587566.453764075 16112999.116650516 24754033.653321713 22926899.113363773 21034044.686403114 23003686.969866578 6534094.379954772 32236138.32730277 28354128.80120581 23395449.90045662 13384569.368222313 23058263.93202089 21013796.053051412 18289885.525810868 47683657.59736586 26096739.352459956 27062619.169368073 27450323.882861253 40169838.418451615 19768854.323217675 24876402.060030844 27860330.29418636 19454393.137584742 36561503.034522116 26277260.39858896 14449773.916680029 51081473.323415875 9480550.702382347 11678726.438765766 12679052.248201042 29499535.79814636 19107494.82527642 37161180.13584011 13228202.992436143 26693066.179609064 31739421.632046405 19846828.275809772 5677513.340010775 61703570.48118072 19581584.428721134 39032133.13401414 34009398.20398391 31788690.808285493 4188347.339446087 30699984.145705927 30107172.99959199 54321117.244100824 19837772.04033258 32030265.687110342 12409155.114007544 1669187.7857705452 22270516.216191966 8198185.2517853035 31590735.75977825 28116141.994429734 12351806.437383968 32816975.49486973 8207718.070105591 23195405.37914175 22582017.334353622 605595.2479674297 29159285.468252044 2756232.8262007707 15479037.156569354 30607003.337430004 2787305.600612677 21430724.022026278 24296185.003489953 3520294.2086823303 47627988.4604145 28997271.337226134 14215795.958640546 27502346.230994143 24456539.860401694 32089340.182259783 24236582.51303123 31473185.805672903 45856646.61388653 29022870.294714056 28088942.395611867 9730463.779292455 13969564.562841805 34125890.14783866 15739500.415228834 30046720.994134277 35762757.77000307 37547180.44362517 33151527.398004405 36928042.17800288 2706769.177985424 38162178.02210687 29504573.5878907 35774051.96477371 27781785.783318788 8815956.63477474 10074008.740103142 26937824.309070684 34080293.73620997 31623417.32547505 32432462.39627315 42230240.498864956 24420815.253339157 35442627.78348824 23386868.60626853 29247725.007447846 27329184.099673185 9857372.065564156 32374029.85745326 21672742.247803412 53800322.65467571 31120995.05428607 14380471.991816979 7236274.933300732 7222171.507846429 6031133.351565974 27435053.765561376 6039378.8078466635 19825516.213835187 7230851.039154784 13922686.431880156 10404272.408186993 19327929.567202274 28519349.63243926 10366120.353712529 24394110.24365806 13312213.466068182 31593950.80156599 15027049.707485337 27432113.631123997 8925041.253793444 25112040.422917526 80583953.48507307 14817163.338629192 23852885.595917962 35532696.08218361 4565753.470565856 10123457.272951651 7226212.633234155 35173905.24926585 24263783.255694322 8702960.887092791 31346479.089108102 43412822.97945147 8669091.091105804 94652621.6369897 8336852.155404865 14103568.85726618 8367620.735722518 19872501.78511364 12356421.137329545 25433564.863394752 29982646.146111943 31521453.146864872 21850095.700830918 42771982.1152936 36579180.384253584 25507017.658586197 29457004.315252453 29743024.482936867 29516966.221423607 2693886.953990738 16938001.75936795 27711740.201618727 53643882.291136295 38618053.66879992 19131530.56287047 11269703.581213772 1679100.0745769 4380959.692345266 355059.5028474744 17025152.62102143 26980424.694666237 29684110.259015635 3775485.1033964534 163649.54623969962 30028701.475206025 28504973.482582968 24819516.981535908 22472522.136439167 21455204.393941764 42524442.27534281 16390929.925688205 29667141.71573262 9846861.747408817 9846861.747408817 2703918.5215212028 62473394.51623784 13883129.32949984 28965187.01824979 17467439.926173475 30857743.52866105 18041960.068374414 48388395.56272257 12251599.017621 12426295.994811082 18595954.279450882 1782840.7893080844 30893404.53769201 39554764.55011502 22237537.194267437 15737286.733931357 28591653.22777286 42301606.5137088 30462257.729910422 7165015.695032838 36252783.41969371 32431321.548054263 35225098.92772608 30666359.445447363 21996548.917531036 40173181.542343825 29363027.74774506 21214663.419388387 16562877.482106484 46473683.79953305 31679020.772146337 51682864.510978065 26174581.199939333 59910122.659557074 33320792.662965577 14161401.194927339 64279916.93324881 36759063.52303301 31587791.155479092 10187011.34795218 31483325.014786433 11352015.06617126 28008256.851127036 10926910.744186858 9238423.603791729 11439636.023867752 28669642.17764514 22144383.555794083 29573091.963396233 28493586.486724637 16562140.630414823 4559905.110270075 14171280.151118211 10697090.174716812 31626647.071883373 50070288.72880224 25204426.264712922 1873556.6207596373 21406089.496927135 46085703.01480153 17207513.797318134 10056264.626362028 31380659.16634717 7055578.805774827 14621123.527338326 31586940.084941596 16337414.399647102 31665065.428603355 25935860.41571014 32296602.826656267 41939820.460397705 56458209.023993134 32873116.53136456 36252776.606794044 33055347.90449913 24828381.722811684 64545403.34500679 40677014.66077806 29828171.21641543 31449966.28990544 1870168.3535739824 41451733.224782206 31930723.157619186 50778423.3370746 30165089.460612368 29362727.53155854 23328635.23499387 29351809.59489784 34626952.349416755 10155872.060211178 22193649.990612898 43066732.23329654 15008901.196043395 1311340.0317343653 14637947.304101896 34660833.519811735 29283790.345211286 22265260.960011914 2256997.397347764 34525933.96915822 34106451.57682835 30227769.39061396 40025362.06859924 32954811.606807716 29477672.028931618 24188355.174155187 20751089.024031755 16995122.388275955 17513869.286707822 30715065.076614037 10979347.811572438 39976553.990211524 2283073.096609823 36471964.51589351 36033615.05318027 52603489.42927452 34438037.51079773 23252306.223658513 38504594.31780477 11933490.722077684 15754865.430220807 9548449.687461788 31694450.765083756 24067463.06640654 14130180.792810466 8697229.211976891 13923741.815096127 16650522.805311337 2313890.7593638846 27711653.962158214 12362370.533985749 30074993.167588763 16429788.974487133 31088238.74367007 12453880.629643323 28360162.46322331 8830732.872493872 38791470.46460822 24256578.77378147 29882178.972537015 29245038.478570946 28671801.003690563 20452339.661942154 29157773.729760338 27490408.06332814 2011105.00265715 23777335.766547013 31429158.4230136 60686450.377534784 24656998.165976875 5266932.358822783 4706866.434697804 7896992.906047101 37684070.67772518 13591783.617076896 5871656.039201048 31238126.718057353 14021346.619905066 35465870.61846658 28839478.316280246 14006939.32980554 13904363.194454616 2052036.6316957842 17232212.03001905 4691323.875621968 17406197.58983561 7725726.71840006 15630358.617565466 151283784.95089823 13164170.436223356 9723186.644535538 29735446.16739547 3514814.9681159686 19886054.64027852 9417183.93350884 31950672.928384524 12057968.578828348 19350839.081172273 37528407.99343278 28726610.729721922 18597470.488066863 23241551.937418558 37452594.40431923 27428497.91705759 21212562.65233211 16522156.619654508 73791995.60990876 34828839.07917365 29394046.020016752 24709949.213297803 26706132.455797415 73384632.78283432 5357043.485052293 34877298.57119746 36277661.79669731 20880461.096426584 34014191.83513015 39437397.026071504 10598307.206536982 41079141.08507672 6171851.4175040135 43661177.232122615 16970303.76619935 42828960.6355353 79185677.15292633 33555375.41778942 20762467.226487193 15377838.67857951 25868463.547017533 34425805.03030822 28515164.771862984 7448270.595717824 37862182.60517436 14057290.075216847 29987611.803464543 30008800.15508127 21342809.926797964 12197839.751619391 32379147.037391216 30028259.43908522 33558244.27583998 35636995.30275671 28000386.73772511 99863439.62203206 48479085.36994792 17120083.31871948 10027559.813086852 17201162.80028281 39011839.22956482 10175207.778437681 25956209.52243472 18859671.282167282 27347959.00770816 31454300.925269827 26693022.65458594 52374170.39810638 32240369.646928724 36542689.752774596 30517379.96566872 33138498.976583123 19086616.62988863 29763694.25198957 34041327.08923335 12732475.673826523 28911528.061717298 30017676.537194375 4414608.79442286 30009632.958230674 4396705.584293029 25326265.688111737 27363565.160347532 28082645.79533911 25411948.467720766 22829421.391142108 14196146.29998281 11841665.474091459 3653967.8965623127 35434227.00451409 79575456.22069342 11950113.767548453 24030430.676228326 22126173.910406638 11422132.868439563 20590806.52901599 30630406.624612607 11471038.977390463 29241819.79502122 33933709.90166792 35769170.69237707 37965156.59277493 29872884.51752453 3665391.377962091 31222659.186655484 31607537.17767334 55664332.56180992 23842309.03838593 51259270.10984835 14731274.007441256 29184050.817460027 24261906.049637906 30747609.005650267 35989933.16554992 31828375.38766336 23614808.825687718 42668961.28045127 51712330.9816186 77942252.24154165 4708468.691882282 30200165.64465508 9893234.844902057 29110998.474684272 29559074.66772842 28277874.923661023 31741718.99116134 46243686.95196515 72511728.88951878 22019433.049893744 22781027.69280219 86378545.99336733 31161816.95759445 30202486.040675644 27122885.120744813 30453491.409267418 9872843.25501493 11535337.56206969 36414784.04340881 1947180.5373037518 32978204.653447505 20052677.992979 72767234.052401 23162107.56157915 34551419.7721219 20748245.426358286 16688172.843433822 2889084.6496066554 93257058.58048509 35595238.25858895 29279975.32322504 34069713.284882136 33723055.72133018 53823053.1005374 16518249.583215479 27320196.419256024 31515638.093681086 34696367.56377553 13785633.485389844 12132927.776304223 17813667.55055463 13801013.950452838 7681889.282362509 30730563.626038697 13587669.92487925 26254509.50087026 19081654.964651525 15303990.683845595 19112388.790935986 33801729.85000974 33260998.366224587 21005187.866227284 8624934.751738708 10623987.372834366 19530311.949939463 22072960.00195433 28860024.875271745 39692473.82160213 35397864.85610141 30077017.039527047 13197910.018725237 2000810.9201024831 7855985.963164713 13879861.25188797 29380013.464800477 13573138.94369912 28212268.40484975 28137886.97870435 28028726.117372584 30046708.705426306 12841702.975592623 30265955.18609243 7175007.4892465165 29308217.466312274 12850176.103005694 33712137.75143231 32218103.9308139 947768.5358453426 32618226.19201119 32135484.176792428 29367324.371819828 33279878.324912112 34131345.00096111 29780303.354535237 40634678.528271295 19714715.80532306 24366044.491595652 26342119.38456111 26591188.867260654 1376115.3527786443 23342633.573314372 13473792.046615636 27844986.6251033 33670494.380381 51114927.018022984 12066384.783295924 22106198.07319488 62145933.170323774 16442045.948200598 11534516.157477366 33193690.517670542 32439386.443441045 34123286.09214865 42627791.86629198 15382449.358385256 31813251.733518206 15722569.401459662 38407265.03724282 13334308.189130334 16518243.148148824 1370698.5763154987 19232119.503240164 41349497.03774531 31514877.83543319 6276708.605102721 31992423.425840773 30417151.976972334 10235614.712302338 40151022.377368055 21070792.519325927 16734261.773647118 7836232.1189618185 23798603.162046947 15325362.281139078 41511425.84104431 25100263.131380238 22259370.21137421 18388375.471610248 29312687.127622105 1948235.538759789 29025983.130834565 23089242.35469601 31298087.3169648 20439636.410068586 76424842.70044996 28906489.40356676 20899086.83261361 21303792.94137542 25296671.52011384 29530264.35416808 35192047.49511974 1781417.5755069335 14122645.982727228 52904849.3298619 29929095.77227698 5321314.205299869 30753539.157715593 34133064.4955031 7139167.411076152 25709367.833909456 20440137.20219389 19443192.714371115 33850227.51056329 7062783.1006616065 70619410.84536046 23353186.016851407 7959413.520136409 12682542.95943685 1103641.0325586298 23396945.979590584 30626143.536837637 48253226.47751171 40402782.94400893 11269998.334487427 5749463.996537762 39595336.04372852 19894187.325433403 14180795.213587305 25234994.683766317 14693620.223057365 33946630.975022554 6755439.241147214 37966494.18708988 14694137.946999418 13848385.330357503 25017063.339396887 14547329.209729988 3078913.943650085 30082069.65489806 34610020.14132288 43362091.20869135 38270463.67706407 9953750.128300045 29516082.646977 14470353.362168098 10003984.065678138 19108679.308190096 17233751.259852532 31894837.292482916 25494687.826210506 5898265.420522351 17569200.437084004 24754329.54158608 26786853.295051776 19486032.63797676 26705521.19560509 25867804.740231175 27055153.335787203 59099114.74539147 17697899.312501032 64596003.743861035 555278.8725341456 30562375.312522247 30002911.183978315 28652240.484132234 13534761.578457454 13589897.653596114 9243273.242325349 4378744.89989762 3089548.7595414426 18251542.475066107 53481303.13752245 36330541.80037194 30759242.266596496 8068598.717110984 18603648.942713752 31712095.325123545 17677731.87925734 26405376.484857224 6277956.476728019 9080860.535991669 13036838.469190966 29647760.592815187 15648879.125394605 29489328.78098654 35494148.51340426 29109344.049381003 39882837.425247505 30188965.20714973 3671738.8492587777 52400502.3211511 32076592.80914846 14657753.052773187 13449844.146069415 22046922.572571635 19792414.146275748 28529231.080580354 23260128.445341077 33771429.45583003 30114010.59610684 15504532.766352063 27104927.906598665 28782516.882766638 24576508.70629421 29961098.08444121 21402377.25608727 31949359.370832838 9146060.228031334 33276744.765236456 30810526.151718218 30446412.615118515 3679075.3692468368 9271852.12216236 34784146.772175185 10833670.84620488 30021853.076722227 21364659.361206625 31107205.404443406 24728746.225003466 3691746.881762053 27323218.735836223 28432834.41966057 16953522.9770978 36563824.57046148 27860570.298010223 29678829.828846496 30989708.02767697 28028829.995713066 18062488.055493027 33500426.58943942 4369876.4388034595 30493630.64192826 9045923.765558911 36338566.32769741 13219092.848284647 7402335.570315746 37639303.555610776 31900295.52781067 27159086.56986168 55808419.41781959 12127205.432608472 19110241.671837866 34063172.00780799 34823875.213243015 32523999.766399056 20143211.729861464 32769382.93511543 8782717.616989633 33543020.318955995 29189705.325059228 18044087.178447235 13224352.188576309 21955050.327680014 22414771.75432236 26632844.10117975 14959478.270505132 2116729.6986287045 20282977.853259973 23202789.013040658 17831651.57179947 17197963.294096656 32322859.523139108 38798018.59073826 35920727.34323563 25701180.416885335 22407196.216196958 32279434.72955761 30436123.992454972 24083231.646214973 29590770.61703939 602026.3812778561 44291002.61811458 30142909.745350074 32191468.62143702 33883314.02928675 2359205.400429172 33866740.39437614 39437725.797910504 17736429.75173349 20641393.66103856 30776852.542551372 17849472.998124633 3683483.618572015 28201235.465312008 30366053.762185205 28703741.700072765 30574051.10132848 23657267.99690404 24156248.650952194 39356321.119380765 29210996.009116456 11367931.86896623 27187925.843723506 41470291.68439965 32723034.455211494 22504960.06854346 28805913.727939986 30439677.990681805 28949637.720957864 23376338.760285992 26546305.085801173 24864786.33938418 29887781.842701435 3698367.522177509 2000525.8054190362 12321652.496571273 5359104.948591995 20496875.940039836 31985624.54259299 12875484.135479454 20133581.125270367 31320883.963246867 31518861.590601634 14237719.43309552 25946198.391052447 8796505.266954591 9830213.424898261 35623368.910132796 30849448.162469134 22762766.720900107 35024843.795866415 28723303.94722127 30846151.14036047 30222093.66357676 31810848.152186196 6617331.125470759 1862286.1878769125 21158279.2298727 9312718.193482215 3078823.1586277336 31156695.552517258 26496188.14368316 9669252.703933176 25647895.13936836 15744130.782024473 2650624.140407923 12219338.39509705 30224661.512819562 25571433.30103988 14147498.451401116 15790877.119459558 32282663.23021737 30925854.486123614 32697249.246332787 13541584.148217725 9415337.975946018 23128448.731021248 6350900.308975142 62404549.07923996 9104565.354323639 13872352.245079897 8384411.912253641 23430684.659482174 9842969.92275568 1078554.415921194 10275115.468639145 35326860.34053321 11760415.958072115 20121283.46005879 18020981.75145232 35290278.96173069 29470798.76301371 32153226.698892437 11308860.816558298 30424038.67077999 19792207.17363168 26111183.539878864 22893845.491998985 6621307.95724863 12824118.185595684 29956142.505224828 53106229.61517484 31685277.425486457 38345966.63675115 27765444.991584223 11062953.728965871 915192.9156375036 29164734.041019615 1232147.88115534 9297010.18865605 22713680.721052352 30499194.31548285 25779402.167081557 11129001.842777323 9342935.166513255 38985916.34987194 25363484.448871724 32708573.25384871 13485007.276949877 7926612.229619457 1250512.7735463532 28271203.73615395 48906086.689481474 24632981.44986619 13500259.027510395 2926909.913710106 25862081.423096426 1931346.0808938076 32744747.724794816 33819438.21566876 14387006.519247372 31958363.75740728 27433685.983029775 34030733.402395345 65532817.98006633 28817343.338136263 13608145.295030113 75176904.46295553 3361592.5345575553 49307663.45433792 17097066.09377304 31159330.683084138 49179416.86158714 21243303.607243773 43235551.779270835 1280175.1956464935 31684041.415312227 25259039.695759594 14123689.521511802 10430708.308524223 46084044.8664129 10465851.52170342 28907508.131070394 1992797.1915028084 4906810.049939342 29131591.160106406 23739648.626092896 31931058.50043082 3345814.705446248 32801631.8851255 20412578.1994056 13874359.578175241 2224432.194338846 11572462.92465663 3943232.586151666 13684768.958618939 5715129.507228614 32844933.18311336 10673899.950745199 3540362.136073982 29594460.401242908 9208950.841803852 6032440.531804662 27333719.75857432 30177059.29122133 18062785.983968176 8159141.117663247 34920207.762397915 13472805.318576945 8531071.970586708 21668543.345689386 8173688.297546554 33408188.875833094 17777402.93065631 35543968.75228206 16576124.102584392 18068916.459373698 17945863.558594994 16608208.614749905 12972460.433154268 48835055.460108764 3949856.9730596505 19456215.878769234 30540315.61266246 15014371.411436798 27262320.80195613 3532164.597530619 29688909.866242766 13760383.09646909 26124650.29754488 13681564.762994455 61026327.70841494 11791743.667755926 14025127.361733893 4106388.908185336 3240906.1970547256 24429128.092857346 31809949.673864774 31631300.440736916 31353983.252381224 8077283.893383953 14127750.353887761 30971457.95156281 2747765.5015962734 7425609.60375896 24453038.157970373 31154007.49912713 35405018.55054209 54125251.45770389 32921425.621184036 11477079.825004483 18098965.71432097 24705246.790754974 14882760.634469189 16274485.73388666 11626950.919528255 45033491.9168423 46893154.49866122 11334057.946651299 17557918.03504963 35958606.339909844 25884343.25681322 30756873.29424608 10939933.493272899 29192214.021119647 28797136.917084925 12937090.310279354 25878169.264403217 39671674.61714237 41888.06711044381 31623620.381845526 24233761.337991938 15149637.04167989 23175789.082909584 8970608.357121393 31684752.10932707 29697793.00373111 10940534.615077721 18159457.542606715 17542442.293195248 8395426.555511067 36053519.04360418 79394641.58965342 14454272.897522891 14179928.524203632 24438453.73187689 32140315.256676055 15180439.821408678 31141554.627668172 16361572.409889173 38887537.588000186 22485190.01558892 36962478.73355318 35901636.1540125 24325004.58184864 27896517.0256001 31922589.603608645 22886931.82676634 25965780.409676567 35545235.49843919 14379878.499376219 11039986.658537945 2143046.017050504 548442.4622302485 26701433.380307913 26305059.99298943 8662679.04806741 22318534.34072336 24328612.05332889 23356621.635686543 25150511.445519004 25173931.82553777 21515181.696289655 53231464.32937551 19487709.88159226 18494081.98006393 46756522.63804864 45805632.21507773 23572547.973164678 36660832.06091754 22389856.74035685 96811788.77109228 25854361.045354035 31482942.35466218 5738719.908064077 15109348.388365487 29979540.12775167 25983802.055811577 29042241.715551518 53507723.48321973 23758302.681974668 19889089.87616694 27501935.623852935 716782.4618149196 67980570.46805009 28124685.72833826 10730763.798481014 35781774.98354132 64702514.22872538 54782451.03512585 27788733.888350606 31577157.954807177 21459015.14576596 37678896.08882618 31719514.51987934 29246459.422222115 19741298.72043559 41969932.79489688 7745916.2006126745 28807808.808249883 25195237.65581514 27132295.969598837 14162642.98419773 33756435.97482927 24295052.35371663 17687330.918827236 25961279.995438285 28437008.72964144 32485902.02171824 44721819.14092096 36942131.217480786 10211458.430508047 12097012.740644343 20573501.676117256 20752272.49338831 34267065.617844485 18060954.666122243 42432597.87498596 27577431.1244838 15108032.725457707 20738022.127029978 85192093.07504755 30231032.05090454 32203916.32647562 53557510.00274645 24165601.230586473 5673333.416046391 15127381.10979965 8324316.833895998 21071861.597383056 30784556.902350403 28508450.799992815 980123.2714546102 16976849.925754834 36354541.4624825 22987774.57511494 32925303.431769695 5677240.225285357 11641416.445328474 2208084.943076723 22208036.88264922 45896514.88481641 7929367.844067593 24380154.760792762 24714552.80002419 8294802.699033933 28445651.465917166 10514343.807241956 75382708.22286025 25340696.38518847 33443409.42831538 6187394.540278208 33444598.241563488 46778206.744501606 28631729.227180116 22606020.880071625 26182014.46701151 16958761.271829665 32158093.676224127 30675166.790131327 33328147.395930752 13867496.734276837 32963170.015016958 2209403.5884035146 23558792.33141027 13435917.14872581 33195877.668385204 37721072.86751114 12471082.758202799 86610451.10707377 505999.2500963437 21684695.560304217 33482864.242695663 10979529.886074848 34161772.468321316 2348553.687623723 37892349.27637055 58723013.96916868 31688524.764558725 10873820.990187967 22918098.557241675 21669812.09741241 25878103.780132417 2215086.1444345103 31279247.868837636 31460372.15935712 23217517.652037643 35853976.37611841 31428936.39356193 22348160.063067038 34352900.740519404 27229496.267782465 27366273.83838788 513268.4830329776 56994583.31803923 10176845.874088828 37674680.91452205 28440024.32903785 14571339.727661602 11152404.146734912 33377843.05401309 24834465.508155975 4166655.267315844 18311990.840307508 29322033.83191167 2925594.5648572324 39524832.93352783 3899566.2402210846 53091050.543940246 12877816.431747796 24360308.25603588 61359030.67712356 60088162.97950217 31538405.29644639 24283276.175414816 35096495.34550451 8312497.39034659 31083373.94759712 29746411.873186186 22690402.089412812 12730727.962738428 30999527.563509084 1681529.287025257 4528789.686669812 20121414.8430513 80216284.26205125 22602602.202243205 24996794.389157493 39072704.590271816 10023558.972034473 30482233.77905989 22376687.568173338 13350362.817591026 30026832.0015402 31171067.662873458 1676688.7302003114 33837868.60899107 12250779.891457845 20446639.721908998 30276548.07326515 36144790.3387976 26980484.60163152 28958480.55380855 18820255.054536432 30392355.749259192 24608401.885085825 775578.3806094431 5698172.06736459 11848060.740477763 27593938.414673984 23936068.447797626 22622243.925186366 34751306.35916189 24386381.9968723 32290201.969627496 63839324.34953595 2934539.5843815454 4476921.866496066 6401294.109676599 25492482.762717813 28532518.1348901 7129985.258219821 43308608.58639842 71810697.63675526 28061383.468395714 13930114.063485116 13846968.169809908 31293148.36763519 9675799.704597933 21738103.739835996 48899564.4258427 28052775.470461477 12854034.764818475 31596928.668318134 37533324.07792916 13636042.547900924 9721611.70808715 26657677.463608004 21208251.9234643 27695573.794482928 18302657.95210476 38643484.94027124 3565043.0814676345 6017027.325991233 27568580.514684286 17809623.4768733 31204675.476473108 32717704.481472492 34975004.98648092 9139678.19117675 28636449.7648708 30229684.00764849 2976822.435305759 41874254.901338 5632880.106280304 11033866.898373837 12357153.446634503 21615662.65891577 30434354.239698723 28234387.777667947 31352745.31010572 30703415.64513172 60464183.35822545 17304984.143167336 40386002.43656266 27590119.405110285 24575671.74797185 22258853.066883408 11030269.01456211 31689188.870995883 37159807.395931445 29454595.93235271 30743837.14086391 30922088.361043565 13467925.177930633 39602855.439000145 29609686.05546962 32417563.098140888 8617980.176659372 32364933.29081017 59626355.22469119 17620343.160320614 11502894.749591593 29358224.674736824 6274071.390982927 35703754.980522774 28676281.569457848 33558379.08317306 31074051.84182813 29588061.935598616 27753630.41931024 24510989.771513727 22185678.739615552 20693904.072749227 31928585.69068116 22572305.675823767 34517415.51607618 29755537.49223652 34537123.24555898 25394830.179061722 5360944.368716459 11405586.33904388 12338172.47313634 43695633.370427154 32840578.508285537 14846774.316049753 62831805.36746019 82036174.87612657 22667498.163157184 44736828.94170316 25485155.46267075 1860325.2116574186 30979555.768170536 3185116.107894523 20687983.584706992 47316052.59743087 15916220.917215744 26896733.917416696 11565543.966866318 22587803.25932109 20675038.849600695 44612061.71456225 46330388.175175205 22266504.632560045 56968911.14838764 28149244.239522886 32689167.53265424 30933912.85695248 45099238.832940675 31999621.10443386 29541250.90612477 43362626.85302609 56998544.419230476 23050649.786809802 13840220.782488799 11549910.617271377 17274475.93777211 13787395.108124308 14025127.361733893 10368470.96014316 25644089.200694714 7262473.939171204 5629897.699125649 32408345.967640497 10811327.350599127 13650634.884035917 10822615.672820844 49879079.705433674 6287273.565847638 13785810.427560037 30776138.95730173 31795610.250723913 20860683.46194329 16702188.606916294 29801930.24251485 1850572.8819645296 24955732.691015564 36187588.90151822 22515302.648255568 13072093.54015391 43142143.15337242 44190248.422439136 27205345.017843995 25048401.870350707 41810265.853260696 32137988.310387973 37626340.846446946 38882249.10452018 23338997.892034676 30045006.84812211 11138030.466024442 22424640.597474895 29203979.24076626 19034603.61447066 24787745.149212316 17655959.521176063 26332041.289605036 32789240.118783083 29184423.869728312 23613244.73389184 33378933.11806776 20395926.095359024 10479569.663379142 12574866.928188136 48761094.96102627 15420258.095821278 61430234.205398954 26316319.15030224 30412821.470210653 20168254.553288188 30729667.58174874 10490876.211426502 12865632.182349063 22594870.18386049 47426823.89643172 31028200.79653798 42673123.19713736 41964935.66547972 29832634.698643424 15394836.01416905 22689036.89509952 29315744.78057244 21507419.287043538 18707810.88139646 24135330.08635985 22487703.421606034 61361806.2570596 24849134.843708623 24161377.054523252 44653367.03867823 953782.2544144368 33267029.312402416 32072822.478601668 10238003.871223414 36762619.88013508 12533309.590239521 29038649.36497196 11281650.175076753 31070757.970917158 19458241.675906695 32527896.343648452 27610338.857595924 1568578.9487927381 12876539.284265159 28127210.32941432 29191330.525948692 18817822.1789113 28703502.851965595 16602174.637473866 12987298.655325525 23913586.090670805 13108757.148604063 39561766.33516738 25056935.585984346 34744640.83259247 2464814.215467714 34706587.68288386 7535603.009954337 89967416.54830635 2377874.6115026968 30332080.776632037 36081404.76546835 48111216.879019946 12091991.4247172 49287894.26261328 24337431.53238632 33471918.807041716 25085350.664870307 28740100.399315238 28795451.064877898 49233424.139468215 13149119.303512452 12584089.882126154 32644593.494878545 25813956.349005993 8833358.94751284 1962096.271366838 4911146.179768764 20075590.942576315 25939227.836660437 2636681.4200666393 13644624.724048974 13526899.315111578 29563655.19839583 34093231.325655974 32070132.72236614 31436147.22106978 24852963.325701065 18246093.910534967 24862856.561057713 31238634.995911725 22882017.389498662 1431771.539499351 4384969.92707902 29596054.112108912 28417390.10499949 14223565.107433649 27717161.407534797 33321127.432649195 31602715.579189613 28000199.375983633 7867494.429267728 33911737.97322831 32835915.69713214 13048058.823453419 28885880.981269766 22874278.685840156 18904557.417315945 18278514.881646264 6699544.312004098 1421708.130102121 3903845.351838544 53483385.163188234 10523347.728605201 13786957.178003453 37116686.35166314 28337223.50223416 31654893.314907957 8020104.7375871735 42787925.83929185 5687064.229332342 30294708.63766234 29387810.423872005 30915135.737252947 33775740.02316578 28032573.585546304 29835544.105966438 27246311.654213883 7702268.960866991 31824042.520534944 7692631.632721627 8212505.813860673 4421335.253222425 30562434.550498657 17397657.50057455 23234447.773002278 2157907.072620843 23126886.036354426 10277666.613103395 31049847.34489577 29444985.756330393 79625252.89347953 8206085.566852224 64147589.10154106 31803945.324441172 8228152.822267408 9424351.167805903 28109382.81828025 32876230.549902752 42276779.10057816 51989182.81563301 2782026.444802155 47683389.20767072 32020910.792147394 19686269.713090114 29803292.915230803 18129469.985326093 2865028.0842123134 20924466.270776667 18285663.42389981 25268870.568585716 26074863.382844515 34623254.93435717 20284644.919351906 6718718.88187743 12522892.60734694 14859138.520307722 10205955.209457211 15851527.613947568 21936953.84219461 15921705.833933318 9952298.139464634 33107572.662770025 19699751.561654713 21440728.0653556 19937690.00611872 4869879.928918551 10055669.921561198 36311811.45914193 5295746.930001865 11058284.977360293 48350794.073799334 12623886.98219354 34659325.96555037 11051613.316016925 30508267.512111314 9252256.887535414 21907068.267274804 28366403.235006664 27698398.185081158 11201173.848166773 52676597.37505929 29162502.604296844 26767656.698240127 2849545.910939143 28722592.883325983 7825341.075088897 60776926.40841108 41550644.239347264 8023578.613822866 24012713.33401254 33251149.181541655 36099559.48037905 21282103.38503502 54624461.028471686 34409620.55722656 23013681.45575511 17046754.672443308 26050236.18147966 33053313.533707764 34214154.7867638 30624955.871709008 26696712.197989535 26461863.852010623 27702826.858754344 76157740.7458734 18619540.27411073 30801848.38690706 19585473.959822413 7415916.501909959 20023305.990154166 24474416.124030434 15004788.668465363 7498362.705293054 30500218.031538803 25403122.1783888 13055441.56019977 5277937.26569697 10594104.323908983 19726086.98826091 40228639.00821435 817787.8939525095 26218645.365931794 9585754.284256268 39909774.32773467 30570182.075927638 1265071.2524622914 23343827.904957276 5851222.749809167 62815590.6205368 25711329.276077293 28213884.897562195 26696729.366171483 7103442.54451783 48435217.63890313 17169564.62542252 13193788.942724906 41347752.00884289 30771001.473571002 18497098.06769067 24954475.782960918 39566230.702120766 53667321.158007495 6691624.2667691605 15026047.625114184 27995901.51193183 32978212.919651695 14401110.328055598 28963648.40389971 30805408.860347897 70715744.58474073 6699818.522424612 17358904.925186247 41147974.178768195 14726713.949741146 33470139.40650875 34671022.51062084 5088945.010725527 2412011.005006937 2591591.9115347643 35785771.55902574 24619817.834352594 31728260.162526608 32734490.90802328 9502949.375157155 13025835.538926559 5077699.300431329 42124528.20977621 23106498.014977746 31287637.682722963 31245421.682046723 29462268.263963018 13006446.364054423 13679609.599348115 13244466.830539353 15441076.345179027 32288260.947145473 37844435.138248324 26194612.256508514 15666408.461387713 11683343.465128858 21930404.909701455 71988890.48702836 13709849.533723878 28957486.89443262 7992523.022871136 32897766.604562365 7999269.198049281 53653425.48579418 1058003.172715516 12064315.171974601 23310581.542648047 44437142.561893106 29968587.78353132 60205628.712504774 27428104.310357183 8811189.87178336 28174569.00339094 35310068.861156315 16860687.24378828 24621338.660477847 18097005.776159443 18081136.127161577 29201232.706960868 9205030.341966584 22566346.126756612 29252676.597788587 19880824.59312519 3990903.196069487 9188083.784371234 19514336.03221708 10273924.304163432 31054966.928550173 34984581.537562765 25978593.881133422 29810098.004651852 30094198.076183174 30400645.72864901 29188949.44834456 31769836.485460445 39609170.866661064 24335684.668820247 22286067.341248292 30545773.662061356 33560029.23170645 30836165.373601682 21850777.26338256 31356970.659111198 4955365.133180182 39034677.94714813 28227985.457086917 6823466.946160418 13407706.61208381 3959836.4584432174 7519425.586219245 13952083.174940156 30213308.99033507 12364298.251509849 7008044.711714861 43816318.66077556 24634869.736985393 38590027.46635305 29966408.181297187 8217587.503673842 110521540.79405598 45505018.886068925 3971414.616603733 27431306.192231007 23719228.49637962 31552621.08390305 12594040.592383558 69059429.31193493 16520727.711814491 43051718.6720965 13006861.256092103 30748836.01540533 10482821.819017656 15860334.929689907 23334005.19735273 32872645.59688191 19089440.538457803 45310251.83072907 12900970.35584616 36386256.28397787 18285767.315028913 29216799.43486355 26003153.439606816 24531685.19079455 11476996.564217381 26379129.01918099 15875482.950398067 26434849.81749971 30698498.000670444 9890664.097485637 31790627.94599808 22918343.47881974 24233883.85087209 42914890.54884475 53526301.136015974 25524071.96508711 24955379.456085224 30034811.56332875 28888570.48625007 6671471.903340692 22728395.365150083 10814498.115048273 30037236.86461636 10906932.644813178 25220423.103057906 12162622.062960902 58689017.150984 14440453.546989618 32102328.704847395 28673907.39082068 31779309.162866935 50867455.13943321 18634968.4682742 16754577.535899024 24077494.511226054 12320565.636433188 33730986.28080979 7220737.075683731 8230093.094587863 32521816.698282942 6424777.457575317 22988946.563979443 20148351.661786713 39807611.755244985 24356121.780708596 43499865.26389244 10060913.25494387 32335496.1622052 25897590.868892834 20128513.227042146 64980310.425427474 15440003.607633451 21226579.88079483 6218624.5362263955 23750842.82457184 1732526.449602659 33823619.826307744 21815309.793133996 16669758.17389739 11596583.168207908 31890537.303222537 29111023.197606117 34299259.02282755 12586850.776081894 31462209.564192515 31602371.475753635 23291528.342938576 44483898.94454782 52211773.693814084 13700212.59125119 35690737.44878645 11967668.17240724 7595078.169935124 61935325.007442325 20762120.67978419 23123373.15297826 23326598.28435649 14920658.240142403 29107647.629443333 12337586.091033783 19932455.380227335 62612163.42455875 16801660.40414551 11070143.324560342 45088973.50920904 28554910.256093662 28842326.94206909 36317042.34448648 24302435.3298982 8107632.84827192 1119994.7064349866 34280629.62206083 28783441.394236006 16722162.52798091 9341203.997183558 60590569.80545506 41474853.42026578 16763688.822746845 12318225.475878734 6202955.553390451 29423264.37706246 23557809.89669982 28711193.93290332 31533361.386514023 17969754.197727017 13052225.601920724 8879988.501038669 32032588.39737482 9852396.473980786 28947092.67567886 10346416.81653992 36651193.00016812 19086348.638736542 26529498.236333493 15109779.88627396 12521270.097097976 21138737.68094842 3433203.4074151902 9877136.792593027 8113323.116970494 24141632.469891988 22830348.48829597 30112589.289113972 47471547.5599156 32000362.666765265 2731419.926730525 26175986.211807977 29453608.390362743 18787344.23337501 4559548.848974505 28795747.410809167 33141487.506639387 10243956.523298036 21225525.3859223 25163780.834246363 11734066.509537522 25973114.738908626 3421084.8456395892 51695241.48058287 10739941.790184015 8119309.351752701 30351603.02956208 6676449.993228341 3922855.5198810315 2799324.921649511 26169449.844790034 24294121.47798929 35869120.74035584 29667894.97190781 24474530.636692442 63201193.315010294 28671678.37899394 3927990.5671532582 60801101.41000866 6388169.087254091 22875879.986136604 730789.7810535126 30920505.668586675 29879402.83007764 29101260.66635674 37078602.369178616 6286998.4166030055 30876876.32954132 3247701.1840920285 2756806.8193653426 28886447.06096765 24169040.380980972 28234704.614843074 11079173.069542581 44583050.914547496 25323638.323350634 22163228.594856575 16014145.366230613 768519.1560080631 2964843.105744342 30884389.20175948 2737196.071195425 28586741.08696432 6764662.466905768 17728792.61693617 25708286.319736365 17766392.307958897 35579701.654961035 17753912.967885043 16893546.11483691 24886119.252381325 68282047.10991143 32914506.965554252 5826733.438534572 26004468.61392231 19129599.523255162 32568886.109171458 29274652.512756858 30704867.89447494 28556026.54010483 32355464.57327784 38366184.73512192 17182357.024528373 12336452.979536155 27038577.416414738 7507579.4905368155 9390278.834318658 28246563.97623716 7510887.136672266 18217905.454930913 43964403.42597966 16119065.900857603 5789208.646672111 30299262.251280468 14998887.301177941 17705438.97335879 29543172.718504034 10580112.858534923 20727777.174668267 22473197.716427393 44816806.25218949 36120950.512830496 42357177.88979036 9682681.355875175 28534485.320286207 32322149.223276213 36591271.182155035 26515593.991294812 8831646.357067984 3744722.58821207 32566436.41842951 26367300.601055786 9962210.91796169 29051220.317729235 32836389.375183325 37308079.78670561 24614257.63601857 24182054.35933245 2707808.3201426063 61068608.88654085 20520322.224085353 13846312.803322082 34973909.61418303 22351461.143777505 28174999.448506206 9947525.914355546 7555050.562196605 603033.3196820846 10715377.280041864 12411654.212588811 19952505.474977687 8863164.362936957 75542055.05075203 25169827.335444342 27156377.040385198 30131369.223921 30662230.194436822 55282530.63191102 45307620.47419406 25478025.026886396 22201245.475454416 31479243.475358933 31441846.156901255 39841731.47122652 26320231.42774615 32878734.134703893 29898860.45074329 25632185.87820494 19861803.157907814 28730008.35382721 28042083.696156807 17742754.682850953 37772267.67046288 23393845.461584467 26316871.3421467 968522.2546099856 8498795.823533425 31740470.212881625 19895226.176291686 8545544.023452573 60512052.73837983 37963880.2781444 31331229.3679873 50442735.41534718 23984501.42137933 13832926.39637003 21026444.80808918 4738861.239828858 24712041.82832406 17241224.75012214 40322310.26028654 27959506.50955996 8434345.800603 17256824.954951607 25365605.20026364 76225213.28113762 22401401.50730675 17051875.797810055 31554897.835853256 30157148.54543878 39108262.99814652 36488933.15487916 29247169.455135126 5254816.169360696 27647974.126936607 17792178.66101453 28336494.92735871 26242376.79074534 8278172.840282771 17804462.501499727 29164639.83683443 16177425.657211669 17617441.793127175 30099388.258469015 31373992.422929596 33282182.83123322 40609804.4084274 35511949.6239038 4613457.090873668 971094.5554307301 22737590.889176942 8806108.566537226 4556429.630442379 1972583.5696088397 4026989.6383839296 2245771.430749491 2770610.7022714484 7038659.149899069 721086.648559966 13612118.373294106 6966384.88162446 28627225.525506765 42590037.763078585 16062871.376880696 12318943.64869558 12879863.219695274 15125282.358716188 46571241.77867819 29464045.000545494 35444239.617939875 17610818.75277198 12857459.30858726 35099216.146989994 28425612.80397994 16444267.796045674 25251607.788027275 38741093.03997412 44948603.30763329 11765378.31922916 29033574.597419873 15118789.453235663 17804708.990302466 36188329.86807088 32166426.36291077 72809825.58288915 31724798.03225375 25818599.42500482 28052437.036110636 15526692.121682048 560204.8951709027 29062341.20757647 22193339.98709176 29219470.363128502 26599133.671915974 27591787.382232603 33540483.013075694 41659803.82541304 28141489.233086593 28340173.927735876 2047663.7353048343 62161240.14835722 47805111.60165063 8707495.763872076 22117424.113662273 32091566.19274325 21769567.331869688 25794071.259115547 36304231.91091027 31400495.759264395 21053599.241480187 15338625.183679556 25196430.30145734 29716430.74844567 38399598.154430754 15563195.420369368 4544627.593152303 27593944.14109369 19499947.735673063 15320622.941972908 26417430.942877248 39785039.8290526 8503509.915925013 20014249.924841657 30712578.916649282 32272626.17243843 8562285.01040432 32134475.15837711 13211809.889975809 17318868.324257888 15560266.456232812 17193509.060435843 32045318.36471494 29979139.372748222 11533781.965782117 67767720.70141187 39874483.79225341 39010084.04460377 7279194.617243214 17517537.507504612 17997884.76298681 9132249.836045565 8194546.4030960435 27007609.104307044 29638339.015368056 25870357.372174907 35484870.69763462 20396665.30444952 18698655.323609438 18351207.935912468 25312207.1747914 37526959.05479998 16442978.078604793 14511797.9844825 27225701.954295713 44033052.294156484 30631879.583863385 44729743.949339256 69197197.54124068 26038272.921656683 31400388.116179984 31933418.400218282 29371708.51962633 28733102.49570843 9136359.59204539 30056352.01166468 17404742.179743223 75159146.29956841 12890693.99968612 12465358.585163584 25088700.747348662 28565330.480239447 25305257.46458728 91712368.14744112 15095705.612872267 31568265.44000779 27884303.08604303 28578772.382048093 25604680.590054132 18485731.710115395 29234403.254912436 9700943.311085805 31115831.272081792 12965967.337677332 18651443.686825402 18278471.53235092 8561367.011440895 27256610.205831002 32246327.65961797 1270380.443461207 7493153.467147645 27562139.017609734 11262097.11435872 59426512.25722924 12084824.093257831 12132015.773400418 27045563.824458722 34194104.34492669 24782657.954279527 12493979.624677684 21951914.0089934 28308480.028480772 39863739.73492885 13116366.550047146 31878735.332999367 11549704.715861473 70235539.87616277 1968850.2654530818 7861359.046465161 7003664.290282249 29994100.39411493 63710983.36700038 31066842.177825794 24125593.339084554 24270556.788466904 30246365.644828666 32541466.623294543 28390079.440040976 28013824.76257392 39702398.13841625 67101138.89528157 31337853.47442941 12711982.40898758 23390729.585935336 20405506.76528201 4458061.923053224 27337772.426953387 10092490.537242062 28410682.879748326 43871326.8812945 31937492.239931207 31491651.108521048 23829158.799378872 16024773.704399657 10264327.98404159 27611377.293139946 42477365.65764686 16037706.857621277 33502046.136468954 7037943.2468057 398477.8744516983 8273961.764639836 37526342.46338213 14358219.671907393 26946678.338280592 28280234.124707058 7935789.690206523 8775391.048550392 27292684.421126984 31289764.451079063 6630436.367449263 8789909.33920538 71177530.48661664 5265290.374933342 21099319.777200125 29128663.95928436 13687896.407903085 19739406.662824433 20676950.66478843 8174420.071671792 3609953.3354608417 20708945.381229058 48214536.67188102 56896379.372705735 35668190.2190833 366501.9232840388 29260499.80253352 23488301.73527086 35423538.404958524 35330530.179681696 31678354.60043217 30887399.59071503 17133263.362826787 31574555.191882122 28367991.539627176 30393784.84366257 25652519.921664014 19235917.724296514 2858863.8158357674 9969964.53164695 22455350.300930742 3616745.497479905 20853280.81912318 3954140.940506886 28179530.877014358 4058844.079766846 27218801.106796145 4588721.565975787 67770035.50872967 29179894.985459443 24258689.70104503 4741732.853345578 20908855.122606352 29783088.303431783 32265453.249861732 27475115.807213344 25848285.244846348 17232700.779748313 27244688.396858137 6759402.425498405 19725299.954853114 19142105.411114994 30875524.704232227 29591632.733759217 2878139.3163384716 73820926.25394294 23682456.27505637 36937357.68555973 20959500.59084638 28481421.377629314 25095758.30872172 5255685.019961179 10636790.79256889 7247369.772749553 31159654.576800086 17226764.12820265 24466456.410146598 69883938.27890036 20724798.922351904 29605565.869147804 40654115.01779679 40594313.946909815 32188423.929662842 9038195.261015804 4264179.4139720835 7350372.965299266 26034783.035049792 3999150.690362492 13964716.76025746 31286053.90131227 8500768.850419514 31262470.87419887 31194121.527942088 24380784.101307154 26338407.31726431 28248723.79146626 8208683.504133626 3864889.5110690477 63213517.047756776 18688893.232686475 21809259.473134667 35118358.76761995 29627394.51306525 16054708.492016908 8241670.0817627795 34191433.38444073 29581512.39701531 31242860.26624708 76927806.38066153 16039595.706158895 29746084.306958564 31514586.53770443 15877365.958748829 20491820.401646465 25087488.57043795 125164.89544657097 46156904.96201028 34341162.09042403 74858196.47188246 19746647.613598574 18774427.68600439 29671025.534714367 1763895.0595465216 19603615.923768412 37362381.06620142 23016639.702449158 13202835.05634808 29881799.567690663 25459429.254605882 19968015.08580695 20948527.383780308 31343619.175095506 3022550.5901396587 36708577.9886312 29889169.609706786 24313388.89833689 30845426.028449234 34067144.20434248 29302878.15684981 28295097.78168958 12177828.383165922 12128379.588760044 36461701.421930656 6119003.012203822 29878886.838782795 31678261.981141638 6138398.902146323 32411244.591518417 1762514.779290118 52552651.17153619 27508582.09588012 7760596.51227098 31099055.128399167 25513103.57270855 40149580.9174239 9059030.926184902 28842022.63002924 8588624.569763757 39886414.713520534 28494460.40414856 7283156.097028977 9827541.084190931 25782569.4355787 33419515.013393313 28179656.746483687 3013109.977001184 22189006.137157492 7311512.364431701 14689127.333322348 32909351.99676988 29580967.608953837 51228476.98471433 28587552.634885795 24666070.021167576 29336855.940773007 10782383.241415776 8278723.914556406 27140517.83266936 25065572.49090313 11454251.724422434 11331840.397137407 7410312.532813415 30283655.157336216 22782924.22264261 30971419.39106294 42145666.93433847 27370318.791783728 31671660.193942543 8583805.481710292 4763755.007008023 41825876.78424142 32200130.38535207 6445359.048689342 10192467.85982159 33566535.2517852 3819208.873131877 15354745.51534774 11033682.018657498 3762689.8344037007 25041440.208552506 20167076.37469687 40148578.69671874 61374892.198747285 25186149.266344476 27237733.55227875 35587590.54000524 34998914.95739527 29065449.754631456 28971444.09039085 27161391.219186563 28864423.110536452 28894124.98958146 23468371.799816974 24455968.42430649 68156024.16168876 9790602.38643547 20221368.98166178 37764340.73623143 35316236.772219524 29089862.302900046 21572353.39406742 28511728.22238043 31808273.64301508 19582203.86161066 26822824.84679852 25077487.90276879 65683834.55804362 1550914.681282173 20503099.901760872 11104823.682086349 56433517.91204626 22411034.227572426 27757465.714698084 19271068.16374088 11126177.389053125 33063063.5740582 12523239.150797142 30126619.31167898 16239351.989062414 21953148.040858522 16267239.922607102 12701006.991561262 12739544.602654323 31448921.328473233 41480498.17692289 37382625.46360149 23028937.369832262 33454352.30923794 29258610.12949698 47991779.25813573 15143998.416231928 19154242.623315953 31753079.375060055 30414209.432350807 12933873.539676795 10121412.732309414 7447598.390344783 29167621.815945078 4420438.773301059 39840089.978314556 40307678.134248234 12917914.740990145 19122685.455681555 26446700.70851517 37971255.34059667 33291667.936654385 2937249.160000386 10512813.746195944 29423459.42480604 30855029.26109487 10496604.647560611 16786790.051901355 39763667.57121481 30522863.062079914 9757268.500184042 30618747.558547817 16594059.948771723 28955496.3010881 30936285.878360305 30854392.30502531 15113407.626081364 28066976.005362872 19937419.913234416 9988947.469300158 8597423.970111376 13157362.71794948 29050098.40960831 24345536.170314178 33772612.90110055 14176808.728917867 11294363.614934536 9082450.562471978 31970430.901763942 2893189.0400119093 36451060.769012205 27234134.804079417 25790119.7831878 32286017.313335188 7121611.409766234 34480486.24960808 32512621.1353234 31374454.17744403 40812929.18861543 12679237.096573897 32639250.420420974 33722371.49375389 6893645.475371302 3273396.501679163 21321501.625345133 2596116.6538231857 31590636.918137066 30928908.696474344 28076423.091502275 16993390.989830106 29868736.835637458 24847061.205876015 37614358.05556375 26910557.554891966 33604672.74276619 31239883.558906667 25780462.364861686 10504253.340582758 20099349.594313137 7041399.664388545 31926532.133229077 31086898.73017287 15892221.163615108 25551892.089502253 25362227.745999344 62025921.15226472 13748059.747088704 26261674.00979259 32725977.65779144 17903243.35403996 30876721.271438826 34739536.16358037 5259548.3222092055 18821859.255175352 10790934.301488113 14921479.1479327 11541573.046367304 7846587.489217228 43387441.08640216 23585038.996025067 21169572.66757332 3278159.0217950745 34514755.84495768 31840625.80626918 28034010.859362002 23414350.008818157 11555326.362744976 25181606.44750694 15271239.911010113 23218957.396113977 18356646.32964389 22848043.993030436 29755168.733149756 33973699.89858906 28977338.673243266 30335756.863917343 21070670.941351023 29433446.632117108 18532220.567247823 33729138.55244918 16484080.338690339 3280086.0215592356 16680621.624866668 26737437.80594621 35027704.661702484 38429489.4231125 35794835.71789118 1950953.7422083833 84642608.3105706 61873658.2246657 2703703.317854251 28317729.899038877 71078779.110203 27243769.638744146 8067540.310682653 4522914.403616882 29262274.18473829 28054060.602112032 28543729.241198517 25010444.9686802 25404331.494603347 2705208.1510755927 39741293.37148472 43491302.151280686 51949682.188019454 16271225.889988989 6676457.815230567 43487582.807691045 31071330.21597319 9966183.180111399 8256895.641352513 17671338.338699568 31029908.108304944 28927748.535075005 31055632.934266776 7875401.209168298 35960403.24759454 11768669.454970028 33625264.776727095 19590348.596494813 55682243.5983187 39747988.75779217 1946736.4918931895 25810642.032322716 26171648.93606805 30630524.40731025 51202067.53852919 32722090.11631296 8955759.215487352 18254407.325629275 33443260.95661339 32086503.226990923 32845382.57845589 16632129.250538284 23353653.78056873 25145647.761520684 11766811.519143771 6034290.466448431 36736265.66788128 55920504.67508039 31961083.697847247 25113666.856283654 29131544.902986392 23161522.41373033 24175297.50467174 6370992.148656857 25463921.14514972 2546007.48966956 12158095.24849387 31775267.80174345 12548132.447802227 32100998.720599543 31523193.269765556 20131474.115008295 21102469.205131717 33925350.391912095 33970821.192972906 13602136.307080822 25708761.572599344 17982274.03320728 11320041.548259908 31761628.59895453 13653720.791932164 370661.0052769854 27099333.154486943 24786815.764255736 38888362.323933125 31897857.887115102 28455479.851898998 19940526.71950337 29811424.914225407 31873228.978990506 28425356.23735625 25999026.682697024 30606452.647709418 20433467.68446432 46545643.22037622 33052387.31500614 31941166.203019947 31842265.730550718 20539690.294057768 30874198.438401457 14643266.658680458 30700232.74391488 22289367.89037621 1885015.6943021198 29525486.142531622 31807312.997345597 28968598.58146068 30824701.878071822 31534680.292780906 31789697.211095303 31852040.047047168 21385085.05212032 38477797.34660993 25319705.79763693 12928997.80075929 39309833.9144216 48930493.1187875 33974592.86844686 8410767.46181601 31110277.865784213 32947283.223953072 31948532.35893129 30981282.217852756 45407280.900680296 39717776.84535978 31164513.960927922 24946114.311795674 14907816.913381273 30081192.683859926 18932376.75198224 50913624.30709176 26432259.7237811 33907143.60461446 35687703.34646424 12352574.847191148 14634619.901956484 80024894.20773572 46228246.470706895 32882517.675318748 30747457.070106987 12279942.639416179 33893102.10711092 34029580.79268435 12394511.59272416 3722859.106989336 10631036.6392862 18433780.938286 44599181.52575046 18583591.83372255 30623915.92635014 33647068.26411072 13112625.461144306 29028953.73033371 35684755.97583493 36302489.9277742 25514421.915503312 3096451.7426690417 27951223.257580105 30320629.21553056 28568459.448906057 32668753.37119077 67494682.10930909 32045169.63499871 20900831.84174421 31161834.516524903 46768527.07788021 54589249.72083525 33438484.688065637 31351235.314508576 26102783.712363794 11351001.269348778 25380938.862542495 21545598.73002831 33480040.721675854 44825322.71593195 36167474.66658066 28751865.915007494 30255594.982526083 32904284.452635374 28646843.238585416 32410360.873973347 29466581.74144206 3118325.6441513314 43561129.22295602 29245723.33606657 2747391.4733048785 22843453.534868356 27861153.413350437 18707727.04653802 29148870.23012799 3696722.56193466 3671691.232381946 19365368.970255382 18265888.439003646 14747059.183723591 58198496.38253974 27103974.73600206 26974509.64234913 26646419.081576277 34902655.41169371 29106694.344701704 60327702.33579759 25247882.730190717 22600062.619745813 36118271.499964036 31349432.684609354 21738392.497264657 28657972.279241778 7824477.707119931 30275081.751411453 13693119.43315008 48462045.265540846 14200310.454259487 76822290.37849988 30357181.48154208 15870034.665440243 31222221.147244714 7383265.681892612 31818439.551594775 29052581.25038748 22594279.020557582 19621450.786083497 29937513.94338839 30696186.331986252 39973048.83237803 31014696.749136068 31626751.178713553 28472709.74816807 30126636.837906554 43683248.37148775 27756382.661624294 30117813.28127958 10057788.88861684 34451420.19425854 28398867.56830512 15633211.28560344 31468845.38877388 14988677.294395132 14452782.065336937 5368118.375377878 28678609.81132291 67571.16415443481 12673001.642368259 14826980.36979849 4408983.09104927 18486425.75324887 30045781.423937604 32250890.991536316 15541650.733704008 12212641.20416472 49460572.79781298 19946127.91569701 30072367.284740098 44128841.08962216 10034152.436630923 30063676.53439686 36877203.28920841 40318547.92746897 5227777.509749592 15773463.551406056 30660340.230712418 12420962.228857327 30666916.25650182 12483375.94361048 10899011.823607631 67261.4867757576 28828219.915168483 26140751.756237686 30272936.799265232 19633426.811933994 20978957.374706887 28376285.257950507 5079686.402855088 23404597.3489369 23399061.271426395 32719127.871752623 30403327.40809609 32104333.763949677 19626443.66446494 29130849.15300433 39369571.46469323 23730641.52127313 31876940.860413168 32081353.413184293 45546667.427968584 32335412.10912386 42253524.21145173 25132352.3664829 25645652.999711644 28299723.642781254 12682269.141864145 5407563.130874972 17750767.894319206 38756334.4333004 35746333.5275828 20033775.681075823 16505262.975563604 29211978.008433767 28820304.119226675 53074273.13846744 3409902.111670054 35465064.99940761 23052169.774291847 28190496.05847677 58692499.69194746 7650588.4692940945 13220300.457414407 29118637.187310632 49210077.80917715 34289309.48179924 29756123.02099263 74619116.21642852 28385525.759603985 31428616.513055865 10980952.444884917 24651140.145270746 23535800.934682604 21088593.312881753 64823978.364454895 29355924.15827536 19039425.11362097 13437128.910594778 31459914.91309464 31233853.495366577 12299077.836551135 23251416.75538805 39981431.81822668 28465175.159438506 14001604.05873548 28629001.436667357 19047829.37062161 35059448.268538974 22152288.96584887 1737442.2771915495 31220809.21806934 42684056.70045964 31546708.00298077 28126283.917450704 29217974.17327353 13258939.543708416 42911458.529009946 40518242.52785731 18870536.5441739 14755228.19368137 23788221.78427947 14658143.46055272 29031455.128502052 50956575.45534112 28689012.93800822 22663472.139119778 43729145.52352133 82051484.18694901 7155077.711622734 22445838.004059006 9957882.28176838 30299396.406392194 28809746.999932155 29192776.618294302 13529776.762546541 31178120.712940596 44322542.269640304 58262803.89091253 22753357.570764225 43845439.445897035 12121744.167964723 63793603.52472417 3617983.4374950416 18376876.036889307 40064397.143494315 35258259.4653222 38755748.815879405 30035179.295120742 17009809.047946796 22172820.67509083 30516686.81896108 12591987.628562724 35682152.54011959 3723845.0489333104 12647899.160654733 29566927.816322874 31473729.531427123 34435729.34365092 4009722.853743362 34924950.08565766 30397102.506975636 24362198.189419962 26990340.849645156 30366922.447668504 39762870.13536935 29896032.88202144 3722844.5430498016 25923600.54405119 32511294.77833558 37970546.128531545 14792759.161474474 24041794.336896554 116188151.41865076 31546794.27187979 33243414.15036176 43794384.94913185 15489436.487418903 30620094.214462064 27812560.492853265 31487510.68919284 29100525.258014128 25454611.66961145 2420331.604839753 81197978.12384966 7244837.004142467 46033152.68341212 37090956.12756983 3596444.2566061458 13205350.600915032 31612497.421777565 17432305.181304716 25246598.149413284 31651191.196384314 29716449.697839454 36976728.20390442 25902471.996681146 7255464.258276603 21618806.119137745 14520625.994655449 2525425.1097550923 29913199.13967704 15213384.683482232 30673846.3950712 29084640.444195364 12186158.095945938 31702686.67338327 31717342.063972168 21832105.19394918 33922325.177486554 35122310.71437235 30990278.660623904 36292257.70228324 20698645.349363398 10909672.63534245 29910780.02520865 31757133.982363302 28682564.783639006 30765801.915712286 28034653.252180345 28683804.499785572 8412341.058233075 30881147.42953175 38770221.303399496 35669791.62157542 33256531.021924388 43693757.614920154 27077385.300533697 26414243.439611614 29082647.919118416 36619602.80733128 31876656.416363936 23973959.4806901 13227479.53944401 36395734.236507006 32090382.311523378 12761109.155864066 29383497.513881065 13324541.280315755 33408986.30126012 51329157.35511309 24233884.97513445 10292195.136320658 12434376.166530663 40721364.33813629 5076380.404858484 14833500.936795255 23752595.044043936 37177839.17639618 19794339.983423337 38711966.160491236 19796371.594719417 35761702.572596505 19499230.32133192 38545775.31300709 20840181.952073563 13300780.721003102 30404208.461695153 29673986.24914352 29982059.72970047 25519720.65794244 21799627.783366952 4595765.7551621795 34919132.65554978 9501755.557477161 29561926.667662308 14907854.182996182 30225943.900935255 2704702.868504693 19259741.495840263 29303338.565979972 2684665.198850825 34142034.11346226 75451937.20077823 5048434.780156243 18438819.072876 8526731.777851526 24984562.045297485 30581550.980956733 31629522.082156472 26767048.969769843 6335355.644388396 27848792.018909656 29376910.894247267 9865714.60543211 29961807.911818508 12245416.995717697 26690182.709802356 28977901.89233524 31555486.024717808 43841514.50369072 18208532.74052012 70403872.05591716 31764124.53600789 19338541.528957576 18784318.055380832 14201525.575673562 5822645.501159687 4203511.54733824 14652594.169063166 27575848.601052504 18496075.947362397 31222298.528598793 19083298.068150602 10065345.102082975 14270449.085551314 34889317.46611133 39853713.82796336 32065833.343924392 2086210.249745906 17083011.2572895 44038446.80113211 13639665.778107308 29290987.391095553 30458732.391159832 274158.16036552243 14646695.273336962 38784646.916934006 19215720.62423004 31548632.119037207 35200411.80567169 273838.1526734303 30682457.795993313 12409962.334904935 27701406.029509865 29089480.95061586 25270104.29973059 25625621.993361223 26383169.8485113 29651794.181111287 2565856.4455683953 34434888.34972707 12902180.667208346 23314731.33589326 19623258.43735179 4383985.355213703 36241632.13597011 36113063.991407104 10360138.19654423 56021.31407079496 11743707.878100602 24563044.764029063 10337774.080224667 27792719.258241702 17653953.26831782 58314582.1908772 27440303.321307756 34331631.7839433 16061243.007888094 13187874.711757535 32682820.603383012 14599494.848389102 47525507.11251802 36568239.94647946 30559573.442087162 16551799.25655912 1995838.0063321863 31722618.554988824 23403557.866686687 4625156.423537495 32089625.999004323 32708626.206695016 31961340.924537405 31843607.96503691 16282565.975047119 4487300.90782318 41963259.3525494 32541849.240145627 71290716.94032045 31815861.393068414 1003762.0794972309 216893.49671564467 13662041.151605973 2488785.364693395 30460900.661844194 40567854.66886155 21396387.37558845 36652600.24870358 216085.92393116257 39182301.73367195 5045342.268965522 15575988.43684549 14498589.028412089 42934547.005525075 87116426.03468624 885538.0655074697 32784272.17266402 28387292.863970082 30731969.836389273 34215755.64056697 23750428.34950649 22792591.59975226 10844014.17965699 33743133.15248834 32137554.634334046 39008722.4309116 24542419.104204893 54516334.572151214 30400581.941482067 1673449.4743272695 29523900.814892523 30791540.415249687 25296077.11218929 35704150.77758873 9279413.237909649 29548130.016706046 9365975.94752561 31701754.19388326 43992098.54108433 13531462.828706065 30091724.066275798 33065341.64777879 25028261.776803557 13583936.97176664 13716813.971400559 15060294.354650468 33331353.683762882 82390760.75520192 32814648.28346018 24591117.139442578 31255354.40368605 9413670.174652554 19552180.72135082 5115554.561474915 13165659.193830628 28997804.908499684 23459574.289996237 52902268.20504422 29267306.02957716 39545349.31283563 30924401.678187415 1686839.6592595757 33031621.926672474 23556106.262317877 39774388.82276705 35208375.22031829 5280068.404847055 31735983.753689308 34088571.137595594 31471275.447351158 43074943.37660019 41690930.402674295 17286901.660828758 27249964.285646856 16399042.042295558 12350122.986305522 25263290.66965426 24004614.741970737 29928592.00968131 30130619.85312339 87656973.042617 20840627.61938403 10040716.131157493 36658901.716368936 27323412.464543667 36176225.77096296 45748906.42448195 22080698.587598246 34663829.156954736 5701489.334212217 8632508.634778693 4239252.595054208 28911392.522400163 18912125.66818129 21645367.01755383 27537856.17507024 4199741.999046835 28860188.743232377 23500765.468817983 32954459.185703367 45564707.0844568 31084223.62768659 6148554.352793496 14124524.032518571 32494208.655206457 29148320.387454987 32836167.774879202 20517338.30968398 22620582.740341652 34656897.64486648 13337448.420379091 15520773.595328819 15463820.105633458 45813291.78238187 14818413.797918733 11950764.264462318 46906992.76921285 27809855.45663455 42985387.649061404 23795103.194186367 29144366.66909645 18288409.5278852 14581951.341483442 33069077.60840043 3513035.9036529 30495960.919409994 29786875.94561069 30848518.690029662 27698014.00679664 30291970.26269043 35276624.95271617 3706511.9108168106 33358966.977713525 29731625.15117235 33510490.81517696 29522686.331871837 29967113.30547133 27924151.643489722 37595135.729235806 18261326.204456735 14433128.51643211 36954886.054723926 27856877.333407782 27527575.86836765 31173946.81732767 753616.7523106047 17119350.078646075 28895682.246780008 29418403.7268876 32773140.29850082 23044155.10276307 32577539.948765278 32577002.91854332 37211602.26779936 29909226.701253034 35612942.717685126 31493334.52206872 34492836.336153805 38376500.33502438 21928959.480621826 35263597.23194482 25215629.639064442 30551461.202011842 34491067.94482247 30239488.00345397 13056163.420187656 11471754.668975545 28301494.30341429 30272605.443938896 31467871.557669062 31635183.725922227 17042319.327701602 21488524.699625634 58776438.83432997 12865649.81205797 2262661.075987473 18821534.873261455 25182089.718281265 24270565.677221004 5397220.399628132 11111726.628491832 31084078.400904544 2298946.9111804026 43952546.116003044 26172033.714257862 32159136.3329324 29695659.960390564 40271726.18232396 31516064.02096292 29225274.349590354 5379779.215362282 32005082.799012255 33011386.332665917 25721411.57541561 34821735.25111927 42794312.71657917 31839171.04216154 32955361.664221443 19156724.785306606 19591039.099564537 95183587.4608995 18679797.89289379 29695936.311199952 25298898.240547847 30217959.94069738 41712033.707691 4316548.7082331935 13318437.269842798 67522490.06638588 53709005.28519988 27487944.685299594 31720831.357774135 26966352.444138445 31107233.002954274 11044728.757374942 30101008.645635307 21896221.720766746 29862864.87679904 11092033.661056329 22057013.18751782 43767669.99755491 30353842.576780967 16112484.861544 10847925.98302684 31180159.570044022 70130646.87604949 33436056.359208856 37474813.623673886 31860846.394212246 12665744.542923706 30032935.087400433 33070348.093573697 23996216.105578355 31846438.373706993 24516293.281324256 21976174.001413766 29119365.725189257 32766659.387934547 27021629.631447643 30454395.213987604 33949723.45784687 22154105.40784609 34475263.72911885 34386443.212262675 27914719.697592247 32155186.47259281 28619272.008051988 14725619.324574407 16845435.19767896 31540343.109794453 25052625.902903076 32462618.11970625 7967695.089839564 53645062.82440465 36831147.47497719 27082932.020827983 35466882.53932832 29241421.779888093 23162798.382626638 28907770.08863814 22503218.541336253 48595887.622325905 24249691.142322388 29283061.39465103 36190212.62800358 34162476.90829563 26467243.76894413 31762999.864545826 7239579.695464259 32440079.701353237 26515908.564860687 23900661.65232675 30862209.19034221 23628378.867473558 25902815.222139783 24526249.006705344 28689829.82864365 30085515.521058533 15417207.447159387 29996721.166676316 29041619.225844175 12003878.462736886 32845803.14726723 28278341.571953747 43730479.84890108 46597430.56982063 12233432.597382272 38839568.56048617 30178906.76590052 23169331.620785087 30958859.073376093 24517516.38683476 49128538.22096537 23149160.3406513 37538093.09756089 47667640.351055376 31754661.001389254 76220952.37452078 33949877.75953388 22845151.95793281 21575150.498558544 84881797.47085637 40331226.95592051 25716184.390290495 31508938.64487519 31696250.400432993 42828804.66734998 29587449.89450783 29881498.68807607 2657556.057542499 26691920.52996142 22464375.7436315 10628358.721996196 16024731.317136727 31736008.237302694 15632118.420804424 44447334.18062746 81074946.81617057 23515806.580121078 39830514.3770152 23722473.09315529 25067542.14289082 6717330.22479996 12444259.838349547 24236359.50788562 33855773.86225241 2653664.065417959 12584492.311152233 6768650.128099918 45483591.88559789 35674125.714142025 31864124.574753884 31204417.790022127 15422897.608790468 3606348.58496043 40113833.42833622 26130227.111679766 32139974.36936904 23332593.8331584 18688348.444864195 26053105.041955967 19394064.187369607 33062316.64087073 54153153.01380811 9395427.361631818 93054665.70418906 29911812.994923662 38529605.39167161 32096263.21220796 30479530.650351696 32170642.414751705 59184586.83944136 5507693.567266449 29715753.614090245 20956141.672804464 76487438.78124052 51006004.57906233 6982565.667577479 39273356.50545943 29469179.276108272 31076447.35268414 1046492.7948078228 10744324.358500019 26303549.901934892 31694639.80243654 29611535.936707243 17315650.61310566 31474034.5659346 40500525.542401664 22964823.840980295 29145464.903589226 31913286.905945286 3777614.0453599906 3775362.287070957 32220794.35092199 23131391.080062214 22450562.759537857 7121261.380078435 27801037.847197942 2111144.2234894177 18372000.1791201 28240527.93901557 20336513.692950275 32143248.64475075 31602512.06232021 273503.43799064483 40417843.44103703 8182045.225958213 34198007.91844241 28970896.220112737 14629022.270191066 24984740.997778766 2108937.758234376 23908907.954416912 36518252.80875746 26141253.934712052 35203310.921224184 272591.99275335623 12702635.298989788 3814558.4421191835 7754524.457686656 12897924.394386549 3074450.3869555914 15672490.197604878 7907874.05534066 621231.7810261602 10806463.159172568 27586629.110820074 16149531.269110627 21056283.137923107 20579494.28467942 14603906.462721476 620627.8527026963 14592311.438660147 28133451.833440963 2774907.050914221 26023491.99810752 22903111.21003515 10195510.46310239 34246968.2784156 28262275.567876395 4164039.4858472855 32172668.284311913 12883474.902279306 6614891.709592856 39401587.66638412 266772.2797168347 267030.2009553129 38607787.7843448 60930410.04065491 23444387.819544535 23435452.579837933 6675335.438443937 31698645.370290365 11739012.983529355 28830964.235668924 30683452.05398655 27362474.245884772 23014691.292415734 33792814.14660239 10265612.327291856 27717715.317920815 37135903.75978661 6719991.946039549 39396321.7944811 29463078.00196971 23399497.145428594 10621520.15026547 28116437.366499174 37214426.107871324 29887222.441530913 17898638.748028222 25150132.76738872 11944150.813248511 11936081.996883987 15945932.588209666 27263270.139786206 33340759.783539046 24268865.73231621 25411652.856987447 6703425.6121570235 44569471.1992011 19100890.00042252 9078469.788132325 24698708.018632725 12324520.882142935 2482378.8694888745 22352120.38704709 31109290.24940322 32068249.41385376 13847154.21572215 32293098.15971666 2680871.044701836 13943852.645884499 1806162.1095429203 28080775.12498262 32519864.490700833 27937075.079703204 32153461.57199297 14958584.618412755 9860942.74379668 19051947.50208956 31942607.30922756 13382894.912794787 23274306.37937708 30597195.56009239 34019153.68439103 31446206.277355697 1798113.390674486 14580013.78695854 18406472.282136783 11707996.143400243 25469123.57139326 55792862.31462964 555582.4713106118 44085502.102429315 24221527.563591834 22953866.59952551 1809318.813862617 5487339.405409662 554694.0261212324 6673256.887379111 33294125.21746167 29226404.704602696 28990228.765029322 31966923.43211005 2554020.1638134546 32020879.580479838 35711509.67227886 11553503.209135516 29749430.16342076 5463226.692122929 6207729.050320693 29639785.17157446 27935866.18714829 31508195.262749996 9051226.234198937 60758240.682894655 463890.804959208 463405.5274808861 25949917.035555232 37827498.183299646 22114218.769353766 21093616.51318001 32174658.40035989 25844065.70814126 30141241.243899822 18872958.11109899 53430217.83009283 31678879.616244506 10996790.525437526 29251375.16249256 47338430.08805568 37931029.64054202 16789084.000757977 34893608.54220257 40552643.9458795 67469739.31441508 32337560.230862502 44268282.11831009 27147528.06416195 8933131.199334577 30717415.118282683 8957739.594143918 31846794.09818806 31771743.17731609 1239460.6663444643 23263410.53034078 5033574.783095763 4979374.740987193 1234806.2877091 28651014.08115165 32026783.42615101 31760681.81729199 38360776.675875574 5843515.019409171 35527006.44746845 36232933.71768996 41625261.04377503 38323318.56179821 20781757.14091677 28450164.67221004 15250565.336793862 16687977.089099102 42325534.06963844 8134756.055510185 81660068.3311379 34267375.31188201 31148738.1095063 1544582.9089054866 1525967.0401850818 39804921.98993422 33878044.20852857 31377367.46266359 21903360.55790216 32377824.23104898 32147865.823373474 27746236.01771096 32191881.609892987 27223376.575719774 10301784.642541803 25246480.057442777 5771593.747742438 16762565.67853887 5105120.743851501 34608083.373996265 20429273.045774497 6486284.337686498 50341863.13062015 30120547.234476127 1059585.8920923553 31310567.66614669 25706935.016572054 35463225.986186706 41542612.91193988 8576238.967853574 6451316.859557634 25392180.213454865 19837544.550551552 11307853.003386078 10004072.682595382 19088014.354067393 46934862.62064061 9629797.220720712 20400258.160176143 1059200.1141419644 26965975.187567484 30028973.728582412 39881273.44020063 15332471.764080018 28678961.459954746 29841000.52263238 25747907.723668113 6513016.285471621 28585299.762151834 29586604.00352725 72482476.89471318 19485720.57911193 8199743.9188295165 41100249.108445734 27933179.714096345 5059126.157665717 30626026.297512263 38010278.46209645 15293143.332025692 32052566.791689523 71480674.1201659 18111407.954482194 31041187.664938774 26162267.7153321 29591993.909485623 25261570.78405478 36913824.16258338 33579949.68188643 10907660.608054636 114014750.5465818 55244575.98207002 33044341.89981684 31441270.01048892 17135884.660420224 33628530.349455304 11697696.48080459 10940188.869098114 33182225.70975124 11723351.225526435 24415598.08043188 129716638.9250835 36971390.53431856 36634184.49434139 74412073.62316214 26264274.897326145 22133797.907860793 5194792.836117871 26910039.854845285 38026775.150158174 20195332.42491928 5213508.240816506 28454682.989667993 46894524.84104882 32113175.471691128 31447368.397380237 46618268.74629908 35076550.04759801 31501205.13259152 70238719.72357266 10764150.80752495 4377111.526786425 26068065.12253174 28865385.18691307 27968550.652167954 45787088.53295087 33288874.150327716 5087464.338857933 28475466.892219815 10693170.385782542 9508097.109787725 15029241.936147463 33537768.088567045 22258186.19508674 62932589.178216934 18857794.73107821 18416422.9284431 3198900.199310553 32499247.039466858 32303460.54211314 4371947.2395219 20811640.267723035 22285525.131347474 29959171.147023555 4414224.905030625 28475538.718489453 5462560.443507896 13003265.896508854 13045423.294368427 31390246.095093526 57784671.21664259 8592601.234882338 12142137.625476252 2915715.3728079777 7412564.468353255 5452525.650051209 23534643.112396043 33538161.453997746 15747477.895126829 21363265.480148356 21908981.021319475 11587700.706106236 17715170.851699963 28437400.11466942 6105638.7636023825 17196008.932685733 65874074.60528344 30310099.889186997 26055812.446043763 27169580.024635915 31054011.179650966 33968642.69515617 26218537.733700275 17940668.622179553 21193900.10726925 29451273.182911884 18554921.183203492 15543956.730969183 28632452.319684047 15462159.66993616 45448035.95391192 31455996.262113478 23982057.220333055 15255569.313931689 27568961.817855958 30930422.92540539 28235299.315660916 29208921.615029838 39233463.84166099 31484306.800483774 24260277.343319178 32765706.398067262 28903460.742673166 32624027.335119482 32131977.36001013 72319988.55607174 31445624.793588854 31582392.96321247 36619525.037926935 2594958.0396596575 20141710.126580004 7029672.832222189 1257158.1688656663 15726689.420652322 45726784.349427454 25909178.0327847 63265091.41201601 10979935.074488476 19959374.626139697 3988232.447363124 29834191.691256113 35613372.853983544 29741066.49542334 9815724.705120057 12793519.405755518 28118357.993597873 5645937.085594611 29380112.581478607 29495131.543721538 31102349.56378577 5649569.690518572 13589233.661921274 29866428.864187654 13619858.970282985 36868131.19369725 30403290.968575653 31638995.819783024 31637613.83021596 905053.1045069804 29111976.539552946 35125609.04262988 47311547.97917469 32849788.466000523 58406852.436373726 12665382.331118038 11298864.207650864 33771078.38212515 4112596.4097712524 11551793.022104915 12791847.978547528 13984625.16729822 16901759.74018912 28413041.95722954 28591446.667474065 31270606.72312116 5742504.673249372 30069453.8342347 19460577.728513718 24694336.291523762 45893138.19285873 12274896.459239325 30620496.499540813 2863027.2088467856 25425345.383376595 32694927.445315883 897776.493901456 29278557.17189192 30551580.831543434 22615805.907820478 20208629.161384318 37396288.264172345 29268860.59536764 25897369.411858924 32214726.26538982 31150757.881942634 7680087.467052235 34985578.77239467 31609940.823228974 29074996.259536486 39189152.96432537 11831398.058925018 989935.2220205095 30082884.861128442 24662869.406328533 8604490.241189424 23940642.176298685 26771582.87361449 32178327.637487672 31413909.649193615 9223448.080294255 21278061.933812857 8574116.646775406 23694254.0699311 30097242.253253948 32335195.046563067 28648858.380946286 17626108.685535595 28385414.34924202 36691072.74951764 524396.0219791775 28591826.658043273 11428087.554221155 11465867.253131485 29555876.853629496 21880140.47678994 94203703.17247951 27122344.838209882 30752351.25735225 7274518.511031823 11668461.828116762 522421.04180332384 969117.6254926324 7310091.873858992 44452668.36531197 975065.1709334586 39122676.523866676 27624967.354341164 29919186.47687386 28906839.558286134 15980279.37086285 31615723.91149215 16926260.95109333 21374183.49667218 32960417.13222151 31119306.421029866 35258899.59800946 33057019.83971255 68586172.03511691 33624927.95578805 31733096.062311202 27224494.417117275 33456360.960971907 32276283.137684833 11163201.358392347 20909256.4228413 36787804.75115606 26662724.74661799 34097275.90240232 11590632.786783006 15735363.989176333 20367795.43718729 23966790.29498996 35268867.481848575 14202845.05650695 21811692.086692527 18604777.834613834 23350465.62207356 32668761.73782751 1311885.6778499265 12031080.214629704 31271465.280427217 25542197.79266264 3977857.4238392217 33765444.30510021 25737143.75284376 10266294.723378174 14064550.29146573 4178263.2018422796 52935648.376277395 29814658.601401918 29383031.649762645 36414013.93316126 25390934.134862766 9139128.499708971 34730780.77242481 5606752.550780671 35252116.17651119 25289901.661379095 21773269.82457593 15132515.22063809 26274211.510074347 71906463.63764825 38725849.34081316 26774372.745130997 7990183.091075636 33534800.967987403 15337497.094108142 39307255.278298706 32623058.361417394 23935352.222117703 27408678.50278631 4359986.051182967 27842676.947077375 24068448.275062364 33068345.634847973 32349696.45716166 29997722.754477646 20292843.10475007 23120398.46465193 24310398.295827027 8663500.143397057 9390791.08013736 24228143.27117258 27959331.046680085 22828309.08582644 23842733.58311564 15019310.108802728 10511246.07388999 41038843.80439917 7620536.546812209 26033048.456852335 32560700.244759146 19879195.012149345 636373.5455758562 24731316.78610669 20835530.737800147 9546231.860843299 40893110.584321365 16873501.077156495 14772519.07822392 24087134.598940633 18258351.430528972 1169795.222573157 31046076.74888462 15068519.453876734 5013684.388490324 29260890.52170132 40901766.01421077 47961355.495526746 1525636.682784264 27677364.21213186 29735186.565455258 637940.3390987472 14177373.319672776 18830873.255596615 15063519.731855748 28452125.03949476 1543633.9884946703 21545791.45831579 37138290.024382554 41937495.2075772 5867972.208895091 30951134.186501414 11159642.107327163 8226218.430419873 29023427.16682726 24306233.72331423 31557673.62935485 37561187.38856251 23078168.136562996 1099898.1021518086 15156694.61034578 31280326.750625566 17010119.63227121 36556732.740111366 31131971.322786182 38273595.54783069 30686228.344329413 12185506.895702045 15992939.142495548 28738207.718378752 42009711.23456701 4584061.362668581 34822468.21639332 31585285.81732736 25307179.440526966 31606479.325640637 17374191.13036841 31285294.939884376 27722220.892099373 28853419.361263722 31482081.340351023 10342279.714234876 62623712.12123689 15145132.299911717 31618237.861572385 31240684.594676815 25405806.618154604 977819.0801712071 1093512.8512234488 995686.5946376281 16006032.631588968 45489646.401232705 31446995.975372687 20346035.21203066 22698637.7675958 27905403.770956483 20224203.81197726 31521669.936483447 6346851.044556742 16062317.026013048 32676304.59023481 32608543.86213711 16675192.241660744 32519990.31465886 20262820.447852198 754377.2180814967 25679968.54388968 38575651.09507962 15849873.380381687 29259851.055275567 22908183.85981448 39086360.21726407 755846.030574598 9131553.929076426 31261983.658207156 47716624.30507208 32512535.669088632 31725613.43301867 51870684.94663598 35960664.598122045 37441069.55437208 26195539.758808367 30421435.422901962 37810616.76164951 28054934.50862249 21770614.862666734 81032930.74666439 5756062.890015301 74924703.31357397 1872129.5021319524 1807689.7704711999 32277859.206597928 21893187.916134376 25531551.423971716 31552239.21467046 30935994.619338993 17540243.598989725 38572404.833725825 22660285.844327386 9918562.383875253 37353858.64088503 28182632.792774163 31667708.533060882 33395192.910218276 5331722.311765965 25374084.38973262 25849741.74790851 30457019.291881904 26017344.010541644 29175453.4878614 28262427.027499847 26956423.850639228 14596945.650029602 33985322.162952416 29365120.692908034 33652072.32915964 4831015.543329063 31419453.509549886 25970037.978521477 16109645.96133289 30374936.701675434 12683179.868926149 20659316.429253135 14401422.862565603 30559744.331119 54023093.53553911 24998384.317214172 6905802.024619735 32192416.89471552 28062689.102660995 25126410.631601404 36055007.56019358 5219095.888852159 15423410.809658201 4736305.622249556 28941017.625953376 33326372.63355415 69385998.04438366 2166312.6866729176 4834634.232930659 37651254.52081456 12669639.078832187 3604531.1883972604 2162951.727772049 35085773.188839786 29104835.7040937 24972435.73687697 36123575.555832446 24439011.30187548 17440845.804879513 29268911.284440957 29452456.278812915 19986979.172657203 29885727.399506856 24388289.36437036 68041199.63459583 32728758.17778793 12080556.515864335 9780377.629276598 31025352.329427797 84305330.15516475 15912885.522325315 43579891.931916356 20607830.745130304 70423097.32580762 31252361.071890667 48143042.77436492 29372654.083114013 14399758.652152352 28858921.24714214 36064651.16982186 30157679.20023122 32479028.76298698 36089666.20331103 33843928.52726241 79848635.79697248 24942451.29629059 28693241.374865342 11778337.79310172 11162618.223622767 27145509.708917208 29355164.70207261 37634439.64102663 29413213.426491223 19092158.96048623 9594262.049297983 4733916.591887906 4395054.09570264 4729679.255226905 37400812.87517893 39767870.98053612 34155294.967301615 32764788.879784442 20938450.843806397 9449950.997877141 40980428.2876976 22902299.961032353 81470629.39009929 13600463.551927203 12850673.262521522 13307831.670201639 25643428.27910256 19052879.634070966 32323032.326433443 14768047.758423174 37153424.647197366 95965573.63117565 26548112.030359186 29685614.114814974 28914424.58643386 29712970.045733567 35491728.92736573 30146445.15236292 2362518.3879420757 19535375.34005108 4016473.3990149 36214484.90546652 34059966.907685354 22653148.33654613 30173966.304183856 4847079.599741447 10160242.505158152 30125142.268664967 29612600.467069563 24267410.74458092 37374443.43753646 28815289.056373954 2747501.887809477 3665728.9792293934 38851865.03270699 21721584.615181074 32428780.33260816 31823328.275799636 25588227.395287227 3413091.3508994477 10282620.851009749 27948252.744218092 34615061.0774465 24417075.868325654 36150432.80793148 24413492.059839673 7709637.7478672415 37698584.37573174 34663140.23820232 13364072.155428689 20872025.36925655 3228887.275479005 39441184.30655238 54079088.6245353 35171072.965911955 21210472.415284373 10679392.275814911 7318111.097301534 26055715.91634799 31796506.956585877 49975197.90013482 28694456.517891787 58279645.74562715 17779940.425525103 14373962.562470969 26540733.209164605 33981759.95452595 28658772.473552894 34164491.7051236 36965880.59058642 18036235.12198636 30153948.78527393 4611192.2398724295 13992036.984303182 29500793.235996637 29085300.10681338 37158169.5338739 13729655.434564892 18490349.079961818 9431683.875008015 16517581.857422162 21366331.78634823 29077551.152824033 12455855.778104296 36661112.057915755 32146868.298762664 11424198.653805686 41551046.12812434 29084853.91611216 27325374.22825025 10628274.112974083 21531862.30875952 576837.6663525734 15938912.011427822 577258.4153824017 4177748.823464613 14448255.807156693 9334979.565763004 19384317.16857433 763231.7261303224 764244.6309713261 30732868.76326738 4086543.682021307 30421948.342765883 29025749.908321604 29342939.82127627 30169303.962476883 38610087.09430058 11268896.275661388 28719196.26490822 28888236.116010323 29022742.00488853 10701343.594678743 5353788.062178637 28325913.004412208 25281476.149759196 11179672.691766646 12347457.208646657 33368054.39824688 13747247.089454798 13711237.021041855 4249835.611543547 21825155.56035654 7103604.644474755 2704085.7645883188 4210593.904601826 15992400.85144362 2692327.1914063003 31598181.20872822 31474117.203512654 15983022.147027293 16163875.395812498 25993780.742573235 16004564.914983386 9095599.792595992 68488016.1740253 15828331.418002952 19773515.16637214 8923067.300137311 8547466.211381223 28253925.36183589 25637116.131665513 27430247.868940994 4625747.350290784 11448488.399614396 4662530.133531434 18585915.019251388 29411579.951149583 27270620.932375077 33161725.265233614 37269615.23751213 30208734.38453711 30841666.766538683 18785729.18923544 27191708.80069781 12551506.058006745 12312508.552367685 3662528.589524524 33894276.4185079 87950833.52519673 30321604.052178968 35941667.26606028 34569394.17029467 2062812.8514398271 14568392.015540596 75175136.32379712 16511312.398715893 8451439.908793733 33789255.358989865 13367507.025304636 14679385.469213884 29091278.423403513 15268053.49096416 19154657.378353816 29003083.30787411 36310307.05638209 8451155.965139456 25979074.349643614 17743641.05690036 33391397.373836774 14730131.690366186 13815825.883926794 8344712.0568033485 89459916.62028317 31309844.81055334 10620597.134026548 9356847.436490552 6249219.994812282 14073685.113178877 32539913.788933124 36649412.10880532 9244828.320519838 4474469.911567805 45984253.6640237 4603998.313184324 31229795.548889194 35804927.79153561 5236511.473625507 153904085.53129983 14587547.174714766 7046910.313591082 13163816.857793726 28813484.35691986 29275811.524302077