# vtk DataFile Version 2.0
Really cool data
ASCII
DATASET POLYDATA
POINTS 2535 float
10.0 25.0 0
10.25 2.5 0
14.75 2.5 0
15.0 12.5 0
20.0 12.5 0
20.25 2.5 0
24.75 2.5 0
25.0 20.0 0
12.8125 5.0 0
12.5 5.3125 0
12.1875 5.0 0
12.5 4.6875 0
22.8125 5.0 0
22.5 5.3125 0
22.1875 5.0 0
22.5 4.6875 0
12.8125 21.5 0
12.5 21.8125 0
12.1875 21.5 0
12.5 21.1875 0
22.8125 17.5 0
22.5 17.8125 0
22.1875 17.5 0
22.5 17.1875 0
12.5 15.5 0
20.0 15.5 0
20.0 14.5 0
12.5 14.5 0
10.00403225807093 24.63709677361622 0
10.0080645161563 24.27419354593253 0
10.01209677424696 23.91129031777318 0
10.01612903230577 23.54838709248107 0
10.02016129035602 23.18548386795797 0
10.02419354841103 22.82258064300752 0
10.02822580648097 22.4596774167125 0
10.03225806456681 22.09677418898731 0
10.03629032266798 21.73387095988129 0
10.04032258075012 21.37096773248903 0
10.04435483879861 21.00806450812494 0
10.04838709688005 20.64516128079578 0
10.05241935495465 20.28225805408125 0
10.05645161303756 19.91935482661994 0
10.06048387112473 19.55645159877427 0
10.0645161292065 19.19354837141498 0
10.06854838727757 18.83064514501887 0
10.07258064536606 18.46774191705492 0
10.0766129034346 18.10483869088549 0
10.08064516151669 17.74193546349787 0
10.0846774195907 17.37903223683728 0
10.08870967767305 17.01612900942542 0
10.09274193573161 16.65322578415481 0
10.09677419381719 16.29032255645265 0
10.10080645190677 15.92741932839017 0
10.10483870998482 15.56451610136578 0
10.10887096806891 15.20161287379791 0
10.11290322615036 14.83870964646787 0
10.11693548422069 14.47580642013797 0
10.12096774229187 14.11290319373216 0
10.12500000036691 13.74999996697819 0
10.12903225842383 13.3870967418552 0
10.13306451647886 13.02419351690233 0
10.13709677451437 12.6612902937063 0
10.14112903255518 12.29838707003324 0
10.14516129060447 11.93548384559769 0
10.14919354865313 11.57258062121796 0
10.15322580671374 11.20967739576328 0
10.15725806477384 10.84677417035441 0
10.16129032281338 10.48387094679534 0
10.16532258087472 10.12096772127496 0
10.16935483892187 9.758064497031445 0
10.1733870969857 9.395161271286613 0
10.17741935503843 9.032258046541457 0
10.18145161308684 8.669354822183982 0
10.18548387114214 8.306451597207326 0
10.18951612919923 7.943548372069355 0
10.19354838725904 7.58064514668658 0
10.19758064530033 7.217741922969729 0
10.20161290333043 6.854838700261147 0
10.20564516138313 6.491935475518151 0
10.20967741944725 6.129032249747367 0
10.21370967750003 5.766129024997362 0
10.21774193554038 5.403225801366053 0
10.221774193581 5.04032257770997 0
10.22580645163059 4.67741935324665 0
10.22983870969496 4.314516127453131 0
10.23387096776351 3.951612901284103 0
10.23790322580145 3.588709677869551 0
10.24193548386297 3.225806452332522 0
10.24596774192589 2.862903226669555 0
10.59615384879596 2.5 0
10.94230769598397 2.5 0
11.28846153932223 2.5 0
11.63461538477885 2.5 0
11.98076923215367 2.5 0
12.32692308114312 2.5 0
12.67307692536209 2.5 0
13.01923077070862 2.5 0
13.36538461224543 2.5 0
13.71153845566042 2.5 0
14.05769230141394 2.5 0
14.40384615085709 2.5 0
14.75892857144616 2.85714285784649 0
14.76785714288078 3.21428571523109 0
14.77678571432 3.571428572800198 0
14.7857142857668 3.928571430672074 0
14.79464285720148 4.28571428805915 0
14.80357142863987 4.642857145594823 0
14.81250000006625 5.000000002650031 0
14.82142857153606 5.357142861442594 0
14.83035714299431 5.714285719772646 0
14.83928571446538 6.071428578615361 0
14.84821428592949 6.428571437179454 0
14.85714285740048 6.785714296019075 0
14.86607142885319 7.142857154127467 0
14.87500000027791 7.500000011116425 0
14.88392857167472 7.857142866989042 0
14.89285714308988 8.214285723595362 0
14.90178571450818 8.57142858032706 0
14.91071428590076 8.928571436030644 0
14.91964285725977 9.285714290390665 0
14.92857142864635 9.642857145854018 0
14.93750000005199 10.00000000207956 0
14.94642857145045 10.3571428580178 0
14.95535714287157 10.71428571486281 0
14.96428571429883 11.07142857195331 0
14.97321428570877 11.42857142835066 0
14.98214285713628 11.78571428545122 0
14.99107142858074 12.1428571432296 0
15.3571428591223 12.5 0
15.71428571719138 12.5 0
16.07142857423201 12.5 0
16.42857142974857 12.5 0
16.7857142846084 12.5 0
17.14285714112862 12.5 0
17.49999999772317 12.5 0
17.85714285297952 12.5 0
18.21428571083795 12.5 0
18.57142855939082 12.5 0
18.92857141386655 12.5 0
19.28571427430228 12.5 0
19.64285713574168 12.5 0
20.00892857145444 12.14285714182253 0
20.01785714288121 11.78571428475149 0
20.02678571430391 11.42857142784392 0
20.03571428575173 11.07142856993083 0
20.04464285716307 10.71428571347709 0
20.05357142862058 10.35714285517672 0
20.06250000009985 9.999999996006125 0
20.07142857160473 9.642857135810823 0
20.08035714307449 9.285714277020388 0
20.0892857145293 8.92857141882806 0
20.09821428593644 8.571428562542428 0
20.10714285739586 8.214285704165588 0
20.11607142887573 7.857142844970847 0
20.12500000035236 7.499999985905506 0
20.13392857174129 7.142857130348313 0
20.14285714310267 6.785714275893214 0
20.15178571450528 6.428571419788685 0
20.16071428590087 6.071428563965252 0
20.16964285732718 5.714285706912793 0
20.17857142873676 5.357142850529643 0
20.18750000014888 4.999999994044952 0
20.1964285715605 4.642857137580068 0
20.20535714293256 4.285714282697754 0
20.21428571435444 3.928571425822371 0
20.22321428574628 3.571428570148774 0
20.23214285715693 3.214285713722903 0
20.24107142855655 2.857142857737868 0
20.596153845103 2.5 0
20.94230769181397 2.5 0
21.28846153698369 2.5 0
21.63461538161964 2.5 0
21.98076922946485 2.5 0
22.32692307653609 2.5 0
22.67307692028468 2.5 0
23.01923076562454 2.5 0
23.36538460449588 2.5 0
23.71153845024273 2.5 0
24.05769229413811 2.5 0
24.40384614838844 2.5 0
24.75520833333718 2.86458333360238 0
24.76041666667798 3.229166667458308 0
24.7656250000173 3.593750001211001 0
24.77083333335809 3.958333335066103 0
24.77604166670141 4.322916669098772 0
24.78125000004511 4.68750000315787 0
24.78645833337953 5.052083336566992 0
24.79166666671298 5.416666669908391 0
24.79687500005813 5.781250004069072 0
24.80208333339111 6.145833337377437 0
24.80729166673437 6.510416671405975 0
24.81250000007497 6.875000005247864 0
24.81770833342114 7.239583339479573 0
24.82291666677311 7.60416667411762 0
24.82812500011363 7.96875000795414 0
24.83333333345632 8.333333341942213 0
24.8385416667967 8.697916675769235 0
24.8437500001361 9.062500009526882 0
24.84895833347101 9.427083342970692 0
24.85416666683082 9.791666678157132 0
24.85937500017594 10.15625001231616 0
24.86458333353615 10.52083334753068 0
24.86979166687154 10.88541668100752 0
24.8750000002114 11.25000001479821 0
24.88020833353079 11.61458334715515 0
24.8854166668455 11.97916667918503 0
24.89062500018088 12.34375001266188 0
24.8958333334951 12.70833334465707 0
24.90104166681805 13.07291667726343 0
24.90625000014924 13.43750001044626 0
24.91145833347969 13.80208334357788 0
24.91666666677206 14.16666667404435 0
24.92187500007075 14.53125000495268 0
24.92708333337507 14.89583333625455 0
24.93229166665025 15.2604166655177 0
24.93749999993438 15.62499999540688 0
24.94270833326972 15.98958332888 0
24.9479166665939 16.35416666157307 0
24.95312499989663 16.71874999276385 0
24.95833333321826 17.08333332527833 0
24.96354166655782 17.44791665904754 0
24.9687499998933 17.81249999253098 0
24.97395833322337 18.17708332563618 0
24.97916666655323 18.54166665872609 0
24.98437499992156 18.90624999450882 0
24.98958333327948 19.27083332956353 0
24.9947916666537 19.63541666575921 0
24.65909090697006 20.11363636434331 0
24.31818181387862 20.22727272870713 0
23.97727272112545 20.34090909295818 0
23.63636362933978 20.45454545688674 0
23.29545454074166 20.56818181975278 0
22.95454545175678 20.68181818274774 0
22.61363635870555 20.79545454709815 0
22.27272726938004 20.90909091020665 0
21.93181817642107 21.02272727452631 0
21.59090908415283 21.13636363861572 0
21.24999999070893 21.25000000309703 0
20.909090898365 21.36363636721167 0
20.5681818062032 21.4772727312656 0
20.22727271532826 21.59090909489058 0
19.88636362288735 21.70454545903755 0
19.54545453222531 21.81818182259157 0
19.20454544067146 21.93181818644285 0
18.86363634917439 22.0454545502752 0
18.52272726008306 22.15909091330565 0
18.18181816691119 22.27272727769627 0
17.84090907624678 22.38636364125107 0
17.49999998161302 22.500000006129 0
17.15909089129634 22.61363636956789 0
16.81818180107666 22.72727273297446 0
16.47727271035784 22.84090909654739 0
16.13636362113641 22.9545454596212 0
15.79545453028867 23.06818182323711 0
15.4545454400335 23.18181818665549 0
15.11363634812483 23.29545455062506 0
14.77272725866684 23.40909091377772 0
14.43181816866006 23.52272727711332 0
14.09090907805834 23.63636364064723 0
13.74999998745307 23.75000000418231 0
13.40909089754563 23.86363636748479 0
13.06818180839043 23.97727273053652 0
12.72727271853859 24.09090909382047 0
12.38636362812021 24.20454545729326 0
12.04545453791708 24.31818182069431 0
11.70454544876188 24.43181818374604 0
11.36363635991656 24.54545454669448 0
11.02272727049761 24.65909090983413 0
10.68181818161208 24.77272727279597 0
10.34090909059876 24.88636363646708 0
12.7209708686998 5.220970869541787 0
12.27902913024896 5.220970868490556 0
12.2790291313002 4.779029130458213 0
12.72097086975104 4.779029131509444 0
22.72097086840513 5.220970869836465 0
22.27902913044831 5.220970868689902 0
22.27902913159487 4.779029130163535 0
22.72097086955169 4.779029131310098 0
12.72097086902355 21.72097086921805 0
12.27902913070156 21.72097086894315 0
12.27902913097645 21.27902913078195 0
12.72097086929844 21.27902913105685 0
22.7209708691208 17.72097086912079 0
22.27902913087921 17.7209708691208 0
22.2790291308792 17.27902913087921 0
22.72097086912079 17.2790291308792 0
13.0357142863834 15.5 0
13.57142857334916 15.5 0
14.10714285783675 15.5 0
14.64285714470339 15.5 0
15.17857143070267 15.5 0
15.71428571720997 15.5 0
16.25000000702564 15.5 0
16.78571428904744 15.5 0
17.32142857412979 15.5 0
17.8571428511085 15.5 0
18.39285713616606 15.5 0
18.92857142211578 15.5 0
19.46428571101452 15.5 0
20.0 14.99999999601014 0
19.46428571160309 14.5 0
18.92857142040583 14.5 0
18.39285713577575 14.5 0
17.85714284336419 14.5 0
17.32142855637984 14.5 0
16.7857142655791 14.5 0
16.2499999775787 14.5 0
15.71428569556309 14.5 0
15.17857141150299 14.5 0
14.64285712475407 14.5 0
14.10714284117721 14.5 0
13.57142856006613 14.5 0
13.03571428124737 14.5 0
12.5 14.99999999867727 0
11.65276074156037 5.614371372804048 0
21.58207200385711 17.88021822528433 0
21.48837553642142 20.20607981435977 0
13.4396277899931 16.51611408002907 0
15.14053098984249 16.41989097167592 0
20.81334671415078 4.143726542908217 0
20.67724596469767 15.44670981357181 0
17.9481099905821 18.09231537351218 0
22.42371835052093 8.89432004570219 0
13.22982201039236 20.75096543504969 0
13.17541754554281 12.38839793135963 0
12.63574859375804 10.79386108068622 0
19.27496770560925 16.5475810238302 0
11.7301675838312 23.68389641286794 0
24.01843765612455 16.08626098739258 0
11.564901093119 22.49010716465494 0
12.41268139276788 19.09260580768837 0
18.07596587576835 21.56868248088869 0
11.04990122969034 6.29092582728872 0
21.65768737753491 10.36206989271879 0
22.86908329701525 11.05472086228062 0
16.30008188591077 16.99927568976003 0
11.38326176286595 18.24974704619318 0
20.90497860768801 13.65060688288971 0
24.28080136355727 19.57800058403954 0
19.87570656311693 13.84678163808766 0
23.01947500362767 7.204606084162585 0
13.88512437844412 13.7521911845102 0
12.59308540029261 8.907038763588593 0
10.89164317131067 13.60279621159892 0
13.77326323561942 2.88490758519684 0
13.50323136790095 21.74641656037668 0
12.72762699511955 19.54853189844029 0
10.9728447775679 9.161955651340836 0
23.29115374441094 17.82770661085729 0
23.03040909702406 15.2918273824275 0
22.0159351430685 18.08975296650825 0
23.99836044313422 6.314596149024855 0
20.59209767682934 8.690373860483453 0
11.98207198935192 10.11823908969637 0
22.15477919828134 16.74635815765455 0
20.37938593952946 13.5 0
10.98785539123796 11.30180432548498 0
20.08401024118814 13.09836349129158 0
16.63818377273985 20.18093919628824 0
12.18810764943465 6.157684521104982 0
10.91763547052669 6.973005353609035 0
21.98112149401554 7.525133083504641 0
12.59929393062108 13.00360482291275 0
24.31830181859535 16.64497574395528 0
22.84587622401268 9.442236322871816 0
15.03526454857396 18.56258537477084 0
11.04593697894928 17.82466127702181 0
10.80728500913158 4.162160974888209 0
10.65368963054915 6.614818366546448 0
13.73526514564213 11.49711655585396 0
23.35371723890861 14.26718711071665 0
10.71621346929368 21.55343593329383 0
22.88431368124114 16.59581353212471 0
10.96660273086032 12.7489857151054 0
22.02399590977032 15.20272825544711 0
12.1402024916615 22.36187448735685 0
24.1207509935284 9.162022344723988 0
24.12811502780281 5.005218938157537 0
13.33181577256419 9.84634746143662 0
23.1636384669097 19.90187585441855 0
15.89285714571172 13.50000000193109 0
24.0076874139694 14.02936724520082 0
14.1899589281701 10.55473763466508 0
24.05383076945908 11.30173069810642 0
14.24449310116352 11.24992291079254 0
13.42555025438398 3.567469080232783 0
15.44774517059364 21.00428986506134 0
11.79673026784823 19.538254182373 0
24.10124319904552 3.933666517055707 0
16.95327440569277 16.6257282108784 0
18.70226361893149 13.55516821748742 0
10.83577075929386 22.78380715914962 0
18.47191951203816 19.69256076731804 0
11.39567566841348 19.99234974058017 0
15.87935261475416 13.02855217373274 0
10.76432500400428 5.784358312140913 0
20.24432267489448 18.6087385917186 0
10.53020236531519 16.81565490025219 0
17.28269021038439 13.02203855497643 0
13.10718159806284 5.734521737438592 0
12.53248797365491 12.57121949073375 0
17.02208545153933 13.58837935629738 0
23.84783631566354 3.731209994503843 0
23.16561944477127 7.673065444739268 0
21.01419798630875 20.65800580002185 0
10.68218757905048 24.16493368776503 0
14.12799255227336 8.223613923948834 0
11.10519312289665 22.45646939393339 0
14.32414474199495 7.395896057610968 0
22.52058201395045 2.841511559355094 0
12.29199739074113 9.763273203088762 0
17.16839066125113 19.86268831863534 0
11.83408386503616 21.96462356686946 0
17.89316063679499 20.85306908725557 0
23.70225419493178 17.52299145011192 0
23.10495044086138 5.800872500643094 0
19.60592481768622 16.16710860583778 0
17.75728253180705 21.88101217886855 0
21.89028436287567 5.263293944561959 0
23.34036998889152 3.112741648827254 0
11.93346599301 5.811761941323738 0
19.90068163700707 20.67402306488422 0
22.61138653718463 6.581892961724567 0
11.57138600536673 17.70137056776749 0
21.74324875096369 11.70690870702807 0
22.28777728773163 6.925077886876283 0
23.07138066299018 13.73645395696672 0
14.56705883235903 13.38850494101187 0
11.46354462508984 19.43230585567208 0
22.87182973616196 8.610398582900508 0
12.71654396436776 6.921763512520791 0
13.75998306470912 7.202531582886891 0
12.79466163535276 20.82395099165971 0
12.38634496156996 17.55863941573039 0
20.18589016726694 19.14481383128492 0
18.74892329211879 18.0009236654677 0
14.14044586868939 21.34320675261856 0
23.62906329414024 15.68102754850461 0
12.49965643560495 3.189325733184976 0
15.91396983345715 20.89140216531318 0
11.16368789254696 19.14102037544248 0
22.48453112686725 3.20171969355513 0
20.54815825888453 17.47448179284068 0
14.13346965554214 3.114075273732043 0
11.89581248329332 5.054463026765986 0
20.55399264025963 19.53074789284778 0
12.55282321591986 4.03036601103637 0
22.40065184501466 3.639559112338508 0
11.58181446820898 21.46497837806418 0
24.09206990710328 10.59128118084718 0
11.97388374364944 18.07545348463524 0
21.18658012562956 19.63403265843477 0
22.49838228395323 4.043815559834176 0
13.09396586575336 6.132439286062215 0
13.07857045856733 4.263486941183857 0
11.85335304029019 4.062086388807823 0
23.7607140263195 19.58766501412739 0
20.77982467098438 3.107296763429814 0
16.75256151130424 21.96208127549449 0
17.52883388465114 19.376760120615 0
24.28373801471519 14.53951114629658 0
21.20193070055453 15.96420921979207 0
23.52752557933185 3.95894187337316 0
20.21550849917892 16.38531356316686 0
12.82436221962896 19.91069271740546 0
20.52929911451718 10.15506697085748 0
14.37160339560077 9.579621926133822 0
11.05058867789724 15.20496024281485 0
21.985664014021 19.79916574430544 0
10.749085700434 12.12667779273765 0
21.5228851585577 16.556211673501 0
12.55105913069378 16.5668491686422 0
20.60878267499721 7.829676528097079 0
19.03755551028665 17.29743370706403 0
21.3219925478315 15.5582992919192 0
22.45072764940209 19.13083661642723 0
12.24886885830689 13.69052331043595 0
10.6283051468434 17.45193071718894 0
23.80791890846627 4.174978577221322 0
20.92644142986811 6.135489497305285 0
20.85825735593635 9.157151538818374 0
12.07132394646665 19.09337110858468 0
21.13359896738789 5.838468595019347 0
24.00463906736988 8.312625787972653 0
14.3088772192922 18.68733824106519 0
20.51180662023329 7.018438796084321 0
13.82762854844051 6.507260590144413 0
14.09287730979014 6.092208228092808 0
10.75028852060428 7.718466836025999 0
22.70502458484387 8.009178089868591 0
11.87472491108537 4.335568046350783 0
22.43326870205 15.56403394414655 0
22.70440614312562 13.90350023452639 0
22.38059967059059 11.40729003465772 0
13.94074565069768 6.830549042317775 0
24.39404649360092 18.38247058655887 0
11.01044822550277 8.30613805388383 0
19.3376705558431 21.05346818903928 0
22.88214840740099 3.331090256253319 0
20.5717963684077 12.11269305645163 0
23.99641505040678 12.84861735625095 0
11.74043243852876 14.89944428585105 0
19.76639108886621 18.07586744613354 0
23.54296713977164 6.946522617602564 0
18.40259547499568 13.0701231860445 0
10.72620647145438 14.66405011237258 0
13.48921893182398 3.139252290337092 0
11.96196058313946 12.4892232406461 0
21.9977658621348 12.02047259423883 0
20.97155446750889 14.26060770721459 0
12.06890075576358 6.818777286980143 0
11.6031003875251 3.179076702166456 0
21.7046663691691 7.094494154913207 0
21.37918976275501 13.92442145174156 0
13.11977538822728 13.65672228664854 0
22.81073921175639 14.25321996545845 0
12.53309372462852 23.45652468553508 0
20.43592060132745 12.48293692855083 0
13.11121668428537 23.00512081545143 0
20.69354384640855 12.83672310653072 0
15.04773703492523 21.91060940774027 0
21.66316189203975 17.15337030617225 0
13.02929755274145 7.524517651329679 0
19.72543097752354 19.57115409880342 0
23.54592112712209 10.3463536102435 0
17.37848532891901 18.64227245853219 0
13.11885760857422 21.76201077572182 0
23.1572276593131 4.255557791332437 0
13.3297674108979 19.42399545382067 0
10.58459928313634 22.25292075608926 0
11.85103844630812 5.367090516022269 0
17.55609845085898 17.15793466213145 0
19.15256016361993 13.07141295747886 0
13.36763412179164 7.064893716108861 0
23.93679773674033 18.49480286927971 0
23.0317372806504 10.10922644822557 0
13.11433697147434 5.311315613864688 0
20.95654205410426 6.882033866473476 0
10.62287728058239 13.12738277140202 0
11.31307755029239 24.01216279861109 0
14.4946485318397 7.031495532830602 0
12.52599976022035 20.46708027263038 0
22.08664864660793 20.33826819040093 0
10.48599818904725 21.76859705825608 0
13.0735405942732 22.19965380186546 0
21.90645489014007 6.169389414131712 0
10.71439028492649 16.42104601743358 0
14.31816560107723 12.5912961150799 0
23.59064375403445 12.55777143109129 0
15.21965092516199 21.43338528826932 0
21.39378208289195 18.71151870636657 0
22.25759863924322 5.606286615783594 0
11.47557852311812 13.76705111324014 0
12.63999388059922 18.05893610415823 0
20.77280131976695 11.54288666436511 0
14.48230970185681 19.84776139646298 0
11.91276559073045 21.71622103228586 0
15.87947083419309 20.34884034097924 0
13.5533963774318 23.14583442316687 0
14.39812930888648 20.86900483066478 0
10.93324224478394 17.01375173903928 0
16.1200505240715 16.33329981656795 0
11.45222472295367 5.978582801077455 0
22.01412014425918 2.944710017753784 0
10.57049144964286 23.27404513144731 0
21.35525308981526 12.79062779858475 0
10.47949552632973 12.53839702729828 0
22.00050807646186 8.609249662987658 0
20.54321212976162 11.03475319268202 0
24.44278579429106 15.04801350075324 0
21.45529513734548 5.985630562516429 0
14.14141729643486 9.157205631650939 0
13.233673441891 21.19481407659688 0
12.15713831235014 9.440654743602286 0
10.67560596030533 4.599292559247869 0
13.3287227443711 4.491573452233061 0
23.13094421453859 4.724148180791708 0
21.66343680795002 9.861355967536754 0
24.6179771842893 18.74594661850108 0
21.23218036427218 4.889110126862677 0
22.45379437603754 18.23983977482878 0
20.84496082542282 10.57506108805495 0
13.50958790855826 4.006359313780927 0
23.6297718945889 19.14533445768151 0
15.55739812606068 20.10011733959888 0
24.37262808551862 10.13495650023233 0
22.24589211486985 15.90670903597067 0
13.75630672086408 10.31509221038193 0
23.27544646129834 17.23273307876105 0
21.86938667180715 5.693764212759985 0
24.22663447161177 7.743259306240025 0
13.11418701403084 4.745595409981084 0
23.05506423063653 12.54080583653352 0
14.80428766421804 22.88913787103488 0
20.45186243705736 16.92248965109246 0
18.32783123153177 20.35667725313577 0
21.8779103064614 14.14680219953426 0
10.82942504517302 19.35858553866077 0
22.50260212295919 10.26929773094414 0
23.09574791756869 14.73017510887636 0
24.50432779039524 17.10276810558999 0
11.3314650148632 23.06400308479706 0
13.56027243809141 20.42652242477389 0
21.87472491198064 4.335568046768096 0
22.57968976244149 16.1097061149742 0
22.82485707987892 19.42419660655311 0
23.47913144271099 9.362362999582956 0
23.16668945625226 17.52126302351762 0
13.2974084277944 20.00826369511769 0
23.52868109183657 13.78427787011647 0
22.82481568837326 13.34787581913623 0
20.66257822322923 9.620987098218109 0
22.13804890190378 19.35580248965388 0
11.7902205031978 15.61709231432392 0
17.32816626701588 21.95598855583863 0
23.0644598443186 8.022843255274914 0
12.44911752754137 20.10935101035045 0
20.82884467825455 16.47788819081263 0
22.87445327154968 2.944604128207837 0
24.25020653626094 2.993160693461849 0
12.36808322636177 5.706537769828953 0
16.57913655748858 18.46132057946701 0
13.9045970744092 17.40993616017461 0
14.25761822722619 5.470057116565356 0
17.88283261615295 13.34754481112353 0
14.44239755658383 6.499993950361883 0
17.44164963496836 13.89008620859283 0
23.88166154153737 16.57472648764334 0
19.66127485303494 16.82079877018353 0
10.48222715658673 21.11462390990378 0
20.91901251384409 18.63473719797425 0
20.3615887734597 18.00367304894482 0
11.94674057864664 8.014047916494388 0
24.30200666395702 3.568987369616323 0
24.25406990289159 17.4820697445819 0
20.87161216055566 8.227069069473677 0
12.39185110511527 6.580563195693849 0
23.53360415143643 11.33902872014418 0
14.36387188746349 3.358728956975552 0
24.47528445235342 15.83578707655395 0
23.11207930580012 16.33022908429896 0
15.16894139981638 22.93580372843445 0
24.27322634460354 12.23186491804819 0
23.05699585862999 11.55085745232039 0
20.52106381270634 20.95146630076696 0
13.96925001645034 10.89998614945534 0
21.60242980841675 3.179262805325941 0
24.22156968697818 4.506172516438189 0
14.57376389290407 10.53216050681959 0
22.65787663421213 11.667375378394 0
13.66699095867776 8.054846553537455 0
11.95532425392685 11.54219055801699 0
11.85895179270389 18.63321226229907 0
15.23102720018965 13.18613587890056 0
21.91716142430597 4.751993291659842 0
12.41827646334152 3.658971240139708 0
13.14916761951361 6.833047590226851 0
22.47745485239887 16.38187266227778 0
21.18997061059472 7.156611425115739 0
23.48552956078831 18.57598812905147 0
18.86341676422904 21.47661397627736 0
10.92541559909215 10.54110381047659 0
20.53618071291261 5.230922417161594 0
11.16025039496529 4.176083389746151 0
16.45144088254714 13.12429434978323 0
23.42234816638735 8.432688166763205 0
23.73788467838025 2.944867438157091 0
21.29693133461389 19.1742918230921 0
21.6197159249256 18.32571870488589 0
10.68793887462515 14.0981803227004 0
16.23142876218779 19.69457717360696 0
15.81239601187243 22.57502773521652 0
10.56784412832434 18.01936346860742 0
11.90778189149867 4.754695226914842 0
23.60505841738063 8.098301549311893 0
10.71266358650876 8.701704475235237 0
21.44452167345521 14.46133673426177 0
11.53041816804979 9.360004862418089 0
22.87382856834698 10.6052123069033 0
11.49337142029271 21.16380515997335 0
13.41233631669676 22.57287530115371 0
20.74518274861023 3.76446980026337 0
10.44049813942848 22.63354456265035 0
10.72049694774179 9.65516351202046 0
14.19986711316482 4.198198005285563 0
14.71123953783476 12.92720694420992 0
21.16318801907 6.468420839688153 0
12.44024158904917 7.259394926077033 0
15.24356055253891 17.75352584392209 0
14.1178270078016 21.8441071129694 0
13.83904876854969 18.18655624907496 0
12.1495285272391 11.05828858260345 0
18.51164225688965 19.22043753411368 0
11.98844875974311 7.199349891465295 0
18.32297532671017 13.88769821931879 0
20.85843580544158 5.008982909726628 0
11.47801213690702 6.933037184527876 0
21.47786444360104 4.00348999774357 0
22.51981898895273 18.65757992824994 0
12.37821099197377 22.82317534571637 0
21.82858437893966 8.015179924825953 0
18.56643451129795 16.23283770358017 0
11.4822969791386 4.004962624526733 0
11.43991940086564 12.54579220104103 0
13.17353683253146 8.014007751507249 0
19.1038447472838 19.34789456559797 0
15.45796059517087 19.02807130852854 0
16.34170922412052 17.7338724783421 0
13.18511904618164 11.71039064095314 0
14.14905666473715 4.99051057537105 0
24.0013755096698 7.43006046625913 0
22.97950788338238 20.32548088506099 0
24.24450126290187 5.821422832496999 0
23.42785129275483 5.024860080772964 0
15.77607954478628 21.40534844427874 0
14.04301596029678 19.33078931058773 0
14.29734987251631 22.34162832367407 0
13.39629539543938 5.021551223466829 0
24.10824666888118 19.8730941798053 0
21.84133027227619 14.79872180067249 0
15.05961077504363 19.85993807296773 0
11.61972667083977 5.011412714291083 0
22.03619083634876 18.97761312463556 0
12.27723053446367 4.351866023565666 0
10.8435329190654 5.066111806246296 0
20.87683504132884 12.41532378881905 0
22.83989138468413 6.154346522133463 0
19.56469296301772 13.32880750403999 0
21.78749344574451 17.5351885080707 0
17.05278677190819 20.37148716552578 0
21.06555698142884 11.09642325599422 0
10.55761581574196 18.87780122673749 0
24.47653532573089 17.90058979493895 0
16.25794745173129 22.28665967848955 0
22.21056286834272 9.40372749409878 0
13.90039785508389 8.692495263407078 0
22.136755373815 10.46405666314486 0
24.40493199371617 10.89051854715238 0
11.08294077906455 20.57110772595221 0
13.48959849667936 12.08694629425572 0
12.05205161542669 12.07552344920731 0
22.92181667003308 18.82629014373851 0
13.34319672304079 9.395536115958022 0
21.33167034699897 20.66077474248766 0
13.33073337504795 10.29339466643716 0
10.51452760514582 20.27001670994051 0
10.62739894268828 11.65191125430609 0
13.73260276696658 12.49622645677274 0
11.54153352370216 20.42746019805991 0
12.83296476018368 6.495643696939872 0
14.59125360407757 21.99568177286626 0
12.86181880710326 5.906555765213659 0
23.83009562002377 8.735300298439137 0
21.70006047044653 9.36685444921079 0
22.00727204559994 17.03889468448748 0
12.06045941519461 23.34225697082193 0
22.86221874866684 5.488341421865989 0
21.33969715742888 11.51116915579184 0
12.04970806013403 2.982899072050884 0
22.54752863606002 16.80817554561098 0
21.6134611436089 4.98227367464535 0
11.87095106102541 7.669305126470484 0
13.19631474005041 18.17553627524838 0
24.11753910084023 7.018189952596985 0
14.50935937830362 10.91868306635786 0
12.12257218466782 13.01787962534913 0
12.5952797535487 8.274169755424392 0
18.81995215264376 18.69302988912908 0
21.73796410091416 15.54633327977747 0
21.6372143776049 3.57225830317734 0
24.21674642190085 15.39474001200576 0
23.6076037009019 5.973688631299126 0
23.32086473153361 18.19936510229478 0
10.71675792177077 18.45311398001141 0
21.84148369986811 13.07491616940297 0
11.7692027662584 20.98450608332154 0
21.88658214265832 12.49927088315548 0
12.78418089729983 9.422004440789728 0
14.31217422243722 22.90509044701154 0
10.3694659546343 23.65499081672538 0
20.50443577470612 15.98276763976875 0
22.74771466369561 12.99958206971682 0
22.04439909465835 13.57749411519162 0
11.16730965022724 5.827795384205721 0
17.97885592218933 12.97957983628122 0
12.16827275412508 19.59099987700575 0
11.75598688662741 20.68125541101456 0
11.88436776190188 21.35542829546158 0
12.21721292158913 23.78434238401438 0
11.6671416802528 9.832570896946462 0
13.00039048727616 8.601147876314036 0
24.31598779066097 8.670976907266693 0
10.68434213274422 20.67101815131589 0
24.47436348806539 13.05116634633552 0
16.4285714293708 13.87244898555862 0
14.36260643390559 3.846415638194533 0
16.64701411868546 22.2686018155167 0
11.89698232059452 14.27564339565905 0
16.93067233528005 20.8106462795757 0
13.97681981879616 5.814767332885264 0
15.27243078868326 13.81978136315705 0
23.4473959825524 16.48752986321341 0
20.48333574743168 11.72861247787956 0
22.29086666125808 18.00781299053041 0
21.33414435078651 8.059151972867685 0
11.26240880027047 16.71772595069964 0
21.24716268820261 10.47254287137498 0
14.64987359826077 16.13194522846089 0
14.14509222940145 20.40546176403276 0
21.19385912249501 9.406480406329166 0
21.09966714979718 8.69390836237788 0
13.556820848566 22.05552676972338 0
14.39006978176605 7.824452646985003 0
22.27088699291971 4.06861401509892 0
22.95145256258282 12.0456275885438 0
12.64177692476745 22.29905118721147 0
22.79135626317811 19.11487312688237 0
14.39757976316935 13.99073376378072 0
19.82635176544027 21.19983407412326 0
22.4663359493305 19.47797597488512 0
18.89859107270612 20.75119808761353 0
21.25517856440205 3.304623602237396 0
19.15927355084628 13.84074215983011 0
24.46278576674322 8.116262504043814 0
13.76547498355457 9.389129448536229 0
21.23722789048236 2.935873647420032 0
11.64653846753203 3.569736126422572 0
12.15533722283865 8.599116527608382 0
12.70250585484738 2.910645209562839 0
17.63044699382676 17.68120257167505 0
24.36462607358801 6.652105027126526 0
20.23384338072391 19.79505697215853 0
21.83557597470423 20.6057421601646 0
10.67101606821094 5.412566114129783 0
13.96666363193938 23.22000597116351 0
24.30778629175965 9.65207813628613 0
15.35632470089689 20.4642083639041 0
12.23977161297541 20.8765232518838 0
21.25279276486567 17.50483599275243 0
21.75737003429583 18.77191645275103 0
23.94568733592541 19.35340369108016 0
22.06293322548519 3.365409527625813 0
21.37991908973508 6.844245548867629 0
19.20813539246636 18.11462366797116 0
23.1322862135596 5.365696133402377 0
10.76849482795334 3.112973281827551 0
22.93501826045372 6.823740143545258 0
10.43290055958734 19.4431432308323 0
23.35970949247671 5.596539489432242 0
16.0910317097124 19.05923862803482 0
24.47369619527802 13.99066595602316 0
16.40155698436701 20.64791071205765 0
15.36546386315369 22.56528982412271 0
10.71503568520145 10.12005945524897 0
18.31297631375341 17.5172514527261 0
20.75822564720646 5.546580078178317 0
23.23932697075286 6.14564497553216 0
11.00377549953099 5.347951246205157 0
24.25640721629984 13.40046344035606 0
10.50936481058116 13.51451310830143 0
24.47520641985658 9.250093786919406 0
22.37083607229746 8.283472316021502 0
22.71500100431651 9.764032349002791 0
12.2199567983873 9.075210473316426 0
12.97765519735131 19.26612109071299 0
14.16022560678593 13.18113941906466 0
17.70947715118684 16.32994429709299 0
12.71561563641452 4.408431000628368 0
20.67342713355216 7.400866618857287 0
12.63260003211097 11.40279779113584 0
20.4710164760297 9.054406120629684 0
11.8506155145068 16.52341700748498 0
11.96156640648832 17.7098879084545 0
23.55644009130519 20.04123665660221 0
12.96306665739444 12.02005944637648 0
22.68394579144684 5.702050390312975 0
11.19541022204691 10.91005688480968 0
24.30895359419885 5.398373947796572 0
23.73432362124478 14.42977110379876 0
22.56481917773692 7.258707319240664 0
16.8607314769656 12.96249038891504 0
13.1104772832807 18.89109197209939 0
13.53829273803458 6.012430299791879 0
12.99269945495666 3.139668358347914 0
21.05763443128275 10.23803582268372 0
11.49127909107308 21.88574288007004 0
22.95753141458683 18.03359101287169 0
23.28519630320895 9.857515441243114 0
16.82981561340843 21.34764457034598 0
22.28993207719841 16.99285117175281 0
13.06352334686235 9.016981681006053 0
20.45251649316119 20.39663438631463 0
11.18905591231288 6.67432842059449 0
12.91396026536275 22.44830539640253 0
21.48951815636318 9.055316521445087 0
24.48760976278635 12.56496195905181 0
13.07140905669532 23.40238408694254 0
11.10005935920637 15.66993282241294 0
24.43282221085729 7.40138497423563 0
21.63532936967713 4.535163246638623 0
13.90095855954284 21.5957393656346 0
10.69482423186508 15.75850455259086 0
15.79425705758417 17.86391100279711 0
11.15183391993922 17.34017333081842 0
15.09970107095418 19.38428707917387 0
18.94573035901888 19.85273357267581 0
21.053752447413 20.04801710953469 0
14.00984657489507 4.656311616704443 0
12.79402826855672 23.6895651813187 0
13.11451882682899 12.92777689424849 0
17.14501056166749 16.11531228464963 0
23.95867026303586 11.7173108506798 0
13.5825788365528 17.06197380363642 0
10.66437260851137 6.18078718574712 0
12.14496024591319 5.528138697893398 0
11.05949375560281 24.2792326248869 0
12.9560973234467 17.78277298034416 0
19.13705352878732 15.99961425988808 0
14.52858991310378 9.054335141691508 0
13.8947795484812 16.19761309120935 0
22.7903952743218 8.989111754739655 0
23.00602116353764 17.77146727926753 0
20.000755655583 20.1386045673705 0
14.02044870555137 7.852374993039193 0
14.96829365995037 20.92970003432598 0
13.84208162227421 22.75971328981178 0
21.8279049654689 6.788988871536418 0
22.27723053506889 4.351866023533613 0
12.84259530754965 22.03209750826056 0
13.1046641999186 21.51678323936068 0
16.23528135975109 21.75175990747072 0
21.6357794209522 19.70961885790078 0
19.57779822579395 19.98710257262542 0
14.70077657363036 17.32625012359798 0
23.35186985497826 12.84707599929444 0
13.57204607785153 17.76982991974788 0
23.95447178877695 13.61687112298211 0
10.88234274025043 21.11150720995117 0
12.79991218748972 5.617251925316357 0
11.48536018017227 11.34393561935441 0
11.50852303656485 10.3717571089258 0
23.76474248701227 5.135467739379759 0
13.37190254755317 7.683533821205664 0
13.77549598388903 5.118527752207441 0
24.50850533263398 16.32295961231186 0
12.33141771878945 16.97846533321232 0
21.15366914731972 17.85530970660428 0
16.73558243936653 19.61787586842357 0
12.0630703035842 3.365395423048569 0
20.4324412849594 14.14640979627163 0
12.13956256371202 10.60864992122472 0
23.84211653225777 13.20990741840643 0
12.24959718661302 22.10154981732851 0
14.45992461261147 11.97570775480895 0
15.57016852706507 16.04311321283205 0
19.83827978998616 19.18793356946113 0
16.8856255555579 17.30481382593964 0
23.85439397294927 6.744786618399558 0
22.71227100232423 4.391879428632536 0
23.8719359973924 12.313974380968 0
22.66089157918607 18.06350596859325 0
10.55489329375765 19.79682926312228 0
20.70780935279329 14.80407676432594 0
23.14306926720931 18.59259905323115 0
14.40676146492102 8.689095617102666 0
13.54898457653659 9.058139809661856 0
14.51644536547623 8.344348823639228 0
22.99724641218593 17.32107851874179 0
12.50523543621544 10.26719906393556 0
14.47017903518201 5.197741640963412 0
21.07817044496316 11.7814697991305 0
23.47792541245894 15.2832069645178 0
11.02241364983838 19.67433712872509 0
22.62132157846943 20.29635950580082 0
10.73339802544767 3.750561834940545 0
22.50537364092918 12.54495321974435 0
21.96016909276231 11.06156873723653 0
23.27654397260207 19.53607986459357 0
17.03861629945794 22.20813549948013 0
13.05918700911103 11.04978315703928 0
20.63135542342104 6.49604461867419 0
23.29596616197444 12.22861413747239 0
24.53053413189897 19.0494018591327 0
11.25375993590961 3.305066496589908 0
14.45471736516142 10.13046870467878 0
13.81475734914113 3.33142654776827 0
11.01837518072654 7.415103791096535 0
10.64385349817943 7.294999026792715 0
19.54129819093967 20.65444378697141 0
22.91270900639934 16.95614379054184 0
22.90380894179944 3.996096178098129 0
11.12384088252613 21.44219563333176 0
23.45197418382112 3.486349534735413 0
21.16216796705493 4.129079307324289 0
23.73444580122381 18.80500511813639 0
24.38330652632394 11.67927890231497 0
11.11673302215867 12.31055943772131 0
10.93926057095858 23.16661934543793 0
23.41687971440176 11.71849378507626 0
11.85469109768981 22.28491412750233 0
20.43248809940343 10.48268270387478 0
10.63942344726976 10.94043319618944 0
11.40917161255156 8.09343992384836 0
14.04968195078149 20.77288321223227 0
20.63870390774751 4.614224963052626 0
12.21340268718615 16.04406723130958 0
22.170402549117 6.49876297409209 0
11.89393482745608 22.63799186806961 0
18.56092302810305 21.70271527683677 0
21.33297314590575 18.40384414291461 0
10.88096379102306 21.85245612847323 0
21.7931638599985 4.093067980933707 0
24.28733081246305 6.244716135623744 0
23.54526685786035 6.394542664855911 0
12.66692362732452 13.50377290293404 0
11.38513742050559 6.394087164547797 0
10.39779827179914 24.45202583304639 0
12.70804867601771 14.01017721596786 0
17.42678170383175 20.53182471379353 0
21.89085124286126 9.05738103998687 0
11.18449750971282 8.729373636144057 0
13.24065640827676 2.86670030509744 0
21.66400502531731 5.491431904192426 0
11.5163148639158 19.06094180086239 0
11.24216070967542 2.933882394849902 0
14.36716524118445 4.632286423638646 0
13.61027148752208 21.30103442533364 0
18.4016399587061 18.42096000832503 0
12.8712946627062 4.005232931499187 0
22.72477238149891 3.715453952189986 0
11.20701738021924 5.161771397102907 0
23.28836497457942 16.79022708036613 0
11.57515338433467 11.74592823591098 0
17.99129254172431 19.81438555553451 0
23.76653105648168 10.86173390247592 0
12.20450331114981 4.021690526909697 0
12.95686220948792 16.16893080794145 0
22.4283424320935 14.29788083639377 0
21.11828053312907 13.18229456111985 0
23.57143288932113 16.02326217768567 0
12.08353684911275 20.20750094354009 0
15.15121798267614 17.00886218681303 0
14.49017000247459 5.966004807294849 0
12.30352308450151 7.9974943209273 0
19.37574932828719 17.70529982798222 0
10.52896571594865 8.085433339837412 0
12.73338713826633 3.480774835040535 0
10.59862077913988 15.14975168247483 0
13.8161639792404 4.155912527981945 0
11.5780428995746 23.33988665389052 0
11.20872161050371 13.21055083918568 0
21.54488613669914 16.17137622403967 0
20.55700885441053 5.94291690184781 0
12.93923911419972 21.06999630303289 0
11.77879326835992 6.14311307603872 0
12.79924769924058 17.00724786237256 0
12.86539234062038 10.44962617443161 0
12.18478940958234 18.4061134635472 0
11.62665455083359 4.531797067700001 0
13.64777052643443 6.821786198680154 0
12.82896750298247 23.11329659271198 0
13.4520692759634 23.48153137105382 0
11.58579859594865 8.426897522244236 0
11.06110847586621 11.72624067612907 0
22.90475956835798 15.65868286623789 0
14.61101277209947 11.61845119107565 0
21.97720401458205 17.77639382506071 0
13.34345044980411 5.497128836247511 0
18.77091339848538 20.27435044626043 0
24.14264140265673 17.18581649783515 0
12.44935539568324 11.70016417382168 0
11.15896458459847 14.75157484172354 0
14.64240908429677 12.29791539235071 0
22.67020894397558 15.15969241001864 0
19.26659896917477 21.48642641370926 0
24.13799281113595 17.83292545057015 0
23.33344528691331 4.507918998106414 0
20.79014632489813 17.78878071389207 0
23.07959836510858 5.077616132692092 0
10.47964497699618 9.216646125889813 0
13.8771356564607 22.04453858977831 0
21.78766897378624 10.73138034086593 0
21.63114239592167 7.682372943266924 0
20.97832397628612 7.855895942384585 0
13.24897623896678 10.72080535956488 0
21.60091235132921 12.06179492298373 0
11.57348924238681 22.83533937469053 0
12.39886168577098 22.49322205974085 0
20.91799577590587 17.22933500014611 0
11.21156385246314 21.70887297917364 0
23.22722654501983 3.99676496873037 0
14.39548577768374 12.94598246109741 0
15.20284029431585 21.11308664219462 0
21.22346848311073 12.49783107272113 0
11.57661473972949 7.264360836648147 0
22.14976207875362 5.89303744572097 0
20.6181594570272 18.39266287635732 0
20.48281652932029 8.346090705733888 0
11.98609623648252 8.825082720947306 0
12.93668313544313 5.180880077647553 0
12.14534818568677 6.422231010989839 0
23.43262142347398 7.235296732808233 0
19.87563890328836 18.48477374653766 0
11.2519577037512 17.6289378633247 0
11.71010508040603 24.05345501657971 0
14.28443779835842 6.78224463695976 0
24.50390544610359 8.906620988608408 0
13.10249805315889 5.02438137959044 0
17.02485909796957 21.8634769156806 0
20.79168293781919 5.259046598647709 0
16.73158273287403 13.77789910870201 0
12.15399371044178 18.8035820896251 0
20.25362525550755 12.24603616564254 0
24.42233381754756 4.188152049300268 0
13.30236577768306 21.6876436894092 0
11.23018529443445 10.54535364998117 0
13.29616351763894 21.96903774364608 0
10.94858125648939 16.66248603186295 0
19.48688189422695 12.87137816618312 0
18.04804034937793 20.17639510850229 0
21.49758190011543 14.7807666471343 0
21.01301920664292 5.328877595185832 0
17.82817483996476 19.47119967317627 0
23.32628092233574 20.25826413454425 0
10.46586994324066 5.164790966105212 0
19.52125426516715 18.40263875026559 0
23.33747081386171 13.93886126403069 0
21.91697692718799 6.45227332206395 0
23.85409663872513 9.461209429796218 0
11.68956484555354 4.776588872394131 0
11.29194813723402 19.7076135073846 0
12.51237546060356 20.92192156575092 0
16.86852434424811 22.46296126525623 0
20.6887077596446 14.42617168259793 0
13.97629290027757 4.383308693287386 0
23.26675993439029 15.60094492882122 0
11.66275269549022 18.00421516792291 0
15.37537291533799 18.21185551938755 0
14.83073749963684 13.84472690632112 0
11.75706009767965 2.841757118242545 0
10.46796251387444 16.10543909313784 0
17.15210287681322 21.56005965723214 0
12.40062265536957 5.995643126381356 0
15.10881023570861 22.28464991948237 0
12.54068090765089 9.595131758471144 0
12.50416537272049 23.83334355758971 0
21.64790751045136 15.16581902107279 0
24.43486402937381 5.088019819502358 0
23.07311200429999 19.33101654948128 0
11.71245396428849 12.18426362123998 0
11.11844332096867 9.502043335351319 0
12.66335730471064 19.26067124819476 0
23.67235069433566 12.88246902225581 0
20.99039733999366 4.648748687027642 0
22.80940033193482 10.31849661948054 0
24.26689641078046 14.83491398384527 0
16.52795758216852 19.89901157931946 0
12.65606256424005 22.89427846817216 0
20.60157118708252 18.81306344458597 0
23.8608343063891 5.851309091613532 0
12.9894920426326 16.62098900577503 0
23.34873047590623 5.926955832885255 0
11.39843893177348 23.56542221727535 0
11.95149285615907 13.29144220335354 0
20.92231815563903 17.53876455711135 0
14.18986588050801 13.53633858398549 0
12.93458803217386 18.53243903667622 0
22.88296419115477 14.92083516399401 0
11.74687566044554 12.83046206775624 0
21.84703799277926 16.72614145414677 0
20.24562271564379 21.19878195196818 0
13.17649363837226 22.42861379329259 0
14.1765605371498 20.04312925983378 0
14.28320083880191 16.37801183668549 0
10.74134841945362 9.351550552710346 0
23.60713733522041 17.82277504621733 0
13.13286736828818 22.66786938972137 0
23.32289481309803 3.718310341878106 0
21.19751625649304 20.3902399668658 0
23.40571908831961 18.88364830341801 0
22.32870361695625 5.410979242314166 0
23.07182895467421 10.82133411426732 0
12.78483922675563 7.944655076599948 0
11.94287208022517 6.277607062180881 0
12.45380072562666 19.74156650836778 0
20.53591967020589 3.41793894211583 0
24.12524959695044 9.934353830844078 0
20.98608651919391 3.916905803559091 0
20.18329042506023 17.64125978392026 0
12.27007127402148 23.53519892979281 0
10.33842553855812 19.10214136983387 0
11.01741570521471 10.20921445788996 0
21.34395036466477 17.18477068727793 0
17.80427560704475 21.23592781261708 0
22.67850905049507 18.26685060662972 0
23.55365204948301 17.21533184635463 0
20.82214447685858 20.36717340151622 0
17.14545392241607 21.13919688272967 0
11.14725612954674 4.810194751923552 0
16.01302608143556 22.00961224531772 0
16.03513008804611 14.00395916413206 0
11.34066996119867 21.42590278480597 0
23.09140727283231 4.485767928805569 0
12.04401576868233 21.11830907352011 0
18.13780957945722 19.33260757846868 0
10.94760278915493 18.79991339353641 0
16.92638261929466 18.76319148738168 0
23.83065186679161 7.810851677913617 0
14.66944813158833 8.745825600837064 0
21.71397747381007 2.875754948790511 0
14.38040192723707 17.58790743791876 0
22.95149031683151 4.835209155294515 0
22.20762431553212 7.945477819868764 0
24.73439089778391 17.94017324580424 0
21.01814505832662 18.37777641163139 0
14.24073019076752 11.66791194204928 0
14.34287623835374 6.254617687660811 0
14.92314471383946 18.10808317905058 0
12.99065807756285 8.306059414028148 0
18.23740991734554 20.75038292359803 0
23.45958218488741 2.77314698966764 0
11.55450607040025 5.275787011550908 0
21.82896586416036 20.05030072013821 0
13.33529143633281 13.19540819053656 0
21.91214021563782 2.719347640917053 0
12.09095783879384 4.548008412646983 0
21.12700211871079 5.111187794231109 0
15.84039672166237 21.73793295337616 0
14.38757532711605 2.871265317860601 0
22.75525069595216 10.03139025073614 0
20.27414815075516 11.13591681123078 0
22.87832371898196 7.441707879913908 0
12.6561458770263 6.67073314427304 0
21.57386173227762 4.295441488316619 0
14.34307764329722 8.074081759009141 0
20.2243585488562 17.21644691122431 0
23.15610271224004 18.84524109659842 0
21.40003194275872 9.670226377821352 0
10.72588891462592 10.36625683787081 0
21.19796867029898 16.67384721635524 0
13.66519554666387 22.5848883074206 0
22.09213028077749 4.547670670606084 0
15.23293446840483 21.70328669823577 0
11.48176511511965 16.43089365065936 0
14.83042845606528 22.11845114705132 0
10.95157289793863 17.56274216478061 0
12.12756068635014 7.431629851307027 0
10.53645661005685 10.67039767128728 0
14.58439327774978 6.732190849347046 0
17.30948170848344 12.70632988032911 0
13.32513649010983 11.31700047834825 0
21.05339449431643 19.21010843647116 0
21.73612250679422 18.10143119318247 0
11.78572551941865 16.06644334002436 0
10.43512097356444 10.29050879445124 0
24.01819990714831 15.74105649011416 0
22.45307594207716 9.595202276496424 0
14.15943493945216 8.526714164248487 0
10.83937542053445 19.86697873188039 0
16.59492791429223 16.02083121293575 0
11.54420167082618 3.416224164932051 0
12.08610364842302 17.31479132887512 0
23.06375967436739 5.579838349416076 0
17.03803856680497 18.32387995167762 0
11.29912728723353 9.027053029754775 0
23.13892064088317 3.430931317833306 0
16.59287928531229 20.90113511944117 0
13.25765201221426 3.408233471075124 0
16.14891929019669 18.64933369796536 0
23.42423511140623 17.41818878749004 0
15.13932127098553 20.20194406345865 0
11.29138478517274 12.88330697364711 0
12.68602658273922 5.416078977289321 0
22.45775528676758 13.53580034056339 0
24.42617182028366 3.257380778896768 0
23.71119098640325 18.49460710917087 0
18.76229603569187 12.83465460375947 0
11.97081461113095 6.033839860278797 0
10.74202560145908 19.61807590374799 0
24.18371703220214 4.751032512317167 0
13.71796532982077 19.53811496330102 0
11.26214005078391 6.117941454232501 0
12.10670870848845 21.88422401217084 0
12.64236359240711 3.806590836639347 0
20.4936357093874 19.78368733912577 0
23.86531677522942 10.2272021555795 0
11.14573559980452 8.133329241899785 0
21.82083667803198 15.87851435259424 0
13.34378544824588 6.224059278187647 0
11.53422801823685 20.88748950428873 0
21.77855270287575 12.79218496809587 0
24.07365739133852 15.03667439854787 0
12.75078112235528 20.25548524088713 0
11.48003269007683 2.750161962848766 0
15.50307268362334 21.67569102003324 0
22.13833558006317 16.46183348207206 0
11.29394885155825 11.5726097467279 0
21.63469135527265 11.27817442560616 0
10.32769646406115 17.48691684823231 0
23.77939605031155 13.84029468646974 0
16.23089288476825 20.1148042119909 0
13.89833748780929 11.72158317992512 0
15.45279555254972 18.61133410868343 0
12.01825173682427 9.766322072245124 0
10.541117429216 3.424450107304822 0
13.49613010718973 7.374540718530686 0
12.45422743585887 8.571659325998702 0
22.93872212906436 5.230777169658604 0
23.65948145141452 4.827908749209178 0
18.95653320924631 20.51626482081247 0
11.68251373773431 5.916914243894703 0
23.38145689258587 14.62219253810371 0
18.95040690554254 21.10464445498458 0
11.58179275552382 4.287135397131147 0
10.97124248466634 8.566764245683267 0
11.98443463979609 20.84844884195169 0
24.47179056822485 17.35350964092062 0
21.94728700065708 17.32657600774875 0
23.87777739243785 19.107490603162 0
23.44010869640918 9.105717847965288 0
18.77810634883657 14.06567866084413 0
24.429862841593 11.29273495177948 0
13.25994524711077 20.52972486504499 0
24.61832904716255 17.62047614036002 0
22.14448918371076 6.251642094108224 0
11.96585903843162 19.70704103699388 0
13.64796746409172 4.827324537171244 0
20.37020431855485 7.335330098364083 0
16.01994879920262 16.75265092334264 0
24.43095355077144 4.789182145298255 0
22.2190206311916 19.66182336396745 0
12.77262759185142 20.54916962798411 0
13.04411993561452 21.96587833203249 0
20.86013293412208 9.443424016074403 0
20.37638682640374 9.443618135467043 0
23.13480081811801 16.59330886568421 0
23.55725230346646 18.28646503041584 0
16.96627131093165 14.04672706222913 0
19.20774191963288 16.92101009531718 0
13.35520903150063 18.56667723830659 0
11.90353086346375 5.581283309889971 0
22.57364596325582 15.80625280567713 0
22.50673806255092 17.00394817308931 0
12.22608296522916 11.38354893323028 0
24.45550087098901 10.52172569024717 0
23.20940794698629 9.518380843455786 0
14.46824770020767 20.53084718563427 0
14.0732140008462 17.85989735225537 0
24.5507516233784 11.89272970608363 0
17.61390009129072 22.19616148102801 0
14.01066863768662 5.305887825335439 0
13.5990168319159 22.31479994926934 0
24.38195510022756 18.13423101703454 0
22.4865807304909 9.958194561082427 0
21.19463455045881 16.35444997289621 0
15.88222130433802 12.7449081926717 0
17.24403530246429 19.06445507670421 0
21.94941839184746 9.629273830935437 0
13.99020788459372 18.94516566820539 0
11.77234738857814 6.790897877905892 0
22.3395637679948 18.51720611119618 0
11.66616245990733 10.16410028109641 0
20.79595746325158 19.74308193816592 0
23.6416420457576 13.54078587692541 0
19.62411678624986 21.48598676689535 0
16.20190175956629 12.84061742325225 0
21.59189550602935 19.02065314179743 0
23.85268883965907 12.63277508460009 0
12.79870240493167 7.649957972711981 0
14.50272448096922 23.15999323599086 0
13.57068594917113 6.569121498964567 0
13.35716826822605 22.90500829854387 0
24.59155845359423 15.46186143692324 0
18.13155897673455 13.21475230133669 0
12.88970802037858 21.84113541981845 0
12.97497938223482 7.134910465788548 0
14.60958935614606 9.834078627652188 0
18.35996198547842 21.38891163228821 0
15.54413785594624 12.85537136637349 0
22.86145746940346 5.894401513681353 0
18.19629636024974 21.93428698848487 0
13.56526084241545 5.726960932655278 0
22.03460347289763 7.138345455269664 0
21.90189443248776 5.002540072914822 0
23.3305016331388 10.16972831613175 0
11.4541408496265 22.19693331656396 0
12.47104208342005 4.242935821479472 0
14.22283341010168 5.235852024816875 0
10.38280998643043 21.42594624074359 0
14.34923663804363 21.56130157021892 0
23.23684271149701 6.799152561858189 0
22.21279911657279 3.094799921364725 0
12.96139174047864 3.453174729674413 0
15.63236354251578 16.59764189008477 0
20.38265484350691 8.006338463056707 0
23.73448255397907 6.21379761031592 0
13.39416473735965 8.271460522535364 0
21.6064895038529 8.275449543721102 0
22.5380195068343 13.2538855114365 0
20.12689951580304 16.7985703421526 0
15.02666983541229 18.98389551026808 0
23.65179302693977 14.07610006437247 0
24.56986274685681 13.62016145808856 0
20.66751429174301 20.68666199739253 0
22.2796413908307 18.8292014219471 0
19.93888888828603 19.81955525152944 0
18.26195189360026 13.46176137189751 0
21.22641972918868 3.870967790555346 0
21.53915462170795 17.6244097453444 0
10.28970265789138 22.28389280803193 0
23.04853705726459 3.127026774382505 0
24.57562375183572 14.36109055309948 0
17.65757548031252 12.801246425223 0
15.66344975544183 20.6913822694008 0
12.51319130067533 9.254714565009557 0
22.32754169906202 4.567395268989912 0
18.79176494528681 19.53066149353362 0
14.19282762800615 12.21685078220546 0
12.88811445123069 18.20517735312024 0
22.89026071882885 19.75799681146006 0
15.90506877233889 22.8288427313084 0
24.61311898660696 6.682426898468638 0
10.38041425873299 16.45713767028622 0
16.52462665706403 17.356209457232 0
20.8957557966348 21.00685394642212 0
22.36668846633527 15.231888462843 0
24.54344713877737 5.614512764799184 0
22.07414786375374 5.17562320303547 0
23.71469501263913 9.048486803511393 0
23.71188002732824 3.528893846383905 0
23.14273320242667 2.808125861353857 0
10.41949257130659 13.93708873520073 0
11.50034649738403 15.29531303273754 0
20.58942699004432 17.1771764372783 0
21.36501122517326 5.172282957085168 0
14.62311090648506 16.98770437450965 0
23.99800042090851 12.03186935248801 0
19.12320475634151 12.75548914548429 0
13.46947125343412 15.98889477894548 0
21.98444391791242 7.797283510886614 0
23.46550893010376 5.308451226308697 0
21.88506698283692 3.134303721760948 0
18.13223063647777 15.96478364889103 0
10.32791943527622 23.04664091487304 0
22.77659709995804 14.57912407926837 0
13.7598470723981 21.81556462415207 0
11.08064323588784 16.37877114853024 0
10.51769064761284 11.29421646254207 0
22.66963633940735 15.44543798058327 0
12.61907628530941 17.76858829577449 0
24.57271227046463 5.296370579865947 0
22.49173278471193 9.236103991449841 0
21.04115936129259 12.7075236623403 0
23.84896794988298 17.74491356432694 0
16.49317687814005 18.90334370248817 0
15.58424165852315 13.30716753800323 0
14.06721767699351 10.16110847721492 0
13.89930275368587 4.890781942500675 0
23.59618372606307 3.72354598669815 0
24.64474037815706 19.74662508474319 0
21.63825203064502 6.197358892615082 0
13.20333612161493 16.92372114878169 0
16.40091394267462 19.31837347854198 0
14.2104538256953 4.447090120873328 0
13.44283729445892 20.96037648835346 0
12.73042811427736 7.392767824127915 0
11.75636140730406 20.20263162161511 0
23.06064175559883 8.807035112974688 0
20.14318247537437 19.47084565172638 0
11.15380172549285 21.18741696637446 0
14.45134059461204 21.22054354792454 0
12.36177977869973 2.841029110444092 0
20.0449901185123 17.93860197112752 0
20.80277542752729 16.79712734532139 0
18.82883450330846 16.85399193291238 0
12.31503839464755 21.07665660438735 0
13.05712335856408 9.631703414244443 0
12.08228024176121 15.2362790878045 0
12.12261787996766 22.89023040373591 0
13.01832452112075 7.793747828065362 0
13.05223479843274 10.04155554228874 0
13.55895364086235 20.13736370602755 0
21.95413345787614 10.04927122422497 0
20.85427759979432 5.844915583124916 0
17.734470561744 19.04207461708629 0
11.83290783645881 13.58729515441802 0
14.74498814205899 11.96576266382108 0
19.98447289105202 21.43069144279668 0
22.44297402000513 3.868526457609896 0
21.54162160089204 12.43053410871131 0
19.91898085678825 13.47995894916131 0
13.81457711291436 8.359946847895552 0
23.53493125219544 10.62115652587648 0
16.70228303757168 18.04116797556378 0
21.40143468976639 11.83463845954481 0
10.68693582774461 20.96093032711365 0
13.07047596304912 19.61497816268844 0
23.46266887827339 6.169458007204301 0
10.96238315025684 23.88235773186271 0
22.1508352345858 17.87240477654754 0
13.72612702595925 10.68423209281829 0
12.66238523127889 4.592062839144814 0
11.49960051542805 23.81008185425184 0
12.66510075399448 7.142575650760213 0
10.46108191790797 7.765091755596623 0
14.11148089920288 22.59662938025107 0
23.99750446293142 5.333690731128867 0
21.87812996347662 4.560634836078038 0
21.18543720642934 8.362993573690943 0
10.94184419465877 4.467508049298784 0
24.1270150178815 18.16180935456642 0
20.08059801883796 14.16099393552819 0
19.54946757086264 21.23877360003594 0
11.52960849613021 13.48959869741236 0
16.2264732884047 18.19037686848623 0
14.62510925305072 9.441316679329143 0
11.37849027679416 17.07091807895166 0
12.32740475558169 4.5680763164572 0
17.20956123873798 17.46025101568951 0
20.83422221063049 8.856376316684477 0
20.40224263537509 11.35876946204168 0
20.81111554220417 16.15359875851834 0
12.56750958910583 23.13722180213354 0
17.84727224305276 18.5378341874839 0
12.16494831371921 19.88815710621337 0
20.29570867745617 20.17668209913789 0
21.63422983668917 5.770418004906431 0
10.50450896931222 6.938518877521877 0
13.52077369377134 4.268499712100955 0
11.06385056066748 13.95131353479203 0
23.79696595805746 19.8253847117562 0
21.37370693211186 10.0878414398676 0
20.44227081073002 13.10336576547908 0
18.86803497385041 18.35226009029986 0
22.60875021914978 6.27534459490142 0
20.24119577536202 12.7883086974103 0
23.20359602908654 7.365993281925357 0
14.4751202606338 22.59594899772071 0
12.31189896286904 11.96165578796809 0
22.38719619962086 20.54909858553944 0
13.24383628157757 3.139180086725843 0
22.5581001901549 6.924435392624897 0
22.19242747594897 12.70604259306511 0
23.42090125968051 17.00459346211893 0
24.63438178290949 18.1902169755551 0
22.68949153694528 17.02726597499345 0
18.03635316507729 17.71568546151773 0
14.5182110786208 4.367699481936087 0
20.87751551934324 15.10797347191888 0
10.53395599406161 4.835463033774016 0
12.85279361087755 12.65208101929516 0
12.68913828223135 21.89638506542834 0
23.54792468886755 16.76942428292506 0
21.5116485368258 16.88928289695435 0
16.49980272150931 21.46283104721962 0
11.82656112647588 9.160028177031098 0
23.57617991711786 12.27930208006311 0
10.29354387567575 17.94909489094501 0
22.55448438500175 10.56347086966248 0
22.19742315457376 11.72265847426684 0
17.50088961149223 18.19001248149068 0
14.11921415499618 19.68917497883023 0
23.08146519119482 13.10679816871903 0
15.91516056246925 19.46029276985875 0
21.11062178586541 18.90773207096398 0
24.17096732256575 11.55116303738836 0
21.76751297823357 8.531854621766486 0
20.22015165604646 11.63057346021631 0
22.26427256927979 13.87949082987681 0
20.53469389061546 4.914335347405783 0
12.3306890426998 17.99680860399597 0
12.52628731570882 22.0687719927162 0
19.82415258124525 16.45673446013074 0
22.76816228551719 20.04017785634027 0
24.53773059930751 9.90161888460924 0
23.44988200264096 4.235007167543476 0
14.68319242594974 16.62227736339736 0
22.17858727357554 18.28711728004371 0
24.47523827877272 3.80895540584158 0
14.76892735367998 19.65251334888023 0
21.77499206402 13.35571422075742 0
13.63714903410546 19.15331612290557 0
10.86751967176125 17.29475921945821 0
23.67225313311434 11.53948833830635 0
20.8757024720317 18.87056078018607 0
23.95022712373824 4.69401226405569 0
12.16354369303735 15.67028430892769 0
23.77373920001926 3.936482594857095 0
21.44008634439701 7.077177159302102 0
22.87599718319793 17.13734311516793 0
13.07310723531826 5.924608760367734 0
13.15980533140034 3.977735688577589 0
17.70815631785444 20.62598650910648 0
12.44514690839553 6.920503330032283 0
20.58843857840496 2.847417604622635 0
13.12557188571028 19.87376797016358 0
18.6290192773146 20.64789447396123 0
12.29082816070376 23.16896889395914 0
18.95588363433878 21.74919303642672 0
11.81736373509537 11.19182155207746 0
23.20010748402563 11.18926435385336 0
10.59571383836343 2.849984336902287 0
13.26198933261782 9.114209008528904 0
19.91106736521541 17.08481710709686 0
19.34300464078566 19.67299292993324 0
12.7654528287346 23.38347965471469 0
11.29022866302254 22.69435201751445 0
20.27805460906787 10.18025027855485 0
11.16595535207554 7.800404030110335 0
13.54915199067522 13.49604155168532 0
14.66569467482708 18.83958595673689 0
21.21645158324732 6.146350917834695 0
24.04730882013073 8.566385729394593 0
23.1757140843423 9.162732485430498 0
24.61132938260834 10.29049309054991 0
23.30995612160401 11.47791890885188 0
13.79252757215271 23.05321172145898 0
11.24009583521679 20.27881361811041 0
20.68873493678127 6.276140747498746 0
11.13000927797218 18.49074654828678 0
18.69630788382682 17.59484757364218 0
23.18161407661758 18.02345356110392 0
14.58393871859864 6.252779027216309 0
23.58006430298419 8.67957715050954 0
23.86005166175306 15.34334108232773 0
10.35720915899318 18.57886033887996 0
10.34478923911023 20.01722158370677 0
23.26854313077544 14.96963940239033 0
24.52554648434987 6.980309112469118 0
13.51393567939418 13.93996463817598 0
13.56623905711728 17.41350521891358 0
10.80445910487612 12.47470324429093 0
23.98393670577896 19.64514685145754 0
21.95674766836478 13.84734046479176 0
23.74102694264451 7.197274152733146 0
24.12285168738899 8.051015128655115 0
17.39458190079467 16.68178970129538 0
22.24490664383757 20.00203219611137 0
21.16280527637435 18.1074669760697 0
13.83640862727728 15.81038920674457 0
19.16160016463176 13.43464676109295 0
10.86370487430023 22.19185891861576 0
14.35314224944484 19.08809432907066 0
22.47755485518871 18.00395474238842 0
11.42206126579025 4.766641532772048 0
14.52516041448529 3.597634483699706 0
12.34275795370307 12.28251798645895 0
10.35619917762713 20.86838600853988 0
21.59226650239198 18.55139489852505 0
23.60656905482742 5.750753653743598 0
17.70552777971028 21.537734370943 0
21.89854416633873 3.570899265764691 0
18.84851266212977 19.09688784814533 0
22.88326904939217 4.587197111359842 0
11.04234224691592 3.114597191339095 0
12.8077513107587 11.71277048046039 0
22.10912753027772 15.56121642338506 0
21.42495562723892 18.06379117848093 0
13.99420204392269 11.46937018593591 0
10.38999647342889 17.20030888164367 0
17.13857062197382 19.46161939517852 0
11.59181285602633 14.56088277292888 0
11.14166862290667 19.9523303205823 0
13.48399856000888 10.53264632638546 0
22.56045769592171 11.08026554189598 0
11.28409372167542 11.24224254944349 0
10.77086730088815 17.78868205475093 0
10.4480576368979 15.48182413228401 0
13.11776930882037 14.08338339628522 0
15.08110966970662 17.44198583256344 0
14.06647252380322 22.23810597372121 0
17.85805739871621 16.81155272907891 0
13.5953433038531 10.03662826510825 0
14.00393542502554 21.09165422142787 0
20.91192485994302 19.43161976908788 0
11.76010776621305 17.47806436261833 0
22.08924415436493 10.77757255385668 0
12.88553337687815 4.611376047971122 0
21.58897334827995 17.38819187456107 0
16.16048076711446 22.61603085948455 0
22.08927542671345 4.829872310565608 0
11.47152269779761 10.63770655386016 0
12.4533447079755 11.07782932614468 0
21.75728011681119 16.95192233544021 0
13.83332534700932 13.3141962416724 0
21.08680591102668 13.95480309177443 0
17.97288517866616 20.49441410449476 0
13.25300095796801 11.96201818269357 0
22.6976504432911 4.146355869495778 0
15.04330630587279 20.60295130163652 0
16.1420389313608 13.20028717804816 0
22.8277906027595 15.94701231541789 0
12.63157180587009 6.398087227651892 0
24.64013363931326 19.36466804415084 0
22.2123790409686 12.32336500503147 0
21.08351701254475 14.64999866768726 0
13.90750233235422 8.12269557960526 0
11.48401364735597 15.81078353916116 0
17.91890617089895 13.71251275826586 0
24.73075297941052 15.08096692260902 0
22.86219011360875 7.765973550904132 0
12.76860688127431 18.96549104513463 0
15.90821535750328 19.9042788697434 0
22.16431471496862 14.91853837789986 0
10.4757604771495 11.84545719754093 0
24.12391603573823 18.39133617354137 0
21.54174611456108 3.416426836830713 0
11.67938697420094 21.72789708363761 0
18.81534559614831 13.17622880248213 0
20.00535859794339 18.84053993515866 0
23.95877363909593 18.72646089274858 0
24.20537797453046 18.65244956105083 0
20.46353926408956 4.393070651886138 0
23.08076469689934 14.41973120951775 0
17.4652194713664 13.4212983432154 0
10.30115489813494 22.016661424325 0
22.27132863486908 7.40244210062176 0
13.5348419880774 5.269671233122935 0
10.6364483796874 21.99843607907795 0
14.6667805517979 11.2114763110421 0
17.54517656240836 19.78747394204085 0
21.91444856186088 18.31217864745282 0
10.76551237271234 8.362874490380102 0
11.96496260243876 16.97196317806674 0
22.78447595531728 16.29597004409664 0
12.03138483550984 22.12584010486988 0
14.60316857183025 18.42004270480665 0
23.45806328755168 18.02641103145621 0
10.34393979570523 24.06154947729437 0
10.48286158765987 14.36575996926832 0
14.10499760432153 6.462102425338208 0
21.99206284803932 17.56949983612781 0
23.10043888347029 13.41710857373414 0
11.80403337238009 10.502162747677 0
13.28436075066128 20.2576275434334 0
24.58739897008235 12.2679356925965 0
20.29856610981281 18.8978541087379 0
11.25087723011794 8.41287037656817 0
23.27182551472179 5.168976628528552 0
13.73921530108961 20.67618003534192 0
18.32752933083573 12.76375792695031 0
19.69259977760524 20.96815255641254 0
22.11203139295695 5.391311129010671 0
22.63385923146367 16.58662140545121 0
24.53907466924716 3.48291011202706 0
12.14430665945 11.74867901123828 0
21.66402518346844 13.75776340550563 0
11.76804600827453 18.3275456867507 0
10.83539450664523 20.39333382234363 0
22.48931854786887 4.470910520646333 0
10.89339986170544 16.07540427041035 0
11.25631888408314 7.170269046309706 0
12.48980627335077 4.473978015615144 0
12.16303391404796 16.68164257644559 0
20.80119355395052 9.940052706677111 0
15.90071643070044 22.28079821640622 0
14.23088458733752 5.769159620477294 0
10.44216991380233 7.5113288140874 0
15.24317263292671 18.79647157556272 0
11.08862989969382 22.87946928562563 0
23.63028051988445 3.251492443286808 0
20.93670844104498 9.66614664615615 0
22.00480284460312 8.311829077791476 0
23.75660183201505 10.55664040162268 0
20.39596011594702 9.854149941194226 0
12.29735090928773 10.82235699304946 0
23.2057015819981 10.48627527087494 0
17.32185386979182 22.29822517970986 0
14.71894248696297 22.66511918015012 0
18.63487658312613 21.2996567745049 0
13.8365110847582 20.23673596848792 0
15.33062564572384 19.90817749375354 0
19.15744768927532 18.93648480895196 0
11.35154422476871 10.14006768305068 0
23.87140598257638 20.07451943533369 0
13.79147184440707 3.891163551565636 0
22.60429306625547 18.44821508457111 0
16.52837072401046 22.53928853243813 0
14.51534156422263 4.10316715359359 0
20.64567436314422 9.343917381841523 0
20.33701108109977 14.62111009859341 0
14.99001340028207 22.62528982594077 0
22.6711805816324 4.586733519348122 0
15.61272288955702 22.34596797652473 0
21.93523320450314 19.54561756181873 0
20.43790854917591 6.269355708847962 0
21.46296805435393 19.43752176230293 0
20.91428091980271 3.394986829878301 0
20.75555773594955 4.796572976803169 0
12.59507872590936 15.88679753705671 0
24.6872304564355 16.58554860675548 0
13.77242806929044 23.42088537835281 0
12.86796827298826 22.244776973435 0
13.48525765065272 20.71458275361549 0
16.67172590069008 20.54112499492922 0
21.34943859972012 19.91374608335445 0
10.76880501171243 24.46560206566568 0
21.39052883299788 17.78571296969328 0
10.41288222760803 12.88016360393182 0
11.17472647164589 12.59264932452047 0
24.59173222106137 14.75764001011118 0
15.58364500291726 22.85916067149578 0
12.76886582294065 12.31488512205018 0
19.45218000820898 17.14476168376564 0
12.88463053867169 5.377509802357666 0
22.47291641981715 5.540332281175615 0
12.08927542687242 4.829872310952242 0
22.54813929245396 8.596707195792598 0
14.06389579613573 2.802127913260812 0
13.25377980617758 17.87515863990787 0
14.516969241703 20.19664409984167 0
22.78879549971012 16.79519035121213 0
13.39646147798255 21.46521850751604 0
13.25312891698743 5.957594047387709 0
12.75486485721515 10.13468789387757 0
14.59188862952521 7.610144217059889 0
24.05983793889953 16.85710430335851 0
10.91279781393495 3.395397692186988 0
14.76548594679822 21.78981259909021 0
14.01706187098688 12.48576359632696 0
22.01389645178371 3.954443782652758 0
22.94339031124814 12.30574357980848 0
12.1708538788605 22.6404346655803 0
22.87999257123016 3.52667340077104 0
24.03503272221071 5.592970237603735 0
21.09237942351441 8.126277639604222 0
15.61486061485647 20.37999229223562 0
21.4037343625651 6.303745094644269 0
16.96428571286854 12.70836442144616 0
23.97349607489441 3.098692077691167 0
10.89222557877482 8.053793825088238 0
13.82562981724396 6.226872807659037 0
10.2446618386818 21.1792459186397 0
21.79990575877443 3.367761412012325 0
10.40274600709001 11.52514271440105 0
20.78211647692799 10.27800454965512 0
13.95651514675274 18.54796098728482 0
13.56385256662731 11.76978707133093 0
12.56066059398674 18.34760760733806 0
18.26500213776131 20.01602590556529 0
10.42195885727132 2.67822189089296 0
24.36353839837619 17.70986457641945 0
21.04110699440452 3.115013664244835 0
11.57045943288746 9.093902875938875 0
12.01466804929237 23.6257570868366 0
22.0833547993049 14.53412781764689 0
23.34294607046137 13.57577737668404 0
22.62095731490374 5.993551491766772 0
24.40221222628884 19.9077257883277 0
16.005419660342 21.14632428834292 0
24.13209870212606 12.56104323243442 0
13.86162907200864 16.67749957417813 0
13.04558945594143 20.11024726792872 0
14.10441046371364 9.523736735683766 0
22.77493685530139 18.63599871081591 0
13.93886635441941 12.83754874593059 0
11.80065615402087 3.367557988044663 0
14.70368118385469 12.66869011615612 0
17.52612263018164 20.94334515989262 0
19.56729104007129 13.68990918828736 0
11.31369993431776 17.93599477380252 0
17.58105903929247 15.90683756813709 0
12.0980962235777 14.6576596281303 0
11.01451957145225 20.86906870201922 0
24.24233758570097 13.73792503141732 0
19.69543495277988 20.32919448647455 0
20.5153735064429 4.094881739389565 0
14.55034140283678 22.24282608902673 0
11.3982810858991 4.989388842902927 0
13.43316034640293 12.71914086409527 0
20.70780374626703 13.34310324792255 0
22.02792809744196 11.37174864569325 0
22.79529421559544 17.9105432712092 0
23.44231527053651 17.63894943084002 0
12.5246193188349 5.552162289230803 0
10.63627863047115 23.85405477784527 0
11.57997057897168 19.75382153274825 0
10.80306690502193 11.83087715566057 0
20.44288667858339 5.552909525166811 0
14.04490763272335 3.929260632561667 0
21.49516681754876 7.327128710422575 0
20.75141461698209 14.04405538320432 0
11.46094286942897 21.64267882115029 0
12.31647662380335 13.33128838366664 0
12.44694131083977 10.55982051719212 0
24.14528304654192 16.35240916825262 0
21.52314012293494 20.47791895086168 0
15.0396301128624 15.92988025858366 0
12.99691613833109 20.64543764989449 0
21.80827977805317 5.942778604487554 0
13.51111919910371 2.754132138128699 0
11.4526454584827 9.649890014435847 0
21.8596077798143 17.93692743648262 0
10.99813351332095 3.927193302208767 0
10.72278293428044 23.55629890232147 0
20.27259122076467 20.76257325150503 0
10.83989142706745 14.94710427610181 0
14.70846732419161 20.73540148060184 0
22.16573212532334 13.25701645730475 0
23.82809077163575 17.28659784279548 0
20.9273735764171 15.74611640203788 0
23.8136115007074 15.93366075366946 0
12.96168770534422 11.37142122182255 0
24.2754376915613 14.26796835272775 0
23.50105227348357 19.73064613321105 0
10.46370513501192 5.659621936916181 0
22.14567137190046 8.842929887390076 0
12.39134512090435 22.26489390887077 0
22.98618270536118 9.769093795681384 0
12.64177671935084 22.62440375618101 0
23.12404265059354 8.457328605354405 0
17.94649930944129 17.31439403663421 0
21.27803354088002 20.94410454667617 0
13.85303472587244 8.99827329364073 0
10.34742477226078 18.26216888106403 0
20.94603249090524 2.805402629799952 0
13.30139885969402 3.761121045166379 0
16.03726696002038 17.41809417939933 0
13.05584869003359 9.276277140427986 0
10.94888834895556 2.805735995633537 0
10.91664387701329 8.86037127626318 0
10.78240370862681 22.4948194598239 0
20.25594489340917 11.94206211640878 0
16.10154801449296 21.44928068297931 0
20.51631682302642 17.75933267541101 0
20.06034009615911 16.02103445561345 0
12.33232446830237 21.91760333823174 0
15.50900173352036 17.42337491928727 0
22.78593608352496 11.36420054256013 0
15.48611396002879 21.29923017090379 0
13.59115397233194 9.679082372923087 0
21.58053316052053 20.80415934933533 0
21.14609620319942 10.80587509448706 0
14.8789686687669 23.15963332831469 0
14.29809095606658 17.19529160909417 0
17.12654104545689 17.04139535538339 0
14.16493936581136 8.853019851956901 0
12.70888924989346 21.05170530948358 0
14.07890185474179 3.428103012697672 0
10.68037597252685 21.25159811787905 0
11.84328142570195 23.21343015274853 0
14.52049447396194 4.892679157643592 0
22.62517603792084 3.439092913246092 0
16.53798472785002 21.76808530537682 0
20.42495248666813 15.17060204371853 0
10.35172717883032 13.20809711594967 0
10.97368169865712 18.12387525312871 0
11.82712758908278 7.366626246969378 0
14.24265021108677 10.83106159894292 0
12.03701092782627 23.11448128802278 0
21.41400206360726 3.65822806140056 0
12.74716834611474 8.550040593689813 0
24.72322275152529 15.78677869597499 0
12.28446524888744 20.37324430729683 0
12.37954317103716 20.65573498325254 0
12.88841055161225 8.829400224724521 0
22.25898020318662 8.551048581520718 0
16.40875399418967 22.00720652403208 0
15.06532411347215 12.82795566260908 0
24.02791214264684 3.568924029491638 0
24.23938541724586 2.708836961300932 0
12.7822562182314 17.44578437464368 0
24.55198679595677 7.790365970142847 0
10.96804139901045 6.025832172566226 0
12.17358205071563 5.875971632073727 0
11.90359455003334 13.93175862793738 0
12.07897111102964 21.34973789298093 0
13.34976364724038 22.25436507731991 0
11.73027091771036 5.177188317157561 0
22.3239077118692 3.387226818292412 0
17.21636347272354 20.75930004030346 0
13.55309488316315 3.39802631051982 0
22.65884419979291 12.25290574960896 0
10.44442146724474 4.55090985962417 0
20.21107973675665 13.81607391163447 0
22.84615384295452 2.694780302450805 0
15.79226383730721 18.83908945301093 0
16.60739564810947 21.18475650947556 0
20.48154462187932 3.098104139345681 0
13.12083511745496 6.486061752786354 0
10.47752864487274 8.463413002552647 0
14.72818158461644 10.18391599757704 0
19.85440450333473 12.79992905683203 0
11.6225870094786 19.98317574940922 0
23.76186859396584 8.41829418162188 0
16.59715653545826 12.78281296517988 0
11.23050078313199 3.884539004246905 0
21.72067879562638 14.48172998619212 0
13.385096054469 6.712490269422311 0
23.07617009680757 18.26456599124542 0
11.04642449033092 22.68856482122907 0
20.40685926689518 7.614487960624985 0
10.5569002205312 4.327858224399188 0
10.53845728081407 4.012321667724144 0
21.14410397023608 9.013880225146911 0
24.00037993956492 14.68895743124158 0
12.48986442332162 16.20309386618517 0
12.9394542365567 21.31797209538275 0
23.36704755431665 19.24775644146359 0
13.62164228125645 7.795681779811781 0
24.64141878626962 11.04299178986588 0
11.6390965331364 16.82197064359269 0
17.05874442239199 13.26169686509717 0
22.63372205909108 19.30152699548434 0
23.40466951801566 4.751732470246654 0
21.69132801372986 10.98042056189414 0
21.49600475195783 4.740990464200641 0
21.63349532753998 5.232048635693348 0
13.3665474053207 4.769785490726401 0
12.08214534795045 5.256817878368083 0
14.40560917411391 19.48398215737862 0
24.23868098014519 19.1832898595218 0
16.79893476494334 16.33230516838476 0
10.49688671067857 9.900227747210957 0
21.37942584841056 5.718299106307195 0
11.02765089199707 12.02484564834262 0
14.80099150616731 17.69791608919684 0
21.81205754509182 16.44004826299979 0
11.56947536542831 7.79704801266982 0
24.11581462777832 4.244002810324669 0
23.74724366481413 16.24053545662334 0
24.63900622260393 10.77979931991254 0
14.13944416895801 7.137136021563042 0
22.07229643523809 12.97256140817347 0
11.41695340914327 3.659683511436656 0
22.72049373902971 11.95007239877085 0
13.39602093093237 18.86252219344311 0
12.60265263088275 5.817992631256176 0
12.32451218756521 5.423665055102322 0
12.22768476083352 8.310851318501195 0
11.65003076821535 23.07634258815259 0
12.28777512828833 14.14784743300116 0
12.01753327158989 24.00878214168205 0
22.72440172227612 8.305190603749198 0
18.17260446492431 16.4713769956658 0
10.40287614893325 6.659978114819215 0
18.34373321778288 17.97326387304112 0
21.04604046129842 4.356755872436873 0
12.60030301377076 20.70607189460892 0
12.40334773368711 6.273721664779477 0
23.06333389460441 6.279841657485414 0
10.7111921143136 13.8136748525094 0
15.31908202618735 22.00953798929395 0
11.99362022631369 21.51208995630557 0
24.15171151996278 13.09230633565665 0
18.13920268202506 21.12062514335237 0
24.61889975640359 11.54817625363717 0
12.99923682621171 13.29881797222639 0
23.99357033211506 2.787500824044728 0
24.30308503874586 16.94484347993158 0
11.87091118616499 3.133634218647247 0
10.3925002618071 11.00325159521843 0
24.53592452824026 8.520501193911318 0
22.41629809264279 5.804685178468922 0
20.11795427438919 18.24644180007979 0
21.38225996927887 7.798417093315267 0
24.04407873964598 6.07035576471275 0
14.21353068243017 18.28335329689093 0
10.74580389091628 11.17487256671324 0
14.97794423168971 13.48164704151286 0
24.14763640785878 10.27733997913375 0
22.90760572815872 4.310475717954048 0
16.28464225422471 13.50797194154149 0
11.47731648599558 17.40868506575739 0
22.86192440551514 6.44509252313614 0
11.53342309660677 18.53583300006552 0
20.77779400750554 11.22543909860818 0
23.11101635296455 17.03719847914643 0
14.24754043557732 21.0762847762629 0
10.44217955482215 17.72818457590061 0
12.31700494897819 8.805364652483176 0
20.74456686562047 4.375234742783509 0
11.71710827305846 11.49396266916826 0
13.62283274964757 3.66189089395639 0
10.84509912366067 11.53237246561628 0
22.51161024341523 20.08508029758698 0
16.0316260745448 15.89760798496184 0
10.26083343244303 23.34190956469695 0
10.91055575248092 14.3673544397255 0
21.18827692304062 19.38247534658034 0
10.85159865157681 13.31028635449302 0
23.06632982061847 14.06648845468295 0
14.93427364556801 21.25810814407737 0
14.46797449482596 21.7880815708284 0
21.76934010991054 7.353494869475402 0
10.98260738446538 21.58875849825035 0
17.8571428503134 14.06498105623528 0
21.56153085659641 14.16090941001538 0
24.53623201153248 6.003624935645412 0
21.57563985531353 19.9699363689383 0
22.08099193200675 4.219882823188796 0
11.8740433648681 20.43118723844016 0
20.32617886609 10.85542309377189 0
21.99021607316939 18.75206924232265 0
24.62158502363786 13.31644158649797 0
11.35839705555685 20.65733337792966 0
22.11103370677145 17.1953081721497 0
20.83081077393321 7.132834283033058 0
20.5301142354006 16.50110379514437 0
21.34252187549292 4.277757479633927 0
12.07556762790264 4.231326247042671 0
22.24796204128402 10.14320141708731 0
12.77692047743055 11.07741466027304 0
21.09188903963658 5.582922341615283 0
14.53654972676803 22.84378901128164 0
21.52501754583216 13.08631243680621 0
13.85354209303145 21.28358857348383 0
14.63035066649819 7.336078594549069 0
24.52642974440874 4.49878467665867 0
21.47362648474892 10.75224742012654 0
14.05202556462809 7.553490652607121 0
20.50708642489982 19.20319621225194 0
10.45597183413736 8.849988287007907 0
20.82943993497089 10.91684877653004 0
17.37526527132112 20.15078937275532 0
13.80726817622204 12.27519019693351 0
12.91895481628354 10.76879538480968 0
11.55390212705449 14.12768288275123 0
11.66954763417707 22.1223778829596 0
13.23407015996393 8.532197003215936 0
12.76233094323612 4.210319825250409 0
23.87564152249196 4.915651922700541 0
11.23782445120408 23.34091171185658 0
20.94075025570556 7.540591689986799 0
22.28069279792409 16.20579661118416 0
20.76768676349943 11.85240442245612 0
14.53741911037509 5.569928422064035 0
13.79804346067682 11.19155479599809 0
10.43925874729495 14.82056857245806 0
10.93854603962279 9.876463289632259 0
21.4693819883238 2.757994594291661 0
13.16193338426663 23.69034564290617 0
24.49161177532676 2.763523288998086 0
12.92256611927822 21.66946996824949 0
10.33117507347037 20.54736804093466 0
22.21721884903537 2.776273238040968 0
16.79352405249577 21.65654777266716 0
11.59883476020331 18.7906644809699 0
10.45312253298731 12.23320417524301 0
12.96658437646589 2.781991788223062 0
20.92244107906723 12.08593174919001 0
16.50252617812089 16.56734896507525 0
19.17918328535147 20.73008151304081 0
10.44491225312361 3.753136434593924 0
11.20534862169929 13.53128080408555 0
10.37538963833794 15.77519527022479 0
14.19926149425043 3.646254663346189 0
13.16719588087857 20.96736113671237 0
24.07868170699232 6.574692698848749 0
11.41506747420448 5.73776300560827 0
10.449537665126 9.556941442015345 0
14.24017044561773 23.29696716398153 0
10.78566726622464 15.44339275436957 0
22.36043406389564 6.67091405486962 0
12.38635180059093 3.874009829684447 0
13.67071867639633 21.53459367608281 0
14.79292410293153 20.02586160510942 0
23.31049230391348 18.40655488304307 0
11.73851645678312 3.79256618952259 0
23.99290318021702 17.52620341451543 0
20.89096042703074 6.536897010818485 0
12.14460448264725 7.751545498659849 0
20.57936575730792 13.76229915075804 0
10.59389354787984 19.1779249871177 0
17.95044091212716 22.1467773311182 0
22.71643168741412 10.82184711486651 0
19.78179409171116 13.1156874335016 0
10.62278807092 22.98093142271165 0
21.75378258823499 3.792398706112259 0
20.11122386820606 20.42908554099082 0
14.6162748369214 8.003634705308412 0
14.24229774891363 9.846268788715392 0
23.04197761500374 16.79585918404142 0
22.82662193122552 18.18756331997873 0
22.20447920896386 3.807911266546653 0
11.886231633546 8.454054473086314 0
24.68152374133757 16.89557219563422 0
19.45198801380881 19.26299786259632 0
11.95696392441599 10.83027401914469 0
12.43021605704013 19.43060639899755 0
11.84532387471895 23.4410454554331 0
23.43545250666969 7.85006596165876 0
13.41400369221219 19.77979189355343 0
12.92289470308341 4.824831279233601 0
12.75186666200392 3.227493372458224 0
20.6634442403687 21.1948782134927 0
22.613678839587 18.89617916992803 0
23.94818842576925 4.42153656598432 0
13.31086141496786 23.19394497200081 0
12.21765804770531 12.69915120564282 0
11.64335960774293 7.517637814643954 0
11.14841567818409 19.4405364659997 0
13.87334263695215 14.1574671991915 0
13.48958392846344 18.20858928216859 0
12.90651591727841 4.401370858404698 0
20.42761929200148 6.702461258095858 0
14.33284242963304 22.08143050898047 0
22.21659001429137 19.1318375020715 0
11.80311150441141 19.23004574832461 0
23.57409520313451 10.03396647259695 0
18.51005526886836 18.85126351505462 0
10.45756206076877 5.917623957438117 0
13.43609219973111 7.963678261391124 0
21.05364319546381 11.3996472476382 0
11.52314336468583 20.18912755984958 0
13.29615148173886 19.11694485639461 0
22.2086773358673 7.660186629675186 0
23.05424715299412 12.80735914954113 0
14.76198713918097 10.89548674920764 0
10.82230453165395 19.06638830989418 0
23.33978701934581 8.171189354180921 0
21.76422399398303 8.784619373306924 0
13.22226216988305 8.83117088359695 0
11.67130199590906 8.158036979934474 0
21.75095157237201 20.33112692372101 0
24.14909817000241 3.308060366823287 0
20.32962780455677 8.745966370286984 0
11.43938691644801 24.26705730505607 0
24.71420915655802 17.2832680922688 0
19.67598426638025 15.81192995675028 0
24.62983314449747 12.81089969441648 0
12.86301083669483 6.255358460316891 0
14.96899785807243 21.5761888661846 0
11.78355425437082 9.524643254554219 0
24.60476966224511 9.60450816578852 0
18.66071427914088 15.83174724337775 0
23.22369876332089 11.92413219461981 0
22.65507264624289 5.442600172310263 0
14.35422606438076 9.351243222897837 0
15.51535403534367 19.39938733443216 0
20.70742750473062 6.790856242027676 0
13.09052917129593 4.513240476989732 0
10.89436435072205 10.86914601499177 0
19.622003684998 14.11034445141973 0
10.44892408009133 6.399779154248463 0
22.82015369561136 13.62629635755347 0
24.09835252043953 11.01133504879784 0
22.23205899551019 11.08309221359203 0
24.3313385367289 18.91412140451884 0
15.51360972263271 14.12942508677684 0
13.35057644045447 5.756215403061476 0
24.08879061384776 8.848298845324035 0
20.84019063495432 8.528537792650573 0
21.91867996751214 5.485647894302616 0
11.82076169430973 18.91916425892216 0
22.34122735356907 7.149207031316429 0
23.78267107876913 6.476313265754666 0
11.45789396336172 11.08280617084049 0
23.23615596068111 7.059777655297782 0
20.3449315530747 15.63272294906127 0
23.54775943937163 11.08213195569212 0
14.26528779731927 20.64454924814102 0
12.21414345124442 3.152847754534321 0
19.79572603078617 17.72576777655919 0
13.80152215569689 5.712952401362508 0
22.15735491935445 3.5827797416242 0
10.69330868954567 12.78011695091954 0
12.22453883491972 3.79512548573185 0
24.27388356268805 15.66318862656437 0
12.16769024020343 3.601555234020926 0
21.27253162244121 14.20868821283465 0
17.64058337069114 13.13930773152197 0
20.59901946250713 10.76354092935379 0
12.5171834027022 9.956546278171336 0
10.99782196920163 5.603523741373661 0
16.67196806831304 13.42979870806984 0
14.49628553877321 3.109213616075737 0
15.31815779702165 19.65628946660577 0
21.25781187227564 13.64471159764926 0
19.19556283197879 18.53890886041458 0
11.87112676356503 11.82899116518534 0
12.12134081078601 2.726302356625095 0
22.10760217404391 20.680389753287 0
12.53382118242749 17.2303326177896 0
13.98583450662795 17.02610834734582 0
22.79327110034118 7.065270244983431 0
24.138961131626 9.41873263566224 0
11.55985979411346 6.628704242395106 0
24.66029987109821 16.05209233594627 0
11.42880227947811 8.674377054239562 0
15.38642055825512 22.27850596731253 0
14.68528431263503 21.0781523164066 0
22.4674432192884 4.241383145283366 0
24.55563070828761 6.39430367609371 0
18.01525969442465 12.70585200852684 0
23.58229863277477 19.40933763765866 0
24.5367230263773 3.021562952483478 0
11.22931078711481 23.76537269263987 0
20.6640173402748 18.02803251238764 0
21.76745547528611 17.74399535069261 0
10.28054939264884 19.74356589636043 0
18.86338692792667 16.4697633145224 0
14.27463609890998 15.87286881897134 0
23.36483924010149 16.20592302388275 0
16.21328103366008 20.86995717645259 0
24.29998483265549 16.00767918530511 0
18.53583790490385 16.61539157471766 0
10.86803501479192 4.752770590264513 0
21.70361378803549 4.772166994531863 0
18.5562793277671 20.03846958899107 0
16.84542256339775 19.95030223433567 0
18.64245235622547 17.24625621221118 0
11.86704227600952 4.56744667979291 0
10.48587047492629 3.101526856705294 0
14.19298778981204 11.95041544728071 0
12.34937067204081 3.408145036661506 0
12.20398896402531 10.32484641954998 0
15.322219626924 20.74775958096932 0
23.37927948345349 15.84752155322711 0
10.69550834410757 20.08393256595316 0
15.75435414800068 19.15721589877304 0
22.37733994904724 6.39937460661405 0
15.63883031790664 13.76009715978423 0
21.80019738823205 12.24295835679579 0
21.59838561551502 6.782030063727658 0
11.21025560095743 6.937660001260277 0
23.53894930966759 9.680512264668486 0
16.10241394006007 20.55698976755445 0
22.72140112504022 3.138478872038468 0
12.20414303365411 7.055042239338905 0
13.80142412499047 5.950592113601816 0
10.92567270823106 6.536961587966108 0
11.90515333874095 3.581936768471902 0
13.31847671142478 5.227745243636296 0
23.05556357497021 6.023604917506234 0
16.52176725775945 14.20574886185605 0
10.90526354672116 13.041800791734 0
13.62233144768632 22.84440488976902 0
24.31435228168064 12.80752044836277 0
21.16305112956937 18.60474257704354 0
23.48484093769954 6.61546385308301 0
11.76985851565193 7.053607499329883 0
13.24798874230216 7.356479274592687 0
21.28783926168948 11.24049551193935 0
24.7730990565033 19.07911183700986 0
21.82245839922931 19.08600220921616 0
24.25767591360046 8.39140582088523 0
19.27353033822533 19.95230746632219 0
15.71546298744161 21.07299620055013 0
15.08764130944197 14.158786671251 0
11.7748228724236 21.52763112800112 0
23.77872184505044 11.18924144392047 0
13.00834601915496 20.85600487172326 0
16.8237544972537 17.64548731007014 0
19.00565393977571 17.74811775507667 0
13.05610947167269 5.51180672790119 0
14.12711701851937 21.58608870036037 0
14.56674598622989 2.693128334468851 0
14.26971995849528 10.30976760648852 0
10.66985318042653 17.15528109151646 0
21.47262765872325 2.978344375247766 0
22.7212086197111 20.54998950836272 0
11.54708165293377 6.170319745284115 0
11.72162619361985 21.21266826553129 0
19.98756942329221 20.96067297977865 0
23.32172820979008 6.360907519621691 0
17.4443256781309 21.64983783967456 0
23.31967096478159 12.52004996026779 0
21.50869133774598 15.82909256420041 0
13.58070351809054 6.334510352651674 0
23.86651183227592 18.29945688596005 0
11.34514818237667 22.39930524791127 0
24.72273209712202 18.42054963315737 0
20.65431100622115 8.08511684453686 0
22.67015419463247 19.60748792672209 0
22.79208569055116 12.62301933314993 0
23.03235969844015 19.56620717956143 0
24.04960106254418 9.660141619289975 0
14.04120132655792 22.96911100735831 0
21.82574641093363 18.54135090102201 0
21.34830767735015 18.95354893555502 0
13.49146601440464 12.38157628422842 0
19.2008859370511 14.22282127035278 0
22.54795860898098 12.81170980108785 0
23.86862276726998 6.982153403475943 0
24.22510809632224 11.86539379378868 0
22.92154713279945 11.81409766212449 0
22.66930231736157 3.945205737106005 0
23.86501392657939 8.13821766509503 0
16.83693575645843 21.07444119544951 0
11.35550052371885 4.286189127713801 0
14.87276391203928 13.19087528196105 0
10.93172665485521 21.34314508626828 0
16.41047514167021 20.38729026802772 0
12.81637336446266 9.117736135924407 0
13.45832873893387 21.17058871058272 0
12.10189773814925 21.66455635465509 0
15.30581970402876 13.49494158684666 0
22.37364826257758 16.66295207080323 0
11.42508483917909 14.96021239746691 0
11.45548164247395 12.27756146097412 0
21.56571478893463 7.967451929648258 0
13.31007424246996 4.205134426170676 0
13.99478277717365 5.591090926247468 0
22.18460503682375 9.119380742179501 0
22.96494961510191 16.13477329175593 0
16.71544595463387 16.98246191737811 0
21.38213275517481 6.603757147254135 0
20.43350426577685 3.755195260297929 0
22.10166949770911 6.743600831723081 0
13.93187263726681 10.52574619211771 0
23.23034682567127 4.9096780161025 0
12.13291936333088 16.34882458597592 0
13.88562505779093 20.47815298365675 0
12.9055488210718 6.749939124069312 0
21.15756653121792 6.743660719819081 0
10.71318624527952 9.023702728074554 0
11.68072383780899 6.361188982408983 0
21.97509788793316 9.305751649329983 0
12.13148802931695 19.3327049214393 0
12.25312148664337 10.03273768778119 0
11.69820516758967 12.47177614880575 0
22.3681867911336 20.26868521503193 0
13.29457292264192 10.99747199374947 0
13.66426150641465 18.46388476703272 0
11.47786571892802 2.975170301151387 0
22.98000001218401 17.57289042616393 0
22.44916441704072 8.033236704011491 0
24.0534932635817 14.39914128647184 0
12.89204827361784 3.790190172435837 0
18.72195754498939 20.93832830389979 0
22.91408811808519 5.696220859258514 0
22.05868139060398 5.595094668568092 0
21.01241966783115 15.39796040221949 0
13.85021151474614 22.4326481070991 0
23.15380582339818 19.07842688600602 0
11.61946156356177 10.85920237790715 0
21.42963424203935 11.01781834336298 0
21.98007412857848 3.744787904036209 0
23.13493171954993 6.560493959569352 0
13.92816899097509 3.670489882893669 0
11.20244353136682 22.11006407208426 0
19.56054310923604 18.79902003027102 0
21.13282502685931 16.94128615158855 0
15.5786402595077 19.72259852613666 0
23.70583135186175 14.88596419031298 0
11.86786775756338 22.95752001884838 0
17.17097366100961 17.88265355232701 0
23.88461537219045 3.365665804080022 0
16.32449955557253 21.15186072915824 0
18.33658756995202 16.96775639471122 0
21.96209167984708 16.1688617606261 0
13.84624823586639 9.84859826092887 0
13.07912656547201 3.674956393877674 0
15.77182840960138 17.09904603493194 0
21.46154047226693 8.678125451025279 0
13.55100559471437 10.97916870421804 0
11.31888546590584 18.79922713996956 0
13.63350093113004 13.03413331850676 0
21.25797073086625 15.13070303164967 0
23.7490030308902 16.98264600516029 0
23.05358506999765 3.663527419770366 0
12.57545402682018 18.67702563670914 0
11.34707259810637 12.01730375645277 0
12.88366395054906 22.78012518912132 0
21.23148593659436 12.17683233399253 0
13.71304325748839 5.466091820295185 0
21.75303950835778 19.33511974184387 0
13.00304249453574 20.38321338350301 0
21.63008535250332 6.513955003319059 0
12.47424700271256 7.64525027810004 0
20.91286882723898 18.12320469942897 0
23.36104355437644 8.854595545366688 0
14.5003603873099 17.99832424685862 0
23.80455222790973 18.01967246021986 0
12.59592094039377 11.99246172102181 0
23.64594803680141 4.515880796497156 0
22.48008491746174 14.78813434335849 0
13.70694980550135 20.99132629627212 0
22.49752297512803 7.68307308472398 0
14.2822765941025 16.78584058964573 0
13.66817223321284 4.507092689974849 0
21.1521536598452 9.848558300258313 0
10.95233540388901 20.12163134421757 0
15.64035053046141 22.05379663879104 0
11.87059881071602 6.553302604007283 0
12.77546327001338 9.808499784565564 0
16.82542308195108 19.18387715542087 0
14.79040627432021 20.39636864904527 0
11.29948916095773 5.495783172173135 0
13.80987335238783 19.889626246693 0
23.39990066336027 10.85477944416537 0
19.77940116536945 17.37482074890018 0
18.44775455668377 21.01637828370815 0
13.20573423965559 17.4122809920954 0
14.65120134260168 21.4561558608451 0
15.80957260828577 18.38215600629396 0
22.22322314386418 9.812611856092094 0
23.40400619845005 13.23212159656692 0
11.72711280615674 17.18707313346674 0
18.13733306105582 18.87502078262871 0
13.53900520761719 8.675966196388908 0
11.84196006614303 19.91135106611071 0
22.41413911265038 12.00414396619618 0
11.29075381663264 16.10055541940335 0
19.22758812730286 20.29640079005432 0
23.13545259653076 15.96588172321023 0
20.57585899687691 20.03038685996466 0
12.01444841032207 3.794809649772094 0
11.37262928344868 7.490848850461937 0
11.59758407516694 13.21290787618692 0
17.68319065720613 20.20047272378111 0
23.54738931516998 7.504165015416591 0
21.34602232671731 5.451816946682533 0
13.41223109842119 6.469560083924283 0
11.09486961909182 3.654772193316215 0
23.73798698223264 5.512791000430767 0
22.38328617217428 13.03264685299864 0
21.30948803767646 4.521816400307292 0
11.24771570030957 9.845916293839183 0
13.94077673668662 11.99043147449467 0
22.08046136895814 18.53482746019463 0
22.55547391811836 19.81814671465054 0
20.81538603443029 19.10437865322412 0
23.64576767548568 11.99436770855389 0
17.46745245327346 21.35823966535727 0
21.45303446667529 13.39071440038339 0
21.09197765248628 3.647135782749221 0
14.77249100326519 22.41479023720862 0
21.24677540741892 7.570509823453728 0
22.84694429977077 18.39512888517675 0
11.2623410781495 14.34689994882266 0
11.29822652807628 4.502209127687744 0
14.70544858354533 19.24170464045017 0
13.68095065680673 18.80964007832862 0
11.65111594745088 8.841999800209598 0
13.75178247007794 7.567019553509235 0
11.29014084787456 20.95629418827145 0
23.82191165365971 9.83433406386121 0
11.04323394577158 23.56937700234072 0
12.64211052251335 6.112503203908227 0
22.36857714122567 6.117690959988381 0
24.06412241278059 18.9395191243878 0
12.11319616443689 20.58165039001846 0
22.37395526197963 10.80010776821202 0
POLYGONS 4764 19056
3 506 344 985
3 766 1043 1182
3 1043 2460 1182
3 408 812 2110
3 905 2495 1068
3 741 2425 816
3 938 399 751
3 206 207 895
3 543 371 1010
3 519 1038 1870
3 913 332 2321
3 1250 369 1837
3 1074 660 1312
3 2498 1035 455
3 1037 492 515
3 1019 753 894
3 966 117 1208
3 472 868 2123
3 616 464 1292
3 1101 2502 1536
3 2502 403 1536
3 475 1404 2186
3 990 2451 1090
3 333 806 1531
3 692 392 1204
3 731 44 1625
3 2098 780 1521
3 404 743 1912
3 210 211 850
3 872 450 1136
3 1106 376 2241
3 95 828 1471
3 860 376 1106
3 615 403 2181
3 414 1269 1195
3 151 1097 2216
3 920 322 1807
3 681 319 1866
3 429 920 1807
3 731 773 1205
3 244 245 1008
3 364 862 1256
3 2491 735 1913
3 423 872 1136
3 2517 681 1787
3 170 825 1915
3 463 780 2098
3 1098 2525 2175
3 2525 1062 2175
3 2462 1467 1910
3 44 731 1190
3 332 1015 892
3 665 2462 1910
3 761 632 2018
3 1036 286 1438
3 486 494 1059
3 497 1074 1312
3 333 736 1081
3 392 1033 1204
3 502 843 1044
3 810 2445 1994
3 945 471 1055
3 2480 1481 2182
3 464 616 1184
3 5 168 1594
3 1376 984 2171
3 796 458 978
3 407 2431 2361
3 776 1542 1290
3 786 1289 2095
3 466 1376 2171
3 30 31 779
3 344 443 985
3 681 2517 1187
3 1038 2516 2268
3 424 757 1297
3 61 62 566
3 162 1004 1569
3 111 625 1622
3 708 1250 1837
3 66 1247 2051
3 345 811 1116
3 2442 824 1853
3 330 481 1111
3 898 193 1962
3 533 1059 431
3 360 368 2321
3 304 626 2086
3 694 302 2086
3 420 914 1964
3 91 1024 1919
3 337 1038 2268
3 848 844 1440
3 516 908 1145
3 1290 1542 2023
3 368 913 2321
3 1056 744 1084
3 2453 1032 1149
3 931 468 1222
3 400 362 2189
3 625 111 1248
3 2444 1041 1393
3 1028 454 2120
3 806 581 884
3 375 1007 999
3 516 1145 1189
3 914 620 1964
3 449 737 2236
3 951 2488 1152
3 410 573 1144
3 806 333 2109
3 421 988 1865
3 633 388 1959
3 2495 905 2337
3 617 1239 1473
3 244 1008 1598
3 290 291 954
3 293 294 910
3 2482 1044 1803
3 902 2486 1137
3 1047 54 2128
3 416 326 917
3 167 5 1594
3 1030 2479 857
3 319 681 1187
3 617 1354 1239
3 727 532 1118
3 773 731 1625
3 2509 789 1773
3 290 954 1887
3 206 895 1735
3 770 569 1372
3 192 193 898
3 734 2487 1357
3 764 384 1948
3 535 1766 1154
3 1377 331 2045
3 530 314 1221
3 997 2529 1894
3 368 360 1527
3 1785 980 2195
3 977 379 2366
3 2476 777 1476
3 354 1169 1295
3 464 346 1496
3 656 1375 2404
3 830 763 2148
3 1451 364 1256
3 1601 89 1919
3 331 1193 2045
3 852 671 1801
3 537 2160 2405
3 329 1007 1086
3 2479 1030 1221
3 822 390 1640
3 1594 168 1915
3 554 802 1520
3 269 28 1016
3 965 2491 1913
3 399 938 2345
3 560 805 1516
3 748 786 2095
3 89 90 1919
3 2505 974 1817
3 843 502 1125
3 768 474 1146
3 355 357 1532
3 369 1250 2127
3 694 390 1320
3 390 694 1406
3 626 401 1714
3 1424 644 1403
3 317 919 1851
3 789 1361 1773
3 1060 2454 518
3 838 1088 1192
3 478 2466 1575
3 389 910 1636
3 2487 734 1256
3 1382 926 2399
3 403 2502 2181
3 1007 2436 1086
3 807 318 1576
3 688 902 1137
3 1389 2485 2083
3 1383 418 2007
3 788 263 2032
3 683 1150 2129
3 384 764 1719
3 401 626 1337
3 1766 678 1154
3 2445 894 1994
3 2451 990 1029
3 1532 519 1870
3 1321 383 2236
3 362 765 2189
3 157 1785 2195
3 377 877 1506
3 722 612 2335
3 1025 709 907
3 390 822 1320
3 718 228 1774
3 54 55 2128
3 293 910 1259
3 2485 1818 2083
3 2431 407 1641
3 168 169 1915
3 1041 318 1393
3 1076 2466 2004
3 419 992 1265
3 543 36 1388
3 631 1096 2054
3 2160 537 2230
3 566 62 2138
3 1440 844 1738
3 745 792 2134
3 690 935 1347
3 777 2476 1144
3 737 449 1344
3 2452 1166 1701
3 838 1192 1678
3 910 866 1636
3 411 1660 1720
3 743 404 1178
3 2520 963 1854
3 414 1195 1899
3 390 504 1708
3 833 724 857
3 740 507 1149
3 309 817 1138
3 896 1060 518
3 1375 430 2404
3 1044 473 1803
3 575 2471 2008
3 1166 881 1701
3 612 722 2197
3 724 833 1124
3 679 1201 1469
3 1408 838 1678
3 2431 1010 1089
3 2533 837 1315
3 1963 783 1281
3 2526 431 2110
3 757 424 1494
3 344 98 1808
3 699 1087 1909
3 1061 558 1791
3 974 2505 1893
3 2024 983 1260
3 760 1383 2007
3 805 560 1117
3 2505 983 2024
3 2120 454 2194
3 616 541 1953
3 1404 475 2197
3 1923 930 1227
3 763 830 1628
3 1733 353 2306
3 2427 730 1932
3 824 742 965
3 125 126 1065
3 475 612 2197
3 494 486 1730
3 521 754 1317
3 963 659 1179
3 1693 338 2011
3 783 562 1281
3 1057 1570 1838
3 1247 1001 2051
3 196 1106 2052
3 1660 459 1720
3 656 533 1375
3 753 577 1237
3 507 740 1646
3 419 666 1760
3 837 2533 1954
3 431 2022 2110
3 2517 821 1950
3 753 809 894
3 737 1321 2236
3 378 742 1930
3 724 1030 857
3 1791 558 1616
3 2466 1308 2004
3 73 74 1045
3 919 317 1438
3 326 416 1572
3 357 355 1490
3 388 633 1578
3 601 1049 2122
3 573 1414 1144
3 512 926 1382
3 333 577 1482
3 1902 869 2102
3 445 1468 2111
3 1200 380 2062
3 346 464 1184
3 811 345 1445
3 109 110 1042
3 1222 468 1637
3 94 95 1471
3 1019 894 2211
3 577 753 1357
3 416 917 2219
3 509 1695 1133
3 736 333 1482
3 744 378 1672
3 673 444 1129
3 612 475 819
3 451 906 1362
3 2443 1591 2419
3 876 356 2232
3 2471 1326 2008
3 964 966 1208
3 742 378 1476
3 378 744 1480
3 379 977 1904
3 49 50 397
3 979 1902 2102
3 672 773 1914
3 155 156 485
3 33 34 682
3 302 694 1320
3 579 695 1153
3 504 390 1406
3 1149 1032 2270
3 194 195 823
3 577 333 1531
3 425 1382 2399
3 666 419 1220
3 792 745 1748
3 1950 821 1706
3 488 986 1608
3 30 779 1728
3 1366 2457 1786
3 263 788 1145
3 116 117 966
3 1080 689 1670
3 982 1693 2011
3 773 672 1946
3 1107 591 2008
3 1203 787 2353
3 1096 396 2054
3 1250 2446 2127
3 964 918 1936
3 587 2442 1456
3 671 852 1783
3 1097 352 2216
3 943 717 1326
3 685 427 1091
3 397 546 1117
3 649 2493 1559
3 488 987 986
3 493 649 1559
3 367 974 1893
3 795 684 1879
3 362 400 1550
3 1015 332 1281
3 1481 608 2182
3 587 744 1672
3 687 1246 2319
3 151 152 1097
3 744 1056 1480
3 686 479 1611
3 627 2450 1552
3 2458 1292 1852
3 112 113 540
3 1246 693 2319
3 1046 655 2305
3 2452 330 1111
3 798 729 1970
3 1106 791 2052
3 1034 449 2236
3 607 348 921
3 870 352 1519
3 2442 587 1672
3 626 304 1337
3 395 833 2264
3 158 159 1052
3 314 2479 1221
3 950 1733 2306
3 1028 446 1283
3 1009 668 1648
3 1239 2433 1473
3 2444 335 1917
3 1038 565 2105
3 943 709 1350
3 666 177 2048
3 910 389 2012
3 2508 579 1153
3 2527 679 1469
3 309 1138 2339
3 98 99 1808
3 891 2497 1196
3 329 1086 1606
3 1010 2431 1641
3 792 738 1863
3 1292 464 1852
3 2471 907 1326
3 421 1865 2169
3 541 616 1292
3 564 997 1894
3 481 330 2409
3 2527 1863 2095
3 812 408 1815
3 617 2098 1521
3 612 2457 2335
3 1115 1191 1773
3 689 2196 1670
3 985 2430 2073
3 906 2497 1362
3 801 627 1552
3 2488 934 1152
3 2340 448 2353
3 715 1581 1358
3 1815 115 2170
3 489 2469 1700
3 455 1035 2100
3 1088 2433 1192
3 1065 126 1486
3 333 1081 2109
3 286 287 1438
3 744 587 1663
3 927 813 2282
3 127 3 1072
3 906 451 1795
3 560 397 1117
3 951 858 936
3 54 1047 1667
3 771 1159 1395
3 723 1035 1386
3 729 1018 1970
3 239 1170 2185
3 1231 879 2275
3 615 2181 2210
3 1704 64 1834
3 367 1509 1992
3 63 64 1704
3 699 1909 1157
3 2522 663 2380
3 517 499 725
3 1007 329 999
3 892 360 2321
3 428 440 1023
3 775 679 1289
3 667 1366 1786
3 946 2461 1077
3 527 990 1090
3 579 760 1434
3 713 941 1440
3 557 1300 2317
3 542 1222 1637
3 340 1231 2275
3 316 906 1795
3 963 741 1854
3 1041 2444 1927
3 717 1107 2008
3 1083 472 2123
3 877 712 1824
3 760 579 2006
3 2516 1038 2105
3 540 408 2022
3 868 472 1991
3 899 2508 1233
3 812 923 2110
3 2469 1231 1700
3 446 1028 2120
3 985 2073 1971
3 828 438 1471
3 906 316 1178
3 935 622 1347
3 900 689 1445
3 812 1815 2170
3 371 543 1388
3 2460 1043 2161
3 931 1222 2089
3 2486 902 1514
3 100 1228 1808
3 2018 632 2213
3 917 298 2219
3 384 645 1948
3 1549 724 1124
3 714 1923 1227
3 620 914 2028
3 682 391 2167
3 1509 574 1992
3 1570 553 1838
3 2450 627 1816
3 2451 1265 1177
3 1053 572 1997
3 627 801 2020
3 992 419 1760
3 709 1025 1941
3 474 2449 1146
3 153 1991 1394
3 2317 1300 2383
3 204 1348 2046
3 581 806 1932
3 1246 2460 2161
3 1241 603 2090
3 897 1432 1697
3 941 713 1308
3 66 67 1247
3 210 850 1402
3 1059 494 431
3 409 441 1391
3 1404 698 2186
3 949 1133 1780
3 1225 490 2100
3 808 1172 1810
3 1037 596 1568
3 2469 879 1231
3 2067 967 1589
3 569 770 1291
3 1432 501 1477
3 139 140 1118
3 169 170 1915
3 1159 2056 1395
3 613 1432 1477
3 687 2460 1246
3 742 824 1930
3 1037 2467 1845
3 204 205 1348
3 949 1780 1511
3 109 1042 2126
3 2429 846 2064
3 1168 507 2189
3 846 422 2064
3 1058 2522 1313
3 1027 2490 1523
3 986 2499 1608
3 1035 446 1386
3 684 795 1778
3 532 727 1640
3 1729 57 1431
3 813 452 2282
3 756 875 2227
3 963 1179 1236
3 1052 159 1878
3 809 753 1237
3 1991 472 1394
3 794 1200 2062
3 928 815 1571
3 228 229 1774
3 1591 1028 2419
3 2501 1018 2114
3 2446 1084 1663
3 2443 1267 1916
3 1500 2446 1663
3 510 2475 1100
3 1346 808 1810
3 636 510 1100
3 411 729 2300
3 612 1330 1784
3 424 508 1085
3 550 839 1366
3 987 360 986
3 283 21 803
3 717 943 1717
3 2496 1064 1135
3 644 1424 2185
3 763 957 2148
3 590 898 1962
3 850 211 1411
3 586 1287 1656
3 738 792 1748
3 2135 409 1391
3 663 2522 1509
3 2456 943 1350
3 833 857 2264
3 268 269 1016
3 974 367 1993
3 403 615 1700
3 444 721 1129
3 525 1356 1206
3 1041 933 1435
3 329 1606 2361
3 2467 1073 1425
3 806 884 1531
3 689 1080 1445
3 918 964 1208
3 517 519 1535
3 96 97 1021
3 90 91 1919
3 875 1805 2227
3 1617 738 1748
3 1004 162 1712
3 869 1070 1343
3 508 424 1559
3 497 988 1741
3 2497 891 1525
3 649 493 1928
3 56 1729 2128
3 632 761 2161
3 554 1520 2066
3 2490 692 1204
3 1092 924 2307
3 521 1317 1678
3 448 679 2353
3 22 283 1731
3 112 540 1248
3 266 915 2217
3 756 274 1307
3 877 377 1147
3 1049 1162 2122
3 274 756 2227
3 72 1980 2112
3 1728 779 1875
3 1772 2432 2177
3 1468 434 2111
3 540 2022 1105
3 438 1046 2305
3 555 1579 2156
3 807 1576 1173
3 303 304 2086
3 302 303 2086
3 838 946 1164
3 127 1072 1486
3 2432 955 2177
3 550 1009 1648
3 99 100 1808
3 1011 603 1233
3 987 76 1527
3 160 161 662
3 895 207 2220
3 775 1203 2353
3 655 1046 1283
3 971 2435 1624
3 352 870 2216
3 2497 906 1196
3 230 873 1774
3 405 1728 1875
3 706 904 1400
3 1139 93 2271
3 242 243 1074
3 1000 465 1835
3 283 1066 1731
3 440 2447 1023
3 645 384 2127
3 177 666 1220
3 658 2519 2123
3 383 911 1583
3 545 1095 1324
3 897 467 1432
3 2232 356 2058
3 2427 1932 2109
3 729 411 2114
3 931 2457 1784
3 708 874 1655
3 902 707 1514
3 471 1036 1160
3 455 490 1313
3 1317 728 1678
3 816 2425 1148
3 1488 1029 2377
3 1766 535 1384
3 1063 356 1296
3 447 1029 1488
3 2442 1853 2171
3 28 29 1016
3 104 795 1645
3 1057 450 1570
3 1295 1169 2017
3 596 1746 1633
3 239 240 1170
3 266 267 915
3 2097 658 2123
3 824 2442 1930
3 2465 1070 1655
3 2009 271 2028
3 336 1946 1860
3 842 658 2405
3 1069 634 2159
3 1070 869 1655
3 353 1733 1361
3 909 362 1550
3 1703 2467 1425
3 479 686 2160
3 1531 2472 1237
3 2466 1076 1575
3 809 2472 1761
3 470 1051 2017
3 607 588 1269
3 628 326 1572
3 1740 784 2284
3 1265 992 1177
3 427 685 2381
3 988 2495 1865
3 1037 515 1444
3 765 1168 2189
3 780 320 1900
3 1150 683 1174
3 519 517 725
3 427 865 1091
3 2472 809 1237
3 745 40 1626
3 507 1646 2189
3 787 2340 2353
3 712 877 1426
3 346 864 1496
3 492 1037 1568
3 571 824 1913
3 2435 1291 1624
3 577 1531 1237
3 763 898 710
3 999 329 2118
3 809 480 1994
3 354 754 1169
3 417 614 2356
3 321 1027 1523
3 652 1057 1111
3 1095 545 1889
3 2425 741 1236
3 730 2427 2333
3 583 840 2285
3 941 2506 1440
3 901 897 1750
3 579 2508 2006
3 1008 660 1598
3 754 354 889
3 1042 487 1756
3 963 2520 1989
3 903 560 1516
3 1057 2452 1111
3 33 682 1443
3 1424 404 1912
3 351 1012 2148
3 925 2424 1505
3 661 1191 1115
3 519 1532 1535
3 927 1241 2090
3 685 1958 2381
3 2426 876 1681
3 1899 1069 2159
3 723 1225 2100
3 2464 1336 1727
3 2424 925 1240
3 924 1689 2307
3 657 604 1724
3 627 363 1816
3 493 1871 2237
3 971 437 1135
3 500 951 1152
3 324 909 1550
3 1022 2503 2007
3 1694 2493 1972
3 1428 752 2241
3 638 102 1645
3 914 420 1340
3 494 1730 1105
3 989 2067 1589
3 876 2426 2247
3 786 775 1289
3 658 537 2405
3 495 578 1711
3 1034 2481 1492
3 765 362 1883
3 825 170 2130
3 185 186 1329
3 1030 724 1198
3 941 377 1506
3 391 682 1921
3 2481 1034 2250
3 2473 1617 1748
3 955 434 1468
3 834 258 1791
3 855 1052 1878
3 1695 509 2260
3 586 2441 1287
3 898 590 710
3 824 571 1853
3 935 690 2193
3 943 2456 1717
3 373 1271 2326
3 2431 1385 2361
3 1051 2441 2017
3 1591 2443 1916
3 960 21 1872
3 565 1038 1452
3 376 1428 2241
3 533 431 1305
3 480 809 1333
3 878 2435 1311
3 2447 440 1205
3 1746 596 2087
3 468 931 1784
3 1051 470 1354
3 588 607 967
3 40 745 2134
3 1040 2492 1524
3 2467 1037 1444
3 1695 962 1133
3 258 834 2151
3 486 1059 1370
3 1682 869 1343
3 2082 2485 2281
3 662 161 1569
3 1036 471 1996
3 370 878 1311
3 92 93 1139
3 1874 620 2028
3 682 529 1921
3 1168 765 1163
3 786 2533 1315
3 1313 2522 2380
3 1233 2508 2099
3 2490 1204 1484
3 1714 624 1698
3 679 2527 1289
3 795 104 1778
3 382 648 1948
3 648 764 1948
3 388 402 1959
3 1326 907 1457
3 1871 976 2237
3 718 338 1848
3 786 748 2091
3 417 331 1380
3 885 2431 1089
3 2295 1255 2258
3 348 607 1873
3 1040 2533 2091
3 853 2013 2129
3 2480 1280 1561
3 1863 738 2095
3 1253 613 1586
3 1045 74 1504
3 1329 186 1147
3 1581 2524 1358
3 1150 2509 2129
3 1267 385 1916
3 328 1255 2295
3 330 2452 1701
3 774 1290 2023
3 485 156 2195
3 1036 317 1160
3 704 1396 1218
3 657 1724 1743
3 854 2440 2301
3 392 692 1416
3 572 929 1997
3 2503 1121 1434
3 1018 2501 1592
3 2533 1953 1954
3 379 711 1573
3 2503 1434 2007
3 1330 468 1784
3 564 779 2077
3 363 627 1885
3 317 1036 1438
3 1754 465 1764
3 933 1041 1669
3 611 1754 1764
3 2533 1040 1953
3 863 342 1414
3 1980 675 2112
3 1005 1253 1586
3 1024 91 1293
3 1033 2501 1720
3 644 1170 1895
3 603 899 1233
3 2500 1168 1163
3 493 1664 1928
3 2522 1198 1509
3 395 913 2201
3 537 2097 2230
3 1267 506 1971
3 584 836 1270
3 582 1048 1528
3 529 682 1409
3 1035 2498 2257
3 404 1424 1403
3 487 799 1756
3 1049 327 1162
3 735 2491 1491
3 1081 736 1676
3 2126 1042 1756
3 139 1118 1437
3 1294 2474 2042
3 1726 365 1610
3 739 324 1687
3 362 909 2047
3 383 1583 2341
3 779 564 1894
3 2032 327 1844
3 454 1028 1591
3 840 456 2285
3 1056 1084 2116
3 462 478 1575
3 581 1000 1835
3 2457 931 1786
3 905 705 1604
3 2485 1470 2281
3 741 2186 1854
3 338 718 1632
3 1065 384 1719
3 1529 552 2117
3 106 1025 1547
3 940 1115 1773
3 1096 630 1158
3 946 1077 1164
3 2445 810 1508
3 626 1714 1698
3 392 905 2299
3 1038 337 1870
3 1271 1050 2326
3 1958 685 1857
3 1175 2464 1727
3 676 1695 2260
3 679 775 2353
3 1056 325 1884
3 1473 1088 1433
3 968 1056 1884
3 1025 106 1941
3 780 1900 1521
3 2160 686 2405
3 1017 476 1014
3 844 848 1262
3 353 789 1303
3 763 1634 2374
3 489 615 2033
3 585 1344 2060
3 1038 519 1452
3 1048 2471 1528
3 329 1385 2118
3 1012 830 2148
3 913 395 1963
3 904 2523 1400
3 840 583 1318
3 2097 485 2230
3 975 1694 1972
3 2534 736 1558
3 1428 2462 1623
3 1895 1170 2354
3 367 663 1509
3 2501 1033 1119
3 736 598 1558
3 102 103 1645
3 868 485 2097
3 2495 988 2142
3 915 539 2217
3 490 1058 1313
3 905 1068 2299
3 2120 867 1386
3 843 435 2344
3 55 56 2128
3 384 1065 1215
3 914 530 2009
3 697 1011 1233
3 2506 941 1506
3 1104 327 2032
3 192 898 1628
3 2013 683 2129
3 326 628 1338
3 2502 710 1207
3 722 839 2093
3 813 927 2090
3 261 262 908
3 1462 670 1563
3 944 217 1790
3 664 880 2265
3 385 1267 1971
3 1294 2042 1242
3 223 224 578
3 789 2509 1891
3 1688 958 2282
3 10 444 1806
3 1035 723 2100
3 897 2494 1750
3 754 521 1683
3 523 955 1468
3 1484 1204 1122
3 322 920 1451
3 944 363 1885
3 990 527 2061
3 1397 700 1762
3 914 2009 2028
3 1091 547 1857
3 850 381 1864
3 21 282 1872
3 363 2176 2049
3 628 1803 1338
3 952 375 1725
3 710 590 1207
3 297 298 917
3 506 1021 1890
3 904 720 1579
3 1249 398 1828
3 327 1049 2180
3 1065 953 1215
3 1296 356 1665
3 988 421 1741
3 807 289 1887
3 1057 652 1747
3 1170 644 2185
3 313 1477 1862
3 702 455 1313
3 867 1752 1386
3 2433 1088 1473
3 398 880 1828
3 488 1045 1504
3 2510 739 1837
3 259 260 1061
3 634 1069 1316
3 375 952 1907
3 986 360 1751
3 324 874 1687
3 504 784 1740
3 356 876 1665
3 332 913 1963
3 578 224 2334
3 779 31 2077
3 381 850 1903
3 954 561 1393
3 128 129 1378
3 557 584 1702
3 909 324 1869
3 1041 1927 1669
3 958 1749 2282
3 665 674 1984
3 344 506 1890
3 1002 1062 1737
3 616 1040 1524
3 787 1203 1966
3 349 971 1135
3 953 1065 1486
3 161 162 1569
3 879 2469 1716
3 1074 243 1598
3 1064 349 1135
3 951 500 2044
3 96 1021 2139
3 1679 671 1755
3 763 710 1634
3 1391 841 1441
3 2440 854 1911
3 2265 880 2002
3 284 22 2096
3 2186 698 1854
3 775 786 1315
3 1184 785 2179
3 2525 1264 2279
3 1247 661 2232
3 49 397 1659
3 1218 1396 2119
3 411 947 1660
3 2460 687 1465
3 1001 1247 2232
3 811 1080 1351
3 858 951 2044
3 444 673 1806
3 1432 613 1697
3 360 987 1527
3 2495 932 1865
3 632 1043 2029
3 659 994 1179
3 518 2454 1176
3 264 265 1104
3 508 2493 1694
3 539 915 1498
3 2020 801 2293
3 2425 1179 1998
3 1574 200 1614
3 918 571 1936
3 2252 948 2050
3 645 2446 1500
3 674 665 2210
3 36 37 1388
3 733 1679 1755
3 217 944 2278
3 2492 1040 1466
3 1280 715 1561
3 1200 794 2325
3 480 870 1519
3 957 503 2330
3 1078 12 1211
3 828 95 2139
3 947 670 1462
3 993 697 2099
3 848 415 1262
3 623 2126 1756
3 2521 1529 2117
3 312 27 1017
3 1629 311 1668
3 1071 505 2078
3 286 1036 1789
3 1008 245 1380
3 449 1034 1763
3 122 123 648
3 1040 616 1953
3 780 463 1925
3 1751 360 2315
3 829 321 1560
3 931 451 1786
3 2431 885 1385
3 356 1063 2074
3 2523 904 1579
3 821 2517 1787
3 1033 392 1839
3 7 227 1459
3 365 1400 1610
3 1413 557 2317
3 1044 843 2344
3 1958 653 2381
3 1089 1201 1882
3 1477 501 1862
3 747 1855 1869
3 823 590 1962
3 2455 970 1494
3 1917 335 1423
3 2468 1026 2385
3 1650 417 2356
3 363 944 1790
3 1018 729 2114
3 487 1042 1216
3 849 1462 1563
3 226 7 1459
3 514 1017 1014
3 994 583 1179
3 56 57 1729
3 220 221 1323
3 878 381 2418
3 318 1041 1576
3 692 2490 2200
3 1356 2477 1206
3 1073 2467 1167
3 1946 672 1666
3 471 945 1753
3 194 823 1962
3 197 198 860
3 982 578 2334
3 1904 977 2285
3 23 284 889
3 2493 508 1559
3 2453 1063 1296
3 839 722 2335
3 476 1485 1163
3 1085 2455 1494
3 1646 400 2189
3 2437 829 1560
3 911 2514 1583
3 1323 221 1213
3 887 535 1908
3 397 50 1422
3 758 1139 2271
3 1027 435 1533
3 1883 476 1163
3 978 458 1108
3 752 1428 1623
3 118 119 918
3 1514 621 1268
3 1069 600 1316
3 374 768 1146
3 883 828 2139
3 844 756 1307
3 1383 760 2298
3 778 2151 2368
3 450 1057 1747
3 668 1009 1657
3 1062 1002 2213
3 173 174 409
3 149 150 870
3 394 380 1455
3 873 379 1904
3 638 443 2266
3 2513 1674 2111
3 878 370 1401
3 708 1655 1902
3 1167 2467 1444
3 1847 2531 2053
3 1179 583 1998
3 682 34 1409
3 1280 2480 2182
3 588 967 2067
3 873 230 1123
3 445 831 1468
3 2488 951 1363
3 2484 935 1809
3 542 832 2214
3 733 796 1777
3 720 904 2267
3 336 1619 1946
3 382 645 2400
3 461 1051 1354
3 1827 686 1611
3 929 572 1812
3 364 920 1613
3 663 702 2380
3 1012 2088 2283
3 452 813 1488
3 1020 1264 1920
3 281 1053 1997
3 331 417 1650
3 446 1035 2154
3 1300 557 1702
3 1080 2424 1351
3 1042 110 1622
3 2461 946 1638
3 2022 494 1105
3 2477 947 1462
3 660 1008 1769
3 81 833 1905
3 1674 445 2111
3 1089 991 1201
3 733 1199 1957
3 546 397 1422
3 803 580 1577
3 1576 1041 1435
3 1090 2451 1177
3 2033 615 1910
3 2529 997 2122
3 397 560 2349
3 444 10 2009
3 1480 1056 1814
3 145 146 1000
3 947 2477 1660
3 2500 1050 1271
3 229 230 1774
3 1140 901 1750
3 736 1482 2101
3 863 573 1555
3 739 2510 2115
3 833 395 1905
3 1263 525 1206
3 1072 953 1486
3 796 733 1957
3 957 2330 2246
3 1050 2500 1513
3 292 293 1259
3 53 54 1667
3 729 358 2300
3 70 71 1079
3 381 878 1401
3 1007 375 1822
3 422 846 1541
3 832 542 2272
3 1397 1762 1566
3 497 1741 1512
3 379 873 1123
3 2514 981 2226
3 1076 527 1575
3 547 1072 1857
3 1579 720 2156
3 874 324 1802
3 1199 930 1957
3 510 636 1593
3 778 1369 2151
3 58 59 859
3 1255 437 1624
3 921 348 1621
3 1264 347 1920
3 645 382 1948
3 961 847 1278
3 778 1505 1537
3 2529 1498 1894
3 451 931 1795
3 387 2198 2409
3 1010 1641 1718
3 969 709 1941
3 886 921 1621
3 1344 585 1614
3 1095 2531 1324
3 16 929 2133
3 2464 1075 1510
3 1434 1121 1226
3 1021 883 2139
3 2436 1007 1478
3 1153 695 1788
3 2117 552 1965
3 439 1413 2317
3 86 1304 2143
3 2506 848 1440
3 998 2514 2226
3 36 543 1715
3 840 338 1632
3 815 928 1792
3 1304 974 2143
3 2088 189 2283
3 596 1037 1845
3 405 1016 1728
3 823 195 2052
3 458 796 1957
3 552 1485 1965
3 68 2013 1254
3 412 885 1707
3 309 310 817
3 1053 281 1937
3 350 803 1577
3 697 1950 2168
3 947 411 2300
3 1419 379 1573
3 1953 541 1954
3 435 843 1533
3 107 108 969
3 335 2444 1328
3 789 353 1361
3 573 863 1414
3 345 1116 1114
3 61 566 1798
3 847 961 2290
3 988 497 2142
3 1221 1030 1868
3 954 318 1887
3 759 889 2388
3 846 2429 1390
3 318 954 1393
3 2503 1022 2014
3 946 838 1797
3 183 184 1113
3 338 840 2011
3 228 718 1848
3 311 312 1668
3 1617 748 2095
3 513 1746 2087
3 165 1185 2398
3 1372 569 1699
3 928 1571 1551
3 2510 1417 2115
3 751 453 2221
3 563 1391 1441
3 1137 365 1217
3 603 1011 2090
3 1855 2448 1869
3 231 232 711
3 1039 2020 2293
3 709 943 1457
3 612 819 1330
3 1026 2468 2106
3 125 1065 1719
3 1273 1898 1398
3 306 1200 2325
3 987 488 1757
3 983 2505 1817
3 2435 878 1995
3 945 1055 2273
3 42 43 847
3 908 896 2131
3 2471 1048 1134
3 2127 384 1658
3 955 2432 1709
3 254 255 641
3 905 392 1416
3 363 1790 2176
3 898 763 1628
3 935 2193 1809
3 511 983 2415
3 590 823 1635
3 544 1116 1967
3 379 1419 2366
3 2521 1071 2078
3 2001 805 1243
3 324 739 2371
3 862 364 1908
3 895 642 1735
3 896 1061 2131
3 486 1831 1730
3 642 895 1850
3 953 1072 1417
3 605 816 1148
3 866 910 1861
3 1185 681 2398
3 748 1466 2091
3 1264 1020 2279
3 681 1185 1787
3 677 1150 1264
3 758 2252 2050
3 165 166 1185
3 792 1647 2134
3 889 759 1342
3 602 1793 1322
3 715 1280 1581
3 1048 582 1775
3 926 2459 1127
3 885 412 2118
3 770 1255 1624
3 527 1090 1575
3 719 374 1146
3 1505 716 1537
3 695 579 1226
3 1150 347 1264
3 913 368 2234
3 438 828 2184
3 2507 781 1398
3 641 593 1781
3 669 1729 1431
3 292 1259 2076
3 603 1241 1507
3 490 1225 2302
3 1016 29 1728
3 1831 487 1730
3 3 1958 1857
3 1552 2450 1543
3 2531 1095 2053
3 2455 1085 1489
3 654 1383 2298
3 632 2029 2175
3 589 1095 1889
3 1022 1526 2014
3 536 1067 2345
3 892 1015 2277
3 963 1989 2157
3 1064 2496 1691
3 465 1000 1607
3 2168 769 1651
3 1273 782 1898
3 1946 366 1860
3 681 1866 2398
3 301 302 1320
3 1080 811 1445
3 380 394 1690
3 767 1027 1533
3 1559 424 1871
3 1045 488 1830
3 1484 525 1523
3 801 1031 1335
3 383 1321 1565
3 76 77 1527
3 648 123 2208
3 1141 888 1197
3 1496 2182 1595
3 1443 682 2167
3 1116 811 1967
3 1264 2525 1843
3 2158 826 2322
3 340 846 2248
3 1417 1819 2115
3 670 947 1156
3 920 364 1451
3 705 905 1416
3 396 1096 1158
3 22 1317 2096
3 1689 2478 1270
3 1620 435 2036
3 781 2507 2373
3 781 610 1398
3 864 528 1496
3 2514 998 1583
3 427 817 1165
3 1378 129 1355
3 688 1137 1217
3 573 410 1303
3 2198 481 2409
3 911 383 1565
3 1078 1211 2401
3 86 87 1304
3 73 1045 1980
3 2468 1464 1793
3 12 1078 1307
3 738 1617 2095
3 341 817 2192
3 490 455 2100
3 646 821 2350
3 314 530 1340
3 1493 621 1514
3 304 305 1337
3 640 372 1724
3 2515 1141 1197
3 817 427 1138
3 1066 283 1499
3 662 695 1109
3 484 1610 1642
3 235 832 2272
3 1471 438 2252
3 1412 135 2284
3 906 1178 1196
3 20 285 967
3 349 1064 1448
3 1344 449 2060
3 876 1115 1681
3 28 269 0
3 560 903 1582
3 408 540 2107
3 485 868 1327
3 828 883 2184
3 2475 510 1359
3 804 1083 2055
3 614 417 1349
3 635 1508 2242
3 1046 1392 2419
3 318 807 1887
3 1711 578 2238
3 1128 606 1428
3 79 913 2234
3 972 597 2191
3 836 1689 1270
3 2472 884 1754
3 353 1303 2410
3 854 1620 2036
3 859 538 2080
3 1055 2484 1961
3 376 1128 1428
3 533 656 1988
3 974 1304 1817
3 514 1609 1629
3 1061 260 2131
3 1032 2453 1296
3 643 998 2226
3 874 2465 1655
3 346 1184 2179
3 84 85 1993
3 829 531 1911
3 334 1600 1928
3 2447 1619 2065
3 1016 405 1796
3 697 993 1407
3 1600 643 1928
3 435 1027 2036
3 535 887 1384
3 2457 612 1784
3 1894 1498 1875
3 1482 577 1357
3 530 914 1340
3 510 693 2331
3 320 780 2249
3 1845 2467 1703
3 1049 601 2030
3 479 1052 1483
3 450 872 1570
3 1014 362 2047
3 2481 1600 1181
3 1052 855 1483
3 1780 26 1511
3 881 1166 1339
3 2487 1482 1357
3 506 1267 1540
3 874 708 1687
3 1111 481 2244
3 1563 2434 2229
3 366 1946 1666
3 331 1008 1380
3 983 1024 2415
3 1760 666 1829
3 114 115 1815
3 1763 1034 1492
3 1192 2433 1553
3 442 1188 1235
3 2454 1060 1157
3 926 512 2314
3 1992 84 1993
3 660 1074 1598
3 1609 341 1629
3 546 1140 1750
3 1491 406 1257
3 597 972 1278
3 1950 769 2168
3 1178 404 1196
3 1885 627 2020
3 205 206 1735
3 51 52 1140
3 1764 148 1334
3 594 1473 1433
3 799 487 2320
3 2465 1802 1646
3 1529 343 2144
3 884 2472 1531
3 921 282 2416
3 585 1574 1614
3 1089 1010 2085
3 461 1354 1521
3 2450 1195 1543
3 902 688 1927
3 261 908 2131
3 2144 1050 1513
3 1599 2426 2178
3 695 662 1569
3 706 1400 1758
3 897 901 2152
3 2438 1760 1829
3 282 20 2416
3 2491 965 2212
3 1158 2513 2111
3 120 1376 1515
3 1039 437 1901
3 1389 436 1470
3 1599 691 1343
3 443 638 1938
3 696 892 2277
3 1476 378 1480
3 499 517 1112
3 155 485 1327
3 377 941 2121
3 1008 331 1377
3 791 1106 2241
3 913 79 2201
3 930 1199 1227
3 651 1599 1343
3 785 387 2409
3 1202 1653 2061
3 540 113 2107
3 768 374 1656
3 2441 1051 1287
3 915 405 1498
3 707 1423 2343
3 1072 547 1417
3 420 314 1340
3 437 1039 2308
3 2476 1476 1480
3 1071 2521 1661
3 1576 2470 1173
3 552 1529 2144
3 702 2024 2158
3 406 966 1257
3 2530 751 2221
3 2459 926 2314
3 1900 461 1521
3 923 650 1999
3 76 987 1757
3 1044 2482 2253
3 2462 1428 1319
3 525 1263 1560
3 1600 2481 2250
3 910 294 1861
3 1075 732 1352
3 443 1228 2266
3 436 900 2106
3 1052 479 1618
3 685 1091 1857
3 1083 2519 2055
3 598 736 2101
3 970 554 2203
3 872 433 1570
3 757 970 2203
3 1358 484 1642
3 226 1459 1693
3 523 932 1604
3 2515 1197 1858
3 966 964 1257
3 732 1323 1213
3 1496 528 2182
3 21 960 1643
3 1059 533 1988
3 2400 1456 2348
3 753 1019 2408
3 899 603 1507
3 26 2233 1511
3 722 1404 2197
3 2448 1855 1684
3 177 178 2048
3 2519 658 1880
3 2446 645 2127
3 1097 635 2242
3 268 1016 1796
3 1273 492 1568
3 1855 865 1684
3 1186 835 1574
3 585 1186 1574
3 62 63 2138
3 857 2479 2264
3 984 1456 2171
3 342 863 2070
3 1055 471 1160
3 1354 617 1521
3 1096 631 2288
3 2013 853 1254
3 153 154 1991
3 1608 2499 2018
3 871 2001 1243
3 456 1904 2285
3 1166 2452 1838
3 821 825 2350
3 1073 349 1448
3 264 1104 2032
3 497 1312 2142
3 1297 757 2333
3 2426 1599 2247
3 736 2534 1676
3 352 1097 2242
3 1058 490 2302
3 1068 2495 1309
3 328 1885 2020
3 2490 1027 2200
3 839 550 1648
3 1192 521 1678
3 1002 1608 2018
3 1510 1075 1352
3 2508 899 2006
3 2478 1689 1897
3 908 516 1605
3 707 1493 1514
3 44 45 1625
3 1356 525 1484
3 1067 399 2345
3 803 21 1643
3 894 2445 2211
3 2533 786 2091
3 362 1014 1883
3 860 835 2276
3 741 816 2186
3 412 556 1282
3 707 902 1917
3 158 1052 1785
3 721 1221 1868
3 25 1944 2249
3 1083 804 1825
3 2486 1514 1268
3 1209 171 1224
3 793 208 2094
3 1483 855 2103
3 1348 205 1735
3 1619 336 2065
3 2526 923 1999
3 584 1270 1771
3 1012 712 2088
3 317 912 1461
3 191 192 1628
3 306 307 1200
3 833 81 1124
3 508 1694 2313
3 639 2295 2258
3 817 341 1165
3 1563 2229 2310
3 2462 665 1623
3 1029 990 2377
3 2479 783 2264
3 1166 762 1339
3 832 1931 1886
3 1702 2434 1563
3 916 2484 1809
3 764 648 2208
3 1027 767 2200
3 702 663 1986
3 858 793 2094
3 1193 2515 1858
3 607 1269 1873
3 2490 1484 1523
3 1047 467 2152
3 95 96 2139
3 528 864 2205
3 1733 940 1361
3 2502 1207 2181
3 415 848 1161
3 1003 559 2068
3 802 554 2125
3 1002 1737 1286
3 538 859 1945
3 1012 351 2056
3 1145 788 1189
3 923 812 1234
3 896 518 2188
3 432 1053 1937
3 1003 2468 1739
3 1694 776 2313
3 2465 874 1802
3 1984 674 2378
3 2522 1058 1644
3 1207 674 2181
3 137 138 1276
3 375 999 1725
3 437 971 1624
3 515 492 2081
3 406 923 1234
3 499 802 2125
3 684 1048 1879
3 179 6 2132
3 712 1012 2056
3 2432 1102 1709
3 263 264 2032
3 701 917 2291
3 2330 2429 2355
3 467 897 2152
3 1931 743 1886
3 199 200 1574
3 502 1044 2253
3 623 969 2126
3 441 409 2318
3 832 235 1931
3 1396 650 1491
3 656 1979 1988
3 955 523 2177
3 1312 820 2142
3 467 1047 1896
3 2508 2037 2099
3 2427 1297 2333
3 929 526 2133
3 472 1083 2363
3 1113 388 1578
3 1414 342 2384
3 1561 715 2010
3 1009 550 2329
3 1802 400 1646
3 456 840 1632
3 2485 1389 1470
3 697 1233 2099
3 650 923 1696
3 10 271 2009
3 993 319 1187
3 997 601 2122
3 802 499 1922
3 1056 968 1814
3 804 1397 1508
3 254 641 1801
3 1067 536 2323
3 772 1336 2157
3 1083 635 2363
3 82 83 1549
3 1505 778 2368
3 1925 25 2249
3 1524 785 1184
3 2456 1067 1717
3 208 793 2220
3 817 310 2192
3 1392 2443 2419
3 641 852 1801
3 1812 572 2385
3 864 346 1151
3 872 423 1675
3 928 544 1792
3 881 864 1701
3 979 1250 1902
3 935 2484 1630
3 702 1313 2380
3 134 135 1412
3 729 798 1794
3 63 1704 2138
3 24 286 1789
3 372 640 1335
3 183 1113 1578
3 1211 576 2401
3 1979 2504 1988
3 835 860 2224
3 1350 709 1387
3 2471 575 1528
3 1739 2468 1793
3 1289 2527 2095
3 621 1454 1268
3 1287 768 1656
3 896 908 1605
3 1356 459 1660
3 1523 525 1560
3 434 955 1709
3 1115 876 2232
3 2437 1263 1493
3 2435 971 1627
3 1673 1003 2068
3 925 1505 2368
3 831 2497 1525
3 661 1115 2232
3 289 807 2292
3 1263 621 1493
3 2491 1396 1491
3 904 706 2229
3 482 1483 2103
3 6 180 2132
3 1378 394 1455
3 1855 547 1091
3 1075 2464 1453
3 1818 750 2083
3 1031 801 1552
3 225 226 1693
3 289 290 1887
3 459 1356 1484
3 360 892 2315
3 413 1193 1858
3 182 183 1578
3 1283 1046 2419
3 856 1161 1497
3 1397 2445 1508
3 751 2530 2027
3 1647 629 1832
3 670 1702 1563
3 2450 1069 1899
3 4 517 1535
3 2074 1447 2058
3 1263 2437 1560
3 1259 561 2076
3 558 1061 2188
3 570 482 2014
3 526 929 1114
3 2484 1055 1461
3 325 1056 2116
3 1048 684 1134
3 865 427 1165
3 2024 826 2158
3 834 1791 1616
3 1454 2477 1462
3 688 1217 2016
3 391 997 2167
3 889 354 2388
3 32 33 1443
3 932 922 1865
3 929 16 1997
3 1862 797 2031
3 1509 1198 2297
3 595 1068 1596
3 324 1550 1802
3 864 881 2205
3 622 935 1630
3 32 1443 2077
3 1010 371 2085
3 1866 319 2071
3 514 2047 1223
3 1366 839 2335
3 38 1647 1832
3 2484 912 1630
3 209 210 1402
3 938 1804 2345
3 2452 1057 1838
3 544 928 1332
3 518 1176 1371
3 587 1456 2400
3 1932 806 2109
3 1553 1169 1683
3 1568 596 1633
3 915 267 1796
3 710 2502 1634
3 419 1430 1220
3 1283 446 2154
3 1172 808 1770
3 846 1390 2248
3 250 1777 1132
3 690 1347 2057
3 214 215 1372
3 283 803 1499
3 1118 532 1437
3 25 299 1944
3 1641 407 1921
3 1467 429 1910
3 1101 503 1634
3 103 104 1645
3 1062 2525 2279
3 849 1454 1462
3 999 412 1725
3 295 296 1442
3 980 2160 2230
3 171 172 1224
3 640 801 1335
3 610 781 1562
3 2499 986 1751
3 1046 438 2184
3 1303 410 2410
3 1929 549 1092
3 847 597 1278
3 1801 671 1420
3 2314 512 1588
3 1442 296 2225
3 1280 528 1581
3 1333 809 1761
3 1205 440 2209
3 912 2484 1461
3 415 1161 2324
3 829 1911 1546
3 797 1862 1661
3 679 448 1201
3 883 1021 1540
3 19 1131 1937
3 655 1283 2154
3 709 969 1387
3 746 1447 2074
3 453 751 1590
3 2447 1205 1619
3 643 2226 2376
3 1008 1377 1769
3 314 420 1310
3 978 614 1767
3 1158 2111 1736
3 409 618 2318
3 701 1442 2225
3 492 426 2081
3 1606 407 2361
3 584 2434 1702
3 358 729 1794
3 917 701 2225
3 231 711 1123
3 1061 896 2188
3 242 1074 1364
3 1851 919 1173
3 824 965 1913
3 1201 991 1469
3 322 1451 2394
3 1372 639 2258
3 551 1095 2422
3 118 918 1208
3 782 1273 1568
3 517 4 1112
3 601 997 1759
3 1086 601 1606
3 1051 461 2358
3 319 993 2037
3 1193 331 1650
3 1609 514 1223
3 870 150 2216
3 755 1597 1189
3 875 756 2421
3 891 1196 1403
3 894 809 1994
3 922 932 1405
3 880 664 1985
3 2073 582 1916
3 553 916 1418
3 2010 715 1642
3 474 768 2358
3 256 257 1369
3 338 1459 1848
3 711 379 1123
3 2502 1101 1634
3 578 495 2362
3 1520 143 1230
3 827 1098 2175
3 482 570 1611
3 793 858 2044
3 431 2526 1305
3 1443 564 2077
3 321 1523 1560
3 543 1010 1718
3 182 1578 1744
3 2193 762 1809
3 2514 911 1436
3 26 300 2233
3 143 144 1230
3 1390 2429 2330
3 1408 728 2289
3 424 1085 1494
3 1161 856 2324
3 1166 1838 1418
3 459 1484 1122
3 405 915 1796
3 1161 771 1497
3 2468 1003 1673
3 618 409 1975
3 1862 501 1661
3 1131 19 1475
3 470 1169 1553
3 2475 2277 2407
3 211 212 1411
3 994 659 1275
3 1222 542 2214
3 237 238 1424
3 1021 506 1540
3 1063 2453 2015
3 2508 1153 2037
3 1007 1822 1478
3 997 391 1759
3 615 489 1700
3 1243 805 1446
3 1069 2450 1816
3 2498 2158 2322
3 2440 1671 2034
3 461 474 2358
3 245 246 1380
3 2497 831 1284
3 1908 535 1229
3 1000 146 1607
3 2480 1172 1770
3 467 1071 2389
3 912 622 1630
3 1068 595 2299
3 773 1625 1914
3 1094 2499 1751
3 663 367 1893
3 907 2471 1134
3 1205 773 1619
3 1657 315 1252
3 1188 2482 1235
3 873 1904 1530
3 476 1017 2031
3 645 1500 2400
3 611 1764 1334
3 1297 976 1871
3 550 1366 2370
3 385 2073 1916
3 1549 83 1973
3 343 859 2080
3 1291 770 1624
3 1597 516 1189
3 1376 466 1515
3 908 262 1145
3 711 973 1573
3 1712 1866 2071
3 280 1203 1475
3 1359 510 2331
3 960 580 1643
3 831 445 1284
3 1336 659 2157
3 934 548 1152
3 821 1787 1842
3 42 847 2290
3 1858 1197 1970
3 2428 2168 1651
3 1904 456 1530
3 1043 632 2161
3 1653 958 2061
3 1577 580 1360
3 529 1715 1718
3 1240 680 1351
3 997 564 2167
3 662 855 1878
3 1070 2465 1538
3 1777 796 1132
3 375 1087 1822
3 865 1855 1091
3 740 1149 2270
3 312 1017 1668
3 2463 1217 1726
3 756 844 1262
3 1362 445 1674
3 580 803 1643
3 58 859 1431
3 1090 462 1575
3 1508 810 2242
3 820 1596 1309
3 1346 2478 1897
3 1308 2466 1585
3 282 921 1872
3 691 1599 2178
3 838 1408 1797
3 332 1963 1281
3 236 1912 1931
3 909 1869 1223
3 969 108 2126
3 916 762 1418
3 1600 334 1181
3 1413 439 2338
3 2176 600 2049
3 669 1529 2078
3 524 1285 1763
3 643 649 1928
3 452 1488 2377
3 700 1212 1762
3 2441 586 2124
3 524 1766 1384
3 365 1137 1302
3 156 157 2195
3 2515 1193 1650
3 376 860 2276
3 1285 449 1763
3 984 648 2348
3 1360 580 1776
3 922 831 1525
3 648 984 1981
3 634 1075 2159
3 614 978 1108
3 2495 2142 1309
3 111 112 1248
3 556 412 1707
3 1082 361 1439
3 1596 1068 1309
3 983 511 1260
3 473 1044 2344
3 837 1203 1315
3 735 1491 1257
3 1348 995 2046
3 2212 965 1602
3 413 1686 1219
3 689 900 2346
3 561 1259 2141
3 216 217 2278
3 815 893 1909
3 1053 432 2342
3 1107 8 2183
3 332 892 2321
3 2090 1011 1820
3 593 641 1933
3 668 1657 1252
3 917 326 2291
3 852 641 1781
3 912 317 1851
3 652 1111 2244
3 639 1372 1952
3 2492 387 1325
3 2037 993 2099
3 1060 896 1605
3 591 575 2008
3 1921 407 1990
3 859 59 1945
3 522 942 1479
3 217 218 1790
3 175 176 1430
3 428 1023 2198
3 1182 704 1218
3 1724 604 1691
3 1212 861 1762
3 1168 2500 1271
3 836 584 1826
3 1096 2461 1214
3 576 1076 2004
3 821 646 1706
3 315 1408 2289
3 1137 2486 1302
3 350 1577 1721
3 505 1071 1896
3 433 872 1261
3 2469 489 2417
3 1724 1691 2395
3 1027 321 2036
3 563 2135 1391
3 637 1600 2250
3 918 119 1515
3 630 1096 1214
3 68 69 2013
3 374 719 1703
3 1599 939 2247
3 1191 853 2129
3 1087 375 1907
3 1671 531 1636
3 173 409 2135
3 658 842 1588
3 70 1079 2150
3 102 638 2266
3 724 1549 2297
3 2493 649 2025
3 696 1094 1751
3 1082 2519 1880
3 98 344 1890
3 1198 2522 1644
3 932 523 1405
3 387 2492 1876
3 149 870 1334
3 575 591 2231
3 233 234 1539
3 124 125 1719
3 766 1182 1218
3 38 39 1647
3 1508 635 1825
3 848 2506 1649
3 680 1967 1351
3 417 1380 2164
3 428 387 1876
3 578 982 2238
3 855 662 1109
3 572 1053 2147
3 479 482 1611
3 1076 576 1202
3 621 1263 1206
3 700 1082 1439
3 1905 395 2201
3 2475 1359 2277
3 443 344 1808
3 784 1412 2284
3 1689 924 1897
3 976 1081 1676
3 399 1067 2240
3 418 1022 2007
3 841 1833 1441
3 2516 1746 2268
3 1459 338 1693
3 2526 942 1305
3 788 2032 1844
3 973 711 2351
3 1869 2448 1223
3 1043 766 2029
3 638 1645 2146
3 285 23 1545
3 25 1925 2219
3 274 12 1307
3 586 604 2124
3 1321 995 1565
3 2510 1837 1301
3 440 597 2209
3 1955 342 1951
3 406 1491 1696
3 846 340 2275
3 641 255 1933
3 942 522 2332
3 2477 1454 1206
3 1029 447 1942
3 575 454 2392
3 580 960 1194
3 2477 1356 1660
3 942 704 1479
3 994 1275 1710
3 105 106 1547
3 368 1527 2035
3 1022 418 2243
3 693 510 2319
3 936 858 1864
3 622 912 2274
3 160 662 1878
3 451 1362 1674
3 1686 595 1219
3 1729 669 2078
3 342 1306 1951
3 281 19 1937
3 107 969 1941
3 1460 570 1889
3 926 1127 2399
3 1553 2433 1239
3 750 1818 1244
3 1620 854 2301
3 892 696 2315
3 386 1413 2338
3 623 1756 2393
3 2027 2530 1142
3 948 1856 2050
3 2173 960 1872
3 880 398 2002
3 2479 314 2149
3 583 994 1318
3 1285 2528 1186
3 523 1604 2177
3 985 443 1938
3 482 479 1483
3 20 967 2416
3 1597 699 1522
3 803 350 1499
3 409 174 1975
3 1388 629 1939
3 584 557 1826
3 51 1140 1422
3 649 643 2376
3 1217 365 1726
3 969 623 1387
3 1265 2451 1823
3 604 586 1341
3 1022 589 1526
3 259 1061 1791
3 1071 1661 2389
3 954 291 2076
3 440 428 2191
3 172 173 2135
3 542 1539 2272
3 597 440 2191
3 900 436 2346
3 842 2314 1588
3 901 1140 2145
3 882 1813 2240
3 249 978 1767
3 1493 707 2343
3 851 2317 2383
3 1084 979 2116
3 313 24 1477
3 1898 2507 1398
3 457 1594 1915
3 347 1150 1174
3 938 751 2027
3 381 936 1864
3 871 1753 1723
3 829 2437 1518
3 2518 1143 1781
3 2483 1219 1596
3 1311 2435 1627
3 1271 373 1799
3 2176 219 2218
3 2042 2474 2280
3 27 313 1862
3 1095 589 2422
3 640 2496 2293
3 371 1388 1939
3 1679 733 1777
3 1336 772 1727
3 197 860 1106
3 2511 1577 1360
3 1071 467 1896
3 505 1729 2078
3 387 785 1325
3 1067 2456 1381
3 886 2173 1872
3 1464 2468 2385
3 875 1847 2053
3 1118 140 1982
3 1577 2511 1721
3 746 1704 1834
3 783 2479 2149
3 600 2176 2218
3 2451 1029 1823
3 539 1498 2287
3 1347 2463 2057
3 796 978 1132
3 2480 1561 1172
3 561 954 2076
3 1225 272 1806
3 769 1833 1651
3 1107 717 2323
3 426 492 2235
3 1302 2486 1976
3 860 198 2224
3 1793 323 1322
3 1410 498 2318
3 889 284 2096
3 1185 457 1787
3 978 249 1132
3 187 188 1426
3 837 1131 1475
3 1846 609 1126
3 1454 849 1268
3 230 231 1123
3 777 1414 2384
3 1294 549 1929
3 426 1846 1126
3 1143 852 1781
3 1520 568 2066
3 484 1726 1610
3 557 1413 1826
3 1549 574 2297
3 1241 276 1680
3 1641 529 1718
3 349 1073 1167
3 361 1082 2084
3 2461 1096 2288
3 40 41 1626
3 1613 920 1467
3 887 1345 2316
3 394 1378 1355
3 2474 1783 2280
3 195 196 2052
3 830 1012 2283
3 1399 628 1572
3 1404 2511 1360
3 1310 420 1277
3 1308 713 2004
3 600 1069 2049
3 648 382 2348
3 1042 1622 1216
3 1506 877 1824
3 521 1192 1553
3 122 648 1981
3 815 1087 1907
3 1159 2506 1824
3 670 1300 1702
3 386 1929 1092
3 673 1129 2302
3 1381 882 2240
3 1021 97 1890
3 1203 775 1315
3 1127 1006 2399
3 27 1862 2031
3 1542 776 1694
3 866 1671 1636
3 493 1559 1871
3 1087 815 1909
3 106 107 1941
3 463 1399 1572
3 2293 2496 2308
3 1628 830 1421
3 862 1908 1229
3 826 1856 2322
3 711 232 2351
3 247 1349 2164
3 1393 561 1328
3 599 1167 1444
3 503 957 2374
3 1818 520 1244
3 845 1601 1919
3 1030 1198 1868
3 1203 837 1475
3 431 494 2022
3 412 999 2118
3 130 131 1365
3 1127 2459 1460
3 688 2016 1669
3 1942 441 2318
3 1275 534 1710
3 504 1276 1708
3 983 1817 1654
3 1231 340 1536
3 2430 985 1938
3 1326 717 2008
3 1781 593 1768
3 932 2495 2337
3 574 1549 1973
3 110 111 1622
3 698 1360 1776
3 698 1404 1360
3 1160 317 1461
3 80 81 1905
3 994 2532 1318
3 2487 1256 1353
3 1432 467 2389
3 601 1086 2030
3 885 1089 1882
3 1532 357 1535
3 970 757 1494
3 1979 656 2404
3 867 2120 2194
3 1256 862 1353
3 498 1942 2318
3 1729 505 2128
3 2474 1199 1755
3 402 388 1587
3 2470 1851 1173
3 1455 2312 2387
3 548 934 2357
3 1454 621 1206
3 1430 419 1410
3 1734 602 1322
3 488 1504 1757
3 2188 518 1371
3 530 444 2009
3 971 349 1627
3 2001 871 1723
3 1657 946 1797
3 1810 555 2156
3 1746 513 2268
3 2106 900 2155
3 654 2298 1507
3 1129 1058 2302
3 1228 443 1808
3 814 981 1821
3 537 658 2097
3 1865 922 2169
3 1375 522 1465
3 1922 142 1567
3 382 2400 2348
3 1014 476 1883
3 2494 1243 1446
3 921 886 1872
3 462 1090 1177
3 454 575 2231
3 893 815 1792
3 1072 3 1857
3 536 1107 2323
3 996 2453 2390
3 1074 497 1512
3 414 1175 1873
3 1442 866 1861
3 570 1526 1889
3 529 1409 1715
3 2196 716 1670
3 1078 844 1307
3 527 1076 1202
3 2298 899 1507
3 1242 520 2222
3 693 1246 1947
3 923 2526 2110
3 1529 2521 2078
3 145 1000 2092
3 1064 1341 1448
3 1724 372 1743
3 1304 845 1817
3 1756 799 2393
3 48 49 1659
3 531 829 1518
3 4 1535 1982
3 1144 2476 2263
3 104 105 1778
3 373 1631 1799
3 433 1261 2273
3 2150 1079 1174
3 1321 203 2046
3 410 1144 2263
3 2073 385 1971
3 65 1447 1834
3 1269 588 1195
3 374 1703 1425
3 1317 22 1731
3 315 1657 1797
3 981 592 1821
3 1537 716 1867
3 387 428 2198
3 618 1430 1410
3 699 1157 1522
3 498 1265 1823
3 1172 555 1810
3 361 1382 1716
3 2432 2269 1125
3 975 1542 1694
3 520 1818 2222
3 819 475 2003
3 1927 688 1669
3 1228 101 2266
3 1807 322 1956
3 934 2488 1562
3 506 985 1971
3 1640 727 1859
3 2519 1083 2123
3 2440 2034 2296
3 1081 976 2005
3 916 553 1449
3 1912 743 1931
3 1423 956 2343
3 1196 404 1403
3 1922 499 1112
3 267 268 1796
3 920 429 1467
3 1909 2454 1157
3 1561 555 1172
3 562 783 2149
3 1956 322 1906
3 1455 380 2312
3 251 252 1679
3 1079 71 2112
3 262 263 1145
3 350 1721 1252
3 403 1231 1536
3 558 2188 1371
3 1499 350 1892
3 1944 320 2249
3 460 1411 1800
3 348 1175 1727
3 119 120 1515
3 929 1812 1114
3 474 461 1900
3 1188 442 1924
3 176 177 1220
3 769 1950 1706
3 148 149 1334
3 1011 697 2168
3 604 657 2124
3 826 2024 1260
3 1017 27 2031
3 1050 2144 2080
3 1402 850 1864
3 554 970 2125
3 1754 884 1835
3 858 1402 1864
3 212 213 1800
3 1266 851 1794
3 545 1127 1460
3 1102 396 1709
3 2463 1726 2057
3 725 499 2140
3 2496 640 2395
3 187 1426 1450
3 631 1188 1924
3 1140 546 1422
3 544 893 1792
3 1047 2128 1896
3 749 1979 2404
3 1783 2474 1755
3 959 642 1850
3 147 148 1764
3 863 1555 1098
3 871 1253 2402
3 725 2455 1093
3 1084 2446 2413
3 653 1378 1455
3 1369 593 1933
3 798 1266 1794
3 1414 777 1144
3 120 121 1376
3 113 114 2107
3 1655 869 1902
3 979 1084 2413
3 2532 2011 1318
3 784 504 1373
3 571 918 2228
3 1095 551 2053
3 1345 606 2316
3 2442 1672 1930
3 247 248 1349
3 1466 1040 2091
3 2453 996 2015
3 1087 699 1822
3 1451 734 2394
3 1672 378 1930
3 957 763 2374
3 1066 1499 1892
3 1402 858 2094
3 870 480 1779
3 850 1411 1903
3 72 73 1980
3 1246 761 1947
3 377 1329 1147
3 60 61 1798
3 1714 401 2002
3 1430 618 1975
3 923 406 1696
3 1411 460 1903
3 64 65 1834
3 741 963 1236
3 762 916 1809
3 1054 1310 1277
3 196 197 1106
3 705 1772 2177
3 703 996 2390
3 1695 2449 1548
3 959 2514 1436
3 1033 1720 1122
3 154 155 1327
3 589 1022 2243
3 951 936 1363
3 457 1185 1978
3 424 1297 1871
3 214 1372 1699
3 381 1903 2418
3 2357 934 2207
3 1075 634 1841
3 559 1346 1897
3 1292 2458 1331
3 2519 1082 2055
3 2455 725 2140
3 234 235 2272
3 503 1101 2248
3 1282 952 1725
3 2011 840 1318
3 635 1083 1825
3 1131 432 1937
3 295 1442 1861
3 1411 212 1800
3 1269 414 1873
3 1191 661 1238
3 1647 792 1495
3 853 1191 1238
3 622 1934 1210
3 395 783 1963
3 1874 938 2027
3 758 1471 2252
3 2151 834 2368
3 668 1721 2369
3 1110 1337 2325
3 965 742 1602
3 855 1121 2103
3 2128 505 1896
3 141 142 1922
3 453 1288 1979
3 981 2514 1556
3 2464 1175 1453
3 996 469 2015
3 802 1922 1567
3 1424 238 2185
3 8 1107 1099
3 258 259 1791
3 1554 888 2136
3 29 30 1728
3 1645 795 2146
3 256 1369 1933
3 144 145 2092
3 2486 1268 1976
3 770 1372 2258
3 592 2357 2207
3 478 462 1587
3 1250 708 1902
3 1385 885 2118
3 893 2454 1909
3 962 1695 1548
3 71 72 2112
3 1726 484 2057
3 1098 827 2070
3 1554 2136 1943
3 1253 1005 2402
3 327 1104 1502
3 1131 837 1954
3 2494 897 1697
3 620 1874 2027
3 970 2455 2140
3 1000 581 2262
3 1535 357 1982
3 868 2097 2123
3 1853 466 2171
3 314 1310 2149
3 1343 1070 1745
3 2501 1686 1592
3 1870 337 2162
3 401 2265 2002
3 1358 2524 1836
3 651 1343 1745
3 2484 916 1961
3 734 1451 1256
3 1800 213 1699
3 455 702 2158
3 591 1107 2183
3 2478 1346 1810
3 1195 2450 1899
3 1631 996 1799
3 719 1120 1987
3 1349 417 2164
3 1203 280 1966
3 1291 2435 1995
3 1077 442 1164
3 2056 351 1395
3 942 2526 1999
3 398 1714 2002
3 2518 1537 1867
3 257 258 2151
3 1434 760 2007
3 45 46 1914
3 597 847 2163
3 388 478 1587
3 1847 875 1379
3 1024 983 1654
3 1720 2501 2114
3 703 1168 1271
3 539 1104 2217
3 732 1075 1841
3 355 1870 2162
3 128 1378 1958
3 1516 805 2001
3 845 1304 2303
3 1175 348 1873
3 629 1647 1495
3 23 889 1342
3 1135 437 2308
3 794 1110 2325
3 2506 1506 1824
3 907 709 1457
3 863 1098 2070
3 1121 855 1109
3 592 981 2357
3 1550 400 1802
3 1276 138 1437
3 884 581 1835
3 2506 1159 1649
3 137 1276 1740
3 394 1365 1690
3 1578 633 1744
3 1179 2425 1236
3 223 578 2362
3 1077 2461 2288
3 967 607 2416
3 308 309 2339
3 1143 520 2042
3 184 185 2108
3 1625 45 1914
3 1088 838 1164
3 714 1294 1929
3 172 2135 1224
3 727 1490 1859
3 1524 2492 1325
3 1023 2447 2137
3 2424 1080 1670
3 469 996 1631
3 1150 677 1891
3 43 44 1190
3 429 2033 1910
3 642 959 1436
3 2144 343 2080
3 2509 1150 1891
3 659 963 2157
3 203 204 2046
3 1863 2527 1469
3 784 624 2261
3 1464 572 2147
3 2434 584 1771
3 1212 2469 2417
3 1085 508 2313
3 2181 674 2210
3 1648 668 2369
3 321 829 1546
3 357 1490 2166
3 1193 413 2045
3 1159 771 1649
3 1631 373 2256
3 673 1225 1806
3 1140 52 2145
3 411 1720 2114
3 981 814 2226
3 825 821 1842
3 185 1329 2108
3 478 388 2019
3 1593 430 1503
3 1026 1812 2385
3 1730 625 1105
3 297 917 2225
3 1017 514 1668
3 354 1295 2388
3 1350 623 2393
3 236 237 1912
3 1143 2518 1244
3 801 640 2293
3 1720 459 1122
3 1094 696 2331
3 519 725 1452
3 2033 861 2417
3 586 491 1341
3 1534 726 2064
3 520 1143 1244
3 2233 339 1511
3 1459 227 1848
3 208 209 2094
3 157 158 1785
3 380 1200 2312
3 559 1003 2251
3 606 1128 2316
3 437 1255 1901
3 618 1410 2318
3 1347 622 1210
3 2513 1564 1251
3 2514 959 1556
3 1104 539 1502
3 646 1209 1441
3 790 1218 2119
3 1084 744 1663
3 1128 2528 2316
3 1282 279 1926
3 822 1640 1859
3 17 1571 1926
3 616 1524 1184
3 671 1679 1420
3 1217 2463 2016
3 869 1682 2102
3 241 242 1364
3 847 43 1190
3 442 1088 1164
3 2464 1510 2360
3 2532 994 1710
3 1232 636 1692
3 654 1241 1680
3 1442 701 2034
3 2496 1135 2308
3 489 2033 2417
3 444 530 1968
3 511 1139 2050
3 2520 1776 1194
3 446 2120 1386
3 337 1685 1881
3 996 703 1799
3 1476 777 1918
3 253 254 1801
3 101 102 2266
3 162 163 1712
3 2365 1972 1821
3 866 1442 2034
3 808 1003 2403
3 452 1688 2282
3 1086 2436 2030
3 272 1225 1517
3 751 399 1590
3 491 586 1656
3 1158 630 1584
3 401 1337 1110
3 721 444 1968
3 2512 1419 1573
3 819 2512 1330
3 647 1113 2108
3 1320 822 2372
3 607 921 2416
3 1039 2293 2308
3 1344 201 2021
3 887 2316 2199
3 425 1541 2245
3 175 1430 1975
3 734 1357 2408
3 1104 265 2217
3 1489 1085 2313
3 2466 478 2187
3 959 548 1556
3 276 1241 1415
3 1209 563 1441
3 635 1097 2363
3 561 2141 1328
3 966 406 1234
3 1002 2018 2213
3 691 1682 1343
3 2483 1596 2420
3 1833 769 1706
3 1082 700 2391
3 388 1113 2019
3 116 966 2170
3 2498 455 2158
3 998 643 1615
3 487 1831 2320
3 1400 2523 1610
3 1731 1066 2289
3 1139 758 2050
3 1528 575 2392
3 532 1640 1708
3 495 1544 2362
3 905 1604 2337
3 1938 638 2146
3 1341 491 1448
3 1288 2504 1979
3 1505 2424 1670
3 484 1358 1836
3 1310 1054 2352
3 816 475 2186
3 924 2082 2281
3 684 1778 1547
3 1570 433 1449
3 530 1221 1968
3 2449 474 2423
3 1856 826 1260
3 1593 636 1232
3 1541 879 2245
3 1121 695 1226
3 514 1014 2047
3 1664 2534 2165
3 1113 647 2019
3 35 36 1715
3 699 1597 1478
3 2141 335 1328
3 1204 1033 1122
3 683 2150 1174
3 1097 152 1394
3 334 1664 2165
3 569 1800 1699
3 939 1032 1296
3 1060 1605 1522
3 614 1349 1767
3 1605 516 1522
3 1721 668 1252
3 131 132 1985
3 189 190 2283
3 780 1925 2249
3 1539 973 2351
3 1762 567 1566
3 2029 827 2175
3 1285 524 2199
3 2513 1158 1584
3 792 1863 1495
3 2528 1285 2199
3 1032 939 2072
3 250 251 1777
3 2200 767 1652
3 2474 1294 1227
3 704 942 2202
3 1564 2513 1584
3 1656 374 1425
3 1031 1552 1543
3 1121 2503 2103
3 386 1092 2307
3 1273 610 2235
3 207 208 2220
3 1295 657 2388
3 1789 1005 1586
3 527 1202 2061
3 952 1571 1907
3 1120 676 1987
3 599 1311 1627
3 500 1152 1367
3 430 1593 1232
3 2173 2520 1194
3 844 1078 1738
3 1153 1004 2071
3 1003 808 2251
3 2191 428 1130
3 1529 669 2041
3 227 228 1848
3 1310 562 2149
3 526 1332 1374
3 1198 1644 1868
3 1113 184 2108
3 2494 1253 1243
3 1372 215 1952
3 1170 240 1487
3 936 381 1299
3 1664 493 2237
3 294 295 1861
3 582 1528 2392
3 1554 930 1923
3 1175 414 1453
3 163 164 1866
3 2509 1191 2129
3 2133 526 1374
3 159 160 1878
3 975 1972 2365
3 50 51 1422
3 412 1282 1725
3 1985 132 1828
3 629 1388 1832
3 52 53 2145
3 624 784 1373
3 422 1541 2153
3 1354 470 1239
3 944 1885 2295
3 47 48 1298
3 343 1529 2041
3 712 1426 2088
3 541 1292 1331
3 1162 2529 2122
3 1664 334 1928
3 937 1863 1469
3 78 79 2234
3 442 1235 1433
3 706 1302 1976
3 491 1656 1425
3 1944 962 1548
3 1880 658 1588
3 114 1815 2107
3 355 1532 1870
3 587 1500 1663
3 1430 176 1220
3 1294 714 1227
3 2453 1149 2390
3 1169 754 1683
3 75 76 1757
3 2480 1770 1481
3 1253 2494 1697
3 2454 893 1176
3 1221 721 1968
3 687 1593 1503
3 291 292 2076
3 2512 819 2364
3 528 1280 2182
3 422 2153 2311
3 1591 582 2392
3 882 1381 2320
3 1594 457 1978
3 1426 877 1450
3 477 1659 2349
3 1490 339 1859
3 1490 727 2166
3 1489 776 1290
3 2524 1581 2026
3 2446 1250 2413
3 726 1847 1379
3 2330 1013 2246
3 562 1310 2352
3 2439 1849 2294
3 1847 726 1534
3 171 1209 2130
3 1748 745 2309
3 553 1570 1449
3 1250 979 2413
3 1329 647 2108
3 742 1476 1918
3 634 1323 1841
3 358 1300 1156
3 2439 1554 1923
3 728 1731 2289
3 783 395 2264
3 646 1833 1706
3 754 889 2096
3 1159 712 2056
3 1255 328 1901
3 1265 498 1410
3 768 1287 2358
3 53 1667 2145
3 991 1089 2085
3 548 959 1367
3 1679 252 1420
3 222 223 2362
3 1601 845 2303
3 1583 998 1615
3 818 1170 1487
3 637 1583 1615
3 1266 2439 2294
3 201 1344 1614
3 1555 2525 1098
3 1991 154 1327
3 1253 871 1243
3 716 1505 1670
3 453 1979 2221
3 636 2039 1692
3 492 1273 2235
3 511 1856 1260
3 731 1205 2209
3 1329 377 1279
3 1276 504 1740
3 233 1539 2351
3 2022 408 2110
3 1579 555 2010
3 1911 854 1546
3 650 1396 2202
3 209 1402 2094
3 952 1282 1926
3 1571 952 1926
3 613 1477 1586
3 1365 664 1690
3 512 1382 2084
3 1305 942 2332
3 2528 1128 2367
3 620 2027 1142
3 1610 2523 1642
3 1025 907 1463
3 2269 843 1125
3 1491 650 1696
3 325 1682 1765
3 800 1138 2059
3 565 1489 1290
3 1231 403 1700
3 2138 469 1631
3 595 1686 1119
3 1682 691 1765
3 92 1139 1293
3 1378 653 1958
3 1396 704 2202
3 728 1317 1731
3 323 1464 2147
3 320 1944 1548
3 1571 815 1907
3 1346 559 2251
3 595 1839 2299
3 684 1547 1463
3 2483 1377 2045
3 1619 773 1946
3 1209 646 2350
3 1128 376 2276
3 1297 2427 2005
3 2489 1516 2001
3 2111 434 1736
3 34 35 1409
3 97 98 1890
3 1667 1047 2152
3 1671 2440 1911
3 193 194 1962
3 1357 753 2408
3 1369 778 2104
3 831 922 1405
3 977 1998 2285
3 2184 883 1392
3 1141 614 1108
3 704 1182 1479
3 531 1671 1911
3 336 1136 1747
3 1397 804 2391
3 976 1297 2005
3 695 1121 1109
3 2316 2528 2199
3 430 1375 1503
3 804 1508 1825
3 307 308 2239
3 1261 945 2273
3 2042 520 1242
3 2511 1404 2093
3 475 816 2003
3 1323 732 1841
3 288 289 2292
3 1188 631 1472
3 761 1246 2161
3 1247 67 1254
3 201 202 2021
3 882 1831 2359
3 1154 678 1558
3 299 26 1780
3 1362 2497 1284
3 1989 772 2157
3 700 1397 2391
3 1055 1160 1461
3 1382 425 2245
3 1026 2106 2155
3 460 1800 1155
3 2223 789 1891
3 1212 700 1439
3 1300 670 1156
3 1811 372 2172
3 1139 511 2415
3 1288 882 2359
3 356 2074 2058
3 1168 703 2411
3 1045 1830 1722
3 859 343 2041
3 359 2039 1100
3 555 1561 2010
3 1127 545 1324
3 1541 425 2153
3 74 75 1504
3 2462 1613 1467
3 1490 355 1974
3 2162 337 1881
3 1116 526 1114
3 396 1102 2054
3 1165 341 1684
3 140 4 1982
3 3 128 1958
3 57 58 1431
3 166 167 1978
3 1215 953 2304
3 393 1617 1662
3 566 2138 1631
3 610 1273 1398
3 2320 1381 2254
3 1225 723 1517
3 1182 2460 1368
3 507 1168 2411
3 2444 1393 1328
3 861 1212 2417
3 967 285 1589
3 713 1440 1738
3 1107 536 1099
3 2081 370 1713
3 1241 927 1415
3 1034 2236 2341
3 1944 299 1780
3 1738 1078 2401
3 1626 961 2309
3 1235 594 1433
3 532 1276 1437
3 623 1350 1387
3 661 1247 1238
3 1259 910 2012
3 1979 749 2221
3 167 1594 1978
3 39 40 2134
3 384 1215 1658
3 1176 680 1371
3 16 281 1997
3 1011 2168 1820
3 1830 496 1722
3 2360 1510 1705
3 1617 2473 1662
3 1635 823 2336
3 1375 533 2332
3 851 1266 2294
3 852 1143 2280
3 2482 1803 1603
3 1416 692 1652
3 680 1240 2327
3 2499 1094 2190
3 1019 2211 1906
3 2211 567 1906
3 2473 1748 2309
3 87 88 2303
3 1371 680 2327
3 893 544 1171
3 1482 2487 2101
3 1800 569 1155
3 2469 1212 2206
3 1323 634 1316
3 594 1235 1399
3 1075 1453 2159
3 2168 2428 1820
3 1149 507 2411
3 1498 2529 2287
3 515 2081 1713
3 1534 422 2311
3 549 1294 1242
3 2425 1998 1148
3 1717 1067 2323
3 1737 496 1286
3 647 1329 1279
3 1013 2330 2355
3 613 1253 1697
3 1555 573 2223
3 316 1222 2214
3 2182 608 1595
3 1585 377 2121
3 2468 1673 2106
3 808 1346 2251
3 569 1291 1155
3 2065 336 1747
3 1369 257 2151
3 677 1555 2223
3 1382 361 2084
3 445 1362 1284
3 345 1812 2155
3 1803 628 1603
3 795 1879 2146
3 728 1408 1678
3 2086 626 1698
3 130 1365 1355
3 1542 975 2373
3 593 1369 2104
3 1866 164 2398
3 1162 327 1502
3 1228 100 2347
3 529 1641 1921
3 88 1601 2303
3 483 1984 2378
3 2141 1259 2012
3 582 2073 1775
3 563 1209 1224
3 794 2062 2265
3 1964 620 1142
3 776 1489 2313
3 1839 595 1119
3 1300 358 2383
3 1339 762 2193
3 1544 222 2362
3 483 1635 2336
3 253 1801 1420
3 1191 2509 1773
3 1312 660 1769
3 1361 940 1773
3 566 1631 2256
3 241 1364 1487
3 1006 1127 1324
3 1268 849 1976
3 1363 936 1299
3 1141 2515 2356
3 1661 501 2389
3 816 605 2003
3 1582 477 2349
3 1917 902 1927
3 24 1789 1586
3 903 1516 2063
3 743 1178 1886
3 301 1320 2372
3 946 1657 1638
3 203 1321 2000
3 692 2200 1652
3 2476 1480 1814
3 1477 24 1586
3 2523 1579 2010
3 1836 690 2057
3 1285 1186 2060
3 1064 1691 1341
3 574 1509 2297
3 1170 818 2354
3 564 1443 2167
3 1653 277 1782
3 712 1159 1824
3 237 1424 1912
3 721 1644 1129
3 198 199 2224
3 270 8 1099
3 1468 831 1405
3 1812 1026 2155
3 677 2223 1891
3 1741 818 1512
3 1640 390 1708
3 2212 890 1955
3 790 2212 1955
3 2458 1888 1331
3 2529 1162 2287
3 1321 737 2000
3 619 1274 2215
3 1364 818 1487
3 1207 590 1635
3 1564 667 1251
3 972 2191 1130
3 188 189 2088
3 609 1363 1299
3 1028 1283 2419
3 2507 1542 2373
3 1185 166 1978
3 1849 439 2294
3 1142 2530 2039
3 31 32 2077
3 341 1609 1684
3 551 1805 2053
3 1102 502 2054
3 436 1389 2346
3 449 1285 2060
3 943 1326 1457
3 471 1753 2402
3 413 1219 2045
3 2463 1347 1210
3 1661 2521 2117
3 888 1141 2136
3 1222 316 2089
3 1604 932 2337
3 465 1754 1835
3 1581 2205 2026
3 1390 503 2248
3 1634 503 2374
3 69 70 2150
3 170 171 2130
3 1925 463 1572
3 522 1375 2332
3 1805 875 2053
3 1365 394 1355
3 488 1608 1830
3 1677 273 1501
3 1787 457 1842
3 705 1416 1652
3 605 1419 2364
3 1606 601 1759
3 359 1142 2039
3 391 1921 1990
3 1337 305 2325
3 11 272 1517
3 2037 1153 2071
3 719 1146 1120
3 15 276 1415
3 235 236 1931
3 1733 950 2178
3 651 2270 2072
3 995 1321 2046
3 1644 1058 1129
3 101 1228 2347
3 2426 1733 2178
3 599 1627 1167
3 421 1895 2354
3 565 1290 2105
3 1456 2442 2171
3 2512 1637 1330
3 1637 468 1330
3 2270 1032 2072
3 602 1734 1481
3 1295 2441 2124
3 1913 735 1936
3 2459 1827 1460
3 1301 1215 2304
3 766 1306 2029
3 571 1913 1936
3 810 1994 1519
3 1994 480 1519
3 2039 636 1100
3 2069 47 1298
3 1290 774 2105
3 200 201 1614
3 1306 827 2029
3 1885 328 2295
3 1778 105 1547
3 94 1471 2271
3 939 1296 1665
3 550 1564 2329
3 521 1553 1683
3 1813 882 1288
3 2326 538 2256
3 614 1141 2356
3 1419 605 2366
3 280 18 1966
3 1365 131 1985
3 496 1737 1314
3 91 92 1293
3 1737 1020 1314
3 4 141 1112
3 881 1339 2026
3 1376 121 1981
3 422 1534 2064
3 278 16 2133
3 248 249 1767
3 464 1496 1595
3 2456 1350 2393
3 1404 722 2093
3 1817 845 1654
3 664 1365 1985
3 1389 689 2346
3 147 1764 1607
3 1082 1880 2084
3 1219 2483 2045
3 984 1376 1981
3 538 1798 2256
3 727 1118 2166
3 453 1813 1288
3 1585 2466 2187
3 1764 465 1607
3 1671 866 2034
3 581 1932 2113
3 1984 483 1612
3 1138 427 2059
3 1571 17 1551
3 108 109 2126
3 218 219 2176
3 334 2165 1181
3 277 1653 1211
3 1146 2449 1120
3 2165 678 1181
3 752 1984 1612
3 2277 1015 2407
3 1583 637 2341
3 1046 2184 1392
3 2244 481 2198
3 2457 1366 2335
3 1749 15 1415
3 339 1490 1974
3 1033 1839 1119
3 1807 861 2033
3 471 2402 1996
3 81 82 1124
3 60 1798 1945
3 414 1899 2159
3 260 261 2131
3 737 1344 2021
3 377 1585 1279
3 279 1282 2386
3 1255 770 2258
3 2531 1847 1534
3 715 1358 1642
3 1752 11 1517
3 748 1617 2204
3 1516 2489 2063
3 2375 911 1565
3 1915 825 1842
3 1527 77 2035
3 2444 1917 1927
3 1739 602 2403
3 2016 933 1669
3 1804 270 1099
3 1636 531 1935
3 1489 565 1093
3 1863 937 1495
3 572 1464 2385
3 1417 2510 2304
3 1989 886 1621
3 1023 2244 2198
3 273 1677 2183
3 1198 724 2297
3 14 1383 1680
3 1470 559 2281
3 1304 87 2303
3 1888 323 2342
3 219 220 2218
3 2236 383 2341
3 602 1770 2403
3 713 1738 2401
3 1715 543 1718
3 1201 448 1882
3 364 1613 1345
3 220 1323 2218
3 678 1766 1181
3 2439 1923 1849
3 1959 402 1429
3 1838 553 1418
3 2020 1039 1901
3 1789 1036 1996
3 1312 1769 2420
3 1766 2481 1181
3 1613 606 1345
3 1485 2500 1163
3 79 80 2201
3 2510 1301 2304
3 1627 349 1167
3 93 94 2271
3 1998 977 1148
3 1471 758 2271
3 2178 950 1765
3 691 2178 1765
3 1401 370 1126
3 1001 2232 2058
3 1001 1447 2051
3 115 116 2170
3 1474 473 2301
3 1447 65 2051
3 774 1580 2105
3 1364 1074 1512
3 2500 1485 1513
3 2523 2010 1642
3 1464 323 1793
3 1219 595 1596
3 457 1915 1842
3 805 1117 1446
3 442 1077 1924
3 1317 754 2096
3 1539 234 2272
3 9 1874 2028
3 714 1929 2338
3 1734 2458 1852
3 1470 436 2068
3 124 1719 2208
3 2438 1959 1429
3 1178 316 1886
3 1734 608 1481
3 2437 1493 2343
3 1785 1052 1618
3 689 1389 2083
3 582 1591 1916
3 1746 2516 1580
3 298 25 2219
3 1719 764 2208
3 865 1165 1684
3 473 1474 1338
3 1388 37 1832
3 887 1908 1345
3 328 2020 1901
3 707 1917 1423
3 429 1807 2033
3 152 153 1394
3 1199 2474 1227
3 953 1417 2304
3 1934 933 1210
3 762 1166 1418
3 797 1661 2117
3 1169 470 2017
3 181 182 1744
3 396 1158 1736
3 310 311 2192
3 1580 774 1898
3 348 1727 1621
3 428 1876 1130
3 12 277 1211
3 1199 733 1755
3 370 1311 1713
3 1379 875 2421
3 794 2265 1110
3 1396 2491 2119
3 624 1406 1698
3 989 1811 2172
3 1742 275 1180
3 1419 2512 2364
3 1580 2516 2105
3 2448 1609 1223
3 1609 2448 1684
3 1581 528 2205
3 962 1944 1780
3 1695 676 1120
3 191 1628 1421
3 2445 1397 1566
3 1919 1024 1654
3 1431 859 2041
3 1225 673 2302
3 1798 538 1945
3 1638 1009 1214
3 1383 14 1427
3 523 1468 1405
3 782 1746 1580
3 1252 315 1892
3 1339 2524 2026
3 330 2179 2409
3 813 2090 1820
3 1629 341 2192
3 271 9 2028
3 1311 599 1713
3 359 1964 1142
3 1428 606 1319
3 2503 2014 2103
3 67 68 1254
3 1485 552 1513
3 143 1520 1567
3 8 273 2183
3 2239 308 2339
3 1805 13 2227
3 745 1626 2309
3 1274 619 2286
3 1241 654 1507
3 238 239 2185
3 1004 1153 1788
3 1688 990 2061
3 602 1739 1793
3 1408 315 1797
3 1545 759 1811
3 819 2003 2364
3 1200 307 2239
3 1770 602 1481
3 243 244 1598
3 367 1992 1993
3 845 1919 1654
3 880 1985 1828
3 484 1836 2057
3 275 1742 1427
3 1950 697 1407
3 1520 802 1567
3 1714 398 2261
3 2003 605 2364
3 719 1845 1703
3 659 1336 1275
3 941 1308 2121
3 1003 1739 2403
3 545 1460 1889
3 2016 2463 1210
3 1380 246 2164
3 389 1636 1935
3 992 1760 1429
3 782 1580 1898
3 15 1749 1782
3 1693 982 2334
3 2458 1734 1322
3 1385 329 2361
3 186 187 1450
3 2449 1695 1120
3 326 1474 2291
3 2081 426 1126
3 1186 585 2060
3 1447 1001 2058
3 117 118 1208
3 13 1805 1180
3 11 1752 1501
3 249 250 1132
3 1412 784 2261
3 1617 393 2204
3 1447 746 1834
3 1282 556 2386
3 883 1267 1392
3 432 1131 2038
3 1438 287 1639
3 696 1359 2331
3 1564 630 2329
3 642 1348 1735
3 150 151 2216
3 221 222 1213
3 416 1925 1572
3 265 266 2217
3 1102 2432 1125
3 1554 2439 1977
3 144 2092 1230
3 647 1585 2187
3 1366 667 2370
3 296 297 2225
3 2440 1474 2301
3 1456 984 2348
3 1336 2464 2360
3 1849 714 2338
3 17 278 1551
3 88 1 1840
3 1647 39 2134
3 950 2306 1884
3 695 1569 1788
3 1147 186 1450
3 9 270 1272
3 1727 772 1621
3 2515 1650 2356
3 927 1749 1415
3 2262 581 2113
3 958 1653 1782
3 2524 1339 2414
3 1291 1995 1155
3 2187 478 2019
3 14 275 1427
3 1452 725 1093
3 1667 901 2145
3 1888 432 1331
3 797 2117 1965
3 2455 1489 1093
3 1161 848 1649
3 785 1524 1325
3 2492 1466 1983
3 1498 405 1875
3 136 137 1740
3 514 1629 1668
3 413 1858 1592
3 765 1883 1163
3 448 1707 1882
3 501 1432 2389
3 1274 633 2215
3 2014 482 2103
3 1474 326 1338
3 1620 473 2344
3 1375 1465 1503
3 767 1772 1652
3 579 1434 1226
3 1816 363 2049
3 1276 532 1708
3 1716 1382 2245
3 133 134 1249
3 1088 442 1433
3 546 1750 1446
3 901 1667 2152
3 723 1752 1517
3 594 1399 2098
3 330 1701 1151
3 750 1244 1867
3 567 1762 1956
3 888 1554 1977
3 879 1541 2275
3 202 203 2000
3 1858 1018 1592
3 677 1264 1843
3 1762 861 1956
3 696 1751 2315
3 1827 2459 2397
3 13 274 2227
3 1604 705 2177
3 867 1677 1501
3 240 241 1487
3 1545 23 1342
3 2482 1188 2253
3 1235 2482 1603
3 598 1154 1558
3 1152 548 1367
3 1474 2440 2296
3 285 1545 1589
3 2169 891 1895
3 1539 542 2412
3 772 1989 1621
3 2432 1772 2269
3 973 1539 2412
3 559 1470 2068
3 369 2127 1658
3 1701 864 1151
3 1829 619 2215
3 1564 550 2370
3 277 15 1782
3 83 84 1973
3 1466 748 2204
3 1760 2438 1429
3 2024 702 1986
3 1569 1004 1788
3 270 1804 1272
3 1923 714 1849
3 526 1116 1332
3 782 1568 1633
3 41 42 2290
3 1794 851 2383
3 273 11 1501
3 708 1837 1687
3 419 1265 1410
3 1518 2437 2343
3 287 288 1639
3 989 1545 1811
3 1659 397 2349
3 126 127 1486
3 568 1520 1230
3 2214 832 1886
3 1445 345 2155
3 225 1693 2334
3 886 1989 2173
3 315 2289 1892
3 272 10 1806
3 1400 365 1758
3 1426 188 2088
3 2470 1576 1435
3 1485 476 1965
3 1707 885 1882
3 215 216 1952
3 276 14 1680
3 311 1629 2192
3 570 1827 1611
3 2 101 2347
3 1500 587 2400
3 2441 1295 2017
3 1704 746 1877
3 347 1174 2406
3 469 1704 1877
3 672 2069 1666
3 995 2375 1565
3 608 1734 1852
3 930 1554 1943
3 300 301 2372
3 531 1518 1935
3 1417 547 1819
3 1827 570 1460
3 1274 181 1744
3 1244 2518 1867
3 421 2169 1895
3 703 1271 1799
3 19 280 1475
3 441 1942 1969
3 146 147 1607
3 121 122 1981
3 1174 1079 2406
3 65 66 2051
3 1218 790 1951
3 2534 1664 2237
3 1541 846 2275
3 174 175 1975
3 1055 1961 2273
3 766 1218 1951
3 305 306 2325
3 1555 677 1843
3 1308 1585 2121
3 686 1827 2397
3 632 2175 2213
3 1910 615 2210
3 138 139 1437
3 1593 687 2319
3 2175 1062 2213
3 698 1776 1854
3 665 1910 2210
3 462 1177 1458
3 1270 720 1771
3 1383 654 1680
3 77 78 2035
3 2069 477 1666
3 2136 458 1943
3 59 60 1945
3 666 2048 1829
3 2518 1781 1768
3 2461 1638 1214
3 2013 69 2150
3 868 1991 1327
3 275 13 1180
3 199 1574 2224
3 1673 436 2106
3 1815 408 2107
3 46 47 1557
3 335 2141 2396
3 1925 416 2219
3 1819 747 2115
3 510 1593 2319
3 180 181 2286
3 624 1714 2261
3 1187 2517 1407
3 1270 2478 2156
3 1811 759 1743
3 516 1597 1522
3 1874 9 1272
3 504 1406 1373
3 232 233 2351
3 1406 694 1698
3 1622 625 1216
3 255 256 1933
3 1704 469 2138
3 451 1674 2079
3 771 1161 1649
3 37 38 1832
3 671 1783 1755
3 2478 1810 2156
3 956 1518 2343
3 678 2165 1558
3 190 191 1421
3 536 1804 1099
3 1831 486 2359
3 433 1961 1449
3 800 2059 2387
3 1653 576 1211
3 1942 447 1969
3 1989 2520 2173
3 2331 693 1947
3 358 1794 2383
3 512 1880 1588
3 1934 622 2274
3 1599 651 2072
3 667 1564 2370
3 85 86 2143
3 2525 1555 1843
3 2048 619 1829
3 224 225 2334
3 606 1613 1319
3 1682 325 2102
3 1961 916 1449
3 164 165 2398
3 939 1599 2072
3 1677 591 2183
3 759 1545 1342
3 1597 755 1949
3 1709 396 1736
3 549 2082 1092
3 1837 739 1687
3 89 1601 1840
3 657 1295 2124
3 919 1438 1639
3 2278 944 2295
3 251 1679 1777
3 643 1600 1615
3 466 1853 2228
3 2011 2532 2238
3 1600 637 1615
3 1786 451 2079
3 2141 389 2396
3 1769 2483 2420
3 542 1637 2412
3 1542 2507 2023
3 1267 2443 1392
3 1967 680 1171
3 1333 611 1779
3 252 253 1420
3 972 1258 1278
3 2424 1240 1351
3 2142 820 1309
3 1094 2331 1947
3 778 1537 2104
3 1413 836 1826
3 919 2292 1173
3 2532 1711 2238
3 854 2036 1546
3 178 179 1960
3 213 214 1699
3 1790 218 2176
3 639 2278 2295
3 1637 2512 2075
3 717 1717 2323
3 1879 2430 2146
3 432 1888 2342
3 2489 1261 1675
3 1754 611 1761
3 100 2 2347
3 1711 534 1705
3 123 124 2208
3 454 1591 2392
3 1117 546 1446
3 1515 466 2228
3 900 1445 2155
3 1518 956 1935
3 534 2360 1705
3 246 247 2164
3 551 1742 1180
3 2292 807 1173
3 559 1897 2281
3 340 2248 1536
3 2063 423 1103
3 142 143 1567
3 1851 2470 2274
3 611 1334 1779
3 1888 2458 1322
3 1608 1002 1286
3 2031 797 1965
3 1 89 1840
3 2036 321 1546
3 619 2132 2286
3 372 1811 1743
3 1749 958 1782
3 476 2031 1965
3 1752 867 1501
3 1613 2462 1319
3 279 17 1926
3 891 1403 1895
3 1403 644 1895
3 1869 324 2371
3 402 1587 1458
3 134 1412 1249
3 1776 2520 1854
3 690 1836 2414
3 499 2125 2140
3 1261 872 1675
3 1537 2518 1768
3 1644 721 1868
3 418 1383 1427
3 653 1455 2387
3 2125 970 2140
3 674 1207 2378
3 1657 1009 1638
3 129 130 1355
3 683 2013 2150
3 372 1335 2172
3 132 133 1828
3 1853 571 2228
3 434 1709 1736
3 1845 719 1987
3 133 1249 1828
3 2248 1101 1536
3 1822 699 1478
3 720 1270 2156
3 1674 2513 1251
3 547 1855 1819
3 136 1740 2284
3 1399 463 2098
3 2439 1266 1977
3 2517 1950 1407
3 1510 495 1705
3 480 1333 1779
3 495 1510 1352
3 591 1677 2231
3 1406 624 1373
3 1544 495 1352
3 1526 570 2014
3 222 1544 1213
3 1753 945 1723
3 1689 836 2307
3 1069 1816 2049
3 2470 1934 2274
3 1526 589 1889
3 18 279 2386
3 407 1606 1990
3 1547 1025 1463
3 849 1563 2310
3 534 1711 1710
3 1029 1942 1823
3 82 1549 1124
3 1303 789 2223
3 1601 88 1840
3 2066 730 2203
3 1742 418 1427
3 1691 604 1341
3 323 2147 2342
3 576 1653 1202
3 933 2016 1210
3 1267 883 1540
3 1686 413 1592
3 502 1102 1125
3 2306 968 1884
3 1746 782 1633
3 1805 551 1180
3 1266 798 2379
3 2226 814 2376
3 747 1869 2371
3 135 136 2284
3 1893 2505 1986
3 1116 544 1332
3 1413 386 2307
3 820 1312 2420
3 680 1176 1171
3 1914 46 1557
3 976 1676 2237
3 365 1302 1758
3 1676 2534 2237
3 903 2063 1103
3 503 1390 2330
3 1197 798 1970
3 611 1333 1761
3 1348 642 2375
3 995 1348 2375
3 1197 888 2379
3 982 2011 2238
3 800 2239 2339
3 355 2162 1974
3 1465 522 1368
3 1133 962 1780
3 339 2233 1859
3 1018 1858 1970
3 1453 414 2159
3 1186 2528 2367
3 1436 911 2375
3 495 1711 1705
3 1585 647 1279
3 732 1544 1352
3 749 1232 1692
3 1257 964 1936
3 1659 477 1298
3 1855 747 1819
3 918 1515 2228
3 1831 882 2320
3 565 1452 1093
3 1302 706 1758
3 940 1733 1681
3 1803 473 1338
3 735 1257 1936
3 1359 696 2277
3 1334 870 1779
3 1749 927 2282
3 2473 1258 1662
3 598 1353 1229
3 1384 887 2199
3 672 1914 1557
3 418 1742 2243
3 1804 938 1272
3 48 1659 1298
3 1752 723 1386
3 2153 1006 2311
3 1686 2501 1119
3 1545 989 1589
3 980 1785 1618
3 2082 924 1092
3 163 1866 1712
3 470 1553 1239
3 1478 1597 1949
3 1258 972 1662
3 675 1980 1722
3 361 1716 2206
3 993 1187 1407
3 1711 2532 1710
3 1837 369 1301
3 1813 399 2240
3 352 2242 1519
3 592 2365 1821
3 798 1197 2379
3 1587 462 1458
3 2312 800 2387
3 2047 909 1223
3 1750 2494 1446
3 669 1431 2041
3 1138 800 2339
3 2242 810 1519
3 1772 705 1652
3 1019 2394 2408
3 836 1413 2307
3 610 1562 1732
3 1908 364 1345
3 439 1849 2338
3 80 1905 2201
3 609 1401 1126
3 625 1248 1105
3 630 1564 1584
3 1972 2493 2025
3 524 1763 1492
3 1776 580 1194
3 473 1620 2301
3 1982 357 2166
3 2505 2024 1986
3 2233 822 1859
3 447 1488 2174
3 1721 2511 2369
3 1666 477 1245
3 655 2154 2257
3 827 1306 2070
3 1942 498 1823
3 1766 524 1492
3 1525 891 2169
3 1772 767 2269
3 1733 2426 1681
3 346 2179 1151
3 726 1379 2324
3 1377 2483 1769
3 1544 732 1213
3 1248 540 1105
3 1839 392 2299
3 420 1964 1277
3 879 1716 2245
3 814 1972 2025
3 1964 359 1277
3 1995 460 1155
3 509 1133 1881
3 890 2212 1602
3 2059 427 2381
3 477 1582 1245
3 1880 512 2084
3 1765 950 1884
3 2116 979 2102
3 938 1874 1272
3 325 2116 2102
3 533 1305 2332
3 2059 653 2387
3 793 2044 2328
3 912 1851 2274
3 790 1955 1951
3 1976 849 2310
3 1465 687 1503
3 2062 664 2265
3 554 2066 2203
3 1688 452 2377
3 861 1807 1956
3 2465 1646 1538
3 1716 2469 2206
3 323 1888 1322
3 2267 2434 1771
3 2044 500 2328
3 359 1100 1183
3 1897 924 2281
3 358 1156 2300
3 1154 598 1229
3 2162 949 1974
3 1115 940 1681
3 1813 453 1590
3 436 1673 2068
3 398 1412 2261
3 2460 1465 1368
3 549 1242 2222
3 1961 433 2273
3 567 1956 1906
3 959 1850 1367
3 181 1274 2286
3 716 2196 1867
3 633 1274 1744
3 288 2292 1639
3 1574 835 2224
3 1306 766 1951
3 599 1444 1713
3 2054 502 1472
3 1136 450 1747
3 779 1894 1875
3 1444 515 1713
3 1646 740 1538
3 573 1303 2223
3 841 1391 1969
3 1833 646 1441
3 2135 563 1224
3 948 2252 2305
3 1795 931 2089
3 2052 791 2336
3 619 2048 1960
3 351 2148 2246
3 961 1258 2309
3 1850 500 1367
3 2112 675 2406
3 1860 423 1136
3 2006 899 2298
3 2481 1766 1492
3 1935 956 2396
3 1850 895 2328
3 2255 447 2174
3 2259 655 2257
3 389 1935 2396
3 760 2006 2298
3 610 1732 2235
3 1856 511 2050
3 2179 330 1151
3 316 1795 2089
3 2092 1000 2262
3 2438 1829 2215
3 2196 750 1867
3 667 1786 2079
3 2101 2487 1353
3 2472 1754 1761
3 2292 919 1639
3 706 1976 2310
3 663 1893 1986
3 598 2101 1353
3 568 2092 2262
3 1379 415 2324
3 399 1813 1590
3 2430 1879 1775
3 1133 949 1881
3 500 1850 2328
3 2229 706 2310
3 640 1724 2395
3 835 1186 2367
3 1980 1045 1722
3 1770 808 2403
3 1412 398 1249
3 1732 426 2235
3 447 2255 1969
3 655 2259 2305
3 1783 852 2280
3 1156 947 2300
3 956 1423 2396
3 2531 1534 2311
3 818 1364 1512
3 922 1525 2169
3 1998 583 2285
3 1836 2524 2414
3 2384 890 1918
3 664 2062 1690
3 2034 701 2296
3 2215 633 1959
3 1391 441 1969
3 1677 867 2194
3 2252 438 2305
3 876 2247 1665
3 2148 957 2246
3 1195 588 1543
3 350 1252 1892
3 2359 486 1370
3 596 1845 1987
3 1879 1048 1775
3 1743 759 2388
3 990 1688 2377
3 1596 820 2420
3 2193 690 2414
3 2250 1034 2341
3 628 1399 1603
3 1833 841 1651
3 2394 734 2408
3 1844 755 1189
3 1254 853 1238
3 1207 1635 2378
3 1247 1254 1238
3 2132 619 1960
3 839 1648 2369
3 1562 2488 1732
3 556 1707 2340
3 1812 345 1114
3 1798 566 2256
3 2512 1573 2075
3 907 1134 1463
3 84 1992 1973
3 1349 248 1767
3 1332 928 1374
3 1423 335 2396
3 1818 2485 2222
3 1856 948 2322
3 141 1922 1112
3 2476 1814 2263
3 435 1620 2344
3 320 1548 2423
3 1814 968 2263
3 726 2324 2040
3 2263 968 2410
3 1929 386 2338
3 1876 393 1130
3 541 1331 2038
3 1804 536 2345
3 823 2052 2336
3 2064 726 2040
3 544 1967 1171
3 2340 787 2043
3 1277 359 1183
3 1685 509 1881
3 1774 873 1530
3 2065 652 2137
3 1118 1982 2166
3 2062 380 1690
3 1131 1954 2038
3 556 2340 2043
3 1954 541 2038
3 1287 1051 2358
3 1900 320 2423
3 1232 749 2404
3 1932 730 2113
3 2427 2109 2005
3 968 2306 2410
3 2109 1081 2005
3 730 2066 2113
3 1957 930 1943
3 1737 1062 2279
3 1141 1108 2136
3 2130 1209 2350
3 1306 342 2070
3 652 2065 1747
3 373 2326 2256
3 2039 2530 1692
3 1006 2153 2399
3 458 1957 1943
3 1903 460 2418
3 1934 2470 1435
3 1830 1608 1286
3 2255 841 1969
3 2066 568 2113
3 2259 948 2305
3 1473 594 2098
3 617 1473 2098
3 1004 1712 2071
3 1876 2492 1983
3 2485 2082 2222
3 961 1626 2290
3 47 2069 1557
3 1067 1381 2240
3 415 1379 2421
3 1409 35 1715
3 2438 2215 1959
3 981 1556 2357
3 1573 973 2075
3 934 1562 2207
3 1556 548 2357
3 1261 2489 1723
3 777 2384 1918
3 1054 1183 2407
3 2234 368 2035
3 1177 992 1458
3 1495 937 1939
3 752 1612 2241
3 1331 432 2038
3 1562 781 2207
3 788 1844 1189
3 1691 2496 2395
3 1183 2475 2407
3 1314 675 1722
3 1293 1139 2415
3 1394 472 2363
3 1626 41 2290
3 1707 448 2340
3 767 1533 2269
3 2195 980 2230
3 653 2059 2381
3 1742 551 2422
3 1097 1394 2363
3 2489 2001 1723
3 560 1582 2349
3 812 2170 1234
3 1324 2531 2311
3 393 1876 1983
3 2030 2436 1940
3 1100 2475 1183
3 430 1232 2404
3 675 1920 2406
3 1162 1502 2287
3 485 2195 2230
3 2511 2093 2369
3 665 1984 1623
3 1967 811 1351
3 2170 966 1234
3 1852 464 1595
3 2092 568 1230
3 78 2234 2035
3 2153 425 2399
3 974 1993 2143
3 1533 843 2269
3 2073 2430 1775
3 2429 2064 2040
3 1013 1395 2246
3 2430 1938 2146
3 1176 893 1171
3 1157 1060 1522
3 877 1147 1450
3 576 2004 2401
3 791 1612 2336
3 2504 1288 2359
3 771 1395 1497
3 631 2054 1472
3 1108 458 2136
3 389 2141 2012
3 502 2253 1472
3 933 1934 1435
3 1974 949 1511
3 477 2069 1298
3 2459 2314 2397
3 605 1148 2366
3 2326 1050 2080
3 1063 2015 1877
3 2040 856 2355
3 694 2086 1698
3 2015 469 1877
3 1314 1020 1920
3 904 2229 2267
3 381 1401 1299
3 2229 2434 2267
3 945 1261 1723
3 1972 814 1821
3 1502 539 2287
3 2160 980 1618
3 991 2085 2382
3 2147 1053 2342
3 1395 351 2246
3 2004 713 2401
3 336 1860 1136
3 1401 609 1299
3 625 1730 1216
3 629 1495 1939
3 1077 2288 1924
3 496 1830 1286
3 2082 549 2222
3 657 1743 2388
3 2507 1898 2023
3 1992 574 1973
3 1635 483 2378
3 2530 2221 1692
3 1381 2456 2254
3 895 2220 2328
3 1877 746 2074
3 1063 1877 2074
3 2491 2212 2119
3 1399 1235 1603
3 1281 562 2352
3 1993 85 2143
3 460 1995 2418
3 2048 178 1960
3 1020 1737 2279
3 1005 1789 1996
3 339 1974 1511
3 2220 793 2328
3 2165 2534 1558
3 2253 1188 1472
3 1466 2204 1983
3 2211 2445 1566
3 1504 75 1757
3 2447 2065 2137
3 1984 752 1623
3 2239 800 2312
3 2294 439 2317
3 325 1765 1884
3 818 1741 2354
3 1009 2329 1214
3 1049 2030 1940
3 2324 856 2040
3 652 2244 2137
3 1966 18 2043
3 2314 842 2397
3 642 1436 2375
3 2429 2040 2355
3 1741 421 2354
3 1335 1031 2172
3 1006 1324 2311
3 1395 1013 1497
3 1637 2075 2412
3 524 1384 2199
3 830 2283 1421
3 2069 672 1557
3 2209 597 2163
3 216 2278 1952
3 179 2132 1960
3 479 2160 1618
3 2093 839 2369
3 2291 1474 2296
3 739 2115 2371
3 491 1425 1448
3 278 2133 1374
3 1429 402 1458
3 1339 2193 2414
3 2488 1363 1846
3 851 2294 2317
3 456 1632 1530
3 1143 2042 2280
3 1898 774 2023
3 1988 2504 1370
3 1200 2239 2312
3 2402 1005 1996
3 1148 977 2366
3 958 1688 2061
3 370 2081 1126
3 337 2268 1685
3 2268 513 1685
3 750 2196 2083
3 1551 278 1374
3 730 2333 2203
3 2283 190 1421
3 675 1314 1920
3 1079 2112 2406
3 1363 609 1846
3 2244 1023 2137
3 2365 592 2207
3 2196 689 2083
3 1015 1281 2352
3 1258 2473 2309
3 2221 749 1692
3 825 2130 2350
3 319 2037 2071
3 2085 371 2382
3 1753 871 2402
3 925 2368 1616
3 1674 1251 2079
3 960 2173 1194
3 496 1314 1722
3 701 2291 2296
3 1130 393 1662
3 637 2250 2341
3 647 2187 2019
3 1479 1182 1368
3 2329 630 1214
3 1995 878 2418
3 1730 487 1216
3 2247 939 1665
3 1425 1073 1448
3 1019 1906 2394
3 1612 483 2336
3 975 2365 2373
3 1977 1266 2379
3 781 2365 2207
3 755 1844 2180
3 1488 813 2174
3 1024 1293 2415
3 2154 1035 2257
3 1258 961 1278
3 1059 1988 1370
3 2055 1082 2391
3 1632 718 1530
3 2288 631 1924
3 1275 1336 2360
3 2115 747 2371
3 822 2233 2372
3 2365 781 2373
3 1612 791 2241
3 1548 2449 2423
3 2132 180 2286
3 423 1860 1103
3 1658 1215 1301
3 2436 1478 1949
3 1134 684 1463
3 1469 991 2382
3 2205 881 2026
3 2289 1066 1892
3 2390 1149 2411
3 1240 925 2327
3 558 1371 2327
3 2276 835 2367
3 787 1966 2043
3 1955 890 2384
3 972 1130 1662
3 1940 755 2180
3 1054 1277 1183
3 2179 785 2409
3 1685 513 2260
3 2428 2255 2174
3 568 2262 2113
3 2498 2259 2257
3 608 1852 1595
3 937 2382 1939
3 2368 834 1616
3 703 2390 2411
3 761 2018 2190
3 1212 1439 2206
3 2504 2359 1370
3 2067 989 2172
3 2018 2499 2190
3 942 1999 2202
3 1353 862 1229
3 600 2218 1316
3 2218 1323 1316
3 2382 371 1939
3 1128 2276 2367
3 2231 1677 2194
3 2025 649 2376
3 2043 18 2386
3 552 2144 1513
3 2278 639 1952
3 1262 415 2421
3 731 2209 2163
3 2428 2174 1820
3 2000 737 2021
3 474 1900 2423
3 567 2211 1566
3 740 2270 1745
3 1860 366 1103
3 2212 790 2119
3 509 1685 2260
3 718 1774 1530
3 534 1275 2360
3 847 1190 2163
3 937 1469 2382
3 742 1918 1602
3 1918 890 1602
3 366 1666 1245
3 2255 2428 1651
3 2174 813 1820
3 1190 731 2163
3 2259 2498 2322
3 316 2214 1886
3 720 2267 1771
3 589 2243 2422
3 756 1262 2421
3 1606 1759 1990
3 2243 1742 2422
3 1582 903 1245
3 949 2162 1881
3 202 2000 2021
3 2333 757 2203
3 522 1479 1368
3 1732 2488 1846
3 928 1551 1374
3 2265 401 1110
3 596 1987 2087
3 2104 1537 1768
3 1439 361 2206
3 410 2263 2410
3 686 2397 2405
3 2306 353 2410
3 755 1940 1949
3 2397 842 2405
3 2063 2489 1675
3 1497 1013 2355
3 426 1732 1846
3 2270 651 1745
3 1940 2436 1949
3 423 2063 1675
3 888 1977 2379
3 1759 391 1990
3 588 2067 1543
3 535 1154 1229
3 1920 347 2406
3 799 2320 2254
3 342 1955 2384
3 1538 740 1745
3 369 1658 1301
3 593 2104 1768
3 1031 2067 2172
3 841 2255 1651
3 814 2025 2376
3 2233 300 2372
3 948 2259 2322
3 1906 322 2394
3 366 1245 1103
3 1987 676 2087
3 538 2326 2080
3 454 2231 2194
3 1844 327 2180
3 804 2055 2391
3 1999 650 2202
3 1015 2352 2407
3 556 2043 2386
3 1245 903 1103
3 925 1616 2327
3 992 1429 1458
3 1616 558 2327
3 2067 1031 1543
3 856 1497 2355
3 1049 1940 2180
3 2352 1054 2407
3 1251 667 2079
3 2075 973 2412
3 513 2087 2260
3 1070 1538 1745
3 2456 2393 2254
3 2204 393 1983
3 2087 676 2260
3 1094 1947 2190
3 2393 799 2254
3 1947 761 2190
CELL_DATA 4764
SCALARS Von_Mises float 1
LOOKUP_TABLE default
4891886.718245181 37234119.73129329 38755386.028971285 30508165.66124456 31491172.279258102 24669882.361891802 58353485.54011489 42253140.06819242 13590312.137158768 57697647.09211603 28862889.489584267 33549003.994388487 40173331.154079296 12034918.183437888 21477584.89197708 32663866.206366573 31629330.93961775 30616879.215721693 49280335.918766536 37409285.924533695 38132894.20841441 21931111.60970654 8585002.376038035 31157123.124540173 27172850.75056536 13804799.404382505 48549359.17004251 27947611.574403968 41315550.45405643 23854143.70493492 34735185.63850594 14834036.922001185 35210368.9568664 37257138.87608035 10052973.44494011 32187862.31995245 34608882.58975335 8968835.506808924 34708722.86777469 15614627.242412988 43639431.132813685 32636732.139533985 32969002.113260828 20896622.434581004 4371268.788803383 3658069.7250279225 52430629.394278295 35648259.07125874 35600112.02423793 34959266.658820145 15916907.650771389 32576803.580766376 35003656.60509223 37676980.99204221 29336718.905482862 32138476.868325293 35583316.45090907 30137204.423453055 29729799.71995121 42011327.854564674 32889237.514320817 29362089.754486084 35297127.70656571 46328846.25156551 264370.3833023318 31920591.714626838 30298173.532780558 10255162.396840887 35911375.21198713 26793996.911862116 32049273.493592106 1779721.6855398603 2202211.812477056 6759073.667887116 42251880.72776339 31178596.18570771 33080766.061360326 14866950.107439443 22778810.787397876 34607211.930073686 35515397.36772905 20700225.087952636 32459540.98676123 32318913.21494356 32187977.95732918 35017044.2482097 30983345.526037123 10014086.537492286 8850804.16508329 60772824.90009892 3623141.831111569 47842435.881905556 30424720.731059037 14850928.853096912 34617637.18025522 26445652.35203308 33056363.251555704 35138639.55505797 11690568.573279968 41126857.813651554 25059715.353671916 20745355.94060359 16969930.28941266 31811464.15720553 8523670.061028475 11426504.370684791 61721791.85438618 35527898.15445335 31891545.587270293 34372402.26540556 30165243.809528783 32998139.31772457 6955609.193998178 27474006.878078774 32142479.430541597 40169816.00871715 18079139.856391553 21450671.83696574 50271309.600038 23252723.37078541 23365258.227594618 62115103.7520862 253195.00137618423 20241354.13677059 9851411.55289611 23195526.454954915 60842631.28369589 15809111.930382665 34727685.38473035 18634603.731061205 39156306.207403265 30379647.076801043 30627945.731228013 32187616.044566434 31048343.904124636 32516203.199931573 36245649.36166219 30180884.49353257 2036684.330658698 28847100.537978005 23994925.46052059 8688883.39978217 33887149.078626566 25458395.090383776 42974144.970857784 42241149.36831176 30686258.818305496 32908010.587300982 1759686.6273472896 31253325.376103032 19585244.747434642 29855509.841033515 1673904.2906898898 22564283.770386364 38296044.9775613 1819134.781721982 34431311.5378243 74586.77477320202 33410404.605847143 48498949.651462086 7242171.684282821 29854710.645415056 1599457.837732522 4490667.901915847 33950386.32325274 6269836.802322683 76155415.92252819 32607857.662257195 15024042.613513658 25745414.473571926 15085701.420843083 35652336.0922409 25353342.30743616 34557458.47293829 10318237.272027746 18204392.142563842 13207166.69987253 23015019.144914284 32192395.70741778 42434326.45763034 36442462.719627015 8946939.333966145 20989240.288571093 22852587.69411859 21228505.901502658 25849825.80697437 11676834.658033311 35014250.82517619 31242482.06531522 10094147.341807172 31648876.07774754 33030440.298085086 17120459.546638012 70509888.15832928 35894958.5182559 39925206.88697822 24286772.571763504 17162825.958609834 14322012.32860428 16469683.625181692 21272127.79216282 1853760.747033795 25792723.723881565 20249632.793200128 22952117.462381758 9303484.605891304 1649478.5424641187 20371850.133211397 16619652.33655812 5652635.571370653 13204398.422263963 31713900.79516685 29195572.62598672 33082485.247479863 24667899.271707214 16559752.846624205 28979215.705007453 33896743.99090118 36827427.57797345 34126670.972015835 19807200.448073428 22826215.236165937 26814298.838629305 28081577.84417382 39219572.36943732 13724662.100537775 46690195.41291167 17218178.277665567 36481862.58131229 14984419.540877532 6538528.005152795 43291619.56037105 46426457.116655625 15156386.384471655 34057754.78183263 13911684.519785242 19064079.821818013 14658005.724879222 12006769.866933167 12411084.338730864 53877172.25515999 28090600.333205733 33543300.17914918 31957052.059677847 3839329.247414236 24185805.25317742 5164315.753360186 6905953.703964118 3412146.4854458333 21146017.683023173 2212114.95963911 2398143.9674000503 20809589.311328296 52417629.68860473 20324767.078435935 25108386.48785648 28678019.088694975 34490977.04036333 30896028.67287274 33158891.171570033 31620569.136944592 16346581.436559508 30747501.208612286 21238976.37047522 17105138.890443947 3164913.1989666345 29707635.720463358 28946422.43995852 35527627.45558839 34646187.977766834 25374729.430547785 40831441.811717 31874549.69974865 37182050.349629335 6026146.666672935 66513604.77297594 31836235.057568982 2276498.5001638597 32632689.704557016 37328755.97049839 33156558.49972666 19827784.975112326 3907311.600175139 15486296.97465944 34046812.55257848 26309396.395112626 89705844.50573406 68539400.10347936 6591839.182246834 3692526.5720715676 34367880.69476622 40561541.0688961 30976742.906409808 34937967.37826983 23404974.8621833 10293511.007246168 41919204.36217963 19408814.815704934 17771330.007181056 12777288.29905755 19898309.147793934 33343488.83125589 31985780.798157495 87746961.12720793 39850383.76756693 30946628.42040149 32883476.194729503 19055482.22578705 16655015.976049855 18353797.133495 9346682.665328035 34765682.91354579 15714342.228740588 31511620.130249444 33215107.315204002 32942697.13732829 9853238.798534721 6082842.188532536 34295637.44402868 11680622.560156086 26037817.83121096 10570469.325858358 8086844.531806324 14974191.829408059 26495770.93748244 35521063.86785196 33626652.05477732 30892104.270424273 43316443.55585265 5453941.132849725 16603193.449145824 3451997.8681526924 33921605.46549372 1415162.065922967 10208143.534446126 12981768.114742503 31294959.48376675 20945939.431007724 2301433.7976055657 13975401.454314778 17966164.849769592 30047540.607396763 27370995.8634971 33067999.413974114 31906968.54711552 32272878.069080055 20756804.420860004 31924694.136935964 15762512.055823661 28667432.74167177 4085509.6628407883 30870629.458156444 32905240.389641296 31460371.337853108 10055213.758760273 10642738.505150296 42295212.29821118 32002167.89519637 36447049.34693384 32624984.99311501 41835601.77880804 31739275.238049116 33379494.543246336 29834658.395517413 16636910.814158643 47131602.16754302 25920769.75967909 41225793.008601695 17959274.878797483 33832250.02175094 28436295.16578226 34810888.64605925 35584801.84082023 14377466.293494668 32414229.34557389 32304265.99337771 10070074.187816335 21070612.700437684 17825652.974341087 26387221.751994707 34281334.8882598 23639334.90907511 8790725.739551876 23598592.947556753 20156542.409334492 46365518.02111476 18479204.3718859 3769166.8376193964 21359894.793920733 16759392.177925818 18945763.222862165 14360544.461626573 4705741.687388326 27067067.04123002 1581125.6192267044 13149740.642282482 18418529.734085623 46795915.037379764 14556115.23593304 29108685.184849612 54908700.099206336 1901366.3242832131 34812215.901221626 20939653.4357081 30606228.212471776 34107273.16978729 10635731.751746697 34712914.773753956 22054937.01456795 2819733.456085115 22654882.066697706 7755940.067125726 29940657.47226074 20397269.488809362 31014374.723258033 30223947.02704005 37881379.74221777 17544675.803990033 25431895.8295366 29048307.407858606 30642083.575560976 23756513.256086506 32532194.43927616 35589862.357546695 30516036.800727546 17992588.455144525 2707385.4896314214 31462331.2474121 18929909.77332301 29984892.224469427 34739123.17295226 27391549.19915962 40015519.18501142 41515321.4201003 36125249.890770584 34686576.2755905 11422492.16878802 35029599.38772088 19500664.579494923 14011425.377022661 52853731.06778308 7867935.802542573 31078100.84194655 26646606.423791938 22140155.23811198 11446249.782279242 21024397.828010455 6473249.692644761 20097867.46911118 22178817.183190875 22878449.066964988 12971346.86957423 40795578.94044513 19581197.05440845 27727824.23863456 20637730.82634948 16109586.275308995 31979384.32732935 20763605.73238917 15476277.46160406 44818820.11655922 29596710.486169595 30785314.034973033 9818952.214076867 31879515.496905077 38971807.7382737 30888718.158590104 3024552.81452791 15579286.847135317 19557349.232331183 28726557.90546596 22957529.712803114 30174815.290030897 12701469.892319234 38255663.50538109 15214625.762642354 23306271.942726303 2074325.9647997464 36619308.47462243 73915702.00022495 31184273.30608051 15658170.764606304 24162029.468198862 78666689.82859488 6683584.319520607 14356811.77834037 30108599.302512318 15224840.507063735 6508153.704788887 53005310.255775794 13268910.891260931 4885034.142035827 14059933.940619713 10093954.236206522 30485636.43394497 25975443.910937622 38980317.77156778 30772273.500790693 39409073.69418025 16356633.082341071 7111932.113271313 16605239.980745755 36219643.17849102 37385269.32911051 33826002.43605992 13728836.792110072 30448511.83755351 69479644.656429 16061687.351618059 28202366.720612664 24129386.639020298 40654064.703399695 17448104.416443337 25146830.230885778 13378429.14265659 105538546.60215814 4739897.928328768 28068177.79613701 5021234.817045358 40992982.50818719 32865604.069947127 16610570.990167154 41314871.842770554 74515570.5263513 19349038.514811624 45386427.39642924 37109100.48134875 47216232.007853724 10442011.464545626 27500780.79547042 34982102.65859123 39804758.362733684 8827751.172736062 52141271.57035102 26275182.335591406 39027713.823652655 75423620.24669127 24132800.91980146 18894265.96816602 32103349.766912617 30410088.367199652 6932326.583321028 34221783.78694177 1502582.5090056236 14686968.727499962 27386048.91485579 32711408.316694833 5985660.789036459 32471986.16226078 45670204.15229666 24835546.260787494 47555391.291280374 24351780.678569574 13354184.94256983 33816097.66865702 8743883.207517218 32470482.10184659 54429536.76367352 21796382.10663532 2633225.428107854 35320144.61257884 30700771.07030498 31700780.373242635 35998555.04335819 7647921.678349295 18071181.206620984 15323400.817565119 11930550.893482514 19538277.526693154 21151593.73041751 156419.96247320427 8848712.485450655 37431690.7757097 15121812.840289732 24129360.40034932 22900509.698438313 6523299.238782461 6971590.547051579 30889198.404286463 20818333.240334906 31923008.04384757 75108042.29122435 14611843.970267158 4658042.7372309575 78699597.15029359 21296084.11936444 12979805.96298706 35792868.62141137 31042274.21355835 36475252.09817388 25314501.771178994 30635805.189252526 24298400.86367453 37855132.700824395 31611243.350660212 29625250.037383046 22136409.86812657 18706095.514759354 16322563.929547828 16827302.51508509 26119786.912160896 3888128.316340657 67168770.00183798 18302908.746074494 4089197.1926478725 90288050.82860985 34814835.92271125 1669758.909480218 28549088.4851589 24678079.384005837 28524221.479293764 13639534.600254761 25648628.71928377 21167059.874380518 10078690.939536823 10078690.939536823 18403529.56961734 28430610.233976446 30842095.040790685 9244039.150143549 1593396.1193272618 4270752.865121496 29438612.400436897 14752556.136344321 39633966.34246396 29147742.750069316 21006539.407400444 18594725.344191227 32623430.363703575 21749686.915444512 1676003.3492708092 675383.5304596926 25166453.977972906 13409557.675867276 46453484.00116772 33847554.779191025 33923575.11797646 23287205.620773043 31854928.607458327 8298790.00859181 33336907.24170041 35478787.86036428 53408286.18970038 12924906.720062902 34796293.03186184 29906808.901121754 27966445.29071767 10772921.608682502 36456753.51999134 21745823.34368783 31437618.83463859 4165804.412122479 9315506.189093169 17308147.288917072 24768087.083855335 32548016.143845145 34698260.97692519 22952125.030272875 32223256.7429199 282213.2218634519 7185648.270785786 27768462.582144883 19043539.633313566 25425584.361062814 45951758.77750435 2467775.0207679216 31848309.994189333 32606542.10642374 36784682.60045171 94137745.52875382 17396327.113525473 33313996.937035553 14586235.119777376 35915610.205369316 34433555.1095468 42168063.51221216 8186756.467389736 27478960.91709483 31553646.751517624 10139894.289598852 32142084.4656787 17151049.572685167 4376264.031914957 64091340.18990699 51512170.49031259 5737223.527957157 27918799.19412122 29241777.809640765 17893047.483512983 38782947.5622582 35194056.85295685 35257030.131940246 58161229.40100362 29768131.140569296 32187253.438941833 16035172.35558741 38316872.13745074 17066624.27054194 20381036.56066367 38748918.51523868 20020780.901753735 32665108.27823867 18567589.744468857 31613969.721407562 31974341.894465894 5851467.791254455 32526705.528991975 23273851.335191336 34120928.681747526 30962293.559054952 29967169.85189576 46737887.104123145 20980936.316457823 29502819.278170798 10055981.553238126 21110516.649236735 7484015.825216586 14932802.45686773 39970488.04895998 30640411.81038361 22486551.685823586 31104678.512783755 9515653.317803482 30668113.226849627 6951211.641029255 34181434.3239969 29147811.863886863 15647513.081652438 35000431.23973519 70298966.43704796 18483605.192585725 24008705.690123577 34775105.51575013 15174255.318518277 18061197.36032159 12361140.340879444 14280148.306810008 24741689.483838495 22147503.42376299 17009550.062952 30914220.655465063 11633842.931056997 32333216.554680835 40974986.21892529 25552345.342899863 32533414.355508503 34456802.554869965 5480516.547859256 46485807.49408022 28723959.17379673 36223336.4467155 34622407.6541923 33315782.304203052 32913652.454753432 5937182.636353914 33610756.283176616 42490586.01185007 7432901.062664855 15048093.023101274 17271060.55054419 19149802.025082197 7701427.348193728 33421093.260771345 20757077.023585074 24535564.45024795 5049879.4399877675 20125156.951437183 31549626.374984995 15863947.85516179 32997893.503837433 32360879.14313549 30458982.518484805 21090158.628535226 31805478.61973515 10165093.076681057 17110028.21569681 7807166.646754085 65370573.27702038 49798462.1353161 34693924.60188143 36340916.54475729 32554163.922606494 21686661.031134814 22089590.59591251 28448974.306081515 13015801.53669281 17071665.731133044 21702157.045790963 14992068.705152044 44360976.950443916 13031282.966518452 36079554.15903359 3692033.663239509 34320863.10072938 35179196.013932146 23887414.957849585 16037330.416180251 29759410.32963685 19464696.33771413 14764658.22813502 75873483.16122909 10365755.680815902 37229385.06048575 50066405.69343211 12169457.167805512 12098055.548688203 27539876.781522978 21571064.218692105 21216168.947215546 10474692.857630586 31456773.085702166 31573387.08929644 6246403.590574418 17235388.78150589 29852492.213742618 2017539.2360378075 38352944.586105585 36293526.91219584 14322680.582428137 24060810.38094143 12730237.814849937 48207207.15187444 35308125.19496604 32667439.466496654 19429467.453157157 7381238.43735509 33097312.936538655 15951786.726567589 32441124.74432286 34942268.30111277 4739811.504646997 18554114.810126178 33945246.37494195 35694724.034363225 26142383.460749052 30169062.554950453 35846785.92448472 34708556.483110964 36358381.169106066 30079352.500080362 22419428.745246943 22017440.48700052 27958263.29305835 56937317.75294823 6946957.105968575 20867808.37630136 9959639.882281782 2803206.3493763492 21019355.838542342 26537790.94092922 33626978.64483244 22720722.41452229 32887246.61130758 51794809.94773696 34740392.99289641 34849828.60340386 19378998.191450194 7555530.666239337 26663016.512523938 36356827.39172699 10643677.554428771 35312185.39287897 31188278.383265752 16603323.491176913 24190065.367506467 29875285.171740487 4526647.309797349 22997463.261819087 7083452.964513673 9385152.283422163 22302815.72987888 29790473.52328037 24382020.902714178 6979712.892293469 33038119.91943847 30383016.42847577 19532994.723754242 72820716.70086344 22740697.868167937 26729948.048306603 37464900.09216214 44428728.67838454 34143844.33066121 3171428.595561438 9575506.221932745 10224751.995165704 5894587.338055854 33723968.72586743 6402363.687166287 32625592.364375446 11764843.641789034 30615611.911008444 21508234.765038602 34337830.18320636 2038622.8414174262 30489063.6953881 27478351.075926997 12971470.658483736 34811715.287943855 23428600.13519201 26259024.55599542 32959655.626508906 14885307.965383397 29169265.919280812 56763558.66182243 31151721.32603081 31306521.190398637 9080650.621189907 27956738.915231537 26400247.57415016 33905599.29369077 35314782.98183421 34056798.384829745 15123739.554492269 30365141.639607698 31480142.584409077 52290705.99145809 40334175.93456018 34375311.64448003 33589967.23064635 36849407.2600818 36483345.73801898 59500102.90073249 13451277.315735104 6281151.888956322 26859897.870678697 23049832.97103507 25713853.078566443 7749574.73359202 28713269.918407556 31810450.161464445 30386125.679786105 34617237.84520312 35454391.265639104 13684651.434621226 29261143.194081098 31195077.235463634 4554132.233984362 29658894.259490814 33626210.75252213 4326893.6062742 10711047.683517853 27283517.803936075 41918818.68198084 40225325.34995506 27331861.910940137 30503081.278925095 61061740.00594688 5639949.066731758 20928152.97371945 10131435.118513154 29581808.018148426 35293905.18984935 61720446.69888587 34767795.161402926 15541805.91167145 31439972.272966083 18802128.770877574 22722397.841953617 27262101.672478583 20229594.367408495 5094079.961267544 22036165.01580135 1255435.3922979694 34752537.23105117 37842132.11806325 4212610.011927788 24851464.374330863 7960317.950055562 21988345.12708014 28020709.462224558 28050823.36521202 33723059.11864975 21690123.91414331 16372683.834644426 35496809.07015837 61680632.43680795 34006851.734229185 33653706.445089184 100287854.85142402 20867517.791959465 51889617.35042397 22541420.826834038 33546552.622331675 55094028.324676104 9606887.237134608 24832006.85600827 32547954.183017634 7982032.464728017 29056014.06492198 34590801.83463393 32007046.84909927 19671702.78545823 26928538.697566073 40472060.47011392 12820794.377321221 4844408.350099232 55519543.09519047 28096222.307212655 26902733.241163354 33548924.40261799 34806256.02696175 13163520.372891795 14363812.767247358 38025189.34280745 33374443.067337137 37453270.11269636 43288593.5112729 34862071.75346868 27567346.148938745 896162.2348734279 3876557.504483354 32225076.124331404 18942624.892195497 28354656.693082508 23309716.815793693 41298116.61903193 22819263.241070487 54963227.25770429 35021156.42726476 5098889.029619199 35501435.623177454 44772143.0926659 48317580.18428298 5250630.500283166 29951037.403275963 14300492.996236045 40289004.618553445 41498207.35749007 3466822.18858527 33692301.81443346 13031403.623819733 23153979.044855542 33101155.389473625 12766820.803781826 35059781.77370394 20796803.815006316 54758916.620263 29337321.444207 35533311.11803058 40502195.665385775 35168577.13768899 34928412.41026715 240928.26918358268 35022291.07111135 25169743.286678858 40873127.04495711 35324461.99968767 18695777.467989467 35457948.30669524 16471115.28886552 10374262.890692282 31196008.258547146 30646972.961102515 37241092.39201781 16739050.582181023 5329617.159577434 9479372.403790917 31625718.628196042 4233320.201607451 2581102.962943334 14847966.71692146 36731723.597378075 32189734.22747413 12892648.69403055 32334740.06568763 35413383.85968525 13346887.026827084 23381194.03550936 30745857.544914532 38843886.163592465 30619648.713672113 5909142.573212102 32556079.098010376 36678951.18235362 4124076.716453344 14381457.915205607 25887557.664938938 9169428.531898858 43493878.31725439 19936788.86772856 23052888.308220554 52594684.996371135 33308856.15904409 23402389.98109323 29156759.7331364 37985872.91242377 34260051.4796245 32010177.271507207 52260912.96287742 70788844.1428967 34367015.69630768 28977525.835301958 14222214.703449726 10722142.783049382 34552721.330128856 26648339.107394807 3792623.9494321225 26704498.057161555 504283.63738669484 25764278.792995714 25677556.836722486 36716021.60875816 17919393.913419824 15777732.538412202 12086709.601231713 37396675.12113733 33273240.950142793 33633625.787626185 21696616.712144215 22989294.077329684 31710800.140200455 25910740.00654916 26350587.555617698 23474173.811261155 25229297.53808804 1124998.7120574594 53292213.07227147 11510019.310657905 27873068.105366178 14018883.199431311 28679805.922016785 20668321.938172583 28929111.044092298 26213890.63195729 6259208.010124509 11136581.56350598 25141022.06465124 32712078.90988084 35971811.55004894 2613769.577122474 7901191.419333168 56644251.27606015 32665941.1514338 34499063.499554366 9349834.133212743 37626411.25132735 35877027.24512689 38990697.2535917 25531303.621231783 33556030.35247127 10377344.437494777 32674358.39496038 7068471.584406922 12422531.279595923 36694372.90384168 42885505.15809296 28038270.213445507 34594176.19958785 31970240.645197693 24104628.574775666 18276268.608118158 7755265.240436907 13725068.889128335 58736057.24639147 14401780.996270362 9121847.940928128 25586605.26684975 10284828.0171363 35908922.76374102 20565011.891798478 32946096.859344542 10688247.22170417 6215540.498480724 3908751.128952368 19801807.3687298 25831272.76049232 35584365.74161655 14130156.899401823 64026630.12928707 15261899.37314693 10725661.126793502 33252589.29816732 13115034.015058227 5000328.546984822 23010689.148465864 29909954.15031549 30212487.633373752 16882645.36238488 25737781.89273599 25965663.007424146 18192968.85313558 31690089.788437147 20366561.61364597 30123917.35339358 28328013.978629835 33605701.02438546 9176546.03325771 22866843.388061162 27828959.96831576 34856645.83707227 59401675.172152825 33875197.088879816 25227839.27518708 25445688.196411133 18666335.049615297 21799808.423452243 17843549.757960077 30049911.394073654 23353035.980395693 39410349.85416464 18965371.11154811 20368921.131132863 13114424.77187844 24148353.961803887 3119706.678619578 38973811.648104385 22924291.614505585 6080013.583593195 36236863.99054609 2083051.7718280337 1738659.4426839733 56190796.062682115 33450066.78786862 36389790.15986163 26288040.446042355 32201996.673916847 2499849.885403847 11984425.824503044 30607732.4653051 34776293.570290886 34008428.01645644 19866196.937851768 26237772.58328786 26759023.997119244 27218363.20050853 33523221.101209063 31253845.235399894 19407904.38528511 24138977.72204669 25910139.459084053 35938799.10740206 25257667.364137642 21764191.489183784 46932731.93459593 22442471.849127203 34593395.05410806 34935583.87779929 3839126.870549141 31806866.18085073 8511836.215199692 32510161.44574337 26360550.791765567 38401690.290085874 25633763.925972175 47166561.77272114 9487628.0173212 29289813.832102295 18197448.37268994 21626365.701690372 35041224.612912446 31617072.169986043 17846847.532382395 15726247.10702814 1626070.5571777902 13891852.937098663 32592457.149128716 11787722.097520439 16023817.472253283 28472513.148527227 36636111.14523709 54837389.90866451 4366494.7837302415 8818399.142283494 16927364.805297468 12050052.707310166 11298917.867937455 16961537.222115293 25670598.05051431 22850903.865844183 7108625.134116429 25527786.7682394 33311893.01333659 12548757.457098825 4945363.731364353 23861932.104600664 5816150.509312386 23317499.181799155 16435815.777033262 854512.6023079704 34028240.92885845 26116465.956764445 33330275.952253357 35681173.84667722 15087183.83376984 17697536.949698567 83913775.30815749 30838357.33872819 2735143.6904828157 26209714.046267305 10254716.2004215 61709651.11354564 34386230.17019243 14673995.427401902 20745805.767178204 34639134.886620656 34871002.220667586 17600491.33470281 31810350.696733538 17022600.7029337 31868873.28414628 18381019.996120322 19173125.127173416 40504264.83179917 42845921.00983958 19324791.85410892 26072587.434623722 18047856.890830144 12051955.500675136 3695122.165394181 396889.8132147536 39002301.11203077 25202665.28643187 30739987.523274787 7084753.851567876 31809714.341859806 55255870.086359166 34132101.44864811 53426996.76203603 11159959.754992185 24633649.8738562 3582273.2554849028 39618637.90139176 7001826.807786669 7821958.462680065 16598077.350577282 11699727.291833855 25204039.899528388 30679891.115000077 28461232.61549793 6003332.4919133475 31960763.27035254 3934915.5197396073 21532659.223807305 27258482.20584829 15992180.875658264 13227891.110668913 10705979.680207144 31201223.486489754 27230739.339816097 15221906.148156188 29703605.08107139 25651215.18609353 30698406.23893883 30377920.057424597 4874515.775425806 33287474.74675345 13455818.81218531 10845586.057354562 20370754.9280432 8425626.10605806 37338822.30833763 32946129.935954105 38750788.9876803 7849187.654992646 30631404.7381342 37100378.24909117 30991702.315445233 18312593.71917457 25760314.160223164 5728544.189914893 35878529.91108448 35038473.79546021 5901472.578400242 34927252.02287714 10621709.673021976 4352203.655512787 14364860.956265887 69058892.77713273 33967178.27767685 33216354.6180295 7905878.810951868 41584665.84560809 12376214.423885334 18916248.614819616 3592510.330150439 8944075.97552065 17511080.511173 18019877.732948713 34903816.65430902 26579890.77118347 12981464.195281751 29183383.369952437 15266435.067652168 25833879.107473165 18885710.061098985 7391325.800612094 7224829.044630405 501709.58068478043 26611675.895086706 22211232.67118465 11642475.943239693 61424933.82208897 37392366.53829509 18626754.034933925 36770736.908401884 46824312.9068687 33149936.654277653 38744120.580734245 35415056.488639906 26955706.035333164 5442704.7883696 34295636.63147611 6268914.380169076 30092304.86790339 14072826.068407929 9450338.92761983 1037110.0708485843 22040654.271552768 16367127.742140116 31738376.887048528 31774259.47496221 33487834.645429656 25886912.342102323 4188413.9159808233 36267015.48418565 28919050.396771695 31589215.674964402 27461442.581959374 40523336.824974164 7912505.516525351 14938723.122097801 34929869.61011326 6289436.478642447 41840270.24658274 33576699.102397375 23364459.641229797 33685809.13392368 27138068.608219963 24109013.470163304 28513173.69369336 23059423.04668027 37317989.65908036 31284953.177329984 30137444.38377008 38918145.19456343 33830230.90233032 24665967.78653909 21304668.39600236 24322441.60050596 34486459.88096103 32981649.97547706 35338050.505105026 27509914.48710462 4460915.762001981 34211785.63751704 30798157.650626287 54955355.01460367 23659754.261720166 29597177.404836364 3710034.8220927217 4891466.57149736 40728052.49897309 22476342.673513703 8633200.996833587 25946206.314583596 30754757.825938128 22170929.449382845 47298496.228506945 17892091.057687648 28595037.294791885 21855897.580834873 12325183.663251894 46563167.546732895 24448101.09879207 44415288.906016536 1938158.78842086 35580725.02084405 34831686.4969246 36484.595117558034 6078436.299950036 28181172.0612838 28347473.194764227 12817955.958192749 43073669.901976086 33850220.0891206 32178160.53009892 32432851.79725805 15871069.428542538 19445846.22724058 5108543.772203047 34366356.07179692 24436880.802711885 22310069.82187267 25331569.527358823 31908610.764898673 34437165.241772465 34131207.71043077 29782391.43014748 29563675.78763998 34537106.96112875 38381801.69377826 6117796.818251241 37661549.68484968 12208079.638809813 34774878.275586374 31720194.351407204 36850831.54290327 41423601.47203583 11804906.885241216 26752575.140616443 31337403.01104723 21997968.010826122 638237.2339336277 7567473.470339411 31706453.07092284 31528435.645334642 33161090.151127163 10875857.69264744 1921784.3324840167 31547973.593510404 43555921.69527369 42095711.71401891 48009193.99855379 9272498.34882408 4304818.410230777 23769407.97185207 24678588.3816214 47014819.820499636 32071970.19378861 20056366.56648407 162845122.2057304 33644292.49528665 31585874.371424753 8233914.978250912 36298807.8668958 31799066.07977971 24457697.21977144 14082060.752992742 37671053.68815691 5059386.093317211 2981116.321907995 29337062.79709861 34296037.760125116 17360382.49899714 44198246.40905523 11064080.871249642 38805259.9962827 11459105.75053659 39484078.666429065 37408854.85688329 6081626.7308437135 32247356.769942526 19753225.157274697 2278805.1157093258 24102335.36531302 13113320.023121485 42130193.43030937 16347945.056432094 33489301.52545129 37026447.811379336 24125145.95353724 38225400.90170435 26100485.941338804 31880115.735370718 25187738.8359086 36588928.078403786 14658195.47735605 20465370.061047476 15333563.430966811 23131108.540320117 12485950.947487885 29957364.008434165 34676045.11084043 15980585.310140584 25651712.964001212 14873026.316370182 3398157.3139721514 69925614.2303415 33579307.326692946 22219178.211114123 32006983.13514079 10253883.056469714 21510387.273736794 34912398.92570895 2459510.275022028 37058624.461571164 33404435.545701478 43715369.9829087 28603053.975877225 17103812.248755746 36140227.74182384 34526856.06891888 21424871.66470396 23883668.128422506 35320721.94190889 36028051.8688148 17678641.76553361 28423934.10725435 4178882.803332975 12043246.907202853 1963969.770180386 22926098.040911227 31148269.734762993 44764555.78772035 8803930.766902803 33451755.710860696 23019970.433562145 23424884.61385092 27774479.77325555 3067465.1384132644 32144613.472006008 54641383.602809235 38856091.163837135 26854985.140304636 33870096.190078184 31637335.197756786 45034678.653444126 34232509.24492981 24740518.92175323 32985932.187811933 22427286.108869005 8617311.954057151 1071049.9966117304 22429704.563975275 23588257.47682065 29408165.82577271 33767409.45657695 31050595.078681573 31126906.63420852 26535187.454421744 31359339.756850578 29026147.21975601 193829.62140890732 26578825.409835186 27659063.10628516 31804173.716484945 12535685.79139009 36625238.26145948 86862065.81829487 37800783.01168894 32026560.12667294 32879115.69585928 5766975.351136445 174673602.87969673 18040954.866689883 36535902.010316275 5016796.485170221 33887053.62351336 31751851.63040192 32398124.421643086 749633.4479660707 26213380.341272894 36930259.42028109 35486144.10003542 36158727.8313875 34177236.49016958 20722878.829567034 32055269.82800987 35359848.05507285 28696729.98341575 32533086.30892202 25237811.471005615 35735463.75235207 29565078.08509957 35826302.13038246 11193880.767332183 9234347.571913932 32169907.192286357 5176979.263284499 1527057.5270245746 9103976.552602997 37088148.28821173 29854795.251342352 34795384.45217161 30695769.243795894 32237637.81539339 5682714.196101225 29544369.64802663 18839763.777620737 32639229.57188688 8395441.280031282 13851940.467889056 35856624.97660205 8689002.761275688 16176112.236251082 25308783.564107295 11323145.752314845 23467070.425949663 13861595.914026089 27813578.47584113 43743889.41282281 81955917.21806946 33187014.870278046 41540188.68849649 44944682.00904159 35469507.56728294 22932766.711583536 13620333.304972472 22636406.05763223 22292109.838133603 22073452.16662596 73798006.72651383 33011009.456053264 22656823.550995365 13357581.059653582 39132403.69654158 21676208.56944127 39197974.57031794 20124658.87255642 33824430.91725774 25327312.44441177 24189136.931785148 28889258.310122386 28475132.89616972 3768496.695318633 16465230.325313631 34693901.01197579 22837261.693717178 25845933.352654677 24833939.163943518 34843756.30153552 19721651.47995618 26004488.310391847 32220264.223146737 22259765.861762602 23825063.15853176 30495586.081466522 31606899.114303987 31151827.79553049 8006254.625785649 37592822.99586998 31973249.354995206 7713040.111467629 29715133.778663103 16184889.934039949 19267852.807703562 35757927.53816173 34535637.227415115 35942568.01196817 36064360.567597866 23877973.978463892 31797238.004835527 35227169.01985638 29134916.983215973 27774939.18505121 13588972.544641161 31397918.086536385 5492547.983804265 66601596.507744916 28437162.238642406 34157906.4904904 38458540.23734162 34853233.03422742 17207139.355802752 35478686.48450798 81038277.45504525 17787486.129179012 11645419.03653293 19145957.28092551 32261581.345417015 33724713.00775459 9254619.870973594 350847.3776445833 23488314.526669703 32117028.53640718 13995964.269531311 48006778.15817246 40362447.793799855 12743566.08214363 26926061.429834127 37219335.07084475 39104313.491421744 16805456.982115034 12970321.960807122 28898622.750498816 33935633.85565548 41960173.85465498 26276423.879980702 32716902.18333711 19599484.402892616 12752710.752690542 30669327.19138042 15388259.457649281 31631789.16053098 10351136.826646162 34820501.972603805 30220487.76384675 12285102.04915843 39918684.46758003 5549592.601885451 23964675.4341477 7254639.05902041 32967933.52213252 75542944.06514983 8978453.00291242 1052730.5853552942 34137944.63044835 33683284.28168865 33800393.41619871 15561198.387480756 26358112.919422645 19521789.53395782 32442527.921014834 15173399.204234779 12953138.966573259 144463290.1109988 41621788.86533046 22993813.857792746 40001081.07526507 22443138.28694359 12101289.434245355 18831086.219384905 22638070.583348103 39274117.81444864 19739129.50889478 20768761.377517767 36103400.575815305 34327192.93973284 29031369.541544866 7218898.423812342 45213017.917743534 24762648.054462135 33817459.54571138 36777694.8714634 12308315.645431858 9232988.844957527 7516560.399868748 39059822.92530064 35473306.776298314 16415436.976792345 10730794.931543816 27647381.706812922 22108336.107887525 23035216.049599998 10107528.946798163 10033738.43889278 27474925.65653873 28370077.562381454 28580659.02418485 34690707.34669894 23448665.10129744 13336109.354282076 25010880.436627958 13014595.093925694 24843047.02242931 35056864.34730636 19630940.577455573 24896297.72311337 33996740.61575865 24913806.43694695 23340261.462368634 346466.41286327085 18071040.35110544 34116572.52683004 9134168.384446474 21710295.186634254 8245612.432297598 2249570.159600061 18608633.75022829 25091028.07435342 33923452.26131189 28758228.612178568 8726503.275995504 16518181.914910445 38895208.73457361 33771544.53655255 60738170.34528726 13917645.087852513 25148080.49476643 14175912.837635314 69165023.6385258 34733762.54782672 26420803.34450017 18478828.380245887 2525458.0033464436 29359904.597193923 17279049.117337625 29416970.3689443 33846607.74927417 12718713.9765814 32362054.80304339 2424845.3375494103 4546983.771707485 25442001.60055687 24131012.0169048 4546015.936074943 40258809.53463462 7759500.181533226 27863525.96432696 44540302.90301853 29186234.5591613 14166447.550021859 28839767.682957217 40275309.896982305 35527371.54650702 28795840.643359903 4699955.405087091 12367564.037229158 12190468.0915512 46052569.09388626 10587019.405724315 13576718.170447316 29256492.36789925 42777398.274361975 63572932.652986564 31217894.689181805 7176239.932624236 3950887.011726674 31986562.388613787 31080495.209345277 18621031.977308992 25418753.23550393 1411992.4911484022 34932516.83904089 10685515.628945613 32062147.144991968 27343912.606428817 40692021.32537298 27319884.885039702 28854769.682742078 38207255.38516813 53697523.18385224 71305972.16591012 4071404.973980536 10414589.199484296 35073265.430223376 36848058.11307346 8285868.321069608 35403328.90628462 23088944.74943234 6270758.864954405 30834921.715678282 27346430.505859893 15092151.045987418 11813058.237089446 28032000.6909617 35169465.171730705 15461680.045404026 34241908.78201131 24168131.3185486 19054901.50744026 21041217.738948874 37639286.541118175 34744624.00434747 33639029.27330821 32549077.213478886 18936364.85226722 28874774.588990785 46395071.40739682 31391988.61139098 31526337.277277995 18252858.397817686 8863435.46722581 86574123.3622438 22051503.5064346 17578508.70714793 34771057.91869615 47011801.699832976 19116389.380539685 32418150.406303123 34635636.94776776 37152719.904896334 30549667.90885656 21854439.290381245 15244351.991888832 39451889.04626195 24154309.04349222 5648758.438975384 25055727.820766818 26762837.159641694 41168841.394910336 6722269.058110101 7614326.51798191 41499318.22013966 24740645.815507866 32827368.74178148 15753085.064701388 33754271.58798182 29233747.584344663 58358975.05033028 31767642.650450923 26113421.67215971 72870053.5423351 2507554.748549426 745291.1646305255 14085384.097440744 12105170.489800643 34207256.57600499 41912768.036349975 32429250.05461174 12404411.545396268 64695767.5369834 26477870.63431193 32591052.13863782 27573866.06391108 23896570.003766876 2624204.9279649165 30713308.250968385 28716226.992627826 12542270.23514404 5535817.0768542215 526998.4284573621 7350193.002726228 36434596.53856798 3439094.984528259 37754617.956275985 35744658.62809216 28657064.44330996 35328752.20299899 33947327.191608176 5376959.193750378 26856579.590807598 11961116.231817534 6352669.742145581 31118749.574797723 35334227.147894345 54386784.557677686 41340566.54166667 40635463.960186206 3711524.6055374034 32601726.39887325 41393423.36866631 31729063.43231428 28107821.57762831 2480689.394861591 35997855.81623312 23275927.988346245 14565332.696850782 22770302.489256002 85868313.31164806 18285785.345851265 40383910.40064009 41464955.221176215 11412171.811937438 17055329.613044504 40913543.94861398 7693160.889684162 34344225.19447548 14121998.602953512 15308824.195569012 3698925.2537880214 37845087.74172796 4539688.471753158 18965782.320368256 7630024.9497109335 34535400.76921232 12662358.61757658 42159847.22033572 22897877.867325973 32663842.97880471 34580551.94461648 31388733.26637439 19944861.900037006 29051215.691074714 31211944.244676303 12931047.077605387 36161282.97710925 9375410.039078247 14788631.83454068 18280116.704659123 6633067.459873895 43686824.53811743 4541746.334916073 50426876.73126847 31894537.272889506 33512318.95374204 30507433.91416507 11392059.989153199 1419797.9070180329 14305596.738441184 28857554.21715875 24266114.906098288 14179336.229637915 32036880.067322634 12968118.01068672 10223750.959863912 11630605.067013245 93408928.61538097 40963635.15409873 62936775.738247484 23095725.73405584 14680378.785047954 32490096.819705077 2532304.1129491576 16379946.986097751 29925876.204276424 8225895.69154763 5226275.0672798315 38194343.69686872 20875204.477566388 35675765.93787688 11058456.512772111 12709667.03584712 4483560.718311306 17083822.13644149 36825562.89993783 29263768.689094152 22233693.971279673 35252931.96006361 36105337.45279708 44944879.46745454 26223429.579351746 44802697.52259495 19265648.319819093 60624463.99999937 27769781.112663407 4834891.701124768 32878098.65815939 30997898.877358228 23244525.884006985 15545719.258204155 60259376.9949255 34878867.06400644 12009810.598162383 28866805.409047354 33285574.695233088 41004389.72621594 17591476.435444247 30943781.186735313 32257764.483986393 24903525.286979612 20131136.837879773 23775732.06747094 34299530.55360426 31400160.859561384 31587689.80199459 35941081.18058065 15530565.830193613 32973417.079534788 24736391.272609584 23039498.355008624 29946387.006793074 34893586.05881627 34609277.17771102 31886017.189428817 45717120.82889049 27252422.965144552 31772796.43465623 11873893.928913394 31564632.00564296 30674624.24213697 22874317.165356558 8260875.334377215 37643125.22622357 32823022.64231582 3678490.5454240753 44649808.06042602 55631561.03620186 32856871.988384884 39223064.40465125 33822583.14508806 31753146.037986927 21135976.259080492 19488572.260512166 35551228.315701544 25885719.434573628 57585976.03078757 947067.0534933972 30874785.672713142 12611495.526793147 14574845.420734815 6028755.875548593 61606509.60010832 16810448.2084461 26990933.397385478 28652063.26269561 30997876.6696502 36042357.87794356 10551409.973362494 12113911.93753903 12820176.272361994 6931686.602371492 30008236.094758406 37826088.88869088 33771698.74959859 14923196.118395435 27554878.23732461 36383428.3770906 18257689.98176634 36472689.252985135 33496832.31805644 25166842.31182405 22069927.37753152 12799029.336176088 3742793.0421231054 5501691.942212941 23899937.52053646 17229406.312550347 20168664.684068523 23638379.61111337 38008305.537634015 16367300.70889327 31781269.63268586 13142733.164877277 33436130.333230164 31980345.131442934 18789991.09123475 36292228.90411107 7758627.3672611555 34924840.79971635 35015760.78562475 33736875.54106552 25153669.308274847 14469808.65934034 35000897.44561844 35502562.81263593 2432285.3344068057 17005191.744268037 31875001.95903803 37210847.940190196 35684561.789607875 7896582.107939585 13914388.413962077 28983754.069641683 34304284.73099795 33062869.91623826 8865416.963863382 19506386.670412514 31878770.98743779 37176011.1750159 12860639.85949634 32816220.08479992 27954927.726569958 12553624.67776248 36333420.1288545 31187365.125581156 2553223.221508852 18934889.26775975 38675704.537744835 27211921.60973586 8103271.576743409 23379782.253530055 36225887.25141908 19982313.70988886 41011290.757237725 4294889.087352673 42086607.196044095 22497130.26633208 29772552.869020816 34074922.891663685 27404691.616883613 8976818.407401128 39178161.002482854 1188817.0784819194 35838571.363743655 12764706.70189106 8505941.19259 40877664.63882918 37395092.58543097 4297016.922085843 77901916.40718088 163224588.72960365 74817188.8352493 18193570.414014313 37734812.837465756 32686228.00434455 19976207.972458474 35281662.51542846 32762250.445800763 42925469.93308971 10550200.914394476 37374638.24118153 23403685.647353727 16999814.643821925 5976751.7705244 62630074.251172446 24192634.03323371 36468314.445910886 11404993.614545135 13753750.922439545 28763753.154172678 38432408.30708993 43199382.19309706 34885617.07657653 26797290.123113822 17682063.195544887 18474741.43629012 28755495.37211389 25755001.652841736 35465169.96111408 86451042.04099903 15504517.424111897 38159222.70268722 43689226.68792141 23806343.225472614 21259694.703855753 39843369.32156107 34247428.954471715 23922381.195307508 19977670.08233776 63190683.17881979 8866687.887866175 69526335.75797528 27682110.753562853 28340253.47102594 11405537.656332567 34532487.723561406 29607772.491308972 3235498.7092468035 24844521.92672124 7704384.589009235 17546943.12286402 26568389.741069585 15230344.138480416 13646821.863968793 25003116.97102197 9016038.059197899 31454540.640871976 25846179.61176184 18423895.70950688 11280334.008697158 13425579.605626954 32904807.15167093 6520972.100138444 17340774.414860647 18226449.32464288 23589135.59388718 19508928.431913838 16526761.2017443 22835816.80681268 22548635.9073004 36055126.00803192 12597861.920275806 35742343.25710484 32402151.55062222 22024176.659841683 24052754.44382095 33548482.162013773 3736185.3173880093 31663643.26083133 1895381.7138742283 34854831.486950815 63999667.69163459 30422030.631862234 18071330.02354655 25402465.706877545 18204136.554827068 30253247.235715035 16576471.977751156 32953664.650088742 21451387.815221943 22406959.345203687 13006593.580599645 56779942.07979008 7874673.687976517 13806767.676927676 26582497.412811894 12314664.761307135 35081087.6975154 26642332.70214344 16295072.654352676 22268227.858824115 37217409.53241828 27778752.536857568 61769851.89057232 28498019.898679063 64994153.61896891 72199049.82502389 20766260.287563566 34530454.01906684 24953517.528248046 22895717.416515302 13191249.820134582 3572541.9774013604 27689629.39291068 28212203.521471214 29387082.530674864 18739805.753743738 14151053.099718345 6174855.624642548 23668101.512347583 24548627.915212378 23437128.686614346 35905756.69640912 39287809.195115454 13387960.081622249 53434616.09617298 2588457.3650080115 30196781.531186078 16627680.657399753 85791139.41988233 25449343.73170824 24712568.457357615 2401503.0567577137 34255152.15272989 22118634.534244493 26368766.427847564 19906217.600019738 34593390.93173726 27318850.1515809 23418120.576539285 14520345.63809876 14800051.174872587 12116734.549632128 9106205.078626057 37518885.20682228 25764594.136086203 14604138.502217637 34435741.83656404 33374654.406570524 18684692.33023491 21017842.147477113 34667755.23017629 27071681.370006885 76773202.16357225 24991305.022873666 47261291.6238817 18272071.029134843 19064934.825581003 31802248.05375683 21484059.91614765 21178777.558908604 19946119.57545431 31901452.32290418 34628663.3627599 25155408.36342311 23543940.862216234 22619769.532546572 7464594.357065526 31931285.913503062 8257579.539287508 48660108.59118458 45972240.4678957 53683400.218102925 34171887.667872705 28009056.482744373 30228513.86442225 28226929.329660647 14178894.527023384 65394616.59731184 1277295.4809038865 28355235.55397063 32294385.595754076 6083556.374154709 12489473.550050197 35551194.49634571 19410316.872470826 10332417.819038276 33673014.985787265 22469707.189129837 1907788.2198867674 18682441.970157187 68586445.00187774 31803091.421381753 4829736.469678756 27182325.333039563 39805068.184282765 23838263.93133771 15581970.075999968 8846814.274403088 44806973.33501013 2472182.4168446395 40244960.95698606 3947422.1325035496 18928762.634421933 16114492.976835938 29384042.526565418 15315702.028216107 19897627.306037582 36025479.252865285 28714425.833539885 28587831.778115682 16554751.015454035 8818838.846767735 32108668.0229034 13950574.82902165 4553607.7544015655 13330787.74365438 71989691.64311914 33185209.613810476 42854349.05556403 29344726.316945933 32057404.30639281 13004427.166250339 24896595.68552343 22162599.250610895 6416790.0999250775 23854808.42840736 8999080.366800958 30948751.780938614 25122039.58648979 8931342.481008139 39518508.02598184 32657449.801124167 1931677.4079482737 29167347.53307232 12264248.817702187 16653791.880518816 12120899.84187456 26914616.932678297 33676256.5911093 22345385.791884415 7412887.59899895 15728234.65203485 1655406.9278141165 31330491.08594419 30979979.084819578 29567398.126522914 40342703.00655296 37441550.322099485 31688843.377564315 44022117.35347758 386671.3901160716 32619873.980717946 1323720.3760559855 4772113.117774119 18665831.907073297 31743197.261301044 27030256.721071992 34635323.17793882 39704365.81208367 9870067.13945927 25422203.000861187 36236862.10407337 12064910.877777662 19840750.2853701 30174667.91376924 5852940.281753921 14852605.241171092 22946280.32584853 40564919.09873863 32443852.872735623 25592850.859627236 35434319.30687307 5219271.2425947515 26527002.035658315 2703187.7594582913 22687841.124614347 1732052.199984516 27206197.383410387 70374453.59379017 34072172.08436087 11549486.358019643 32248340.55891673 26441323.244536415 35531096.22780621 39045924.51270925 34036919.456528805 2004270.7010868317 35079680.86810988 16978465.251720037 6195520.624030542 11288216.055238988 9573592.529208234 30931495.517551526 18370238.78975295 31539373.45134633 12840283.692973088 14303660.444293588 11917753.727998713 26468854.14213688 40169468.04237316 32059538.759073902 32566551.486977942 21831328.120570917 16695754.445075437 22173138.49962416 2001088.8995043086 34621162.84167997 30849847.86965999 2747797.072260668 59836103.692379475 32535033.305710427 33817199.13295759 30325876.259911723 29487927.69030305 29066454.544600986 22004655.77438668 29811569.134263966 39977736.09265597 604901.3659347782 34673755.12550547 17198151.24362611 29230729.752396584 31278611.42749271 34493772.37050151 13004135.430800838 25717716.654555727 35211698.057468385 18034225.45523697 13349087.608725393 38379282.9610763 1103279.6659968258 22556754.33586005 36974066.34770351 35342301.15474406 13491338.389670558 32103892.30625311 16917048.099655572 16059176.407548586 35156464.10931748 9402193.44112998 2570435.6170059326 33585585.60234727 2611615.2880815743 26358101.61453219 2574402.1953170123 81971196.81674384 29729545.623450287 36441054.746616125 33558819.03507096 32523316.52978738 34621593.33318003 40472171.11269424 24239854.93685478 44495215.90305026 28359250.29004581 27267721.188880607 40349087.00354372 9564386.775515432 17932379.675754543 33275081.669332623 10575870.240363892 13428640.09478873 19923256.416511845 45734695.82412929 23393940.3402914 36079433.46927316 34271690.11730092 35282434.38956908 11743045.469167057 45306598.42162284 33277425.6629283 12123248.062912768 10271543.613826344 27237275.737743102 34343956.10615799 32133642.732006676 27653365.51105238 35477184.32110706 33362055.798926566 7154822.3251726115 43142342.699247316 32130050.70979785 67283408.07178359 33967846.3262825 32594489.828248236 37583305.14276898 41683123.55324524 33797309.264776975 22431217.81118374 33021127.620556496 32699507.78541176 33555137.46883325 11168033.459921753 38318542.35808128 32812436.80725533 36128299.54443808 34964309.75328075 39033297.14181513 15800097.642787538 31830713.266320273 20017871.06597848 13119292.198235527 32410415.40402162 31276868.35980755 35670635.41976538 24689131.74647977 30601402.216104962 41972984.90179275 35395679.02162021 30926308.487956583 34226981.13310734 15014869.003330383 34429318.81327827 28360162.018613912 27827937.039108995 40701347.66789281 32260662.7376932 3694084.786269383 30158880.523036826 34159616.66891814 28198314.882894985 31558211.04618278 12679852.896963632 25169444.709833078 54159604.49847071 34644902.28483735 40655459.556881525 26853824.08183457 37571146.703943394 20023980.395640917 6494408.04133357 32499920.024016555 76086100.24327151 28056852.53199284 34986560.859415546 9187185.447402848 34941089.687035464 15623230.772065213 35343950.427801915 26259511.343157396 26019744.065625116 70902725.11023213 14124951.155722786 5356467.215771765 10434734.71242068 7461316.137439034 33463857.852167282 19609687.331514902 22118047.701073218 50267120.57039275 44121197.42180419 33435750.750817735 9738071.144294491 33861432.39021261 37892125.52259889 40411204.812084295 50240187.39412573 7035244.529723011 25985198.737111792 408280.02346615633 8496397.7269655 8698119.68986569 38675437.53293369 24118204.790776826 24723009.85273312 30630483.463691954 7890490.804150921 34640218.99797147 13629123.261233931 14084114.657909721 28134314.40333502 35580861.78509021 28129400.27961053 35769585.05947757 28217705.608623654 18464963.42155697 7347552.567724439 69147652.76923165 5739778.206504314 77703064.96148723 37794771.82666915 33714869.312691264 78528229.68299639 30841649.72800249 32084883.733259108 36190723.89217571 35951240.736360826 29705990.09172767 56189759.8932889 16529874.425112693 30635450.17526299 35665859.06907543 29486134.77893881 32795207.268887497 35506093.711013086 2464428.1368371095 18231310.726403978 26260126.86600302 15413613.202689916 33445531.39692879 17995698.04280645 37399387.01290105 53502290.87476728 25256755.39296146 25853062.658799075 28364124.66500118 34655930.2199517 21079144.017447837 19908620.908175334 2794972.410261038 19803794.92031016 11290339.369549772 17374227.375342574 8689706.55096748 66415247.4692134 2556721.288294227 28259416.563099906 34138343.78382337 7070166.773401386 11007166.321067031 65096051.97214699 17310128.489714153 9819311.71105182 3812966.115934332 9119729.299579557 13836977.573855368 81032278.86564994 3589207.987406921 8725624.16763305 20188791.139071863 14427200.342877677 35175177.36929735 18109919.483680237 31989996.48386078 39850219.8370594 70074348.83029707 32340311.77038225 24148604.607877567 57722613.49672889 17370253.667207118 7233772.548448722 20888029.32308274 4471204.599086238 26681359.19309562 3563717.3260402386 6938932.081338149 22090779.912791643 14273841.839086814 12508481.666854322 26746508.299654752 24179081.559772752 13831519.697062263 63656804.85155242 38717618.815968074 25705877.956174266 19781579.398999576 33151174.676958874 34706474.788338885 15030893.798963673 35404855.25562712 35318303.91752145 28237325.82358677 34903989.46852522 21622499.88482636 40520824.267292604 15618447.74552617 31515016.29589321 34450268.81274946 23514760.59048133 37843917.999675825 33444312.86912975 35906179.05500106 6171578.301620741 28379856.712504555 74805979.36086673 33538529.10047775 30859567.40349925 32588670.72835374 11733937.501415804 14836313.612644061 24995766.796254393 32599683.610881608 2648433.1014853194 13906055.087633923 10781752.618910557 43794581.229750074 25534199.78120849 27509805.602543693 50774755.60541899 43970219.66365566 27882872.888587628 20261152.089668233 37471112.25442909 21504690.30881948 1512496.9799679532 26828629.321088284 37904731.08453973 55343216.604750544 36609997.99673209 8004386.421720979 51908788.30401074 20449194.47443276 90106662.35945539 259503.98556811875 43204623.511613876 19794510.383418564 4959354.211492891 24148757.40921481 33966490.947993584 12769462.286201982 10973892.399507493 27286837.734706163 16069476.434740338 33690067.23428758 6995937.196986016 8205134.966467937 35452012.90157741 33017305.375609368 34449237.0002377 66580661.21230588 42769704.60273943 73350008.32493225 45493204.457813285 23101260.33214387 25547905.1066878 34897321.48849188 47943469.105125174 16336270.108068226 28252656.7213474 9273264.489487408 8315084.5864542 49971738.74373171 12500989.987631159 31899065.22636474 2197380.6498718676 37036821.62740026 31473091.670839135 8288703.986215888 51937110.733537905 31410158.770411782 46052963.97775932 33338380.410318427 33730264.897768036 19299387.176391285 1363551.8658216705 13887027.181206685 30917491.05080656 32271794.070066895 26154507.856411453 35861265.643498525 5657343.584703831 55732820.24356234 47528268.671074554 10797402.72566121 19225410.82532844 10145429.429101963 24331290.21458649 8963827.998624086 13185327.678170893 12282651.848999957 25745028.725505114 24592341.76855325 797774.6976583191 37871932.49770052 33826821.79543487 43594346.98514158 14751947.717284955 32433523.729225736 5787799.0927509265 36539004.5028174 11181156.059924157 32685547.238816373 56314081.402504556 11926231.926419748 31605929.757024303 19542419.453601196 31358232.964051217 36342988.257259496 35022282.42963177 34433500.52000842 6180451.017162153 35688432.3726115 10580081.34040283 30895239.701942556 8083290.390822771 33086937.40821058 28934004.76759033 26932312.86114538 16354192.867012369 12063552.976273363 6803773.05043462 51737072.226480216 6350620.840764178 28030423.321048692 5287429.882442832 7518961.1139254505 39922639.71607846 17915322.63877451 30184134.93555809 39872829.10853801 26144993.42856198 22013409.982521042 11908093.405631589 27076349.56836333 26740807.190594956 8078624.701875061 6300989.196168442 46767199.64142853 43583935.43961922 19294452.233996022 45808120.48968131 30560760.224276096 13607615.128068136 13864779.54294067 15099868.60606811 19729830.47657302 25566622.70132211 35182549.02934802 31231007.118596293 31416706.53028835 34494745.38579642 34804852.24984933 10620609.776487393 34777545.89814086 13587564.26751509 5235438.994884732 28946698.196768176 22071448.6607534 71105088.6008578 14556083.875392579 34861302.368503 36197987.56520147 33726026.116499156 17979853.366742995 15387381.33585509 34515101.031926304 35041425.033566386 29070296.904853392 30485323.840907775 23147349.28183314 35855706.54080031 18221842.0498924 5136222.117587663 10184494.800573291 21512505.39777185 24758037.476986285 27316475.060724854 43364405.98925308 33712162.19277826 21463761.08523006 3308063.0876107686 40554057.56253913 19128667.32443718 14518741.360862358 33616214.454674594 46501043.016894944 49504910.6471195 33221098.91705857 13040385.692591999 26930607.680867817 26097448.80855117 26336009.016344957 1914799.4083571031 32235188.994950894 8932608.026199799 17706655.20422926 13206704.380969586 5561706.054178389 32080188.34957961 43393213.963830076 31151396.205646638 30222789.22644447 24750551.5696374 7254419.513380685 24945542.129422978 8822526.88044349 11633288.177410372 34968285.30778413 7696043.842336218 15284147.66092755 32393349.55552944 12093058.06559341 15779903.747310225 29020434.786847007 13310221.261479992 21733152.53742133 33448707.906125847 46588951.45966493 22510514.2571986 23451931.353731055 3522973.836057163 27420909.80334059 19950754.296717487 54778224.344013475 3590360.7326129633 30956731.039263982 16692984.554237958 21946970.40383688 36069834.6596343 24536175.664146554 2345861.830612867 6792854.521143922 35733196.44156558 28983386.21600972 63959149.151139155 32342101.119830336 9816079.625210842 23079491.453635868 34766754.71403323 22661865.373506553 30668999.906984556 31533237.980001576 2583122.635739127 12713126.706695348 19105374.06950497 43813155.99229513 18308513.531767998 11408671.472725404 36455852.315425664 49858587.617303655 1324983.033507616 31197508.480643168 1046809.9574602669 17841044.67256582 4397648.69227594 75394602.2915048 62235563.80543644 36409996.32979464 32778125.513341926 33229439.631697405 56290424.39416105 36294045.65746454 36450339.4324607 25626709.984590057 57524091.574692026 8952592.763609743 18568740.555785064 29322868.432683416 33323029.231674224 15017538.329338199 33676862.01312853 12240894.363104613 24867553.451837983 25938951.799203258 2831448.913058766 22650064.146952935 5763559.127187145 31873721.226768114 25786682.784663644 19224005.1639773 10035161.833491188 8210500.271694731 16833145.680827722 14753042.101671055 34369759.9522211 21507199.941184416 1743238.2939547366 1064965.1673411645 32512666.028657105 39182530.2477496 33692290.14358443 25204128.151031148 37133909.31904485 35189768.274323285 29192127.43528239 10721686.807488063 18997474.772543374 45607949.91458837 52157613.41370591 23359388.231175594 5790182.252870466 18327858.553534858 15818155.737253489 59084883.54296489 14513571.296651809 31022020.99235618 27704259.068656974 30805306.983382173 34958501.44371689 38569422.79960552 34800253.672931515 62672303.71206162 4592180.651369143 18716544.31656127 38700552.92159732 36552922.91734587 34416957.4822089 66470015.94407742 27221962.578448042 13212849.863984998 36555401.23063738 33339070.068398986 34453948.90098074 13882624.227620289 42171613.18370922 38881700.07742728 33281863.637149002 30591270.452716094 34731183.18995659 9194526.58748632 20960040.186299983 35169745.25522068 13663558.764878543 37734812.162184395 23101578.79278761 56499947.299980074 23234882.45607196 28543497.60997347 12127197.220847791 32012480.707119778 15365628.126358055 7746883.165800765 34828871.07952757 29579378.708842315 14378868.492589444 25966452.492363114 13205280.758682312 10103026.464831922 19825573.863598228 29791793.679662354 32289809.123570845 32356939.793887235 11458934.15799511 25223096.88375217 13243454.327567004 12759814.377285346 30260980.630461063 37432453.54703386 30392560.70875426 21901353.530354667 34757209.08534868 30022469.279631983 16689555.798699148 33804204.65613861 43664986.95083295 33344247.315834474 1125446.7865389886 25623610.85823537 21394357.732262466 19566804.51552202 18548852.94887854 10343610.058630837 19973516.778618146 39104456.1365388 39272656.163284816 35638855.760293804 38775080.692957036 33861939.06116931 31827936.423858564 59432342.28339472 21518595.658523023 19625857.61490987 34958712.293748654 30606638.438752662 43482143.50067151 21340950.47848344 29817397.861853417 34574637.90150513 37157678.45468871 25194371.574870102 29206087.88418349 7770070.982135944 33988013.166208684 34774316.38170219 35484753.50795937 34315508.42417335 27248238.04564279 52706042.44760565 27887785.769131742 45665913.68547305 46408192.35609762 32714609.793912664 34339320.67995898 83322015.17623824 52411241.22204056 16427365.855325492 32159595.778311267 35190207.25625495 120650890.3969026 33694045.60572455 28682913.007308844 1085583.6887921146 31181572.615083028 25599851.111386597 32938208.27444142 28085622.264199626 26038632.159544528 40078906.334622875 38592915.747819155 35847424.78073986 19749690.015970726 36582152.93521321 36792308.28853246 19803467.743336298 25488592.715981346 19475179.856815703 40438709.06542436 34290029.79602749 22186656.745904464 17846846.468584407 17763035.224652812 45395862.31487273 65422027.0307167 17613261.433199376 35394165.86322715 19725013.71033083 49167411.7879236 1990003.281126488 13637769.41656042 30792471.2129902 4466306.359245728 71555311.08922 5074246.518299243 34260205.72455799 8187746.827967561 24011885.838215705 34018678.93671314 38497108.021944806 26016150.71655321 19622975.01660766 47521031.75317421 28451772.65124217 11333082.866623364 37461546.63382394 33392034.829970416 34216270.53623433 19435055.429553438 1093159.288443909 5184999.247568354 5998455.369692596 31430673.368952285 31120763.61060505 38327438.9649198 16008076.364989402 49378128.484983705 10450389.060955368 11209921.988953443 35822082.32103265 3423979.1187090217 20812655.937781725 51799012.34821139 23689382.54386458 18775326.600137006 27791868.30894651 34888435.4234317 14252429.005566673 37374421.65804212 5506103.029976685 34830826.39302342 17475527.33059334 39150603.938629106 15232370.243804984 23430586.95047119 26132831.663001362 28560577.17552677 23000254.236833233 3594810.362591168 34737681.87322428 39611357.54013688 22805254.40113953 19898793.737915497 63764255.68351041 6710245.5477501 13272417.480322918 11144566.69774037 22444030.91773062 32844569.01864768 13560526.79895129 8409479.98044346 7496843.706410441 270547.5167529665 9468419.816157835 1993027.260144688 34550457.707753755 19562112.120101143 3040743.5500289574 10246214.575786585 12832800.092396848 66866106.06749031 37955840.44599278 28435933.06422455 24276128.6682971 31780625.293013785 4260245.730580214 33940534.637132004 19173281.439335324 34843928.952110864 35022906.398540705 34614195.693367675 32022956.73944734 42610104.31192771 49605947.28668334 23274483.84967199 28855610.926452592 29204565.18207644 23863032.960019633 19118936.243945256 4149396.516728433 20989920.81259652 52517056.85861905 12293107.173198903 22373054.11566541 8589609.505239014 16076290.897637296 38352444.56257447 30425308.078384962 33703130.62025818 7134010.180765113 26691867.45859282 29505170.4305403 35280859.809310965 8830485.57885732 15369118.661069192 39932479.53274201 4297739.422873611 59797136.33302144 22322679.598422866 35448488.546539664 20372375.418544963 36724014.881555006 75014275.61053888 26818268.851914197 22173962.788277883 34823412.85480397 39661869.48861412 36560147.14335527 34386251.27386183 34924260.99760996 49866339.08538764 3719987.7000357313 37261411.14736159 1968590.010265174 43708140.45294359 33974526.87123384 15263300.381568497 23605379.14809164 18964231.7326154 29041651.477011096 19027433.800008554 30980012.508642856 3136603.6030381224 23888872.91700618 58340757.76791042 4532151.244041195 34240567.52384787 72089951.32230361 33363107.47985188 23552494.464992195 35406066.24474335 19803554.851126883 22652166.173607722 29677382.538583785 26936534.62951328 23814052.629143972 29882900.116507087 14934225.12808909 30607706.969255116 32572862.523331724 34114367.60491401 39945072.23118965 34995064.402092785 36229699.95282397 9740694.748122972 97295006.07657051 39711466.07333635 77216763.89470924 21910078.38333119 34335085.7085028 62709124.61324293 3307075.451617857 30816928.159547564 13471692.758540245 1257787.6100414505 57868787.822105624 7281870.139666155 8683006.152024005 50182241.45886004 14496697.736683402 12389941.310292387 50383274.96645106 31533628.839285355 34554031.04986417 35423713.65366627 37542355.890126124 13229651.836089803 297932.31537400576 34683584.682578065 14199035.696234124 33240655.801576477 40187632.519350745 32055828.10838007 10245771.059763892 12314836.935753189 35314014.70522402 34923280.53100677 22853109.86199933 32792688.592022374 38791828.265763685 30954661.742150556 36332045.04919474 32312525.09919725 32771152.069149364 32628278.304855295 51565827.366681196 4487655.196825361 39053001.185677685 38075066.58812076 36431092.68471382 19764474.520040657 11762117.140306067 15495047.164722364 34782684.33970633 13646063.182637336 17165630.223338753 38354730.83559495 31236892.94203283 30394881.33600346 12433906.291779218 81995594.2523108 24643233.86609939 34782091.33619405 9577836.79645005 34969947.99480631 45124622.39650406 33349561.12771289 31964656.45742852 51355481.20861696 8955725.064832686 34986299.95467551 40618664.368138276 20156856.925539866 15212022.17840833 3330128.4571171543 23472877.52850823 21961587.581574086 34303569.633130446 36526582.3146081 34106457.08343376 31989708.590990506 30829820.053184733 64453555.02564414 41024920.61478386 15313026.409266837 33751698.68189449 27207451.303242613 31936548.13669481 34423259.169709235 19530566.71531907 64661585.44744894 15352292.706248442 28876186.300252784 31220323.624226343 19820937.959721655 11041382.551197413 31779548.78129968 34575405.128016636 38217316.34569519 34044650.254955314 13754817.489451647 30284678.817572474 9827422.527971175 73499953.01426953 78508660.53289075 28961253.191718373 35659646.8205099 31101789.858119246 15788458.309909843 30599737.791399963 11618716.078871949 18463416.796709977 36809687.224798046 16987199.83140809 15505429.045333749 24051930.880893163 57799222.94012533 30629650.238618996 74350263.32736136 30420627.506140072 14261066.452572107 36569921.43892604 5006089.333990762 27343161.22935544 21918709.4192185 30011660.233847823 23847489.42329992 65423763.63166742 25862112.038860004 43683494.066277124 15207897.746148054 27887064.975999735 31046771.015462533 28580079.49409488 29304106.969660465 18739718.61649863 16573601.207233401 2482309.778132047 24197518.90080237 3266468.801406404 49847070.686270736 22169977.58980782 35865089.32288158 30065439.503012437 20878097.30401831 13189989.842137452 12580634.802015292 33698965.84358361 17338214.967215195 32026778.00170786 24470944.720301997 4607086.641327404 30445748.353524853 11164603.252542907 39971435.59197475 36514262.1631135 32651783.093580212 33675959.94839731 34841105.83789781 19334124.206620738 32395531.053762253 6924076.752571083 20090391.350168306 11885102.764822602 13893056.901427574 34552476.46186013 34690832.78996718 22930642.509603895 34889602.67514254 35059951.330061816 30544303.259995118 46927149.00571361 35384473.06608123 36574223.67957917 41909072.20553675 32802856.206936434 28505702.65442373 32136154.765206188 32499712.543205634 1712501.7795676498 520480.4563459463 34712799.95451141 37133995.53664268 21044572.55084352 88812081.78387159 23173224.773716126 44947229.61120991 24236417.78974067 31403055.12207142 2961734.2546873656 22520140.418136027 39132089.419102706 24382752.844035417 21935449.75391478 22958580.291361388 1251938.7625654393 35233842.1791605 91625323.3498058 31131201.273465175 31473344.510982312 46282386.202790394 13381817.202887649 33416002.820810523 12534619.62051563 20767214.70210149 35645178.53424089 30851796.92746858 24500906.185166206 30685966.298077736 25355282.958396547 31780946.164451733 23640377.590163644 18531764.49554563 4449465.014520619 24971720.94012662 25766449.021444824 34572510.90735271 12928464.974369228 28111896.572208162 7309595.667640355 24608355.661356755 20733633.469892077 57733886.42600251 9531946.458882488 34468924.79741518 24129198.448272683 38453648.66656362 94120965.58796504 12432969.561036829 40032052.12792696 39107443.20790789 39426587.30679731 35654048.410263486 30407724.204990115 24591216.340532154 27135319.621576488 34132041.42949947 4909027.828795091 28311209.311051887 8782801.762337858 30921499.633093957 16288614.951319458 50313711.79279518 25140406.725316487 32939059.92483918 5099699.83542337 33215716.51064743 36958120.6536338 18371922.436643176 29352034.014115904 82308728.59869526 15621989.412457597 57361601.06024036 34218871.4409453 25225844.494671408 36443485.09465142 30655254.87245663 38466125.517892696 8035221.796373055 6839094.353780049 88560775.33630237 16550464.145915948 3107200.0364112332 8942404.38373056 45626575.956433564 15730003.332853217 19687118.88720837 32682924.486706663 9105290.16373255 67413532.94796045 14953235.551955683 3073231.929956296 34492405.575637355 46914405.45047631 11929729.802774072 1629084.5281650855 27097785.81455009 28919872.615812957 64088214.373841986 2690950.6359711946 34887269.5329681 29656615.969194904 14810520.153739838 14490161.356016712 14241444.797273757 19905646.86826041 27802633.42958499 43534842.56778943 25704807.784123536 37632859.22542385 21868651.57392423 2456686.400569826 31227114.90630482 77322398.27667965 980990.036635647 40974143.46669032 6419720.191899872 15114628.914621957 15508744.419953175 49665744.237107255 23047862.060889844 35287530.11038803 35199227.667540506 31724049.203883357 85169258.76446058 78068161.73899555 32652390.094143137 37821594.87317315 27931604.51519739 34894000.58369379 14311648.089753335 9461643.859966164 69428875.81930259 23761339.54466012 40241221.75648673 14801809.497856645 39152035.273809955 32409868.633000366 6792199.24643605 83141408.77294213 5803557.41994616 31625078.097680233 25095912.339750994 36615116.97365682 14656613.532395897 10823379.344083281 40208420.850157574 39131060.29345255 31787493.71695862 9596396.059004597 24172775.429485768 50701852.77073546 203450.87671764632 14657313.018098274 34380954.41447059 15284198.00936491 16841520.117468778 87164877.54899622 17927452.541560806 32944184.287263226 52754955.05114339 31855469.472453155 42443478.1129508 31615135.42518502 24037865.209775664 12983474.6600704 75146653.17557795 46557391.56617456 17498238.88992113 59494257.00062163 30605809.052398227 42265906.431497104 35306443.0594631 40677082.70004756 37030434.09596038 1790995.0461919606 68543033.24363995 43585231.931921385 31072564.042251147 39667920.07241246 16631111.961793233 12374008.909441335 4516417.088209218 24097147.13084128 55472647.78703969 42563717.158295125 41574149.50574004 31317633.2987729 15660687.042223103 21759131.121511485 55743645.965206094 41279005.3428555 37877360.837468415 35996113.3843413 6641783.140209662 13320534.765891224 52392818.691758744 47777321.38592883 36734746.63071124 21831353.87964729 34925494.217311434 27851551.409693185 43534741.25108351 39912458.32872569 28572305.987509556 34970929.62893709 35513109.318430744 34928651.71346359 35136251.007981025 84432517.9858419 27071145.003934033 40504435.33236406 48507037.36244615 76129247.32983497 43926117.84449023 54815379.22030953 31055880.41711105 32112750.576857924 42166662.11788096 92319078.19254105 28506607.689349476 15100335.822016042 23039302.702816617 32981419.05761163 11677654.064236239 22945272.83363975 32500755.602250054 36347081.584669665 3099909.3900140775 11911272.523720644 51837800.06618127 14264935.155638156 32056409.297599945 2480519.4949251814 3071531.1240916713 13713447.570731863 93181602.56834355 24443886.673938025 13886816.993521407 29370248.866476092 15440643.496253705 26208815.40130519 52177889.41452878 35548146.57926002 10121897.20758024 24132906.756063383 21496363.4298868 46145156.4181182 1440816.9817898672 32104972.545633122 35183647.222472325 22169106.02488089 22488926.57172394 105140.21657783366 42056676.37773554 3924737.458475885 7107424.221303156 25955514.84322214 20331215.434448913 22844417.54509275 34338391.52056636 13792572.752769003 38666182.109150246 5738828.5552786 33442416.240914956 33286025.429290354 282666.5968633758 32249803.95678179 17286463.816861697 34481321.54128314 35156996.06496395 33781137.16919101 9996109.93320514 36351515.281907305 40070080.66074987 26100404.590137284 16474896.335762223 23540380.970776487 33672469.29280349 33709294.384590216 4837463.057862977 19325256.410424616 32900168.551216397 32922477.331250012 86716339.06818299 14079497.48747203 35564590.915817454 32141341.750102002 35041008.31052482 36186289.09678836 35564747.90713209 30834584.526945755 43513112.66959395 20079836.25490921 29376803.599403284 36093293.581423625 7406104.868250806 35059811.28026131 17441487.751341615 34594205.63278662 36536470.99871906 36010401.047500744 99247804.33547959 43793766.19653265 35934070.341730736 40792408.533695936 35404936.998859055 2623576.8884680206 24133551.481779635 15061843.809732607 25519406.60352368 6846125.698470975 26283804.55519844 30546782.574452605 4985206.61506972 18413031.005701374 16357717.683165425 35626481.951008536 29570334.488559052 85874251.87831627 36190327.893006824 23410573.1435122 29378336.450984918 7343699.81189243 21032655.43574692 108680863.15983655 36265865.17289262 43772452.18282572 1368673.6422088216 24347007.636255406 5711542.777625451 25550438.149264857 43565735.69568732 12660839.669456288 85251636.06804976 35830177.02507053 12453199.599316262 15793786.739722114 25007133.178242687 11059773.457626674 33982945.40110208 15923924.445651961 31285377.113748297 12780827.431526454 20600206.898722712 24373520.492545303 23172837.513281446 30997469.618707217 25248602.461986672 57722855.47679405 30745568.173449393 28486550.77360167 12182592.373026544 3817730.3400123543 18434320.9556862 44767734.0552777 39737990.77452414 25051419.016201936 36235186.795141846 26739336.311378058 35169450.36009158 11482004.601873089 8755387.108479656 35040515.1832834 1548005.5974008248 3501238.6665619896 34261876.38484385 34492250.28096805 29484927.000688057 8350568.740883044 34861820.543558545 8131956.706232113 57115222.930326834 12273527.602257272 27596951.34166003 22212872.189707067 34989813.10568685 268249.7274469753 21873157.134675603 23003881.505956385 25624286.979302768 24352644.341126084 32406509.093440246 32114241.00252486 4530939.203550166 32311695.094570898 13568149.261844302 20362344.387399256 32249112.415045854 13668053.494307764 34404446.80133755 10499297.728256432 9382902.711816773 32862168.249861225 23420596.315065145 20349877.66791228 15297817.804148683 33947514.11232169 39425137.22085258 14688079.34547841 23050040.06158546 21891683.265921738 6893464.535277454 33735432.11344173 1346497.5523842268 40902932.94826046 24988649.377039656 28329532.254533082 11383726.76124598 18196516.569272105 6983388.414357784 51630667.45110764 19031166.05601878 32743797.3395323 236967.15762737402 7489645.645935456 32108938.279891435 5061167.831343306 1429252.6567307538 32057640.56393255 21103247.11323448 24252580.37252751 8856430.091722772 40602178.22877571 72547224.93352692 21664801.856023222 22524718.46229318 39536719.05883572 15941210.20361652 46157831.9640415 25298293.970617644 32859601.945353966 47947919.724218816 34946656.54865406 31610759.48429616 209591.2310807085 32265027.547227878 1055980.1964759787 43998880.45349899 55453670.14982475 46248284.68964314 58616012.00702712 34293349.138634995 54136779.19135853 31815434.849109463 31576694.703751635 38621695.499988586 6240664.618364359 35998305.81181547 36863521.294585854 30408297.08242881 39579328.36619201 22719196.882573094 16710865.769577177 16445727.879018234 24666303.362932622 15661002.835788697 34795978.69748609 34595468.043683 11312831.390272591 28544021.308427155 35663084.76019414 21935386.28503562 32863558.759910412 32289652.236335855 25129015.040071897 15055633.739500226 32535458.992355134 39187548.51817911 18922971.521033205 24322433.14895658 16493273.929131085 36515041.671797216 51067969.055774294 67328645.86520007 25609012.15513528 4726619.281975031 8062271.809911855 32577065.91627284 7376768.354263383 8994325.36792105 25949590.10817561 7459830.560630844 31359977.943141166 8484848.801338786 22510810.808693077 22759165.45307905 17002504.1386077 24966463.01133015 42965480.27012733 10565850.435063867 6766282.360424049 14820171.43762048 22906082.22852242 8807739.808405848 18904947.47414857 16437555.115315389 34661847.26333576 271426.59854232904 30540883.155103024 58674862.6458955 14869939.628672643 40066986.648928374 7250692.561879944 25058349.43575571 9315592.612513762 27889958.790222835 36737581.03444306 34008637.194521405 29862265.083408482 83174952.11184698 25180356.297730055 31225805.90530811 38795247.0368494 56033999.356303886 6034327.661328889 10273496.655943232 22972806.306270517 33128588.16447117 5226552.348181776 9665213.352574194 30480378.014745254 24443917.728648808 30046924.414366834 13495526.33320112 37520757.06491397 26208092.133183774 32550177.224040803 37147917.301418275 37834936.3737367 28397246.422975004 4906817.822812723 7123148.902703198 65195827.52069142 39354104.20414583 61913749.4570728 77122289.11531544 27927033.09057904 10687339.941326518 35000748.50431154 35132793.48226074 6539157.384143069 15229516.967170512 9413817.408521945 49271700.79460467 32235664.12681882 2499780.14334996 35791708.10967224 31968656.592061397 28561958.877243813 50566766.72524234 24129053.740011934 34734489.42230296 55174606.33447393 32363284.937696986 38111715.08177836 32785030.84662002 50429955.26935855 21237981.84279436 31558112.605594013 33124241.122574046 10558667.793998133 40643160.80978896 67126193.56244135 3569977.9566751397 51377803.713202715 49479898.83594606 27132387.052394446 42668574.713428184 25222150.348384682 24334287.387818508 11968054.536148123 18174719.99883959 15219056.303329827 22275745.490963448 34602760.34773287 39177928.166583344 8330021.140742646 7071049.233973814 33138478.5866626 39689620.70691868 32525969.411250845 31469329.46443344 28177642.65007211 3772815.99414673 10087721.077676618 43228263.066123575 3472979.817944159 26025855.897810966 10781476.239894124 32588958.541762725 28975711.335113473 32918763.691471368 24675679.09643393 28849159.4476766 33038638.37464149 23909795.684981808 20352185.104878634 27149975.868113413 25300546.445834104 19308260.81447919 31263767.32610297 33523188.090619594 46106304.74935926 39680299.850392155 61871883.35267489 4974535.985471696 59669607.97544829 20483739.600773655 12524160.738949789 9185229.829043675 21617737.16657456 35707875.597159915 14209403.492872741 33510056.59691902 29297874.781852942 31258344.77447874 34554664.193445794 38709777.84068297 55127745.65206904 36836632.64213979 7804756.379012864 27303527.447754342 30402519.912205447 49303023.40371909 42071096.24169651 31211209.839178126 56357914.20642354 29893773.059317697 45379390.48741316 33977588.960613534 18640146.235309757 7179693.450231681 38160645.16605977 34335463.57336772 34078068.87424855 83290772.0462958 34081442.4250814 37549393.46963797 12559148.62757152 36597243.52688638 26892897.690459147 35091589.911245145 24673563.227487024 42339071.60439711 14312461.967071569 32268605.3500125 28042997.84449404 35737683.392687224 37666207.94888119 39626980.215796724 41336859.45465721 24923596.5637075 35251376.559722476 50503074.2048784 24400618.590593446 24601468.68085572 31877394.648928277 67478208.2785592 34566649.217108086 46403829.76663397 22136393.71984478 29808451.707950737 39981550.36050694 21870467.740485236 27522499.42015242 34302902.28676661 34098055.54066102 2000864.2017977345 21055276.70533696 3816638.959133226 20786578.473375484 36266996.9276052 36306780.72482477 17034354.46774227 35390583.62288106 23894101.478594355 1035331.2016226933 16760256.317359148 37271849.76154914 34485207.82696972 12098154.230584757 8656272.150621152 15226805.839620937 12291273.182520367 15738183.486068944 34327026.97399701 2701164.1319063418 29437442.69173263 18653923.605063435 34487553.345444165 34850797.31372862 18954114.133352872 12467354.462331662 32837440.863955215 21511348.058089927 36940763.5993403 18400153.932013806 19562182.327735636 22588625.442534473 20579424.754712183 26306360.48830018 8567102.465114191 37598765.586239 15477700.544128597 34728644.01802365 1673471.0125053427 20354383.961230803 13927146.35950756 31414483.083686363 32435679.6018971 22540195.17041206 23612525.874889962 8826930.925125074 31583015.03614791 33952489.35044844 47634782.59666834 47214830.42667939 6126014.9057278335 49538050.604832046 35555079.917189784 24494508.119533367 14210849.675438272 35249261.38083923 34111238.65767207 29756081.92524865 36922183.074909 26619161.336174555 15279229.544622622 15291359.70697722 21781141.77335171 26331994.009404972 22388225.717936598 54604061.44113046 38633766.32679371 26597741.382825356 9359843.1036424 31443818.979025885 34089932.93104058 16683525.45636732 39830983.97496895 3831925.7289218944 15612125.007821396 21036866.0796607 15961981.702031367 34838016.37060879 33199041.598896947 12334057.67402886 5016855.759766742 34743345.88635571 21936619.00736307 8199336.6372734895 52858137.14289224 27848838.74015837 32286761.129024982 30615225.592838246 34364849.85552634 56472506.11207586 10546521.83830457 33013172.13160894 12621440.433601744 35275332.67013523 34482386.58553186 35537956.05490645 1030581.7378274096 9735245.466463365 27736973.224395055 18740397.633463006 22850388.41819531 32206674.742934316 10446217.381242834 14937173.082600102 13718110.863140292 32606386.05093031 14642484.30119384 20517169.554554857 22800423.405698135 10536987.722808663 34153252.509475954 33693677.58537112 37391248.568810806 8251691.600877239 33985996.76051904 48792165.746098004 33966227.47982827 24127117.46335229 28595607.594471153 64172536.45210082 43300970.46404776 33824293.17128324 50351471.437187724 9384035.589770265 23552552.67114826 49411451.91717158 40715456.700983755 3796103.1956903096 25214271.067466103 78787851.73175254 10251803.445814652 76368371.67547339 8541428.94355858 62259717.41586388 14494540.011029167 20792290.163504597 47565519.52965196 30341000.51475702 30332790.564047515 34224140.94760835 29761973.850365367 32019388.34766298 25273510.057712525 35385123.56851971 27701678.024723437 9486216.23968973 35576316.95679763 24905676.93442574 31241900.76321609 54711124.36139361 47562908.204174675 27905290.94856015 31455205.215666134 24439747.563270584 34807373.97795508 15204077.317870174 31542166.801264744 15498812.385354804 48009462.97908786 32551098.548664585 14441558.592899594 33339794.629286688 22040153.36964841 16469477.366572274 8403325.707416466 33855359.4056496 56719267.837097846 11761912.057091167 4339063.182002513 31630132.532688025 8895431.677799037 29490051.772504546 33030427.706065044 20422263.335259534 34247699.36400342 42575520.7083511 25990651.013792116 1374954.432365917 14399945.199407151 34506204.27682501 59924600.78746815 30703220.8027431 10773428.596372152 11775368.093033332 43888298.30716918 34629377.235091485 9658217.025439154 31214292.2477819 16268722.338928131 12293714.613026528 34234686.74675061 26471658.854443256 19612243.994755927 63777006.96091519 31724728.070136588 15769399.31646319 6274388.559061059 30964387.430706415 54429187.495639235 31323606.392368924 8447174.3546911 46027085.586023614 45648450.85908237 34975505.9918515 5697752.022756036 27269454.16122622 15648414.938266637 34929873.79541681 17030014.849569388 31346966.187148385 43555496.88669023 36306013.95555055 26357789.460077588 45466583.827064 9478509.079158964 35349925.93795097 5283803.897446739 45944405.614771485 32382599.862978835 4380719.09090807 3611245.2625690014 15630584.97252139 16964502.291875847 21606556.66177181 34260559.46190547 38078988.55903266 32370124.364994433 32672437.62170724 29884366.902846467 21291559.845189884 39823959.33322407 24011964.037840217 86585291.84386398 7098116.208847196 38007671.73038023 13486508.293172702 30407203.936139718 34114237.662991524 42312727.1529447 11635040.297978295 34127297.828375824 34822638.67321057 24155931.900366545 27799150.31506632 24762324.168537796 22102413.924937967 31968851.36040076 5589409.884146654 25541782.095980864 13417324.335109796 51038335.75279539 31854863.46093129 16627170.586598381 19132399.30651008 25908206.74303108 24933845.061383918 14575363.475206967 27147709.840200588 34738213.43317119 23490715.84600033 31761576.526975725 31060274.481242497 12515266.810097383 34414671.09713101 54672009.95744943 23429136.72654781 38764637.77235948 34179118.02348804 34483166.61025847 34368378.95677945 57943360.49855932 33959999.854685575 8375554.069935118 27316046.35023553 1991214.244817984 35052219.63910164 32007970.8283185 115185344.59889975 38073995.84005326 31313994.464269195 37092256.97971662 32997634.693944886 33837868.208510645 32339532.73204641 23719897.116536204 34598891.17092307 6411411.5275153415 25507914.398869365 34362014.415481694 35368752.36727854 14176488.36230233 6929873.341638495 47365738.37801162 28081654.679479256 44557631.49725923 35336860.37716323 37233381.8131849 43832165.269804604 36084735.94529039 12709639.503113404 49761079.98594602 35723862.05256706 9937330.906800026 33722634.23635247 25418111.535535768 7542679.662973081 19379975.093434393 32490517.80772681 1357934.9054227197 27500196.125533406 10250207.22515437 46775316.47432529 37098926.3409641 4000236.9047629475 18795580.119865175 2882144.238252113 31672216.97763366 28787588.173587807 24618905.47004035 4313645.465353725 21186859.39363614 34713784.83969222 38459156.552997895 5247229.878826994 20875793.94831773 14165912.306087714 35692595.08311659 23937731.00557424 43317926.64163276 39129431.69594986 22555345.932009798 57400009.57264113 30928509.432602394 25944355.178504016 34770747.09479099 35330586.714987464 27601334.41393336 26199824.49004677 31330728.0214788 21172833.257121895 34105686.60088828 20085156.406396747 49403211.47812936 4975236.790878633 11487809.145966515 14228498.284968777 21809269.98302091 9615867.967180094 16290726.719842298 59078185.19602268 34700716.30580623 41102057.341805466 26130898.76593213 33316772.730662826 12586396.796775335 38371855.3316022 18438505.63369845 26745333.3975093 26845002.67149359 34773675.692819364 4447915.776536444 33670730.88914369 34405647.32869698 30712735.9360056 27239745.851200327 30049188.249647766 10299216.837467065 25387621.1413762 4984568.668191925 22761419.282348458 19412568.122641455 35721194.27072695 35303742.582161926 4044265.2921789675 32170163.419312637 11362231.365394501 35963860.70467303 29990895.055613995 30782317.46572008 34524028.098848455 14786358.149752352 1426124.1426344945 16443524.748634752 31758623.294204578 11242221.099289674 12510594.280102832 15082715.131587489 34611855.56148984 13290307.02695501 35448052.40740467 10897694.704408975 5480652.108891864 34957658.89284512 18708314.408845015 34706818.20434882 24185358.12091336 10171224.87325407 47390407.47121441 37819142.74125715 34836893.206254356 14769935.863604058 33789504.20886761 15917857.632111654 41621900.36931387 14868610.867308274 7252891.738909662 34692942.801987045 37481487.89712662 38053159.81241596 35269497.38899054 16506855.328875024 36937051.40861325 35427236.65969743 32267942.51608868 18127124.626916904 15018273.70708675 13414899.544901883 34977612.94350124 17810476.167762924 31063742.51144658 6538483.643271446 29139163.824891005 31073337.665150873 46098614.27898495 16863940.091896635 14226030.570362085 38169993.93564339 16097140.290308917 33988591.11885576 36131390.533483945 15008557.899104627 34528576.123974636 36346840.45502412 1581798.4195522105 9350102.724835707 16961612.686771546 14055403.408913275 33673470.53490463 34028302.68597132 10886801.977230277 13025509.519139173 19936335.162996203 16120639.599827588 13315984.487581892 18478516.912167083 24319668.457091283 43917254.96888344 57783526.64660727 4954890.94224409 57318249.462570205 9115479.797079535 57302766.818041414 38118656.51395964 30424736.75244539 38118119.58832024 28714015.542081032 16945211.515868068 14863520.579607002 23469382.174011044 16571215.286460161 37912788.406543 34253593.988297775 31946085.21820068 34157537.94368872 11493031.774950111 34895592.40766555 18111285.724210445 37140675.97430467 25845991.79934159 35795883.00227477 10390283.012392089 17773444.89420231 25905522.110384315 4810539.452096979 14625268.31742168 31821031.682659667 34839928.13802089 26342494.67234887 34716533.84070595 36533386.98705179 31692539.107114624 13917364.17554198 12315234.76080965 11260775.53214441 31918303.03591603 48509197.51985681 11294058.097445808 33739349.374546416 12643920.035235459 24254116.713587813 29808299.880508173 2115419.6890101726 11195668.893764475 34104157.79414527 34174503.89522062 37348926.60249279 18024086.93010456 11622094.265524993 9420795.43122708 2630181.244825404 5375970.1780433 11272817.766373891 39929040.54974294 8486403.509527534 40132326.50743906 14365592.87240145 12886640.803477487 31757690.588816013 36613841.39068956 24394173.068066787 31645227.290916506 26912143.607721742 37967088.00447104 22788966.553024538 38826727.312261574