# vtk DataFile Version 2.0
Really cool data
ASCII
DATASET POLYDATA
POINTS 2430 float
10.0 25.0 0
10.5 2.5 0
14.5 2.5 0
15.0 12.5 0
20.0 12.5 0
20.5 2.5 0
24.5 2.5 0
25.0 20.0 0
12.8125 5.0 0
12.5 5.3125 0
12.1875 5.0 0
12.5 4.6875 0
22.8125 5.0 0
22.5 5.3125 0
22.1875 5.0 0
22.5 4.6875 0
12.8125 21.5 0
12.5 21.8125 0
12.1875 21.5 0
12.5 21.1875 0
22.8125 17.5 0
22.5 17.8125 0
22.1875 17.5 0
22.5 17.1875 0
12.5 15.5 0
20.0 15.5 0
20.0 14.5 0
12.5 14.5 0
10.00806451614194 24.63709677361278 0
10.01612903231258 24.27419354593386 0
10.0241935484938 23.91129031777878 0
10.03225806461129 23.54838709249173 0
10.04032258071191 23.18548386796397 0
10.04838709682194 22.82258064301263 0
10.05645161296179 22.45967741671925 0
10.06451612913326 22.09677418900329 0
10.07258064533511 21.73387095991988 0
10.08064516149915 21.37096773253857 0
10.08870967759623 21.0080645081696 0
10.09677419375892 20.64516128084849 0
10.10483870990822 20.28225805413003 0
10.11290322607429 19.91935482665694 0
10.12096774224832 19.55645159882557 0
10.12903225841202 19.193548371459 0
10.13709677455406 18.83064514506724 0
10.14516129073117 18.46774191709723 0
10.15322580686834 18.10483869092457 0
10.16129032303272 17.74193546352748 0
10.1693548391806 17.37903223687297 0
10.17741935534539 17.01612900945749 0
10.18548387146244 16.65322578418995 0
10.19354838763403 16.2903225564684 0
10.20161290381374 15.92741932838155 0
10.20967741997008 15.56451610134622 0
10.21774193613836 15.20161287377394 0
10.22580645230157 14.83870964642906 0
10.23387096844209 14.47580642010597 0
10.24193548458432 14.11290319370539 0
10.25000000073421 13.74999996696068 0
10.25806451684794 13.38709674184244 0
10.26612903295814 13.02419351688371 0
10.27419354902925 12.66129029368375 0
10.28225806511086 12.29838707001138 0
10.29032258120948 11.93548384557348 0
10.29838709730668 11.57258062119947 0
10.30645161342799 11.20967739574034 0
10.31451612954823 10.8467741703298 0
10.32258064562724 10.48387094677422 0
10.33064516174957 10.12096772126913 0
10.33870967784367 9.758064497034947 0
10.34677419397089 9.395161271309828 0
10.35483871007663 9.032258046551387 0
10.36290322617298 8.669354822215917 0
10.37096774228375 8.306451597231394 0
10.37903225839794 7.943548372092563 0
10.38709677451733 7.580645146720181 0
10.39516129059989 7.217741923004883 0
10.40322580666075 6.854838700266257 0
10.41129032276591 6.491935475534158 0
10.41935483889413 6.129032249764203 0
10.42741935499985 5.766129025006942 0
10.43548387108066 5.403225801370201 0
10.44354838716179 5.040322577719254 0
10.45161290326106 4.677419353252181 0
10.45967741938996 4.314516127451607 0
10.46774193552708 3.951612901281566 0
10.47580645160294 3.588709677867938 0
10.4838709677258 3.225806452339046 0
10.49193548385171 2.862903226672901 0
10.86363636397148 2.5 0
11.22727272776948 2.5 0
11.59090908917042 2.5 0
11.95454545068175 2.5 0
12.31818181403819 2.5 0
12.68181817915301 2.5 0
13.04545454194173 2.5 0
13.4090908986116 2.5 0
13.77272726213363 2.499999999999999 0
14.13636363138024 2.5 0
14.51785714288412 2.857142857682448 0
14.53571428574426 3.214285714885328 0
14.55357142862196 3.571428572439232 0
14.57142857151165 3.928571430232919 0
14.58928571437537 4.285714287507488 0
14.60714285724751 4.642857144950152 0
14.62500000009455 5.000000001891001 0
14.642857143032 5.357142860640115 0
14.66071428594258 5.714285718851571 0
14.67857142887942 6.071428577588326 0
14.69642857180077 6.428571436015462 0
14.71428571474886 6.785714294977167 0
14.73214285764917 7.142857152983446 0
14.7500000004943 7.500000009885979 0
14.76785714328319 7.857142865663754 0
14.78571428612831 8.214285722566284 0
14.80357142896074 8.571428579214821 0
14.82142857173971 8.928571434794218 0
14.83928571444931 9.285714288986206 0
14.8571428572153 9.642857144306044 0
14.87500000002409 10.00000000048181 0
14.89285714286733 10.35714285734665 0
14.91071428569972 10.71428571399456 0
14.9285714285493 11.07142857098609 0
14.94642857139116 11.42857142782311 0
14.96428571424643 11.78571428492866 0
14.98214285713977 12.14285714279527 0
15.3571428591223 12.5 0
15.71428571719138 12.5 0
16.07142857423201 12.5 0
16.42857142974857 12.5 0
16.7857142846084 12.5 0
17.14285714112862 12.5 0
17.49999999772317 12.5 0
17.85714285297952 12.5 0
18.21428571083795 12.5 0
18.57142855939082 12.5 0
18.92857141386655 12.5 0
19.28571427430228 12.5 0
19.64285713574168 12.5 0
20.01785714292029 12.14285714159426 0
20.03571428577939 11.78571428441216 0
20.05357142862984 11.4285714274031 0
20.07142857152504 11.07142856949918 0
20.08928571434997 10.71428571300059 0
20.10714285726139 10.35714285477221 0
20.12500000019564 9.999999996087139 0
20.14285714320795 9.642857135840998 0
20.16071428614276 9.285714277144802 0
20.17857142904537 8.928571419092558 0
20.19642857186783 8.571428562643403 0
20.21428571479022 8.214285704195643 0
20.2321428577479 7.857142845042126 0
20.25000000069735 7.499999986052996 0
20.26785714347055 7.142857130588933 0
20.28571428619271 6.785714276145805 0
20.30357142900126 6.428571419974752 0
20.32142857178615 6.071428564277086 0
20.33928571464426 5.71428570711476 0
20.35714285745924 5.357142850815163 0
20.37500000029276 4.999999994144766 0
20.39285714311046 4.642857137790787 0
20.410714285854 4.285714282920003 0
20.428571428706 3.928571425880045 0
20.44642857148773 3.571428570245412 0
20.46428571431238 3.214285713752382 0
20.48214285711565 2.857142857687005 0
20.86363636516213 2.5 0
21.22727272581398 2.5 0
21.59090909243092 2.5 0
21.95454545450997 2.5 0
22.31818181891514 2.5 0
22.68181818017414 2.5 0
23.04545453949341 2.5 0
23.40909089990082 2.5 0
23.77272726283935 2.5 0
24.13636362860863 2.5 0
24.51041666667252 2.864583333538364 0
24.52083333335455 3.229166667409358 0
24.53125000003504 3.593750001226702 0
24.54166666672229 3.958333335280106 0
24.55208333340738 4.3229166692584 0
24.56250000009479 4.687500003317582 0
24.57291666676292 5.052083336702424 0
24.58333333342993 5.416666670047649 0
24.59375000011929 5.781250004175338 0
24.60416666678541 6.145833337489197 0
24.6145833334717 6.510416671509586 0
24.62500000015173 6.875000005310423 0
24.63541666684382 7.239583339533857 0
24.64583333354729 7.604166674155124 0
24.65625000022954 7.968750008033958 0
24.66666666691629 8.33333334207003 0
24.67708333359532 8.697916675836199 0
24.68750000028001 9.062500009800464 0
24.697916666944 9.427083343040039 0
24.70833333365369 9.79166667787921 0
24.71875000035885 10.1562500125599 0
24.72916666707987 10.52083334779526 0
24.73958333375135 10.88541668129731 0
24.75000000042991 11.25000001504697 0
24.7604166670681 11.61458334738357 0
24.77083333369809 11.97916667943294 0
24.78125000036938 12.34375001292839 0
24.79166666700398 12.70833334513953 0
24.80208333364604 13.0729166776115 0
24.81250000030942 13.43750001082962 0
24.822916666971 13.802083343985 0
24.83333333355412 14.16666667439433 0
24.84375000015083 14.53125000527908 0
24.85416666675838 14.8958333365431 0
24.86458333330886 15.2604166658101 0
24.87499999988007 15.62499999580261 0
24.88541666655004 15.98958332925141 0
24.89583333319863 16.35416666195201 0
24.90624999980522 16.7187499931826 0
24.91666666644808 17.08333332568263 0
24.92708333312806 17.44791665948182 0
24.93749999980001 17.81249999300037 0
24.94791666645933 18.17708332607652 0
24.95833333311969 18.54166665918899 0
24.96874999985664 18.9062499949823 0
24.97916666655788 19.27083332952599 0
24.98958333330658 19.63541666573034 0
24.65909090697006 20.11363636434331 0
24.31818181387862 20.22727272870713 0
23.97727272112545 20.34090909295818 0
23.63636362933978 20.45454545688674 0
23.29545454074166 20.56818181975278 0
22.95454545175678 20.68181818274774 0
22.61363635870555 20.79545454709815 0
22.27272726938004 20.90909091020665 0
21.93181817642107 21.02272727452631 0
21.59090908415283 21.13636363861572 0
21.24999999070893 21.25000000309703 0
20.909090898365 21.36363636721167 0
20.5681818062032 21.4772727312656 0
20.22727271532826 21.59090909489058 0
19.88636362288735 21.70454545903755 0
19.54545453222531 21.81818182259157 0
19.20454544067146 21.93181818644285 0
18.86363634917439 22.0454545502752 0
18.52272726008306 22.15909091330565 0
18.18181816691119 22.27272727769627 0
17.84090907624678 22.38636364125107 0
17.49999998161302 22.500000006129 0
17.15909089129634 22.61363636956789 0
16.81818180107666 22.72727273297446 0
16.47727271035784 22.84090909654739 0
16.13636362113641 22.9545454596212 0
15.79545453028867 23.06818182323711 0
15.4545454400335 23.18181818665549 0
15.11363634812483 23.29545455062506 0
14.77272725866684 23.40909091377772 0
14.43181816866006 23.52272727711332 0
14.09090907805834 23.63636364064723 0
13.74999998745307 23.75000000418231 0
13.40909089754563 23.86363636748479 0
13.06818180839043 23.97727273053652 0
12.72727271853859 24.09090909382047 0
12.38636362812021 24.20454545729326 0
12.04545453791708 24.31818182069431 0
11.70454544876188 24.43181818374604 0
11.36363635991656 24.54545454669448 0
11.02272727049761 24.65909090983413 0
10.68181818161208 24.77272727279597 0
10.34090909059876 24.88636363646708 0
12.7209708686998 5.220970869541787 0
12.27902913024896 5.220970868490556 0
12.2790291313002 4.779029130458213 0
12.72097086975104 4.779029131509444 0
22.72097086840513 5.220970869836465 0
22.27902913044831 5.220970868689902 0
22.27902913159487 4.779029130163535 0
22.72097086955169 4.779029131310098 0
12.72097086902355 21.72097086921805 0
12.27902913070156 21.72097086894315 0
12.27902913097645 21.27902913078195 0
12.72097086929844 21.27902913105685 0
22.7209708691208 17.72097086912079 0
22.27902913087921 17.7209708691208 0
22.2790291308792 17.27902913087921 0
22.72097086912079 17.2790291308792 0
13.0357142863834 15.5 0
13.57142857334916 15.5 0
14.10714285783675 15.5 0
14.64285714470339 15.5 0
15.17857143070267 15.5 0
15.71428571720997 15.5 0
16.25000000702564 15.5 0
16.78571428904744 15.5 0
17.32142857412979 15.5 0
17.8571428511085 15.5 0
18.39285713616606 15.5 0
18.92857142211578 15.5 0
19.46428571101452 15.5 0
20.0 14.99999999601014 0
19.46428571160309 14.5 0
18.92857142040583 14.5 0
18.39285713577575 14.5 0
17.85714284336419 14.5 0
17.32142855637984 14.5 0
16.7857142655791 14.5 0
16.2499999775787 14.5 0
15.71428569556309 14.5 0
15.17857141150299 14.5 0
14.64285712475407 14.5 0
14.10714284117721 14.5 0
13.57142856006613 14.5 0
13.03571428124737 14.5 0
12.5 14.99999999867727 0
13.24683400530055 18.22386383676172 0
23.12823538307832 19.03542660443014 0
13.04869294894483 6.313541464382925 0
11.74806229898174 8.637538047852797 0
13.32662491336334 19.4732862051926 0
20.89148753360003 6.857757686355536 0
11.3725699371016 5.466996820796047 0
14.29720786337322 22.33974149604472 0
11.37404558276645 16.13501460769259 0
22.54160134785597 14.82436423315951 0
21.1328308006424 16.94182162759758 0
24.04665301477716 4.244335107621271 0
19.56054310923605 18.79902003027107 0
16.3416744200718 17.7481395284845 0
22.08046136895811 18.53482746019466 0
13.00621096678199 3.688289249667939 0
15.64040941545533 22.0539293260738 0
21.4787131652286 13.39739475234547 0
13.73062725322383 20.99025750206838 0
15.6235820641899 19.70090395091911 0
11.0531079267876 23.57267681065593 0
21.48837553642143 20.20607981435975 0
21.70673867669063 8.58682705703974 0
19.22758812730291 20.2964007900542 0
23.57317465200784 13.79386470029018 0
13.30519443263648 8.560300175524908 0
15.75943727709135 17.04113471148643 0
21.0485451168105 3.223894966438106 0
11.84889245221422 5.457704667485929 0
11.08043386312711 6.875749492198065 0
23.89009189471451 11.8123159303235 0
21.30666501652242 4.873313945052904 0
24.01067276211769 5.017899968480417 0
11.1055077701305 17.84767809678959 0
13.68987528615921 10.24064022444234 0
20.57585899687696 20.03038685996468 0
13.47461075189771 10.90482505888864 0
14.11480605235703 21.84064402516208 0
19.77940116536948 17.37482074890019 0
15.87812453945564 20.35231071391849 0
14.77229268387292 22.41450220175001 0
11.8501503484502 17.22788859248226 0
13.69989057403194 13.07804591489939 0
21.48407269650207 10.92030666323545 0
13.6755470474584 18.86485530820112 0
12.60461676614862 18.74312027900127 0
11.39466726706191 4.56402599265382 0
21.35803379917241 5.440541496029541 0
23.85216220117505 6.24717323495256 0
21.9999137481251 6.324913904500938 0
22.20243993841905 9.086998972123778 0
23.63947650703401 16.39213357999104 0
23.64083625628037 5.472377993196149 0
17.68319065720609 20.20047272378119 0
14.45567296175987 18.12699982326708 0
11.862862687982 22.94492913470575 0
16.32471655970853 21.15212433331155 0
23.10724301373095 15.99396897212828 0
10.50933481510276 22.78684553606634 0
13.87552721361431 6.28978857115376 0
23.09066399131071 6.42598902515932 0
19.03786618851253 17.29796073308953 0
11.29627154967758 20.96943037386418 0
23.28186090939994 10.94729482981073 0
21.20940407828732 12.15356077809304 0
13.16015626435346 17.49557350844355 0
16.83810136975454 19.15735092863381 0
14.38056541700826 16.84607021665065 0
17.46745245327354 21.3582396653573 0
22.89110690268275 5.87538319964401 0
21.86624462697769 6.879909520414159 0
19.10384474728385 19.34789456559807 0
11.34693685351759 11.30855430450421 0
10.86000304119412 12.12968462930427 0
11.89510342965943 16.58061683924537 0
13.53994888290682 21.69294621206732 0
12.63027104773271 10.65227398837673 0
21.94583663075585 3.679699122714787 0
22.32695175266301 13.07980131430788 0
13.55050178024242 8.752530117358203 0
11.75197816123129 23.67561810347549 0
21.28388116813439 9.7493756844655 0
11.87850535582842 3.574079771583648 0
21.73205594563712 15.58593847554158 0
20.92683284130101 4.210657843300415 0
21.75303950835778 19.33511974184384 0
18.33578795187771 16.96619593738093 0
23.22407734512274 17.04159311842113 0
22.43215423313679 7.491018221475356 0
14.13100172446694 5.788606555266337 0
23.90389421961761 13.99273964106106 0
11.48160057179267 7.40942680123241 0
13.75079773140351 9.791177944877235 0
14.81277645632134 20.37953660787772 0
22.55547391811835 19.81814671465057 0
21.95773018797805 16.19084486535105 0
17.03956543763861 20.42486247561935 0
12.60540105787054 20.69644912419621 0
11.56110490148652 21.51744270177333 0
12.13538549879989 20.58670056628421 0
14.64622938208884 21.45025397127611 0
13.98775284382937 8.006118268203275 0
18.44775455668381 21.01637828370805 0
16.25808095308785 22.2869220824245 0
22.4095468070165 11.37637580267828 0
12.88299569087182 22.7797772438002 0
10.8640695862432 11.6354864450643 0
23.84332640346885 18.01862295893342 0
11.80441334437976 10.89793624952848 0
20.91286882723899 18.12320469942897 0
23.74093253611996 16.98598891354893 0
23.58871561565802 4.52180594786513 0
13.46691988792217 6.570596671009609 0
23.7696071078767 6.580421957274243 0
12.56768791501117 7.493771002224073 0
13.8670408252945 19.9302115123706 0
23.35069442750144 13.24805523141556 0
22.36840663350227 10.71948832621631 0
17.1732286385785 17.88670737699487 0
20.96570892352199 5.009891407195944 0
23.25334909130239 8.669070517453084 0
21.90082842652761 4.33521799956432 0
22.89788337644258 9.799394522559775 0
10.92165453739731 19.3651398710109 0
10.81413541112194 15.75063896862374 0
13.37316139925619 10.00449185499439 0
10.84399631691148 22.07834112315009 0
23.97905075126154 11.49261752830086 0
15.73437498811987 18.45160528030658 0
12.58616706155579 8.403583772600518 0
13.82344181296902 3.784866543561089 0
20.91901251384408 18.63473719797426 0
11.84189220854284 19.91118724337178 0
12.59929490173288 9.754138663695107 0
23.76584466613753 19.58187275270783 0
17.99129254172429 19.8143855555346 0
11.08989318959778 10.50606369816086 0
15.89285714571177 13.5000000019311 0
22.43334423727065 8.426915151756646 0
11.36107809946629 4.86330336087236 0
22.41592209410956 9.802286875707194 0
24.08738802656599 7.609910832620401 0
12.70524247166895 19.62276729777544 0
21.66056446486054 7.914712851208245 0
13.51707359238333 20.47655662073428 0
14.64869587566652 19.27448984380995 0
22.99241725735693 12.60863816042161 0
17.02208545153932 13.5883793562974 0
13.34885042613305 7.89258443729816 0
21.13421632086033 6.28830961541469 0
20.81538603443027 19.10437865322414 0
21.02456171153733 8.027614931190513 0
10.85147756393688 6.499711870842424 0
12.64391460955001 12.05475547492732 0
22.39509220254034 12.08270103741268 0
12.111820044893 5.87234540978735 0
16.75294077267604 21.96233174297311 0
23.40663429080531 5.012053737403997 0
13.61209626236176 4.518263361970527 0
14.02860334206092 19.37893708682153 0
11.40373262214371 18.76221686073354 0
12.04646233792408 9.362073752995364 0
13.64159636954288 5.440535220348588 0
13.09354991114725 21.75202020042621 0
20.7805979590893 8.549060077015625 0
10.83618728828558 14.67073244611008 0
23.53534306806951 12.0105963602816 0
11.1868309798447 22.04124938584208 0
11.47555095015343 18.28770536076022 0
12.97410062661484 20.35541983859798 0
10.98360872121171 20.14467331895909 0
21.58207200385712 17.88021822528433 0
21.37534673067822 7.266280674393768 0
11.59442470598859 5.017319354558061 0
22.0559299195856 13.63469927646682 0
13.636895379645 7.238005996620676 0
21.36205066561232 4.595750080240753 0
22.89839785426824 18.39038627333631 0
13.85648138011315 11.95977181871542 0
23.9503940569131 16.16125888999563 0
23.44343261339952 10.48323807776228 0
24.33527383664044 16.66550954565674 0
21.80308894839898 11.62297799364293 0
18.13733306105582 18.87502078262879 0
14.42904167701834 11.99149434429574 0
14.76580984898097 20.04249172265175 0
12.591827615022 16.51871836605109 0
13.09007381988613 22.19583176230605 0
12.55884729826546 4.025398615431533 0
11.9107937862678 6.422469626489141 0
11.53161983633195 6.749090183008366 0
20.20801295422058 16.36536025864703 0
14.63317320739956 13.46638297062145 0
22.13506041901594 5.828689286967035 0
12.64039804166256 22.29815952321947 0
13.84881601359696 22.43284187626159 0
11.1383548812596 9.119482298882534 0
23.00579845151807 3.688334000672272 0
23.06803823232721 6.982182679033563 0
22.45072764940198 19.13083661642724 0
11.963680121126 3.766795559516763 0
24.23566784731799 11.64391716660528 0
12.85975305650152 6.631672841406634 0
22.92417123356126 16.61276581333707 0
11.43362136656544 12.06593689662662 0
24.30022016681542 19.55042241808779 0
12.068308248831 18.06830050580579 0
23.42373460934139 17.50159341571357 0
18.07596587576845 21.5686824808887 0
10.67703668002004 22.41744790232699 0
22.50009837245403 3.192120629508631 0
20.83499854491975 11.38332545211389 0
23.15528309779522 5.459067050318745 0
11.92031502161437 4.322471543542142 0
12.49935723564922 3.192032817112668 0
24.17959025949728 13.42872685841216 0
13.55341618610968 23.14581295601845 0
23.53233533809414 9.763890862024727 0
22.68502772454511 13.98082916821602 0
11.53573259255927 3.165742249669526 0
23.98222005241543 12.84318506421318 0
11.11974324918494 22.81863133646924 0
11.15089860732514 15.22853161343581 0
12.66513972881748 13.02660356795298 0
14.70317114165495 12.93268202343794 0
20.39558645822082 13.44586024985377 0
23.64549841038869 14.89032819180577 0
11.72060164440313 13.21947639787317 0
11.94000295127439 6.972356435383729 0
18.32783123153169 20.35667725313576 0
23.30091594847471 14.27946637351719 0
16.58737722048608 18.44907694941634 0
11.62204735691723 10.42600844375806 0
19.90068163700711 20.67402306488416 0
22.44501020417263 18.2691399357406 0
16.93067740482181 20.81064839976643 0
14.14835599394695 11.29406986142712 0
16.24159586112665 19.71554360041634 0
18.70166249654304 13.54491867830532 0
11.82879419360352 20.95687766089324 0
14.38085821184381 20.88220772787512 0
11.36279257828477 14.31935234805614 0
11.51156255136654 9.819468887775122 0
23.04191236471017 4.299704712546147 0
24.05502819599061 18.92645918729161 0
14.1816388319784 10.4226617968154 0
15.4491331249838 21.01138508778709 0
13.26723930637933 2.865090323839906 0
20.24432267489448 18.60873859171858 0
19.37584206044384 17.70557387572457 0
22.51981898895265 18.65757992824996 0
12.82464165218889 5.783754281737376 0
11.05445421733059 12.66857956989789 0
21.1922209426859 3.770342292643114 0
23.53891031587425 7.416248880993709 0
23.99653848141322 9.055620309328408 0
22.00727204559995 17.0388946844875 0
16.64941297981289 20.1476103573761 0
22.11314131757987 16.72076617770872 0
22.99237391413595 7.889868069639296 0
21.59105166441028 5.024875173126948 0
19.33767055584305 21.05346818903921 0
23.80029616290407 3.796068255896563 0
11.19458389322772 3.79115278403644 0
12.53320020217646 23.45667780147304 0
12.14492968722561 22.35945978279448 0
13.88095991083314 18.32509464302034 0
11.53462926123196 12.56853823101154 0
14.2620199151607 12.55713656587358 0
21.39962195900749 6.729765815109579 0
12.39064170905825 7.156778220099723 0
12.79413921406492 23.68958464899659 0
12.00750952590616 19.20202809591886 0
10.64707347496886 24.0589481165038 0
14.07426819131721 4.22425539622186 0
21.0112810375752 9.095285473041734 0
14.12976213972574 21.35259452994593 0
21.98566401402098 19.79916574430548 0
21.33167034699897 20.66077474248763 0
23.67465117546396 10.3431543024205 0
13.15228929475026 20.90589076028168 0
12.81839161011714 9.053023913739672 0
11.01953907226667 17.00993507807735 0
11.2374714627076 10.09571584129674 0
12.51797990636992 6.787204778067684 0
22.01593514306847 18.08975296650824 0
11.71157644788164 15.52704223448661 0
21.65586116780784 12.68783253066798 0
14.03576950003258 5.012659109808266 0
12.03079039684624 7.870005617187556 0
11.06952691085586 11.46735232244873 0
19.52174319701485 13.22389799918066 0
13.44225311339498 16.63868611461353 0
21.24865429039794 15.15189324581504 0
15.35985303884505 20.47442443285466 0
23.4295376480997 18.57009841076211 0
15.25214191056719 17.88460405676263 0
22.47405794857182 6.702663524207438 0
11.12675625220253 8.133418569121227 0
12.01745342999947 12.50755833357611 0
13.42454158832226 4.008924635724881 0
12.36632164849505 13.73468433965484 0
13.12146718969297 16.13662175723638 0
24.41460187103747 9.513397376117169 0
22.75247795193008 18.05128466393259 0
12.07269960721262 10.11454234574214 0
12.84626944143811 11.34416717620059 0
16.88336549427581 16.70269883127309 0
22.41614427060872 3.659429939164883 0
15.22426283820684 13.12831391987936 0
15.36546386315391 22.56528982412266 0
11.3723346642452 23.56188004242409 0
23.78212238606047 13.24192464517741 0
21.053752447413 20.0480171095347 0
17.28269021038436 13.02203855497645 0
21.01419798630877 20.65800580002183 0
24.30948655453709 18.39182060195539 0
21.5505577904098 15.95536659464171 0
24.46472680878873 17.90433186524681 0
21.56839817535482 11.93949175359909 0
11.40682129341676 9.433867091023588 0
13.51201711298889 6.231543515200347 0
23.80487223435578 17.46965911509206 0
12.85772182373644 19.88419671839797 0
22.44853639295158 15.56246324353519 0
22.48652528755994 6.209290499161205 0
22.08664864660791 20.33826819040098 0
21.57846244602911 3.187207491128311 0
13.78232522959866 12.4499131823628 0
14.1616046561498 7.483313115269191 0
13.17796594949397 13.67458937177268 0
18.74892384986037 18.00092490023893 0
22.28585053268633 4.345741217393012 0
23.62067234392991 7.895799874717438 0
12.81492617347304 20.91308670489816 0
12.70097963916076 2.890249277895033 0
22.08122500205533 3.354000114607426 0
12.11415126544661 12.16862918558438 0
10.76696345537692 8.997236364611707 0
20.73152737343334 14.79213831090063 0
15.02260021711735 17.11249889078163 0
13.28035838171985 12.47188371994907 0
14.41419715524002 13.97374888758313 0
23.6392165544484 15.69071198910354 0
10.90693166492989 9.960584691515777 0
12.39198788515872 17.11511300835114 0
11.16278909099016 6.23729928398453 0
12.06577302436506 7.54840593054543 0
11.03808737758565 3.247818653989684 0
22.82485707987888 19.42419660655309 0
13.17228778811003 6.595666473024268 0
23.8818147807225 2.899672484086839 0
23.62834161843666 19.14432445511165 0
18.8634167642291 21.47661397627727 0
22.55789908101232 4.024873821981101 0
20.54815825888456 17.47448179284069 0
11.50547892021636 19.4242381031576 0
22.92106644424599 9.404763269935865 0
15.10815771787691 22.28424246719872 0
12.25136594289267 22.09997707394621 0
21.29693133461394 19.17429182309208 0
21.12317548796259 16.02271036885533 0
23.41343354562721 4.017362791228162 0
12.14311402429983 19.55961606657146 0
18.47191951203809 19.69256076731809 0
20.58144342511284 12.12775391234462 0
13.22397056526492 21.34279913293066 0
15.04537266408571 21.9092313075423 0
21.66316189203976 17.15337030617226 0
14.23595453697366 6.504567346270012 0
10.80369739364047 18.43395600312809 0
22.04392695443613 3.000566735046196 0
19.72543097752362 19.57115409880333 0
11.49554620175704 23.29684302523277 0
11.6002771931347 4.047080678916304 0
21.39378208289195 18.71151870636657 0
12.37828216248382 22.82294470254705 0
13.11934939086339 18.96032093719782 0
13.04217070424384 4.278049470975403 0
12.49589974205941 11.30002187252042 0
15.26374297837952 13.79704645135543 0
11.75880746100626 2.829937552665075 0
21.88457196551115 9.734546586378121 0
21.60304356879261 5.883533950178074 0
14.43785557821541 19.89248902472459 0
24.14001714193097 12.29762588978059 0
13.14213912153449 10.27607615954791 0
21.89329637095981 5.143973553532497 0
15.20953750780986 21.43186932344641 0
13.00534849852061 3.125175312577086 0
13.97075811985278 9.076765830145 0
10.98038280143668 4.597799033321711 0
11.87811333411327 4.698361317435884 0
10.81054387457283 16.41597194247983 0
23.48543719062653 6.755780082711281 0
10.70979515203387 15.32383222670631 0
11.78880130540248 14.89791996023704 0
23.89271946537976 8.146767083014556 0
23.59808616506643 16.13217088395772 0
21.80785766812142 10.28670848558162 0
20.73861889598112 12.74459269062349 0
20.83973584287215 7.500254571246923 0
23.94881130884669 6.883997615488139 0
16.42857142937082 13.87244898555863 0
23.9333724605098 10.47303092870139 0
14.69919829603066 16.10693802869266 0
15.91513009958637 20.89422923377978 0
21.21662271572817 12.97438095559135 0
12.64188178826345 22.62375132250586 0
18.51164225688965 19.22043753411374 0
22.71027585016338 14.38185888038203 0
11.59044746906417 9.073138402349706 0
23.40260612010634 16.56014862168854 0
11.03189472112712 13.5775183987951 0
18.81995215264378 18.69302988912924 0
21.85403047573636 5.438979305220478 0
10.82167927720424 3.777936958100074 0
10.72957403687764 13.20354390314232 0
14.30793306524349 18.76178967424724 0
12.53363556565791 6.216389940916702 0
16.40212532071419 20.6487866975492 0
18.40271056330929 13.06946237603737 0
16.05827369854092 19.09504052686278 0
12.46632967948234 17.52664725087147 0
23.16491184651767 19.90038709183676 0
20.80234322003804 10.40550057131039 0
10.63799669246657 23.14031435649441 0
23.37829500439741 5.983738673071889 0
13.55236860295194 8.171523221669407 0
24.14046351994436 9.625493541732055 0
12.33789342570476 4.566492437955498 0
24.23897175422168 17.50690552934343 0
17.32816626701589 21.95598855583863 0
13.14873917106475 4.686814286393879 0
21.75737003429584 18.771916452751 0
22.54632467126372 16.80900611504301 0
13.14311077063767 9.714754314539114 0
24.36928956187756 12.59472072280869 0
10.73764112921523 8.133058676414752 0
12.546518184556 5.728032613090038 0
21.18658012562956 19.63403265843477 0
21.6544987302949 14.3321413647604 0
21.52514130619102 16.52340047477414 0
10.7723756556131 21.50692959479345 0
13.67463549791714 4.856592793886962 0
16.05641100635218 16.32406565903706 0
22.19910015025828 12.57018566277618 0
24.23559694754225 19.16968619534097 0
17.88283261615297 13.34754481112354 0
11.04675092328101 4.994947336645578 0
10.57385597832809 12.09344727825537 0
12.89146643462375 3.994349139180905 0
17.44164963496835 13.89008620859283 0
13.04019008448319 16.8757742092971 0
24.20375809328099 10.05828732617067 0
17.10432833420166 16.03700055477128 0
23.94917713514254 19.34400816554111 0
12.29406779976514 4.349151205436858 0
10.93189638445747 5.762470548793798 0
20.55647096533754 10.91128915151767 0
14.96620287611759 20.91823080303066 0
10.43156242552884 21.58657597814588 0
13.40515119386461 5.009608754611295 0
13.02663383851839 13.27344915319712 0
19.27464190291644 16.54823636078955 0
23.7288670156227 8.578668289821508 0
23.73074117973658 18.88952742763679 0
24.46766489931205 17.10224645508488 0
12.3517716464513 9.611214075652684 0
17.89316063679507 20.85306908725568 0
11.92915261283687 14.33133884418051 0
22.99926798984882 11.63905807083386 0
13.55788495215022 22.05071507972364 0
14.02056183895589 3.297223540546007 0
24.28618905317734 6.825644764664957 0
22.95676769256255 10.25610686390661 0
20.45165523071358 16.92343560285684 0
23.52504234862215 3.163646493290389 0
13.48162485781608 11.50515458478051 0
13.38361220264876 18.60769500209372 0
10.60933746960965 19.79597488380958 0
20.53546448565412 12.48442283615311 0
20.00075565558306 20.13860456737045 0
22.74329286693133 8.842367559630096 0
13.51338618823157 3.159073549057836 0
12.41579431207113 3.660281364167957 0
12.04742534789706 11.60865737785026 0
10.90361915856237 8.6308567115963 0
13.40116591637352 22.58140929337436 0
23.99148812387609 11.12931121741763 0
23.39894672332269 9.082707236349702 0
16.64723498506449 22.26888279950512 0
12.74156504980357 13.53782550131843 0
10.47597557448641 16.45432161163665 0
11.7438325714283 7.657556129832173 0
14.47338231100317 11.63019304819954 0
14.80832757729466 16.67239110653928 0
13.66183020374863 22.58795574087817 0
22.86576421744725 16.99059006411297 0
21.34860237732146 10.29790896215009 0
12.19568283393587 6.174827887155841 0
13.14578053170187 5.438579071389639 0
23.17058543140169 17.98491041605694 0
20.80513371542713 13.38009769929172 0
11.74665789447732 20.72067197290504 0
11.61188314364144 20.44494206797697 0
23.455608916159 3.54323151965506 0
16.67196806831305 13.42979870806988 0
16.03329634410854 15.88932363756372 0
24.16162052505183 15.41997009770055 0
13.07140905669542 23.40238408694236 0
21.16487926559954 8.717818357274023 0
18.10401143775831 15.97514319374332 0
21.81575520246644 13.19552576643352 0
14.31221004826669 22.9047066941521 0
20.55399264025965 19.53074789284784 0
14.21114132693696 5.389681667687455 0
12.04101211659192 15.62087689410695 0
20.93776046932303 14.07964222734782 0
13.11099147686599 23.00484333116083 0
19.82635176544026 21.19983407412324 0
22.34585850576041 3.408228380224117 0
16.23691227430816 21.75400415966595 0
24.5166893182431 19.03425360869544 0
11.82146498207126 21.95666005249866 0
10.71534464592171 20.67650124921282 0
11.58810595758251 22.45222536960774 0
23.45558942986089 6.369352771449861 0
11.24628801833678 22.3879811523031 0
21.27939912327866 4.148530077306771 0
13.94280106749615 13.7549426072848 0
10.93637520608387 7.596969747799266 0
16.23123492768418 20.1217656280807 0
12.05270641153727 16.98116253057239 0
22.29674341227661 18.01293859474691 0
11.16587054500666 21.45810433491521 0
15.05879338593382 18.6067701394244 0
10.87411808921553 9.461006939243447 0
21.63577942095223 19.70961885790076 0
23.34858746848382 7.034634924084694 0
12.20806609753372 5.467587983550033 0
13.08682459173439 6.887813686287537 0
23.47865160301917 12.69066948243301 0
14.01919852709691 16.13070098896001 0
17.52883388465114 19.37676012061505 0
15.73054146317676 18.8332371601349 0
10.74653878528519 17.44039531316251 0
21.83494927107654 14.92407019159293 0
12.4290365613105 20.12974673865766 0
10.86442384576771 7.192481186619166 0
21.38341159718244 7.698800506204645 0
22.95245006107133 7.563663658933164 0
23.85910478775027 13.61620144305162 0
13.6266694017613 7.64976074245679 0
13.1405724596282 11.92851842387403 0
11.26289607427509 15.65875431446146 0
14.80411724852468 22.88895753281474 0
23.40480479942876 5.632275156162232 0
21.58112595470634 4.04239680720115 0
22.77050308992976 13.38585174078945 0
22.64226859841564 7.217192165236067 0
18.89859107270605 20.75119808761333 0
20.44296993026403 10.60967891334052 0
16.03238095026155 14.003022605189 0
22.34652002542335 7.917870467653863 0
22.13804890190362 19.35580248965362 0
11.31264059250351 20.2122664969192 0
23.07961432011355 15.27929872279925 0
20.79595746325161 19.74308193816596 0
13.03711393112682 8.340891644301541 0
10.45100481073971 21.06419983951416 0
24.26204014717067 14.56776830474942 0
22.51127324201132 10.219653340447 0
15.88507925902067 12.73337445244586 0
11.61124750143154 17.73082115287247 0
21.94107210246068 7.417820303676529 0
11.07357007764587 24.27285261451049 0
21.57843784168277 9.964888609441974 0
17.63145125209711 17.68323683399542 0
15.195736086164 16.37089390856664 0
18.56158477069152 16.23392120048466 0
11.72129432916068 13.83816458226469 0
21.2527927648657 17.50483599275243 0
15.56331243637115 16.02405475638479 0
15.87958928834025 13.02774768679079 0
21.33297314590573 18.40384414291459 0
20.91192485994287 19.43161976908794 0
12.8732215671303 12.37352229275647 0
22.74549237877934 4.183852125892907 0
10.67692541733392 11.34066044700899 0
17.9481099905821 18.09231537351227 0
17.6104316839113 16.35255784988901 0
10.43016817339042 18.2560918543398 0
12.33628538562282 7.726496641924382 0
15.2555416506466 19.20780716038067 0
22.58943303776498 16.11856525281837 0
20.82921414802795 16.48269578934044 0
12.97984389954445 17.90683774168663 0
19.78656941555993 13.89099962488317 0
22.21660631191735 14.26790630412836 0
13.41436827183557 9.261695956892408 0
20.36158877345972 18.0036730489448 0
11.62950383725542 5.977333449181253 0
22.98019823417891 20.32504324986378 0
13.87766380367198 21.57419016895852 0
21.09687886879075 7.753671959563721 0
14.15044106639834 12.20635681025839 0
21.31857581644728 11.50989937881757 0
22.02142071606767 10.98911233718132 0
11.87426353997093 5.151480461611849 0
14.1087392718678 6.852615751822086 0
12.05489695935428 3.337600604952003 0
12.16942017524364 13.07895211702645 0
16.52568318570422 16.01641357912823 0
17.40303419888487 18.63980028419248 0
20.86916166412345 5.788853002485125 0
20.4283933499828 11.19536517980481 0
21.60478283777477 9.284103657316473 0
10.53165578658531 21.91563953768573 0
12.40040464369764 22.49204986578749 0
14.03559020752401 9.453497935498689 0
11.1276425744821 9.672578482944397 0
14.00391065600905 17.48548470382088 0
24.17591462497101 8.581095320729084 0
11.88837741589536 21.35251235961821 0
22.62161844232534 20.29607863378541 0
13.43872884299774 5.919877955569135 0
22.34071782114697 5.479204630965896 0
21.53948157214604 6.310622794843668 0
24.50830196770835 14.36849096492136 0
10.80631857598877 14.11210391288376 0
14.18907585569489 3.851580410594389 0
18.62901927731455 20.6478944739611 0
21.88678263241735 4.537964869808563 0
24.35026622106756 13.02771950862562 0
10.90483695305499 21.11506222596647 0
12.98759720702606 4.901063167144459 0
15.56151397873502 20.08457525297752 0
12.66663484463338 7.140893386117844 0
17.55560744327546 17.1686864940625 0
20.52106381270635 20.95146630076694 0
21.46296805435395 19.43752176230293 0
20.4936357093876 19.78368733912584 0
11.72190338343813 24.0533193110935 0
20.68216399826295 9.83095175057223 0
24.1506482924949 4.628168398143842 0
24.27384260991844 8.216148360744251 0
18.26500213776123 20.01602590556532 0
14.32245860050223 15.87486047720779 0
11.82120137085817 3.130030277609954 0
21.82896586416037 20.05030072013821 0
23.12865726592443 5.149880420427993 0
19.76639108886624 18.07586744613354 0
21.70183288009627 2.845725504544903 0
20.35385292832855 14.04503786280936 0
10.79503384113224 10.96380641970492 0
23.01068508394876 3.121794663622401 0
11.29087981490428 14.78187402093183 0
14.03338794658426 17.98810376536418 0
20.18329040207358 17.64125972617834 0
10.54515498543587 23.67690080363504 0
24.38493703894024 15.78245039166983 0
14.21628717032888 8.538470981822723 0
23.03048180599072 19.56480832212233 0
11.23037740314907 2.947960870605034 0
16.40955604873631 22.00813146757593 0
13.38691892754022 5.584869048337069 0
13.10821155686737 5.139353502034833 0
24.21027710212732 7.219810444050803 0
14.31505766087796 9.888488706333558 0
24.26504711877169 3.783333438504139 0
20.93489762249337 11.72844948081951 0
24.16877433624408 5.39007030527063 0
12.7501316540255 14.02905498341966 0
23.06708277716261 19.31739217558601 0
10.37097303493027 23.91096343454704 0
13.31774538606928 19.97781158660478 0
12.29287460100977 8.845253086536564 0
15.79279590536921 21.42023863131781 0
23.27672375290483 19.53457149922307 0
11.94000738013002 11.2152232095599 0
11.58908392524446 8.138900045230017 0
20.18589016726695 19.14481383128492 0
12.67293302884854 21.91749726388837 0
18.7711644273928 14.07291841410821 0
14.05992031549275 20.44311826659913 0
20.57788379654478 6.732770675251912 0
20.86479691260704 2.883563319570241 0
14.38079363899744 21.21635189531413 0
20.38056691764064 11.58963359658899 0
11.23327136577277 17.34122564476839 0
24.31210006998201 11.28544077734317 0
13.7406468423497 6.819564589186015 0
11.14466087517865 5.327432043962584 0
24.65203923646914 16.58685079595277 0
13.83045897021958 11.57858854476474 0
22.8560665321824 10.62772540577298 0
18.56092302810313 21.70271527683673 0
12.82879485013165 23.11331871127617 0
22.30841920204216 15.22196697867146 0
20.66751429174303 20.68666199739251 0
21.81492720246282 12.17942295473557 0
11.39837221520543 19.94181642864462 0
18.40164002842377 18.42096016267151 0
24.082900031692 5.768300385765739 0
21.37116839510857 13.96235983589999 0
14.3353480974841 19.13579075090678 0
10.96578209269403 4.235669782576402 0
12.03739366269853 22.1136537324007 0
13.87331061225349 22.04243611581755 0
23.69731742738289 14.40555324245683 0
14.06993121247492 9.766809417137907 0
19.1384270144584 15.9981713193522 0
12.29055468157664 11.11565906549996 0
16.45144088254715 13.12429434978326 0
16.2019355700786 12.84050249654628 0
13.46008861459931 3.508271228545488 0
13.84197963485152 22.75974402032583 0
21.61971592492555 18.32571870488586 0
13.78276092165543 5.852802028961976 0
21.20092388660764 12.45746787471199 0
16.01013203437188 17.39088002640906 0
15.03308799919571 19.77727427009981 0
12.76459325241988 4.411290829351972 0
12.24474453880674 3.158403806642784 0
22.31998730565715 11.02588790007959 0
11.32025603530074 24.01657454453457 0
23.2981635052174 7.959199044439735 0
12.12626366799948 20.07806591012254 0
11.25135374610369 6.567932633948018 0
24.00529468038097 15.05348501090925 0
12.7472538191155 4.181829801257264 0
21.28472001249768 2.938191234067249 0
21.97583758088009 11.94335607962404 0
23.66972417394244 4.872274523523702 0
14.11146497090711 22.59595496383448 0
20.91800070032058 17.22977241662705 0
13.0490739551871 21.53208777738746 0
21.50694036961034 16.8899520446178 0
17.52612228990027 20.94334510586251 0
13.70226700565738 11.21091948173551 0
22.20267637955162 11.68298947871359 0
11.29813943521192 10.9898537391162 0
17.03864754309339 22.20816316771563 0
13.28718033078868 8.932722245112206 0
24.00726317322044 3.345449363312676 0
12.89553681725648 4.627926038812177 0
12.83987059774274 22.03178683463964 0
13.45339925835158 9.590181304145574 0
22.78809508657417 19.10867606537986 0
22.35094742401829 2.87996702072054 0
12.10990778338415 4.538150870308127 0
15.3470531065246 18.30008503093024 0
22.90819191590619 8.408025884909977 0
21.86993190950447 4.71988545585461 0
22.48958669586094 12.38806997389218 0
18.94573035901887 19.85273357267572 0
12.07742754519921 18.64137169897571 0
17.13542691618777 19.83939830273539 0
21.15366914731975 17.8553097066043 0
11.91466909027829 22.60587708061937 0
13.8485538216635 8.708156140361993 0
14.28242380416129 3.282374693563245 0
15.43880420764279 18.61922116251333 0
12.6603540311857 3.787563803184217 0
10.53419721180219 13.93962467965259 0
22.94837196039234 13.72458726556 0
20.67389695911257 15.47206009558129 0
15.664402697504 20.69587713372832 0
18.77091339848533 20.27435044626033 0
22.00714891503965 8.734607656519277 0
10.48193145322972 18.59707590471858 0
12.99303937242781 18.58054511874406 0
22.52590138885729 9.367548092990724 0
12.66776082814327 7.900553431240386 0
16.82981561340859 21.34764457034607 0
12.67442168602149 18.11330173279658 0
22.24490664383754 20.00203219611144 0
19.34300464078567 19.67299292993314 0
22.03619083634866 18.97761312463552 0
12.04040129564654 3.007968527567616 0
17.13171551511244 17.07073795949782 0
23.20339866026551 12.87517599839628 0
14.48208498411957 10.24102867370538 0
23.15602528572732 18.2662376640771 0
22.15083523458577 17.8724047765474 0
23.79200090798352 9.485725344883818 0
23.10903805278094 4.707438943754505 0
21.67077687803341 4.538113102748644 0
24.23253427771659 10.92455775884785 0
22.97246646300432 14.07447527852241 0
14.21006122940324 18.38941978571354 0
13.00474417139129 8.700077052645906 0
24.39713622152243 13.99668897429654 0
19.60438189382362 16.14302979699173 0
23.2348642299197 4.507363749442036 0
12.10900406969243 9.772221107139607 0
18.19629636024982 21.93428698848491 0
20.79014632489816 17.78878071389207 0
21.78749344574451 17.53518850807072 0
18.82887937890318 16.85483059542148 0
21.34943859972025 19.91374608335441 0
22.37907133686978 13.47870490774879 0
23.22371797177581 6.672148167665087 0
24.19110438054286 18.04415511464795 0
22.48056948128525 16.38432293534299 0
23.31770773478407 14.62163834448531 0
21.27803354088005 20.94410454667613 0
13.84902734137419 2.913414633314607 0
11.61143355059043 19.08853820005535 0
12.9150236931838 22.44703324078724 0
12.23965444842418 20.88407085209516 0
21.06318215718123 10.44105176740391 0
23.41454589340551 10.12548792008289 0
10.82197424026804 6.114124750118054 0
23.65176302597865 7.039069971213662 0
12.64447391402298 8.724432478716272 0
16.00965220779095 21.14993925116097 0
23.96307972470214 18.4913943441784 0
19.135353702837 13.03366125626425 0
18.03650180206263 17.71666859436039 0
14.37945833883863 19.51689529851979 0
20.0272516091828 13.69185799106764 0
10.64186517119268 18.92043735659846 0
12.88268878566542 12.7308218882528 0
22.93066667871037 18.14336886844741 0
16.94273459265701 18.75380805210204 0
13.06576719506849 7.406458486369463 0
23.50602957739455 15.28558154755157 0
15.16891705471736 22.93577796583155 0
13.70685090345527 19.6077257345243 0
19.14605139115218 13.41023205388395 0
11.47422285463219 13.55690052051824 0
21.08396303974038 5.299175486711722 0
12.16134014040142 17.32517232267034 0
23.32763617206579 20.25724820794488 0
24.63388925548539 19.35571711496099 0
15.90681097150682 19.91523055236362 0
22.80738227418482 11.07700861911302 0
11.21874702114545 19.13704635551398 0
14.33779505666122 21.55526470190925 0
13.73476512838126 3.469094181306483 0
22.73476801393891 4.415455894481233 0
20.83080346938197 7.809738032682389 0
17.9457716660002 17.31742167239232 0
11.63004691558303 11.43112364484586 0
23.40272281328016 11.46235530526726 0
12.04619875281861 21.11592457284225 0
21.94728700065704 17.32657600774876 0
22.94784906524354 12.10521034832352 0
18.35996198547859 21.38891163228816 0
17.50360000340236 18.1908022107596 0
19.15744768927538 18.93648480895212 0
20.65412474439344 7.13382680354908 0
20.25693193041877 13.03898673664687 0
23.26529441078946 15.61302829793307 0
23.87075790068754 16.53160043735323 0
22.52301632899507 5.676440429972387 0
23.70695943194105 4.134545893926366 0
22.25053398758227 7.178537212456988 0
16.13747928989883 18.18360644926944 0
10.75467959247183 24.44151674988537 0
20.78909431295068 5.389018072888028 0
14.59075783430635 21.99354787434023 0
23.63455894346069 8.83706451616692 0
22.32090845112157 4.567634751810878 0
13.93027092229615 4.00952222133384 0
16.96627131093164 14.04672706222914 0
10.96673563440344 19.75046405523658 0
12.99077203304853 19.3175352891719 0
23.09316860853315 6.078294756755686 0
24.56766162370508 15.43285795640405 0
14.5524336897087 9.125474823802763 0
22.60687335694087 11.73176247268778 0
12.22198947150279 23.78504976863955 0
22.2875674940496 16.20783003154141 0
20.25694425676219 12.66244255330191 0
16.37961851638993 19.34875203259301 0
13.11986947790574 5.731699994278001 0
22.5931977580615 13.1688779828601 0
18.13780957945722 19.33260757846878 0
21.05339449431642 19.21010843647119 0
21.29324097100168 15.5964000391464 0
19.26659896917477 21.4864264137092 0
21.63009667372424 3.555371840244231 0
21.32400997619542 3.461172132430735 0
13.26594168582107 11.22561151896706 0
23.39756315809491 5.303458103534024 0
11.10418586224287 20.59116148682812 0
20.00535859794336 18.84053993515864 0
14.44619786377345 10.82581375609962 0
13.96921571362908 12.79760173156128 0
23.03800934457118 14.42145692842909 0
23.17888437986434 16.73026216394744 0
12.04037492025781 15.20885228923609 0
15.81238926031573 22.57503447181607 0
13.21280243477452 3.401512976225398 0
14.55889669504418 8.666783699633186 0
19.13893528369535 13.82152394244333 0
12.31420083211667 18.30910782848875 0
11.52135659778503 23.80532236033595 0
21.28280129476643 10.65657466026136 0
22.96630717488518 14.71999078185597 0
10.64037390142101 18.00512128562209 0
17.85714285031339 14.06498105623528 0
10.3229882074014 23.06246846880548 0
13.61070870550572 13.51031549322586 0
23.92653033219346 18.71011960210587 0
13.05922149992147 21.96155994838653 0
16.69469022825418 20.53633489196577 0
23.70294129019891 10.62682989588083 0
13.7724293601347 23.42088397943333 0
19.94145163679171 13.3112969900665 0
22.93638297840694 18.83133492211569 0
11.69317448673808 4.49070758369558 0
18.32460161654313 13.88568166333325 0
21.91436780017069 18.3131349187064 0
21.59961762051083 4.777803724998366 0
10.66973662756253 12.49193268563961 0
20.45774659541853 6.962702368663409 0
17.06205293205994 18.31863718414712 0
15.59593460385815 19.26241781444543 0
15.00548579444899 18.99244815529012 0
12.95023244563898 10.52473227957655 0
11.20957646847621 12.35646569524419 0
23.28046419885208 2.868396196668608 0
13.10538965398279 9.23092428120334 0
14.60894217372529 17.50001560871059 0
23.25445070918866 14.97925650633137 0
21.89904836068578 4.030148361501853 0
16.70997286778291 18.04117562046855 0
12.33368401781243 10.41521279153479 0
20.68442763642069 6.103615391467101 0
13.78291606834157 3.173197672975566 0
20.61815945702722 18.39266287635727 0
14.6087190984492 12.31243850200608 0
17.74122513175921 19.04156656340292 0
13.96666363193954 23.22000597116344 0
18.76530082857103 12.82042794874215 0
24.17253815087297 6.502670663576045 0
20.80986855102314 4.613176365414168 0
12.60025473588418 12.62245276718681 0
16.87967551359095 17.3159687542094 0
24.28975929391401 4.918288893958974 0
12.39255558532783 22.2635692014179 0
19.4519880138088 19.26299786259628 0
24.59374547975246 18.72229208672029 0
12.44672926558665 19.11262562356819 0
11.40744629263446 12.93620900877204 0
13.89496918850878 4.672872198751781 0
23.81067269308753 7.619831952248441 0
21.10286067673823 10.93096902077969 0
13.46412840018674 20.78058709441176 0
12.60180898444236 6.503577724271826 0
10.71820792318351 20.05432907821701 0
12.38201332624624 9.994645037177651 0
10.73986676903665 4.071568259219391 0
13.60426023633379 10.58544270313597 0
15.58363982014138 22.85915750049522 0
16.59289706397416 20.90116862355011 0
19.87295457228781 12.86542315495215 0
21.97743047265219 8.367794662504377 0
12.96287002031776 21.14707068128069 0
21.70200565533232 6.565436016220915 0
22.46633594933026 19.47797597488517 0
22.18630988495194 6.100068101616834 0
21.81181711782155 16.76293906176032 0
22.74712098420776 6.915971995357102 0
17.42678170383184 20.53182471379356 0
10.54013100553892 15.01147534849741 0
13.6636264102132 17.10912843897095 0
13.00174780832305 10.89616879583332 0
22.23622350596077 6.5267490052701 0
12.62995661712548 16.0678231072711 0
22.17746510529441 3.813872450723607 0
18.31343645007502 17.51711686643043 0
12.81415921649929 17.22286315145584 0
23.88497105840073 5.342438271071202 0
23.8081365675443 19.81653784588866 0
22.52124887137487 9.047456275108988 0
12.07696255464977 23.35629558387392 0
21.61639919609535 5.578497265612873 0
18.95040690554242 21.10464445498441 0
12.15456142578017 15.98683286794778 0
22.12685113583601 9.824584631344557 0
13.1715261438095 3.997164613539247 0
22.94166825910037 5.339300208288671 0
20.45251649316123 20.39663438631463 0
11.59958555275235 20.96781971055264 0
12.34323224051303 8.533456597406694 0
10.55499780921573 20.2822810997653 0
14.71755933516084 12.64397207524851 0
10.4079504895691 19.09924546487044 0
20.50708642489984 19.20319621225198 0
13.25104826478547 20.26394273320411 0
16.10534695966994 21.45291892597524 0
12.87104146833762 9.46026136252798 0
21.00707606935227 10.12474576562062 0
23.29210795355019 17.24808179183976 0
23.94432931648602 8.42573450127507 0
20.43000488461529 10.21457211095498 0
16.50051909353719 21.46366832569053 0
14.38666452829114 9.390394333211349 0
24.31657102141641 10.55338497623766 0
22.21902063119153 19.66182336396744 0
11.60667908355408 3.577682970154378 0
17.20851727116575 17.4679760426425 0
11.14819467435227 11.78987238864932 0
12.7400168872197 10.17505533152657 0
10.47212803259632 14.66637980509067 0
22.96638532671903 6.717693132966925 0
12.29089462969793 23.17179507562908 0
23.43634370778806 8.160925269396973 0
11.42302723250759 16.66414231374244 0
23.2247206107861 17.68543063917233 0
21.03745968514654 6.035696604897886 0
23.19082874787158 17.43875968150008 0
14.38396352646742 8.055355403526937 0
22.81198224375556 16.28248123166969 0
20.60880714922218 9.39550924117491 0
14.70977629815374 10.90335047043884 0
15.50155426735698 21.30818339968841 0
22.08758378043586 5.371811843484979 0
12.12157784474746 10.6905510349371 0
16.45913173448255 19.91777668368218 0
12.65577322476502 22.8941434357039 0
22.33956376799469 18.51720611119619 0
10.39356549218804 20.80103712718361 0
20.91353004418123 11.99350835582455 0
23.68177677434516 16.72086532743743 0
14.06531468180861 22.2356505568028 0
12.64937532519063 18.42754897723178 0
12.35548155384659 19.7958276308222 0
13.38852901737416 5.297135052012223 0
11.16248988595258 7.286339002747209 0
14.41149667902812 8.884111929933782 0
24.11644272255267 19.86569052106288 0
12.67182126200501 21.08518677943484 0
24.36148747144934 15.07131764419673 0
21.55257503942538 10.57348218188607 0
17.35613848929923 16.75020908123786 0
11.78888429187219 9.63868960763037 0
11.35051768335489 5.165291701808796 0
11.02396600337111 16.65399566394636 0
13.10604303436333 19.72307200728736 0
24.35211221993321 5.886453530666286 0
14.42417895342989 6.682814946581515 0
21.99206284803927 17.56949983612775 0
16.43261322006722 16.58684008569167 0
21.45705916363269 8.19764437925896 0
11.03113385611972 23.18534116079974 0
11.67689549106919 22.68071535555155 0
23.15090379156144 10.64720551566001 0
14.16278388307985 13.10962625820207 0
11.70719204714887 4.24622140436405 0
23.74152296564971 10.97664288355926 0
24.52515827107137 13.31802453372482 0
13.89786012275013 4.435128264282859 0
11.98717378286087 4.941029875722932 0
11.95272742615913 9.009497179246639 0
13.64320863172307 21.33807753466159 0
16.86073147696559 12.96249038891501 0
19.58892213316734 14.10313562692485 0
12.50352277001315 11.62217691279377 0
21.20066636580528 6.933817473492402 0
11.12519980363616 12.08238741674479 0
12.10976436943412 8.393578986993964 0
14.48128293242288 7.391930409670888 0
12.38324493436991 10.83269613325597 0
21.59226650239198 18.55139489852506 0
12.47988764112663 9.335364444565368 0
22.66031402830133 3.787199785204959 0
12.05503186642648 5.342796963498145 0
16.25331317688545 17.02660178921 0
20.59331811920491 5.6290125238352 0
13.89518902026562 5.578608150993096 0
23.27432113790977 13.92364362592198 0
13.38925332012026 4.741980192258156 0
13.18911737241912 21.12333267044764 0
13.67646044642166 17.8033573199632 0
21.13555690449168 13.6494266839665 0
23.41278838630209 18.15394434348731 0
22.03674420718201 7.675332533883977 0
14.92759384834389 21.24095646169486 0
21.82573295065191 18.54151027956427 0
20.58772513305921 8.900858291675064 0
12.67485488953584 4.596026450237197 0
10.64396027101255 10.02563123123982 0
21.61342848672485 5.300574136261568 0
12.22345377617708 4.043930246351191 0
12.08411385156502 2.743959961483196 0
13.16754515943174 12.92872382919471 0
12.0857789662389 13.46803405965764 0
11.47455453922481 17.07531298521782 0
22.89015163184377 3.994568202035434 0
22.66682926798116 9.971676405239165 0
11.70756835364041 21.72586124971895 0
11.59688415800559 19.75952013219796 0
11.46072174268791 3.79892193123677 0
11.50349776550668 22.84275192929375 0
22.9094015542676 15.03346012751189 0
23.89154422115573 9.795549389074802 0
22.23383422337019 4.050480156689837 0
11.10366864708537 8.826296583601538 0
24.46746156541137 16.32144597270562 0
17.91900915603928 13.712342585898 0
10.99774825741307 16.07487105609696 0
15.80536550952773 17.79555337034186 0
11.61769830438962 4.74992628500091 0
19.20815748497466 18.11466792885476 0
10.85179355853916 5.373421044877301 0
15.50523166949609 21.6783746340041 0
12.26552350047648 16.35325892689572 0
20.76959000696447 9.60059512784605 0
11.87921790719727 20.23212655909551 0
23.56125260955092 20.03808342138434 0
12.36573600613699 20.69253982088888 0
24.24974400345058 3.441258296720755 0
11.78677376988469 4.882524998047839 0
19.54129819093969 20.65444378697132 0
21.79443743632968 13.89541282477734 0
20.5894126165765 17.17741572879412 0
17.95044091212725 22.14677733111822 0
23.88711160929741 19.10001202234971 0
20.44838773685765 16.08903235186734 0
22.45937686930571 12.78498259239866 0
17.64058434892563 13.13930211472962 0
13.92375531127146 10.87389918985911 0
20.76636891459534 6.512520707736626 0
10.99413242294574 18.76746397957026 0
14.76274609282269 21.78699272653104 0
10.37889985190383 23.37711794049 0
14.1951078880304 4.621417878568063 0
21.11062178586545 18.90773207096399 0
14.71834843828846 19.6486397035568 0
21.59805045228573 11.34635757386845 0
13.97817602217447 6.04528110110317 0
14.46198456584429 20.30910668205887 0
22.67989715323981 17.06568985281646 0
24.06053533932797 9.351825882038321 0
10.76875453773242 3.463963950199089 0
17.75728253180709 21.88101217886855 0
23.66668091940063 8.309645483505175 0
18.13920268202515 21.12062514335241 0
11.37677947421261 8.843928850216631 0
10.62237813353919 16.8117939211491 0
13.17797468839491 14.11221443468763 0
12.41140721700967 13.35269810978842 0
15.51223221927193 13.34209356873168 0
11.12942768520647 5.562940258838832 0
11.27567245705674 13.26782505533291 0
10.98443131118901 15.49043928080683 0
21.146768024976 7.484809450248466 0
21.90992301120109 9.259983472287509 0
19.66105563875495 16.82120422462779 0
24.14757929497105 16.42449483971735 0
22.79312617829941 5.468175390517104 0
15.44112241117158 17.37299189463439 0
15.61271686668021 22.34599352093853 0
11.48274721712125 4.313973995329517 0
23.97348205658042 17.71336032960141 0
11.33262626601533 8.539978692700526 0
22.36818679113358 20.26868521503209 0
11.57904807741286 8.389131805618154 0
23.86554401487838 4.682230024140848 0
21.11466534040574 14.52998127546406 0
22.17810270343445 18.29285490756511 0
23.28702074442721 3.748371456386872 0
22.52581693272158 18.04347835133354 0
16.59715941050183 12.7828031925008 0
22.01880137240404 11.3066930524748 0
24.52452156262153 14.76692202175434 0
21.83557597470425 20.60574216016459 0
20.43607958172387 9.189792689277992 0
22.98981043529466 17.72199648039847 0
15.04994447229338 20.60979096658052 0
13.30412544120056 6.129522987883738 0
12.91845866342928 21.66044022783334 0
14.66945494169459 20.68529578749202 0
20.61684719506912 8.055395920058892 0
16.71428316930648 19.68618714885561 0
17.14545154044603 21.13919650451835 0
20.82214447685858 20.36717340151622 0
12.10571598360529 21.88151151728127 0
20.55414959903172 7.70467844789568 0
22.61147509380501 18.90624124490056 0
13.69936765313517 6.425662158860507 0
21.72390652889808 7.198537740608107 0
10.36367363032735 22.20909511798285 0
21.5836230254588 6.933891493200767 0
21.24529508858124 5.848556147719782 0
17.024941198971 21.86353254282345 0
12.04524650213145 5.599757763740657 0
11.49664721822062 10.7233634492948 0
20.57155187643979 6.3392410118869 0
13.86467020181333 8.293376740330983 0
10.48725098647098 15.67572620459902 0
11.49980276321186 21.87768239056454 0
10.77314468444179 23.4211232400516 0
16.12452001206238 18.65119640949209 0
15.13481933167687 20.17437510115063 0
22.72242732734575 6.507717096966587 0
24.48135154083656 13.62325961314522 0
12.19193428163246 22.63337012841299 0
22.87412625084875 11.89378216195447 0
12.70892089935547 3.481447535951223 0
13.58311863084412 11.79890142814962 0
11.37330515986224 7.0431115873583 0
22.70910774913246 3.481032567495823 0
23.63085240602808 6.072779119556341 0
23.1179491262812 18.54773268305741 0
23.66918798895009 18.35572476430669 0
24.09430604436155 17.11768202340509 0
11.24997888881216 20.76210717998253 0
21.93523320450313 19.5456175618187 0
14.14802689978326 11.77674573794349 0
11.55322082900768 6.345990052445122 0
12.87906746688622 9.800690060938331 0
11.21931940860409 4.422552936060261 0
20.22436921091374 17.21658115139456 0
10.42933133621109 15.36463946460049 0
15.23406614395133 21.70446157330646 0
12.85236317349988 7.371396162896254 0
10.29096844809375 24.15269444179113 0
11.91187154809411 21.71281568921608 0
17.30528814602948 20.1494296332503 0
21.39197897942161 16.21502210030157 0
10.64055822764296 12.90148552136547 0
21.35645737076628 9.046876254746131 0
22.09698783845571 15.56734803721123 0
12.36238861276843 17.91556165384193 0
23.05156985199384 13.43429721424561 0
14.90588997124075 14.10912500774533 0
21.49048933023466 14.72156183663551 0
10.65755033585962 8.454042898515969 0
11.90834707448104 10.47351552335824 0
14.81902108166391 22.11195497517994 0
12.29265901629667 6.53114624923427 0
21.197516256493 20.39023996686578 0
19.83827978998617 19.1879335694611 0
11.29879517139622 5.807004505530925 0
20.80005061080985 16.17034019994118 0
11.02316101189832 23.89784982954794 0
10.74312326391163 6.823405651542249 0
13.89510250072975 21.25236157826506 0
14.32420333132785 4.908195057393612 0
13.45207071974465 23.48152980639277 0
10.4052132584867 24.44836393391526 0
13.7128590835325 4.138832485902066 0
12.3808842760164 3.875616914705746 0
14.91443995027505 18.20781114641502 0
22.13966075012883 9.497925243239496 0
20.73730873985178 10.10293530938713 0
20.41501722715438 15.16819942770461 0
24.39912362083482 19.90686935503155 0
11.9960325509327 20.82027273652176 0
23.45521988449863 10.77154825445801 0
24.64217734030901 16.88449291047714 0
23.43627136503727 18.98117934795859 0
23.5611993793779 14.09526426765348 0
24.47449216731346 12.1601104354168 0
11.81670961717388 23.31928984981943 0
22.75711990470273 3.218321349145597 0
20.82060876675796 3.827608977228549 0
20.74583969785521 3.147378428239213 0
11.52401617443139 21.20313725164843 0
21.97720401458202 17.7763938250607 0
21.70289925057777 8.26946197110668 0
22.80172532059328 15.96539519504922 0
10.7023042612575 10.33753581855993 0
18.86309730711136 16.47048637107482 0
18.86803821956004 18.35226661172869 0
23.49778344851092 17.19990114888641 0
16.79411790315777 16.34276383671196 0
20.12596321657043 16.79688198154288 0
22.11103370677145 17.19530817214967 0
21.68011607430322 4.257506778642964 0
20.67333007093609 11.73932270944931 0
23.97143092964344 18.23707008330377 0
22.77698260858332 18.61403139194877 0
22.69054106080635 12.0891370779716 0
10.411087903627 18.85587017504957 0
12.69227315793215 5.499858039049085 0
21.76662206283768 13.51720290309296 0
11.72345632905503 7.941992755597962 0
24.33765007904119 9.224867043502272 0
19.57779822579399 19.98710257262526 0
22.98370019864988 17.22297146892138 0
22.67223851329908 4.589830297145963 0
23.45684539813215 17.85622091319555 0
22.27358801046309 6.305333726240667 0
15.11013110046302 15.95126079945848 0
20.32643509513336 11.9393269921581 0
20.95220132294132 9.455417805572583 0
19.69259977760525 20.9681525564125 0
10.85263189003552 22.96534748311717 0
23.23732248864685 9.31076331748379 0
23.11536343331388 16.33641275551896 0
21.7304806104283 8.95873978862627 0
24.39710657296459 6.320121733232868 0
23.91843024569546 5.98540800286543 0
13.94470119891175 6.547373387414487 0
13.13758937975548 11.55511865118718 0
13.1619333842665 23.69034564290613 0
13.29059292353224 21.95421274395596 0
24.34908054165534 7.828876132682033 0
10.37310417019853 20.53744776222805 0
14.17239150102958 7.792840704726681 0
20.89311440287252 12.39605678711422 0
10.63118012176946 13.52377096858053 0
11.83419037778831 7.307271429266351 0
23.8717040739499 4.442217074339491 0
23.37140795533617 18.37499628360328 0
12.39062009795461 19.4139478870725 0
11.4034925325301 7.880428492341956 0
11.31057836221654 22.99997271751516 0
23.77182116909946 15.94691280923904 0
22.7893302638623 12.91586143210439 0
10.80711281612443 22.70680213716673 0
11.35253118967863 22.68209546682624 0
22.70071553771785 2.89017428616664 0
13.29280715127083 17.12916970427726 0
21.81275745958731 3.371563230933067 0
17.97886431055041 12.97953167228654 0
20.14318247537443 19.47084565172637 0
14.33196887638899 22.07868301139806 0
23.29485182755159 13.603216335903 0
23.19135840320384 9.905449516883996 0
13.42332833863444 19.74657850091806 0
22.67938585431182 7.740554650506066 0
23.71262100834683 5.813634076399168 0
22.81582952105783 6.180155197190846 0
12.03741620215352 6.723491015089986 0
12.61026856577209 11.02829304834762 0
11.02316279573995 21.71126971538445 0
12.21571828501536 18.88219610833283 0
10.96644160772898 10.21727870366982 0
22.86667476692147 15.64388432887356 0
21.4197678377187 8.480695768306648 0
24.19713814072828 6.121566260356645 0
23.13861331482252 8.236650334028395 0
11.31012560927197 6.805418351856006 0
20.2338433807241 19.79505697215862 0
10.73243011224517 21.76014566032288 0
11.01744253877138 20.89191514269045 0
19.45218204318636 17.14516562212029 0
22.38722649185105 20.54906992512975 0
11.41927915760385 11.65225473290391 0
11.28185290003984 4.113255376287092 0
14.96175573930807 21.57084777663121 0
12.90829385851622 15.82594616203967 0
14.74420079467902 11.60616693734262 0
22.29783592578907 16.98956468389827 0
11.97056105085573 17.65789972298346 0
10.89168023471306 19.07635434687545 0
12.44954790699896 20.46477257516358 0
14.13117375538755 19.72579539805851 0
23.82814726980947 10.08840369076218 0
14.34252133184247 4.376261671425389 0
22.51745321544831 2.695512681866907 0
14.24017044561796 23.29696716398156 0
16.10308562659511 20.55996351012096 0
11.54090452834107 15.21716240546481 0
13.3809533050452 13.1995034957468 0
11.057550149265 2.721688753328403 0
23.88494001109256 12.40705770085002 0
18.0480403493779 20.17639510850234 0
22.4784673951706 14.18514556128284 0
10.39450518604645 19.38824390774136 0
13.34356473435093 15.82016306477866 0
19.97458053360299 14.07882477633354 0
22.12732552527308 12.27633149961214 0
20.60565614597212 13.07614330425016 0
22.62050643164986 18.45372472625802 0
12.40171862031374 12.30798770373403 0
23.97961504672086 10.77022175189039 0
21.8395411604155 10.70591213820182 0
20.67045137710631 4.364729750662211 0
10.91855430685486 11.8766123751463 0
15.33120514449118 19.85319175461602 0
16.53876080794325 21.76896331984371 0
11.86349171769781 22.27066023548285 0
23.20685678915163 9.602374763401583 0
22.8716834408029 17.92038319659267 0
24.58903756415085 18.17047051313609 0
18.79176494528672 19.53066149353354 0
11.30932767297221 19.70391778085669 0
20.48890628763968 12.80255983668812 0
13.41733960934353 21.09757010729755 0
12.87134153811881 22.24320284023809 0
24.43922070557505 7.040009638390009 0
22.72092062348073 7.452123916948935 0
23.70280538567202 11.31082604103603 0
16.86855439384592 22.46299983240171 0
22.65623293204513 15.19256590777056 0
23.25187356387049 18.78836396841863 0
12.5006971944675 9.023161467688972 0
17.3094819481509 12.70632850421499 0
11.21168748135108 7.603851581022457 0
22.10559331560393 4.558642921066678 0
18.13160716028246 13.2143787673665 0
11.83384415799215 18.86449957850962 0
11.89601577246555 18.312714009953 0
14.71802860473991 22.66500115315706 0
12.95057929814552 20.66842395653448 0
17.97288517866617 20.49441410449484 0
22.24618543012458 15.91527036777806 0
10.48027068768385 17.67300327480181 0
12.78330548428796 6.889735513631145 0
13.38190636856909 4.263949865217992 0
11.44574453216275 2.732251414924546 0
22.63081499391468 5.929620274793946 0
12.02592094752343 23.99243238286358 0
20.60157118708253 18.813063444586 0
21.9612700993239 14.54683283635774 0
16.94553980415706 20.07958707492202 0
10.38961960889393 19.70311331769815 0
23.22363210520971 12.28972722418836 0
23.74986678327006 15.15644800059069 0
14.06884735688235 20.77086939609962 0
10.64460810868472 7.402687977079596 0
13.94334960657373 16.7799309000639 0
11.02025283493455 7.853206620484242 0
16.41659025020574 20.38402724210049 0
15.61474851718888 20.35919449408269 0
11.78380676760979 21.5207130295586 0
23.69781325940518 18.60497941065491 0
22.59886162786109 5.476250257796101 0
21.74854643171964 6.202236602118337 0
20.24562271564383 21.19878195196816 0
13.41564246262784 10.36648290716698 0
11.8502852762127 19.5676494328771 0
23.69817606755294 9.20507151925835 0
18.69631857111704 17.59492685374972 0
22.17884263783317 10.09792744658478 0
15.30302234865839 19.52883019793307 0
14.00011875710309 3.588535001872872 0
21.82245839922931 19.08600220921618 0
11.60657414162855 20.08142617447421 0
10.6511090178079 21.27390806942909 0
12.82443860452714 6.103282475127928 0
13.09433671918983 6.004683949748273 0
14.58173580545098 11.22102508886499 0
10.86021432109965 20.38808508103774 0
17.80427560704484 21.23592781261713 0
14.02123900642109 10.10087789986146 0
11.1662066587469 18.44808481916068 0
21.61398911442254 15.21782486405104 0
12.13107085117747 3.596176951179468 0
10.86566457610624 2.932805146732689 0
19.56881637488956 13.65419890439833 0
12.49666605445857 4.24911322603252 0
22.76777055600866 9.126771864263333 0
19.91108933163999 17.08487419601678 0
23.87240345862863 5.588054712598556 0
18.66071427914093 15.83173034091413 0
10.7385860248361 4.809277139548966 0
10.56792360522356 16.10029385389601 0
23.3468295228022 11.77913606693558 0
14.36686399633447 7.083556937928479 0
20.51631682302644 17.75933267541101 0
23.3761116933744 4.280815096608348 0
20.29856610981284 18.89785410873784 0
12.38660739233335 5.937571660357372 0
13.21622490244306 20.56175890038624 0
23.45388590176156 16.87599788760619 0
21.75095157237197 20.331126923721 0
11.47242770744027 20.74753199950575 0
13.60411891469252 5.687936928614573 0
16.83693340376149 21.07445262396215 0
13.92744819567351 13.37315779286307 0
21.99614118586078 6.626879592927214 0
10.92027234996149 12.39074059994447 0
17.85384092424632 16.81884204775357 0
24.58094487159571 17.62782820935563 0
11.80401450929227 13.58351919591903 0
21.41003670692028 6.08933595163015 0
21.38952791257699 5.665505017524753 0
17.26676842260481 19.06337087525997 0
13.23698736338497 10.62408712259824 0
16.1604823581521 22.61606964029157 0
11.70322090854651 11.77344486064286 0
21.922109291216 6.011488371680942 0
19.93888888828613 19.81955525152934 0
11.70114462706709 18.55528367025764 0
17.15210287681323 21.56005965723216 0
21.59189550602943 19.02065314179739 0
13.056674484019 4.504028826692551 0
14.50272448096939 23.1599932359907 0
21.79722958898212 4.914884592966338 0
23.14423027165785 5.761375040453415 0
21.17420627748539 16.37528213622159 0
21.52958442345758 12.38313551013883 0
22.49748126888432 4.476771801615312 0
23.17681678332795 7.316651018418957 0
14.6669025596073 18.87175936962766 0
22.93176686355483 8.691633019789066 0
12.82096333567907 8.494891356777869 0
13.30858660677058 8.243341761215518 0
13.58375642578995 18.1788557405962 0
11.43771106630067 18.50973249077012 0
22.64570026592479 10.85173694904525 0
21.32927644495211 14.28048830619421 0
21.85978169469078 5.729488384704436 0
21.6379322126089 16.27405092784943 0
19.87563890328835 18.48477374653767 0
23.11165479216402 11.22151489416017 0
19.82071784272141 16.44772864740166 0
21.16305112956939 18.60474257704352 0
13.64351552472803 5.169864715351915 0
21.36775941397492 5.176578024047078 0
13.91598470885161 5.299181588516169 0
11.7941512739581 12.16090041377335 0
22.37882770688048 8.754624775879185 0
14.31838373836403 6.098365252152116 0
20.97645210419889 15.42759513716758 0
24.002358992954 15.78500637986332 0
21.14079120317678 8.313371340784444 0
22.27964139083062 18.82920142194709 0
21.53915462170797 17.6244097453444 0
14.54755768434637 22.25554942118555 0
11.66579495698878 7.022787622735149 0
21.70160309233935 3.818627955955727 0
24.63547270721748 19.74400437582785 0
14.54937226409293 9.651792043857675 0
21.85655346682451 16.46167151442081 0
16.28464225422475 13.50797194154154 0
16.49907341215185 18.89461209096254 0
22.17631839290804 6.837389518229953 0
11.44030216184295 22.17656767296835 0
24.02831700713625 12.56166720338569 0
11.18614230369632 16.37956519690582 0
22.89066695175551 19.75827459361552 0
22.90797241412049 4.590394658323171 0
15.54260137187892 12.84719101298769 0
11.85803406473601 5.759744425373771 0
16.01324370693385 22.01025450689298 0
23.62024061393582 17.41022736450077 0
20.89575579663481 21.00685394642209 0
13.3008086358333 6.368174222300176 0
11.08720783216167 9.391910167518033 0
14.39265019842662 5.160468974158546 0
23.25457025174306 7.654985078874603 0
11.00709401487246 3.983770541993755 0
22.67557350943439 8.171702303852102 0
11.73856322985847 21.22162645751616 0
20.87911011010967 8.830594325211027 0
20.28635740093046 12.30946723925866 0
11.30218805949159 13.90005778966121 0
17.5378255883203 19.77747814492977 0
21.34395214769775 17.18493283602626 0
11.21671947385958 4.685690923411874 0
13.25380085146758 3.135083550795843 0
13.51496868841896 20.20693616081354 0
14.11500676310399 21.58067335649394 0
24.37227978289276 7.495790396311239 0
20.83849036202871 8.25149322095455 0
20.31535945993564 14.76630656504703 0
12.34863323645236 2.881893727183285 0
22.24857315014757 8.205059864376933 0
16.50703439503618 17.36349534177282 0
21.56155333137276 9.614120154363901 0
10.73564205146861 4.4511075781764 0
12.66992689299947 19.29497417907794 0
13.44811906339333 12.07785113535424 0
15.64947163851484 16.59922221895111 0
11.91251538674699 6.073993432629003 0
23.37953006739276 4.736421243254625 0
11.60935488974799 5.304313848153351 0
11.9087446431345 4.031370790673337 0
23.0738166842754 8.989003023077322 0
19.52125952827609 18.40264929518609 0
12.84563698275888 20.12940080590736 0
14.44576864175681 7.683564019195996 0
17.84993410612239 18.53758077985839 0
20.52271820266402 7.408150430371521 0
13.62241840306338 22.84451442484478 0
22.61534823038501 13.69769440072143 0
11.84484674329521 12.84236013473215 0
14.47409776647283 22.59486696840032 0
22.17388491372385 10.46635811635409 0
19.10714284408447 12.72133780970115 0
20.93815214576808 13.0434686410501 0
21.45278369980769 4.334048302857621 0
19.42762762104468 12.8073867033497 0
15.38636340992849 22.27850732993278 0
11.6742754155336 10.15180538028005 0
20.76288690950529 3.420146034395006 0
11.8744796562603 8.22703529907258 0
13.60280707967708 16.12620314477663 0
22.08734518268984 4.796386603320506 0
10.80832841670649 23.72549976007886 0
21.52776912691498 13.02483837350472 0
14.19227353008805 2.99024484095683 0
10.69897168315931 20.96725817873345 0
23.96084023186015 14.68326859647913 0
17.59946857622191 15.87294031968072 0
12.76537759872802 23.38355398567786 0
11.02164446899718 14.37837718603802 0
14.9964401613091 19.39604366602061 0
23.66987171777976 5.171136032560526 0
24.11186756134797 14.33554279703064 0
11.29826284949348 3.467455917181508 0
22.65055854719676 16.5894946610626 0
20.85422996876937 15.14413031898688 0
10.69453208663053 19.54583927054887 0
21.01662295574767 7.19796520637706 0
14.23673798126431 13.49582812801246 0
23.53130703530525 19.71264673371445 0
24.07133149889522 13.13473392357503 0
12.9720415166555 7.661375333271572 0
12.52567961116069 22.06819976134186 0
10.67845122049367 7.775069035952205 0
11.60285839207524 5.628849619420213 0
20.29570867745628 20.17668209913787 0
22.29376704018807 13.91849892129292 0
21.30513054402968 9.392295028552965 0
21.17047269752814 11.2422032322941 0
12.34353941927503 8.154130710643221 0
24.41687944850961 9.863416249329727 0
17.70552777971035 21.53773437094302 0
13.85914587536701 16.41666670828745 0
20.55142672000149 5.87209557800084 0
12.50677673638771 20.93370473599533 0
13.65488447068072 9.019961697415884 0
22.98746689392523 2.796149381221773 0
23.23888596009231 6.243127405014641 0
21.42495562723892 18.06379117848091 0
13.97799358164529 7.158233288715156 0
23.21043460989365 3.399849578964708 0
24.70092343621048 18.4255312392509 0
13.06024975338585 20.06143318319013 0
21.30893438788318 3.2026164560161 0
17.16000172673427 19.4787105315633 0
12.68003782814064 20.30645671861024 0
13.42866842094931 21.43284361675902 0
24.00048702774642 3.977877468110504 0
12.92119574008187 18.24245915492232 0
17.65757667864979 12.80123954465235 0
24.31975698302183 8.84710740935324 0
24.18322840192895 3.089010535444435 0
21.36515023976123 12.70946059307004 0
23.01284061674436 10.89192097147089 0
11.02517310194982 22.57377410141326 0
24.01172738514683 16.79904840065202 0
24.70402518215893 17.93844278136308 0
13.15609278904781 12.191878079049 0
23.47619048528469 9.409322259667015 0
12.50630374130274 23.83361107762227 0
13.61100430326928 19.22198796808076 0
12.86475848186819 11.76773859448236 0
18.26202115111718 13.46097621001857 0
17.46521947136638 13.42129834321541 0
22.10223101780318 5.589670627678264 0
14.44942821200576 5.870015599773446 0
23.87011617540586 7.296691751023755 0
22.75244897997845 11.37923384320631 0
23.8726260154526 12.13028247488543 0
11.78973579176911 6.650533859216125 0
11.02671481986338 3.555606582290609 0
13.56148062030053 13.95008605354172 0
18.51005527249795 18.85126352309022 0
22.57487901674494 15.8351344390934 0
23.55396574864042 3.794230395102877 0
24.75847946666939 19.07561590648862 0
24.28157837068683 4.112045346174651 0
13.77604460355785 20.25919246415294 0
23.8804778959711 20.0673102222278 0
18.23740991734558 20.75038292359804 0
19.17918328535142 20.73008151304066 0
20.57065259872271 14.44946661242116 0
20.40953440678539 9.875987161365536 0
21.99543454744456 12.8810373356905 0
13.27366792974875 4.499047275829911 0
12.24627242818002 9.120675819818128 0
10.67930722680051 9.67964874306176 0
12.63767007794292 19.96998675245801 0
10.95889755751938 21.37384445280211 0
11.74367681823141 19.32061345800222 0
12.10813819088069 7.233095655869222 0
22.1700382643751 14.87262234689248 0
13.76944025362114 20.62009689067768 0
18.0153355465614 12.70548853480277 0
21.22017265872596 11.78758183204812 0
15.31278253455896 16.86152212182658 0
14.67088710389956 17.09291280677702 0
13.2911415421086 7.186854831511154 0
20.72557809515824 13.72001294465383 0
10.49167684782081 17.18440479737912 0
23.67939244921807 17.69553913959033 0
22.45832508560678 7.036164480495127 0
22.34637654480105 14.51312169370049 0
12.79837226456415 19.00841289668246 0
12.27942798937256 16.72466665879 0
22.21659001429124 19.13183750207132 0
14.13015562284238 20.10198918657265 0
24.18984094817473 18.65296903405915 0
22.10760217404389 20.68038975328706 0
11.31323284884669 21.66633729347066 0
10.58922841164955 14.35455067387419 0
20.44972806197429 8.668191667041055 0
22.38278298569265 3.874960179880241 0
12.06340734618029 19.78246925675302 0
11.57003983246691 11.1012331920151 0
15.05992884424744 12.82175162176555 0
23.58379510702097 19.41057734971645 0
14.98965438755105 22.62514345383183 0
21.08241342997245 6.579117457924582 0
14.28812105009233 16.40781239302316 0
18.1639577112423 16.49668768025578 0
12.91233053263692 5.371703558281069 0
22.07388690639516 2.745251852062328 0
19.6241167862499 21.48598676689522 0
14.61655117368636 10.54997601270044 0
20.68576212073023 2.692321609578349 0
21.10546394479509 4.683436355501383 0
14.11469255395056 21.06963318289064 0
11.79952961098392 16.20166754601268 0
23.80127616576585 17.25492830764492 0
21.99021607316936 18.75206924232263 0
10.68815477348959 10.70948664445222 0
13.98049540348774 19.01087323241453 0
13.85720617122917 7.453033172099964 0
23.01628524310357 17.52220093055669 0
13.53706543423744 12.77376462478681 0
20.67574450174432 4.900245843345939 0
21.79282706984933 16.96870977921369 0
11.78679036456556 3.364209066847349 0
17.32185833316832 22.29822913231493 0
23.73253321209287 3.48931225987407 0
24.29634630598911 4.390402095674972 0
24.6039116472136 16.0471272370853 0
10.76773420586695 17.14722153144096 0
13.17705825007569 22.42901879653806 0
13.58743461604187 19.9645306489022 0
16.60745649344194 21.18485614762849 0
19.69543495277981 20.32919448647438 0
14.2327491495144 3.539910333356394 0
21.85960777981432 17.93692743648263 0
14.63460187251728 18.47788218539329 0
21.73610904651251 18.10159057172473 0
21.64162753358799 7.51881580413643 0
23.58521562866704 12.93544029791289 0
14.33647836137627 17.30519253882467 0
22.76807851566918 20.04018761533012 0
12.78018488335025 6.351883019403856 0
17.61390009129074 22.19616148102802 0
11.97494900450132 11.90637054324681 0
21.24077244786201 10.00938532787258 0
11.27561505569687 3.207244422861438 0
23.57382789818738 2.786343034809168 0
13.28613814403431 21.59366659885277 0
20.50531721680973 8.391039984778626 0
13.3624166707884 7.505760319561272 0
24.6844409064989 17.29227064352421 0
11.36836072602407 17.95284157357551 0
21.58897364545212 17.38821889935247 0
23.42964959495036 15.90207016390982 0
11.17024133783807 19.48669998654006 0
23.01040262062599 4.944773654483208 0
12.08381857897738 4.770865810284764 0
13.05426041796107 9.985579643226863 0
21.58053316052051 20.80415934933531 0
23.84264446491602 15.39639725209616 0
10.89403203275769 9.236502672796524 0
20.02418573445037 15.99619037441614 0
12.10161674678677 21.66323204827424 0
18.3280507090947 12.76126865544712 0
13.39911933864498 6.883083707939876 0
12.50646241407432 4.47863098357429 0
14.16978897274054 10.6905153255303 0
21.98924751591837 4.954469436265323 0
14.50324131877305 8.392615354193687 0
24.39619117728377 17.34124358723928 0
13.5389462510762 17.48444933191557 0
14.12410653308737 8.81789673450621 0
21.10278132547334 2.719345807474033 0
13.34836856429569 22.25280273449679 0
18.64245770809709 17.24620619721442 0
10.66693988919424 5.877783350158053 0
13.94781161948139 18.65664862298914 0
22.18714416065328 3.588516944390042 0
22.16391933309511 16.43014673641658 0
10.66818243740357 5.628590850479771 0
15.05088395111383 13.45169615772481 0
10.60689023945228 22.15474185390283 0
13.01713285385775 8.036700408444792 0
22.95670690238757 5.600813758037496 0
11.01895771427368 18.13953037562117 0
24.16421540584483 13.73152330599332 0
23.15307999473512 11.97852150153359 0
23.35410355454876 19.23667395580762 0
16.5284131000549 22.53935783823941 0
11.73822867618129 16.91351776189526 0
21.16280527637431 18.10746697606971 0
21.12486791024332 5.576396228083497 0
13.58967485405708 2.771009677624661 0
14.66185548318103 21.06554944111382 0
23.06464706769167 16.91599975305702 0
22.90671291964115 4.795170795917654 0
12.28474751556312 5.687095902670475 0
12.2797688685996 14.17223386622791 0
18.34373965155873 17.97325222547149 0
22.50367073366371 17.00443165989577 0
12.0825740777805 8.67976054894962 0
22.76719550016863 16.80046287087131 0
15.31912162829956 22.00980056356081 0
22.30806274622656 5.694195060415735 0
14.33067894860866 20.60652670574932 0
11.90037765646247 4.512422828745433 0
23.218151353769 4.872879629555527 0
20.11795427438913 18.24644180007974 0
18.95588363433884 21.74919303642667 0
11.09573682982121 5.976893406336625 0
14.85357745267473 13.75959989500603 0
12.28331311243383 12.73423535336202 0
14.40684929580254 5.628741595379614 0
21.99184583865057 7.161045353119107 0
18.84851266243847 19.09688784882875 0
23.37814476424855 16.2411711918514 0
24.49992641248111 11.53203850287752 0
11.99767677749769 21.50319021166803 0
21.92298913311073 15.85204344325394 0
21.79327675748848 9.485998756266032 0
20.73117887926194 9.14477352342296 0
13.13065925663928 22.66801695172583 0
14.27132317465219 9.630196487207836 0
12.09079325034593 14.67186198563531 0
22.98109753193524 13.16335887474157 0
24.35087532150533 5.638329011631649 0
14.27249457922395 2.725322253736609 0
12.93201439345485 12.07479520550712 0
21.88940931963604 12.49425328923224 0
21.95639811212703 15.23172573453121 0
24.05004129025563 17.36030290240404 0
19.20770081205419 16.92163229335293 0
13.3066855441583 3.731187266478258 0
12.1784343773453 20.32843374378487 0
23.16156724634712 4.020704926472048 0
10.40547194275433 20.01281541860658 0
12.6688164070876 16.87399033604683 0
11.06542440535706 10.81968912186078 0
20.82804734315573 11.0639468190312 0
12.2937052449876 7.431709490132565 0
12.34643458867587 3.408334413291311 0
15.72211138376522 21.07997545624372 0
13.71329967660803 9.365546778162464 0
14.341738425453 4.111428000612913 0
20.92231851456139 17.53879643877903 0
12.25548198433526 11.37234768764487 0
12.08027506934932 21.34863504151411 0
13.71052988557225 7.958202687899437 0
10.47534669725346 13.21038401652643 0
13.41667590990127 18.9689823118622 0
10.60717325625328 7.064937363750203 0
12.90124087050518 21.83224780740528 0
22.48840584128173 4.248053337702451 0
10.96309309858739 22.32245669295918 0
22.68018375935885 8.54969811387485 0
12.02870734322357 23.60777081941015 0
21.14323350291218 4.421992971005446 0
20.67039256406504 4.087971621571127 0
15.8425545493443 21.74074724632644 0
12.98019448630437 2.789554097473582 0
10.91235174309492 14.99544025722393 0
12.12138582447693 22.88651921031653 0
12.98826806177815 16.51535388090264 0
24.28984597434588 17.75931620963905 0
12.24808561541036 6.892396594624919 0
14.16031609444523 8.240207423834423 0
15.19284552585684 21.10915277311058 0
21.195294309285 16.67358311145787 0
20.11122386820614 20.42908554099083 0
11.66051247312058 14.54588993157256 0
14.7166899992222 11.94418744262049 0
15.90060527306905 22.28090912778005 0
13.75251350710882 21.81897128907086 0
15.96763595260206 19.50631474626671 0
14.96886637679058 17.500121688263 0
11.01447343248911 13.05047466378457 0
23.5709789355043 13.49484997798468 0
20.66344424036875 21.19487821349259 0
22.38298980503845 5.90565981787303 0
13.31083683521504 23.19386799284847 0
12.63461606184477 5.944410496325819 0
24.24236469558652 2.770653270613928 0
10.27483424597421 21.91556459951912 0
20.97454075047409 9.805268670824113 0
11.37975966128947 6.062157429406487 0
15.52936819062447 14.13121914564435 0
20.27259122076471 20.76257325150501 0
23.62364769566467 11.67654685007657 0
16.79387585045854 21.65668090331306 0
22.10024982415083 4.241034455717266 0
21.0958234680229 11.53029187521864 0
24.66338539525781 15.77540378204264 0
16.73158273287407 13.7778991087021 0
14.58313312328996 9.964981913705959 0
21.07110720550293 3.994777776182752 0
22.67382227313432 9.651492631511099 0
19.19556705501513 18.53891732413339 0
24.0354840587618 7.903922697643083 0
10.6517503721167 9.29866271570476 0
12.94110850474014 5.579096206848158 0
22.12840189050635 10.76628417495458 0
11.72505365446583 9.33623757757919 0
12.82792780074535 17.56617391719688 0
17.44432567813093 21.64983783967459 0
20.61078266466449 5.155890940825066 0
24.4996957250168 11.0261617444379 0
13.57818821058455 8.461535895484463 0
12.75454803869841 3.220744769978784 0
23.99349447574836 19.63362342423465 0
18.83021579648251 13.17574046264661 0
10.70323255297974 5.12423878003226 0
20.36555040976985 15.67291008322981 0
24.43930164383074 8.5222699619938 0
21.03592841308158 3.539389072009752 0
22.10153250001892 13.30686562776231 0
12.2787606708632 11.94058360501472 0
11.44982713828619 24.2701784368957 0
21.52819444357407 13.70666046159446 0
10.33423636877925 22.52029689387322 0
23.94591795074646 8.75252294232493 0
12.11368288076359 4.237718254621317 0
22.19569013586616 8.524749756170895 0
12.06410235919467 10.94634464198928 0
21.32320881160375 6.465998065936753 0
19.98447289105204 21.4306914427967 0
12.74822680420243 20.51132745696073 0
10.5382413089461 11.03328705942303 0
10.83930742861433 17.78074097881535 0
21.45140929382165 3.799406850963621 0
10.99563829264429 8.357086477623195 0
16.03024926378221 16.71557289287525 0
19.79572603078625 17.72576777655917 0
20.81223833171292 15.77349198630829 0
19.17837579525288 14.19951559669528 0
12.40854837279283 5.488204231422024 0
13.35491467904448 22.90641082499545 0
23.47839996429997 11.12748246159459 0
24.47866049741879 11.80854420481203 0
21.1882769230406 19.38247534658032 0
20.87508782442795 10.72052887767706 0
10.95853819042292 17.2895785474367 0
24.00922844969767 3.638883180403117 0
24.31818017794063 18.90113202242149 0
24.42415210822256 10.24968229925151 0
14.76241797610653 17.83851651848676 0
11.72791475519314 3.80201347685193 0
10.89994263854848 13.85873116231045 0
13.2938666052665 19.19005234373759 0
20.66401734027482 18.02803251238765 0
21.76745547528605 17.74399535069257 0
12.76844381431731 8.181455843341583 0
20.80266156548419 16.80016522249104 0
11.03339110668211 17.56255115197761 0
16.21279046703157 20.8699103589849 0
10.61790978361855 8.752306349197111 0
11.57507412675044 17.41985297007173 0
14.85774012742666 13.20751872085657 0
11.64216901196476 15.85436207914603 0
12.31433181372139 21.08004585834294 0
18.55627932776704 20.03846958899105 0
18.51808949896867 16.63346585228321 0
11.73946243142588 18.0145149954299 0
15.64146578743994 13.77550326181491 0
11.63726968185109 23.0434808225006 0
20.29610225765339 10.90364439698568 0
13.56494351666221 3.782960895166601 0
10.62602424146624 6.30870108656471 0
22.63355227688557 19.30120436629316 0
13.91941004885601 14.13575550968193 0
11.24211628430881 23.77367347564895 0
16.1420930281805 13.20010329531859 0
21.47566475224069 8.75819144519856 0
23.26087299685654 3.133464325763319 0
13.82795793192791 15.82480847320373 0
22.24867677529024 3.159301802604428 0
15.32219563134133 20.7565883019522 0
11.23068662395983 23.36321680720492 0
10.72966258860037 3.146659485986682 0
11.67063053563728 22.12970253364741 0
21.99545526180724 8.058372058455678 0
24.16726896429405 11.96003261130931 0
10.28545913345906 23.65640390950334 0
22.72211747930495 18.26374673485266 0
20.52221655808022 16.51504812960112 0
24.26392534553123 16.08535194691539 0
14.04391024455149 17.11263716480024 0
11.0419978105681 11.14831939244064 0
23.82068434637819 3.183627528282094 0
21.75833233078406 11.08118889753481 0
17.82811398240633 19.47012785166671 0
21.91734039051917 9.999434717933273 0
18.63487658312622 21.29965677450473 0
12.27634299042554 23.535200021108 0
22.66558927835984 17.89976788159984 0
17.21371967532771 20.76997543991204 0
21.30356665573353 7.983835865514472 0
19.27353033822536 19.95230746632208 0
12.56725126011444 23.13769692719566 0
12.90406520897076 5.156302467682757 0
11.36788126548912 21.39545671098087 0
21.52314012293483 20.47791895086164 0
10.34011403903997 21.30348621604814 0
22.09747002296021 5.166733375291797 0
10.65869795092486 19.23254336960758 0
11.65823784178134 14.15436356291216 0
22.43902188705062 6.448451585398013 0
12.35754534838511 18.59666056574229 0
19.00570115286433 17.74810662909078 0
24.28072357167004 16.93585032771531 0
21.15858842837973 13.27901434006326 0
14.87896866876689 23.15963332831466 0
11.83128518713548 9.89934546571346 0
14.36898533762049 17.73714586291423 0
20.04499011391498 17.93860195957912 0
22.96009089074752 3.427214740484718 0
24.54496729128955 12.82074476125678 0
22.15381581707215 7.387137883410681 0
22.72120861971112 20.54998950836277 0
21.82041704060214 3.120769858427916 0
19.98756942329223 20.96067297977862 0
22.5116528622168 20.08502607498193 0
11.11197343293009 20.365421845233 0
12.98968439613088 7.154482606498322 0
21.01814505832662 18.37777641163139 0
12.66741886245268 17.80924972294352 0
24.50070680148064 10.77657433107774 0
14.46405054910419 21.78423105176946 0
20.43007078942887 9.55550881967034 0
12.95827766451864 3.430290772675406 0
21.06448825991909 14.86692556890415 0
22.67015419463232 19.60748792672197 0
16.82508615960025 17.65017950876198 0
13.89616639366853 7.731488795306527 0
11.37048050926571 10.39100355647568 0
13.20779048978861 4.895763980488525 0
14.38484058264388 12.87100937858566 0
13.21203239524753 9.456321409397042 0
11.91530145718099 20.50044168240617 0
14.04118764490984 22.96893976756461 0
17.05874442239196 13.26169686509717 0
11.56221749185853 16.38442641056983 0
21.57563985531357 19.96993636893828 0
21.34830767735019 18.95354893555501 0
14.26297057733055 9.12865936953686 0
10.60368582787937 11.74237850204132 0
13.34943727273909 17.87037044058506 0
11.76925775339389 6.237239797786674 0
11.99523451034833 13.90543694760512 0
16.96428571286854 12.70836442144616 0
21.44464144470556 2.722698989816536 0
12.05935551594363 23.13093126803135 0
13.79252666570377 23.05320531190274 0
21.06014011805117 12.72910831380535 0
24.65890188740516 15.08385280439465 0
14.53649537968606 22.84288688311275 0
13.72786781481817 6.104812155638431 0
14.4964078205782 13.18050791328602 0
10.35661919445177 17.92781732454824 0
13.59477105085778 22.32126908958426 0
19.54946757086265 21.23877360003588 0
12.33235813367204 21.9166318443025 0
15.90506877233912 22.82884273130844 0
19.67593685877901 15.80761777998365 0
11.17550373742157 21.19686735791988 0
15.34751685095118 18.92031693203147 0
14.4515972043195 6.31573236341256 0
14.12692800562941 6.270806797315613 0
10.71260529243096 2.71711508770815 0
16.67798596095696 17.01686311522898 0
12.94879667259717 21.36719870661424 0
20.87725924947624 6.274559326951478 0
23.4764021653995 8.465337401728675 0
13.90092018639453 10.46912295800911 0
17.70815631785454 20.62598650910669 0
23.75905248511773 12.63477401819611 0
16.52164798723916 14.20570822952649 0
24.34020326407708 5.164773788156565 0
12.51700613055651 2.695917653415735 0
22.5841655484847 10.51761453940411 0
22.73227215569009 5.67111388512684 0
22.89834437046808 7.24819088859402 0
23.70786195522842 6.814787898108849 0
23.57116296062752 12.38825368069288 0
11.07857726426216 14.11372447978992 0
21.9239774726861 14.20266755838957 0
23.262101369691 12.56043541553562 0
11.3557626854172 8.274268694466063 0
21.52399667103176 11.65203746055167 0
22.7187038316568 12.63131946861188 0
12.1737019512184 3.824597925055696 0
22.37539154603496 16.65388355157869 0
11.17882389138689 19.95249119500944 0
24.21145566984266 14.83466339464014 0
23.50810631739601 18.76716121434205 0
14.37925236525967 10.54599911297023 0
24.1503041390765 10.31461370015505 0
18.95653320924627 20.51626482081232 0
11.32001095672287 17.65197887907128 0
22.57739412922128 11.15969971398606 0
11.62145118391335 23.47775646568221 0
12.09521957275009 5.145154048730316 0
10.9463388925242 13.32282928661541 0
11.31051493792839 20.52057184607425 0
15.65619792500164 18.12404346593215 0
22.89898240417257 5.14917028259443 0
23.60632981987215 18.02495401458217 0
13.95454544675693 2.680191828416866 0
18.72195754498927 20.9383283038995 0
21.39052883299789 17.78571296969327 0
14.23773239607046 10.99803494146482 0
20.8757024720318 18.87056078018613 0
22.84362278289288 12.35735097426717 0
13.69433744124233 18.5266298633801 0
10.73584349378751 18.68154193725322 0
17.11574199280782 16.46464689292202 0
13.33416734273749 11.74886081049038 0
POLYGONS 4558 18232
3 710 791 1618
3 1194 387 1832
3 367 1607 1328
3 1066 333 1079
3 1223 311 1059
3 599 657 903
3 561 749 1592
3 1193 663 1292
3 861 569 1639
3 48 1998 1717
3 754 598 1819
3 429 341 1820
3 489 1166 361
3 1417 1467 1031
3 739 764 1411
3 513 1607 1203
3 509 1828 1495
3 719 674 1190
3 979 1093 1755
3 673 582 1623
3 625 588 1117
3 174 175 661
3 385 1370 914
3 1093 555 1755
3 709 809 887
3 1156 781 1816
3 2030 446 2151
3 1579 446 2030
3 601 1129 1894
3 781 1156 1768
3 110 1769 1356
3 594 948 580
3 240 241 1007
3 626 1114 1694
3 1293 2027 2271
3 269 1056 946
3 110 111 1769
3 1155 796 1791
3 571 1193 1292
3 674 445 1190
3 796 1155 990
3 962 1419 559
3 582 673 1741
3 344 402 1755
3 202 203 747
3 593 1896 2347
3 387 1194 1632
3 583 970 1901
3 801 466 1053
3 904 1231 1745
3 1114 628 1694
3 140 141 999
3 355 1082 2002
3 577 514 1822
3 819 971 1826
3 514 577 1234
3 325 761 1074
3 507 1404 1381
3 1526 500 1039
3 575 1070 1691
3 688 1033 1041
3 437 511 340
3 1447 1488 2118
3 300 762 1214
3 1225 298 1214
3 596 827 2271
3 1404 507 2148
3 355 1257 1645
3 582 1257 1623
3 577 562 1234
3 574 581 1958
3 387 646 2091
3 1949 565 2233
3 1104 1022 2376
3 848 587 960
3 385 782 1614
3 1663 884 2269
3 574 1958 2306
3 839 563 2242
3 971 819 1181
3 1152 553 1843
3 1614 473 2061
3 882 785 2392
3 1595 565 1949
3 64 899 2358
3 732 1187 2187
3 1119 470 1711
3 20 1597 2033
3 767 1399 1761
3 313 721 1454
3 708 489 361
3 761 325 1295
3 543 1429 2046
3 1082 687 2002
3 800 430 1174
3 333 1066 2310
3 240 1007 2122
3 1212 319 720
3 704 837 423
3 986 1354 1638
3 521 999 926
3 400 334 862
3 418 1503 1545
3 1104 774 1022
3 827 1293 2271
3 348 559 1655
3 626 1128 1588
3 1391 812 1599
3 860 453 2309
3 646 387 1632
3 1228 562 1537
3 265 28 1557
3 1271 332 1577
3 402 344 435
3 385 1614 2061
3 470 1794 1711
3 791 675 1618
3 500 1526 1968
3 490 785 1123
3 416 600 1317
3 1160 518 1453
3 819 1348 1181
3 417 1470 1114
3 206 207 1103
3 1354 986 1941
3 351 1663 2269
3 1225 548 994
3 1447 403 1488
3 530 747 944
3 651 1401 1134
3 812 1391 1094
3 453 1359 2309
3 609 577 1822
3 1985 70 2212
3 1333 418 1545
3 518 1754 1453
3 620 1205 1268
3 906 2181 2265
3 1020 1911 1905
3 1458 690 2094
3 506 721 630
3 202 747 1570
3 644 407 1714
3 906 1801 2181
3 398 1169 2000
3 1312 117 1834
3 1326 517 1324
3 847 1985 2212
3 1419 962 1881
3 989 734 973
3 1843 553 1105
3 548 1225 1961
3 762 457 1962
3 511 437 1001
3 970 583 985
3 1848 950 1010
3 809 709 1349
3 78 462 1553
3 892 1046 1860
3 1008 415 829
3 334 400 1569
3 1326 1324 2033
3 899 416 2358
3 61 62 1228
3 552 593 931
3 916 488 1525
3 458 863 2161
3 494 916 1525
3 289 290 765
3 140 999 1602
3 1537 562 2189
3 332 1271 1080
3 335 879 1808
3 1644 477 436
3 20 281 1597
3 1518 507 1381
3 457 762 1177
3 1417 606 1467
3 1089 875 1747
3 1515 325 1074
3 1819 598 1821
3 429 1820 1143
3 1627 456 1092
3 1607 722 1203
3 1231 329 1745
3 593 552 1896
3 1251 533 2125
3 367 1328 1578
3 1080 360 1608
3 911 1244 2121
3 738 458 2161
3 410 1440 2340
3 534 2014 2270
3 642 1412 2166
3 813 535 1682
3 26 964 1980
3 1310 735 872
3 469 1959 2031
3 1455 703 1353
3 398 874 1392
3 892 1860 2066
3 1399 498 1761
3 691 529 1720
3 529 974 1720
3 546 805 1525
3 144 145 1310
3 298 1225 994
3 1068 1943 1859
3 588 625 1548
3 661 175 2195
3 874 398 1639
3 535 1164 1682
3 592 1323 1403
3 593 654 931
3 1911 881 1905
3 785 490 1362
3 1270 4 1186
3 868 839 2242
3 1577 332 1648
3 633 452 1354
3 820 1008 829
3 1164 535 1222
3 875 1089 2004
3 948 424 580
3 1150 410 2340
3 559 371 1655
3 1187 547 2187
3 1829 892 2066
3 548 731 2223
3 393 627 1192
3 1603 585 1926
3 553 1152 898
3 462 656 1039
3 1556 526 1221
3 656 462 1124
3 430 800 1880
3 358 1249 423
3 1437 546 1050
3 782 385 2186
3 870 398 2000
3 1305 832 2172
3 837 704 1113
3 785 1006 2392
3 1828 509 2004
3 1346 224 1977
3 879 335 1102
3 1261 353 1927
3 509 875 2004
3 736 368 1605
3 1943 854 1859
3 1982 756 1435
3 446 1503 2151
3 1184 259 1722
3 388 1982 1435
3 1022 294 2376
3 1393 410 2107
3 591 1102 1054
3 678 566 1158
3 563 839 2208
3 585 1538 1926
3 494 1245 916
3 1998 856 1717
3 374 1030 1618
3 1221 526 2365
3 1554 328 2026
3 289 765 923
3 1084 424 1920
3 1359 1577 1648
3 1249 358 1649
3 410 998 2107
3 774 1104 1817
3 1794 478 1712
3 877 1647 1704
3 1380 591 1306
3 527 1667 1123
3 825 1634 1303
3 873 447 1836
3 119 120 1093
3 1647 634 1704
3 960 587 1087
3 1608 360 1463
3 875 509 1274
3 750 623 878
3 424 1084 903
3 443 1380 1306
3 2251 1570 2294
3 1658 573 1408
3 1507 477 2008
3 836 838 1839
3 492 1445 1480
3 686 929 718
3 637 1042 963
3 1640 737 867
3 1070 836 1691
3 1471 313 1454
3 731 548 1961
3 409 1121 1565
3 1281 386 1233
3 335 1808 2220
3 761 688 1041
3 488 638 1874
3 386 1281 1643
3 1582 397 1775
3 1796 395 951
3 644 590 1272
3 450 882 1744
3 1929 196 2257
3 1896 542 2347
3 319 1212 1410
3 311 1223 1705
3 1128 626 2006
3 1097 1843 1105
3 1244 558 2121
3 1663 516 2275
3 828 1475 1980
3 938 1273 2237
3 1272 277 1347
3 1318 443 1527
3 1205 620 1468
3 533 922 2125
3 906 2297 1551
3 764 1667 1411
3 1249 186 784
3 368 1628 1605
3 494 805 2184
3 463 897 1684
3 2181 320 2265
3 1480 1445 2302
3 884 1663 2275
3 432 785 1405
3 101 102 941
3 1051 464 1043
3 1019 347 1340
3 734 989 1918
3 1228 62 760
3 2184 805 1661
3 2297 1434 1551
3 545 406 2308
3 600 416 899
3 1412 664 2166
3 1146 515 757
3 592 1455 1353
3 370 1511 1641
3 762 300 1177
3 2014 534 1301
3 638 651 1874
3 313 1471 1473
3 826 598 1851
3 2014 619 2270
3 514 1791 1822
3 49 50 1455
3 616 1281 1196
3 1323 592 1353
3 895 1028 1379
3 1808 738 2220
3 1043 464 1681
3 259 1184 1958
3 785 882 1405
3 733 655 1286
3 591 1054 1236
3 2148 507 1477
3 1293 24 1283
3 838 477 1839
3 339 462 1039
3 1547 499 810
3 1297 345 1492
3 859 339 1344
3 1503 1052 2151
3 655 733 1144
3 478 2275 1712
3 278 20 1484
3 577 609 1888
3 882 450 1405
3 543 2046 2182
3 464 1065 1681
3 1121 409 1426
3 1213 680 902
3 815 1424 2351
3 535 813 1997
3 875 395 1747
3 8 269 946
3 623 345 878
3 1490 376 1943
3 760 2358 1688
3 764 739 1929
3 680 1213 2098
3 914 347 2186
3 328 1729 2026
3 1249 712 423
3 964 26 1680
3 1046 320 1860
3 623 750 1111
3 684 1658 1408
3 1318 386 1241
3 406 1278 2308
3 235 1739 2191
3 814 815 2351
3 562 577 1258
3 1020 400 1911
3 1245 578 916
3 1511 635 1641
3 670 1796 951
3 1069 419 1108
3 749 561 2194
3 833 1146 757
3 636 960 1087
3 1735 408 1855
3 1310 145 1981
3 1575 2313 2377
3 732 855 1509
3 331 623 1111
3 667 432 2209
3 347 1635 1340
3 429 1172 2218
3 1430 484 1925
3 521 926 2152
3 421 1877 1105
3 138 4 1270
3 686 718 1335
3 623 331 1548
3 226 1425 1977
3 1050 788 1196
3 988 1305 2172
3 657 599 804
3 1211 2253 1122
3 162 163 1573
3 548 1208 994
3 823 327 1902
3 1231 904 2378
3 705 434 1506
3 912 1550 1923
3 848 960 2355
3 897 651 1134
3 569 861 1852
3 432 667 1692
3 430 1063 1650
3 1270 601 1894
3 710 1618 2366
3 1404 553 898
3 511 2251 2294
3 501 1434 2297
3 1033 688 1797
3 1157 934 1855
3 376 1490 1187
3 346 1050 1196
3 1295 325 2146
3 393 1192 1757
3 1359 453 1577
3 453 860 2051
3 1950 177 1427
3 1065 756 1681
3 1417 323 1170
3 1828 560 1495
3 477 1644 2008
3 1281 616 1643
3 729 1547 810
3 1273 579 2237
3 286 287 893
3 1752 123 1661
3 1470 417 1999
3 522 961 1197
3 418 1333 2236
3 872 735 2253
3 814 549 1298
3 712 978 1965
3 1164 1270 1186
3 349 842 1671
3 1169 398 2330
3 440 1558 2279
3 1042 337 997
3 1467 336 1031
3 463 1373 1960
3 1083 450 1561
3 1013 493 1884
3 353 1261 1211
3 150 151 1489
3 346 1281 1789
3 101 941 2047
3 810 499 1876
3 1300 835 1616
3 1281 346 1196
3 279 21 844
3 713 873 1836
3 1376 313 1898
3 264 265 1557
3 2009 57 1075
3 113 114 1327
3 363 1278 1535
3 1005 546 1525
3 453 2051 1392
3 875 1314 1524
3 897 1251 1684
3 685 744 1796
3 64 65 899
3 950 1848 2191
3 1211 1261 2253
3 1671 842 1733
3 1106 471 778
3 936 1029 2369
3 590 644 1714
3 932 2053 2326
3 2358 416 1688
3 1098 1064 1227
3 370 1641 1180
3 286 893 1601
3 865 532 1672
3 407 644 1933
3 847 931 1985
3 715 889 806
3 931 654 1985
3 796 1373 2229
3 119 1093 2207
3 647 609 1822
3 728 1805 1016
3 571 1429 1604
3 345 1297 1924
3 961 467 1197
3 362 1640 867
3 493 719 1190
3 662 766 2015
3 643 1260 2211
3 471 1380 778
3 1430 1925 2398
3 1346 515 1564
3 22 279 1357
3 372 1575 2377
3 1558 610 2279
3 678 1158 2066
3 761 498 1074
3 1399 767 2234
3 855 438 1509
3 637 1194 1195
3 458 738 1808
3 598 826 1821
3 1438 996 1504
3 930 402 2156
3 1771 421 1105
3 835 1300 1753
3 1162 322 1255
3 1166 489 1465
3 1634 992 1303
3 1172 429 1143
3 707 643 2211
3 1526 499 1968
3 299 300 1214
3 298 299 1214
3 892 1069 2158
3 347 1019 2186
3 322 1549 1255
3 1055 1950 1427
3 546 1005 1050
3 685 895 1379
3 336 1383 1031
3 452 633 1986
3 1420 81 2224
3 2071 1318 1527
3 408 1575 1855
3 1475 649 1980
3 1051 414 1183
3 1624 1732 1708
3 443 1318 1265
3 764 1929 2257
3 489 708 1626
3 638 488 916
3 747 695 1570
3 721 313 1369
3 1603 1329 2134
3 1404 664 1381
3 28 29 1557
3 345 623 1492
3 585 1603 2134
3 919 338 1878
3 1750 561 1751
3 529 1315 1912
3 1380 443 778
3 238 239 1193
3 279 1576 1357
3 1822 1791 2057
3 2053 1237 2326
3 705 1506 1530
3 1348 819 1040
3 609 647 1684
3 1503 542 1545
3 370 837 1113
3 922 537 1888
3 1256 220 1974
3 477 838 2167
3 327 823 1593
3 590 1714 1774
3 420 1582 1775
3 1208 548 1141
3 848 395 1524
3 863 458 2063
3 690 1458 2276
3 1999 417 2419
3 117 1312 1182
3 67 68 1579
3 1063 430 1806
3 578 638 916
3 478 2098 2065
3 805 546 1752
3 963 1042 2363
3 1158 1109 2066
3 785 432 1637
3 612 602 2176
3 1262 590 1774
3 996 155 1504
3 235 236 1739
3 615 1106 1265
3 855 1231 2378
3 787 816 1939
3 837 358 423
3 691 92 1400
3 1002 422 1496
3 968 576 1809
3 1802 597 1951
3 1573 163 1897
3 503 1275 1792
3 794 1026 1206
3 1059 311 984
3 2077 1633 1992
3 858 1038 1342
3 1429 333 2046
3 1464 774 1817
3 1257 582 1645
3 355 1645 2320
3 561 1188 1751
3 956 933 1309
3 552 630 1351
3 402 1058 2156
3 471 1106 1351
3 835 1198 1654
3 1451 742 2217
3 483 919 1878
3 900 1013 1884
3 1518 618 831
3 1503 446 2347
3 1976 995 1991
3 224 225 1977
3 963 169 2021
3 1624 608 1732
3 619 1458 2094
3 1318 696 1233
3 1618 1030 2366
3 1007 663 2122
3 77 78 1553
3 1027 505 1045
3 1369 471 2215
3 631 936 2369
3 328 1370 1698
3 948 594 1718
3 2115 513 2108
3 1837 541 1136
3 1515 795 2154
3 429 1250 2025
3 360 1083 1561
3 1848 625 1117
3 602 612 1899
3 262 263 886
3 26 1980 1867
3 1227 1064 1799
3 1434 501 2075
3 339 1517 1344
3 860 482 2051
3 808 2115 2108
3 675 791 1857
3 1854 569 1650
3 117 118 1834
3 2180 770 2289
3 1000 592 1403
3 1550 316 1923
3 766 444 2015
3 805 1752 1661
3 721 1369 2215
3 605 1705 1520
3 505 1027 807
3 1322 643 1452
3 262 886 2230
3 1954 1166 1465
3 644 1272 1347
3 1813 503 1792
3 498 761 1041
3 643 707 1452
3 1030 1802 1951
3 1602 999 1587
3 1522 2083 2144
3 206 1103 1512
3 599 1928 1898
3 849 508 1113
3 1312 930 2357
3 375 1286 1631
3 572 1168 1973
3 2253 735 1122
3 1549 992 1634
3 930 700 2357
3 826 399 1385
3 1247 254 1221
3 336 1467 1994
3 1250 394 2170
3 999 141 926
3 470 1149 1439
3 734 913 2054
3 934 1735 1855
3 925 1172 2105
3 1558 468 1719
3 485 863 2063
3 1063 1854 1650
3 482 1374 1499
3 1389 968 1809
3 568 566 1276
3 1103 207 939
3 754 772 1387
3 566 568 1662
3 587 848 1524
3 464 1051 1183
3 833 1256 1974
3 530 622 2052
3 1928 1376 1898
3 821 474 1827
3 254 1247 1670
3 125 3 1245
3 1356 679 2379
3 1168 672 1973
3 874 1639 1854
3 386 1318 1233
3 880 38 1337
3 193 194 1595
3 315 1438 2017
3 2063 458 1920
3 656 1526 1039
3 1170 541 1509
3 1174 430 2385
3 1129 601 1141
3 1412 642 2203
3 687 1082 789
3 493 1190 1246
3 1962 758 1415
3 622 525 862
3 54 1279 1530
3 610 1558 1719
3 766 662 1433
3 270 1466 1737
3 666 1149 1119
3 661 787 2060
3 753 771 1749
3 584 1442 1367
3 1115 1328 1913
3 1451 518 1107
3 787 661 2301
3 346 1437 1050
3 696 1318 2071
3 721 506 1454
3 1057 504 1921
3 605 1520 1622
3 1265 1106 778
3 549 1157 1855
3 874 1854 1869
3 727 1537 2189
3 420 1522 2028
3 434 865 1416
3 1442 598 1259
3 850 267 2248
3 443 1265 778
3 1257 355 2002
3 1611 1002 1496
3 1722 390 2169
3 1270 1164 1222
3 1888 609 2125
3 816 787 2039
3 467 1044 1910
3 674 719 1695
3 538 1831 1968
3 1285 396 2088
3 1278 363 2387
3 2051 885 1392
3 1123 1667 589
3 517 1326 1308
3 1414 491 1465
3 1314 587 1524
3 109 1356 2379
3 664 1404 898
3 681 963 2021
3 383 1228 760
3 1959 354 2031
3 1421 326 2116
3 974 658 1759
3 468 1387 1983
3 573 1658 1853
3 435 344 1740
3 515 1346 2222
3 367 2067 2129
3 445 363 1859
3 950 1739 2200
3 1471 797 2243
3 1115 905 1328
3 597 1802 2142
3 1026 794 1151
3 675 1602 1587
3 271 13 937
3 596 865 1672
3 625 1848 1010
3 903 1084 1928
3 1719 468 1983
3 770 1485 2289
3 1083 667 2209
3 715 285 1601
3 219 220 1256
3 1068 1490 1943
3 1627 1092 2138
3 425 1140 1666
3 782 1019 2372
3 1909 455 1232
3 368 519 1628
3 172 173 1235
3 9 266 1592
3 395 848 951
3 1066 381 1088
3 81 82 2224
3 469 1140 1959
3 1223 1495 1589
3 937 13 1737
3 1244 441 1723
3 195 196 1929
3 1069 1108 2158
3 627 671 1192
3 1373 463 2229
3 762 1962 1415
3 535 964 1132
3 674 1066 2273
3 407 1665 2239
3 1928 1084 2264
3 837 370 1936
3 1198 835 1753
3 1300 40 2149
3 69 70 1985
3 953 390 1722
3 1149 470 1119
3 615 1241 1545
3 603 1543 1757
3 1424 442 1038
3 482 860 1462
3 1125 712 1965
3 491 1954 1465
3 622 426 2052
3 723 1460 1142
3 679 920 1611
3 972 1071 1505
3 452 1179 1354
3 1241 1333 1545
3 1090 691 1400
3 861 1639 1701
3 367 1647 1165
3 9 1592 2248
3 365 2277 1361
3 7 223 1833
3 1805 455 1016
3 401 1517 1831
3 225 226 1977
3 933 956 2226
3 1421 2116 1531
3 2200 1739 2333
3 363 445 1676
3 1744 882 1890
3 333 1429 1979
3 982 1014 1764
3 449 483 1352
3 1066 1079 2273
3 1704 319 1410
3 1419 641 2321
3 544 1478 2296
3 1624 401 804
3 1620 401 1831
3 379 1641 1721
3 1250 160 1687
3 390 1571 2169
3 1597 1326 2033
3 368 33 2232
3 222 7 1833
3 1089 744 2029
3 257 258 581
3 1641 379 1180
3 1024 1371 817
3 430 1650 2385
3 1786 938 2237
3 774 1464 2145
3 2075 501 1817
3 914 1370 1554
3 747 203 2329
3 903 657 2153
3 1401 651 2034
3 1114 1470 2177
3 491 1414 1004
3 293 294 1022
3 606 1417 2417
3 964 535 1997
3 682 1549 1634
3 922 1888 2125
3 1246 1190 2303
3 26 1372 1680
3 38 880 2315
3 533 1401 773
3 669 575 1018
3 1310 1981 1562
3 672 1168 1771
3 796 2229 2057
3 462 78 2280
3 2018 1731 1931
3 826 106 2126
3 1228 383 1782
3 1707 624 2362
3 1464 1655 2145
3 1429 543 1604
3 1317 600 1657
3 375 2084 2359
3 1417 1170 2417
3 144 1310 872
3 533 1251 1134
3 1739 950 2191
3 158 1172 1384
3 901 765 1906
3 624 1371 2362
3 795 1515 1074
3 763 602 1631
3 255 256 1556
3 2277 1409 1361
3 95 96 557
3 2083 741 2144
3 591 1380 1706
3 1927 521 2152
3 496 1283 2176
3 2265 1046 1431
3 566 678 2036
3 1389 932 968
3 626 1256 2006
3 747 530 1840
3 1570 695 2294
3 1373 616 1960
3 723 1858 2260
3 947 604 1510
3 731 1633 2077
3 863 485 2032
3 213 1414 2041
3 1036 886 1552
3 122 123 1752
3 771 2315 1749
3 222 1833 1146
3 618 1518 1381
3 1078 349 1671
3 1380 471 1984
3 983 611 802
3 634 1009 1704
3 1490 547 1187
3 1441 736 1508
3 508 1320 1113
3 772 754 1819
3 341 570 1820
3 1571 390 2413
3 1002 485 2078
3 1193 239 2122
3 459 1786 2237
3 1138 653 1165
3 520 1518 831
3 1178 480 1264
3 965 2030 2151
3 1323 384 2103
3 468 754 1387
3 768 1420 1459
3 1030 374 1802
3 829 415 2135
3 1790 1205 2185
3 817 1371 2353
3 1118 794 2106
3 765 901 2428
3 1495 560 1589
3 339 859 1553
3 396 1285 1154
3 1019 505 2372
3 524 1515 2154
3 280 22 1585
3 313 1376 2114
3 575 669 1254
3 1324 1484 2033
3 333 1596 2046
3 186 187 784
3 810 465 1773
3 1890 882 2392
3 638 578 1201
3 1471 2243 2400
3 499 1526 2360
3 578 1245 1301
3 616 1373 689
3 1552 583 1901
3 703 1455 803
3 413 1790 2185
3 886 1036 2230
3 160 1250 2035
3 933 1949 2233
3 873 713 2389
3 2084 1389 2359
3 1370 385 1945
3 811 977 1343
3 1981 954 1562
3 1056 1033 1797
3 1624 991 2400
3 697 725 1398
3 1642 538 1968
3 1414 213 1004
3 513 1203 2108
3 465 810 1876
3 1007 241 1107
3 1137 2063 1920
3 1168 421 1771
3 608 1624 2400
3 349 947 1147
3 320 1046 2265
3 977 772 1343
3 455 1805 1232
3 568 1276 1835
3 978 712 784
3 1239 431 1586
3 868 1586 1893
3 399 826 2126
3 1286 763 1631
3 570 697 1398
3 537 922 1402
3 848 750 951
3 1172 925 1384
3 790 1178 1264
3 585 821 1538
3 1982 388 2228
3 346 1789 1267
3 342 982 1287
3 478 1756 2098
3 91 92 691
3 601 1222 1760
3 1760 1222 1132
3 865 318 1416
3 445 674 957
3 305 306 652
3 359 1273 1738
3 1644 436 1653
3 559 1419 2321
3 384 1323 2354
3 397 1203 1775
3 549 814 1565
3 1070 365 1361
3 398 1392 2330
3 1250 429 2035
3 828 964 1997
3 970 1441 1508
3 1522 777 2083
3 1442 104 1555
3 1373 796 2159
3 651 638 2034
3 1424 815 1748
3 696 435 1740
3 1898 313 1473
3 1930 1451 2217
3 815 814 1777
3 1278 406 1535
3 1425 734 1918
3 1342 1038 2012
3 1140 469 1666
3 1719 688 1295
3 894 447 1458
3 24 1293 827
3 1542 690 2199
3 1478 614 2296
3 601 1270 1222
3 104 1442 1668
3 40 1300 1616
3 1197 467 1910
3 719 493 1971
3 472 976 1343
3 564 643 1852
3 454 1976 1991
3 775 1174 2385
3 532 967 1672
3 1480 918 1035
3 967 706 1672
3 462 339 1553
3 328 1698 1262
3 744 1089 1747
3 1106 615 2325
3 394 1250 1687
3 1291 357 1398
3 437 340 2201
3 635 1511 2319
3 1920 424 1532
3 414 1480 1035
3 1558 440 1176
3 216 217 1784
3 1013 641 1581
3 1053 466 1501
3 23 280 1662
3 2067 708 2129
3 598 1555 1851
3 824 1670 2352
3 1425 226 1145
3 1028 895 1937
3 113 1327 1883
3 1767 434 1416
3 186 1249 1609
3 1455 592 2042
3 889 893 1875
3 1261 1927 2152
3 1383 336 2244
3 56 57 2009
3 460 896 1303
3 1470 632 2144
3 967 475 1908
3 838 836 1629
3 190 191 956
3 413 1846 975
3 712 1249 784
3 1401 533 1134
3 260 261 953
3 1420 759 1003
3 1437 346 1267
3 734 1425 1145
3 2028 1522 2144
3 442 1424 1748
3 839 868 1893
3 126 127 1844
3 825 1652 1634
3 934 1157 2160
3 636 1482 1776
3 1002 920 1938
3 715 806 2018
3 844 544 1476
3 999 521 1587
3 413 801 2102
3 771 753 1653
3 716 1078 1671
3 376 1837 1136
3 607 1511 1277
3 765 290 1906
3 1009 319 1704
3 1090 921 959
3 1466 270 1296
3 1918 989 2015
3 1065 464 1590
3 383 760 1688
3 2260 1858 2397
3 518 1451 1930
3 893 755 1875
3 1547 594 2178
3 1571 1290 2169
3 419 1069 2104
3 663 1007 2305
3 1125 564 849
3 896 825 1303
3 1484 812 1693
3 845 1644 1987
3 1777 814 1298
3 502 652 1917
3 436 477 2167
3 1846 832 975
3 609 1684 2125
3 1442 584 1668
3 888 900 1161
3 1709 431 2203
3 1065 1590 2425
3 1547 729 1263
3 1842 734 2054
3 3 2014 1301
3 805 494 1525
3 483 1878 1352
3 1597 281 1448
3 1056 743 946
3 1005 788 1050
3 1170 438 2417
3 485 1002 1938
3 1489 151 1494
3 640 983 802
3 168 169 963
3 321 955 1621
3 1484 20 2033
3 1482 636 2007
3 54 55 1279
3 571 1604 2373
3 267 850 1382
3 1455 50 803
3 1902 327 2323
3 477 1507 1839
3 1784 217 1955
3 1044 467 1877
3 801 413 975
3 1511 370 1320
3 824 1798 1670
3 485 1996 2078
3 353 1445 1927
3 1485 403 1510
3 602 1280 1631
3 377 1731 2018
3 783 1118 1903
3 2080 1437 2386
3 750 848 1111
3 955 342 1474
3 598 1442 1555
3 1412 1239 1284
3 1641 635 1721
3 1630 171 1935
3 564 1804 849
3 1020 536 1116
3 787 1235 2060
3 1168 572 1946
3 340 476 2201
3 1019 782 2186
3 73 74 748
3 540 1020 1116
3 846 1560 1062
3 49 1455 1998
3 1240 541 1170
3 794 1118 1243
3 42 43 1678
3 1273 938 1738
3 632 2028 2144
3 1691 836 2292
3 982 342 2390
3 1467 650 1994
3 586 914 1554
3 688 761 1295
3 1326 1597 1308
3 428 888 1161
3 595 844 1476
3 224 1346 1564
3 150 1489 2062
3 125 1245 2184
3 824 1045 1889
3 154 155 996
3 642 1709 2203
3 1327 114 2082
3 641 1419 1581
3 567 1490 1725
3 1006 785 1362
3 604 1485 1510
3 1070 575 1513
3 466 801 975
3 823 1982 2228
3 1429 571 1979
3 227 228 913
3 1069 892 2422
3 1103 400 2099
3 695 747 1840
3 842 349 1147
3 610 1719 1295
3 855 732 1231
3 1167 937 1737
3 1181 1348 2367
3 1061 523 2234
3 1194 637 1632
3 1114 626 1588
3 498 1399 1559
3 1071 700 1934
3 1475 828 1812
3 2098 1213 2241
3 106 826 1851
3 491 1567 2322
3 499 1547 1642
3 1279 705 1530
3 875 1274 1314
3 1283 612 2176
3 302 873 2389
3 1315 529 2037
3 1118 783 1243
3 1354 314 1638
3 563 1573 2227
3 1363 352 1201
3 384 2027 1422
3 2017 1438 2384
3 379 1800 1180
3 297 298 994
3 681 646 2332
3 868 1239 1586
3 400 1103 1911
3 581 820 1613
3 546 1437 2423
3 1549 322 1199
3 541 1230 1136
3 250 251 1139
3 360 1080 1823
3 1066 674 1695
3 2092 568 1835
3 1657 600 382
3 1592 749 2248
3 928 771 1653
3 138 1270 1894
3 794 557 2106
3 1044 342 1910
3 1771 553 2148
3 734 1842 973
3 450 1083 2209
3 163 164 1897
3 684 1364 1469
3 700 930 2156
3 729 810 1773
3 1786 459 1325
3 877 1138 1165
3 995 1729 1991
3 820 1556 1613
3 797 1471 1413
3 519 368 2232
3 497 1614 2087
3 85 86 726
3 1172 158 2218
3 1597 397 1308
3 2035 429 2218
3 664 1412 2011
3 1204 596 1672
3 553 1404 2148
3 304 1542 2199
3 940 2009 1075
3 707 956 1309
3 645 524 1868
3 1192 671 2246
3 622 530 1919
3 285 286 1601
3 537 1460 1258
3 1582 517 1308
3 1139 866 2016
3 736 1360 1508
3 1560 606 1062
3 580 424 2153
3 578 1301 2349
3 922 533 1457
3 1789 1281 1233
3 1267 1789 1740
3 1647 877 1165
3 1522 420 1954
3 525 622 1919
3 519 2167 1953
3 1950 1055 2301
3 1045 317 1889
3 1607 367 2129
3 1327 411 1617
3 659 1059 984
3 766 515 2222
3 687 789 2163
3 652 306 2282
3 26 296 1372
3 1490 1068 1725
3 888 949 1154
3 447 894 2284
3 724 1013 1581
3 1543 857 1757
3 1246 924 1884
3 417 1521 2419
3 2243 608 2400
3 1183 414 1966
3 759 449 1352
3 476 1727 2100
3 181 955 2040
3 172 1235 1935
3 1795 1085 1491
3 25 1563 2225
3 1639 398 1701
3 974 529 2059
3 1042 637 1942
3 672 1771 2148
3 706 1204 1672
3 381 1066 1695
3 1287 982 1764
3 558 1244 1723
3 1460 723 2415
3 1910 342 1287
3 408 1507 2008
3 1743 641 2112
3 515 766 757
3 645 94 2173
3 288 289 923
3 1192 603 1757
3 741 1784 2177
3 791 710 1697
3 365 1070 2175
3 1614 782 2087
3 632 1470 1999
3 627 405 1814
3 1204 706 2137
3 1876 499 2360
3 1665 1944 2239
3 1579 68 1397
3 22 1158 1585
3 58 59 1619
3 1768 476 2100
3 1224 702 1418
3 2188 1237 1995
3 679 1611 2380
3 1639 569 1854
3 1360 736 1605
3 598 754 1259
3 1576 279 1095
3 1239 387 1284
3 323 1240 1170
3 1507 834 2292
3 1658 684 1469
3 61 1228 1537
3 300 301 1177
3 368 736 1215
3 592 1000 2254
3 378 1795 1491
3 562 1258 2189
3 834 1507 1406
3 551 967 1908
3 745 1662 2404
3 341 429 2025
3 812 1135 1693
3 480 1178 2405
3 325 1515 2342
3 231 1482 2007
3 1948 133 1992
3 602 763 2176
3 623 1548 1492
3 178 179 980
3 555 2080 2386
3 1438 315 996
3 1630 520 1060
3 1460 537 1142
3 1102 591 1126
3 841 859 1344
3 438 1170 1509
3 741 1470 2144
3 944 747 2329
3 977 811 2020
3 630 552 931
3 725 697 1332
3 661 1950 2301
3 1094 487 1135
3 1845 465 1876
3 822 292 1765
3 652 840 1917
3 405 627 2132
3 1032 1444 1909
3 391 1603 1926
3 742 1451 2056
3 2098 343 2065
3 221 222 1146
3 1399 1879 2403
3 927 1538 1608
3 323 1417 1031
3 474 821 1856
3 735 1310 1562
3 1686 353 1349
3 308 27 983
3 309 1204 2137
3 1285 1743 2112
3 737 837 1936
3 1644 753 1987
3 1015 828 1390
3 821 585 1856
3 836 1839 2292
3 1556 256 1613
3 676 1698 1945
3 421 1044 1877
3 109 110 1356
3 1826 971 2298
3 600 899 2300
3 1132 964 1680
3 488 1005 1525
3 1156 1816 2250
3 641 1013 2112
3 424 948 1532
3 1331 698 2180
3 921 2037 959
3 395 875 1524
3 990 1155 2013
3 1686 709 1890
3 640 773 1673
3 397 1582 1308
3 667 1083 1762
3 1083 360 1289
3 515 1833 1564
3 858 1665 2147
3 920 679 1356
3 541 1837 1509
3 459 2017 2384
3 28 265 0
3 518 1007 1107
3 576 968 1101
3 1858 723 1142
3 776 662 1568
3 767 1061 2234
3 1507 408 1406
3 759 1352 1003
3 665 969 1529
3 1628 519 1953
3 1062 606 2417
3 755 923 1358
3 1619 727 2415
3 426 622 2190
3 461 1489 1153
3 415 1008 1335
3 832 1846 2172
3 663 1193 2122
3 703 1767 1416
3 1548 625 1492
3 582 1741 1988
3 1860 320 1048
3 611 983 2111
3 1802 1011 2142
3 599 903 1928
3 1057 1921 993
3 964 828 1980
3 514 1317 1657
3 257 581 1613
3 507 1518 2328
3 418 990 2013
3 658 974 2059
3 1723 460 1303
3 1819 472 1343
3 1557 583 1171
3 357 1820 1398
3 1420 1003 1459
3 978 451 1965
3 516 1663 1540
3 1007 518 1160
3 780 2137 2183
3 99 100 1903
3 504 1057 1699
3 353 1686 2302
3 341 486 1227
3 1265 1318 1241
3 1150 586 998
3 1814 752 1536
3 328 1262 1991
3 438 855 1073
3 597 1982 1902
3 1698 590 1262
3 1686 918 2302
3 424 903 2153
3 594 580 2178
3 717 1902 2323
3 559 348 2245
3 47 48 1717
3 1029 936 1778
3 1195 1194 2242
3 323 1870 2345
3 2137 706 2183
3 693 1500 1787
3 1490 567 1334
3 890 822 1765
3 1526 912 2360
3 1745 1032 1909
3 759 701 1861
3 682 1596 1088
3 44 45 1081
3 378 1491 1049
3 291 292 822
3 278 1484 1693
3 961 2069 2120
3 467 961 2120
3 944 204 1366
3 403 1447 495
3 1089 1828 2004
3 594 1547 1263
3 859 1730 2164
3 606 1560 2258
3 434 705 1461
3 1520 1223 1589
3 1009 634 1539
3 752 1801 1536
3 476 1768 2201
3 1599 1999 2419
3 1816 373 2250
3 1784 628 2177
3 444 766 2222
3 1611 369 2380
3 834 1534 1493
3 427 1890 2392
3 398 870 1701
3 1093 120 2023
3 1244 911 2262
3 1351 630 2215
3 1934 910 1054
3 886 583 1552
3 926 769 2152
3 1121 1157 1565
3 1327 2082 2179
3 701 759 1766
3 1958 1184 2306
3 571 1292 1979
3 426 1092 2052
3 646 681 2288
3 33 34 2232
3 2027 1293 1422
3 1543 603 2343
3 570 341 1227
3 1079 333 2410
3 1642 1547 2178
3 493 1013 1971
3 837 737 1519
3 932 1389 2084
3 744 685 1379
3 1860 678 2066
3 898 1152 2166
3 342 955 1253
3 370 1180 1936
3 1370 328 1554
3 193 1595 1949
3 1607 513 1328
3 1730 76 2164
3 1051 492 1480
3 581 574 1907
3 947 1510 1689
3 174 661 2060
3 1071 972 2085
3 1788 924 1246
3 1511 1320 1277
3 1933 644 1347
3 949 1350 1783
3 732 1837 1187
3 347 914 1864
3 769 872 2253
3 1223 1059 1495
3 264 1557 1171
3 583 1557 1533
3 1258 1460 2189
3 512 312 660
3 700 1071 2085
3 1163 315 1916
3 400 1020 1569
3 521 981 1587
3 552 1351 2325
3 414 1051 1480
3 51 52 1767
3 840 652 2282
3 1837 376 1187
3 1489 461 1866
3 1020 540 1569
3 1644 845 2008
3 315 1163 996
3 2188 606 2258
3 13 270 1737
3 781 1183 1966
3 411 1327 2179
3 1590 1159 2425
3 267 9 2248
3 1599 812 1324
3 302 303 873
3 1216 640 1673
3 786 2265 1431
3 33 368 1215
3 808 1597 1448
3 1879 510 2403
3 562 1228 1782
3 325 1206 2146
3 1482 2072 2314
3 1447 694 495
3 563 1195 2242
3 751 1015 1430
3 924 1230 1161
3 1844 127 883
3 416 1317 1688
3 759 1420 2224
3 1013 724 1971
3 1982 823 1902
3 507 1939 1477
3 1754 378 1049
3 493 1246 1884
3 888 1154 1130
3 399 1029 1385
3 694 1447 2005
3 714 1667 2409
3 1663 351 1144
3 160 161 1687
3 1500 925 2105
3 836 1070 1361
3 88 1759 2291
3 1667 764 2409
3 141 142 926
3 547 1490 1334
3 95 557 2173
3 437 2201 1702
3 714 1313 1685
3 1203 722 1775
3 171 172 1935
3 720 528 1100
3 776 1568 2407
3 456 1627 2402
3 820 829 2193
3 409 1565 2351
3 1313 1099 1685
3 908 1132 1680
3 812 1484 1324
3 746 435 2071
3 828 1015 1812
3 1440 1173 2340
3 1944 858 1986
3 978 188 1865
3 435 696 2071
3 920 1769 1938
3 1878 338 1923
3 1785 1402 2361
3 1944 1986 1882
3 340 511 2294
3 711 1163 1916
3 411 1505 2161
3 1896 552 2325
3 312 512 2055
3 1714 407 2239
3 522 1197 867
3 1500 693 1786
3 1705 1223 1520
3 802 533 773
3 1872 84 1266
3 322 1815 1199
3 1230 541 1240
3 385 914 2186
3 780 2111 2137
3 1505 738 2161
3 2072 588 2314
3 103 104 1668
3 475 967 2174
3 968 364 1101
3 489 1826 2298
3 25 295 1563
3 1897 164 1574
3 204 944 2329
3 442 1748 1407
3 468 1558 1367
3 1482 231 2072
3 844 21 1478
3 919 483 1428
3 2006 1256 2256
3 1549 682 1255
3 1292 871 1979
3 962 559 2245
3 343 2098 2241
3 442 1741 2012
3 895 685 1818
3 1245 494 2184
3 525 944 1366
3 890 1022 1580
3 1286 375 2216
3 1684 1251 2125
3 396 1783 2019
3 410 1150 998
3 250 1139 1268
3 899 965 2300
3 1573 563 2208
3 754 468 1259
3 380 1838 2127
3 912 1526 2198
3 1990 1724 2001
3 1045 824 2352
3 921 1090 1034
3 907 375 2359
3 1844 894 1458
3 1038 858 2147
3 1838 1169 2127
3 532 705 2174
3 444 1918 2015
3 955 181 1253
3 1139 620 1268
3 921 1758 392
3 1401 2034 1673
3 1599 517 1999
3 36 37 771
3 132 133 1948
3 406 545 1219
3 1374 579 1499
3 1192 2246 1825
3 628 1784 1955
3 1595 194 613
3 777 1567 2064
3 725 1291 1398
3 725 1813 1291
3 1769 639 1938
3 44 1081 1591
3 1425 1918 1288
3 527 1123 1637
3 1027 1045 2352
3 486 341 2025
3 820 581 1907
3 1788 854 1943
3 1511 607 2319
3 1884 924 1161
3 829 2135 2249
3 633 1354 1941
3 992 1549 1199
3 1521 417 1588
3 118 119 2207
3 1918 444 1288
3 976 811 1343
3 321 1168 1946
3 1652 345 1924
3 34 35 1498
3 188 978 1700
3 705 532 1461
3 1769 920 1356
3 851 512 660
3 1698 1370 1945
3 1805 728 2049
3 352 1363 1780
3 1188 811 976
3 854 1788 1246
3 779 1754 1049
3 271 937 1332
3 1368 919 1428
3 1360 531 1625
3 526 1556 2193
3 491 1004 1567
3 135 136 1248
3 1149 666 2068
3 727 1619 2162
3 947 329 1147
3 394 1573 2208
3 1592 266 2020
3 67 1579 2030
3 1247 1221 2365
3 1625 683 2290
3 1439 1149 1664
3 1014 982 2139
3 1801 906 1551
3 671 627 1536
3 1360 330 1508
3 536 1020 1905
3 1596 792 2046
3 279 844 1095
3 337 1042 1942
3 539 1079 942
3 374 629 1802
3 699 645 2173
3 2049 728 1101
3 1666 694 2005
3 143 144 872
3 671 1801 1551
3 1658 1017 1853
3 1209 516 1540
3 1796 744 1747
3 1662 745 2113
3 709 1744 1890
3 1209 1341 2320
3 550 1729 2118
3 87 88 2291
3 1350 901 1783
3 1629 1409 1625
3 1500 1786 1325
3 1283 24 1660
3 1093 979 2207
3 246 2102 1703
3 210 211 1181
3 1152 1803 2166
3 1521 1391 2419
3 528 720 1677
3 487 1520 1589
3 835 1337 1616
3 557 699 2173
3 1442 1259 1367
3 648 71 2268
3 1896 615 1545
3 1565 814 2351
3 1241 386 1378
3 955 321 2040
3 260 953 1722
3 542 1896 1545
3 555 1093 2408
3 1833 515 1146
3 1178 790 1915
3 428 1230 1240
3 1157 549 1565
3 1268 1205 2375
3 1333 1241 1378
3 967 532 2174
3 913 734 1145
3 579 1273 1499
3 1104 2075 1817
3 1567 215 2064
3 463 1960 2141
3 737 1800 867
3 1934 700 2156
3 531 1360 1605
3 524 645 2221
3 1726 1678 1915
3 227 913 1145
3 1675 695 1840
3 853 2018 1931
3 886 263 1171
3 353 1211 1349
3 484 1112 1925
3 449 759 1861
3 1048 1276 2036
3 1007 1160 2305
3 1447 995 2005
3 646 1632 2332
3 147 1483 2341
3 2229 647 2057
3 1053 742 2038
3 1826 653 2073
3 520 1630 1572
3 342 1044 1474
3 1723 1303 1772
3 1230 428 1161
3 1741 673 2012
3 812 1094 1135
3 629 1011 1802
3 512 594 1263
3 567 406 1219
3 259 260 1722
3 941 440 1746
3 627 393 2132
3 1057 497 1699
3 1420 768 2093
3 1365 2250 1566
3 238 1193 2022
3 1556 820 2193
3 94 95 2173
3 1329 1603 1423
3 1557 29 1533
3 512 851 1718
3 1082 310 789
3 1179 314 1354
3 431 1098 1586
3 995 1976 2005
3 1280 602 1731
3 1754 518 1930
3 1297 1492 1010
3 792 1596 1793
3 2062 1489 1866
3 956 191 2226
3 1371 1024 1479
3 1729 995 2118
3 2034 352 1673
3 1834 118 2207
3 1022 890 1765
3 1608 1538 2285
3 1692 527 1637
3 433 1149 2068
3 889 715 1601
3 252 253 1798
3 1360 1625 2290
3 1647 367 1578
3 918 1480 2302
3 1575 372 1298
3 859 841 1730
3 583 886 1171
3 1290 1321 2306
3 900 1884 1161
3 966 1630 1935
3 1875 336 1994
3 531 1629 1625
3 1829 1109 2263
3 1933 1121 1426
3 530 944 1919
3 961 522 1296
3 851 660 2078
3 1282 359 1600
3 854 1246 2303
3 380 1273 1781
3 604 947 1734
3 1854 448 1869
3 2082 972 2179
3 1240 323 2345
3 1206 1026 2146
3 1041 1033 1761
3 650 2188 1995
3 944 525 1919
3 1560 846 2049
3 497 1057 1218
3 960 636 1776
3 486 1098 1227
3 233 234 1848
3 1272 590 1388
3 1662 568 2404
3 1575 408 2313
3 1563 1077 2225
3 1827 461 2309
3 575 1691 1018
3 813 1390 1997
3 1925 1112 1887
3 523 1061 2119
3 913 935 2054
3 1437 1267 2386
3 1231 732 2187
3 434 1767 1506
3 1031 1383 1870
3 1418 702 1428
3 1729 328 1991
3 241 242 1107
3 345 1652 952
3 1359 1827 2309
3 212 213 2041
3 1791 514 1657
3 1748 1012 1407
3 640 1216 1970
3 42 1678 1726
3 1042 997 2086
3 1079 539 2273
3 1732 841 1708
3 1718 851 2336
3 1937 481 2050
3 969 348 1529
3 1234 562 1782
3 483 449 1418
3 685 1796 2356
3 470 1439 1756
3 645 699 2221
3 1939 816 1477
3 1307 735 1562
3 1280 932 2084
3 1665 858 1944
3 165 997 1574
3 556 1331 2180
3 1652 825 952
3 338 919 1382
3 723 1619 2415
3 1049 1491 2308
3 1235 966 1935
3 1786 693 1738
3 439 1928 2264
3 983 27 2111
3 1476 544 1336
3 1321 574 2306
3 704 849 1113
3 788 1005 1516
3 616 1196 1612
3 2102 801 1703
3 1845 912 1923
3 511 1001 2130
3 1212 720 1202
3 421 1168 1621
3 878 825 896
3 451 978 1865
3 581 258 1958
3 871 942 2410
3 1630 966 1572
3 819 1826 2073
3 752 1276 1048
3 649 1475 2343
3 1074 498 1559
3 1017 701 1872
3 1602 675 1857
3 794 1206 1862
3 1531 677 1659
3 1788 376 1136
3 892 1829 2422
3 487 1094 1520
3 232 1117 2072
3 1167 1721 2192
3 544 844 1478
3 1282 607 1838
3 358 837 1519
3 1663 733 1540
3 1216 840 1970
3 409 1665 1426
3 517 1599 1324
3 517 1582 1847
3 653 1138 2073
3 440 941 1176
3 787 1939 2286
3 1534 834 1406
3 1445 917 1927
3 378 1754 1930
3 116 1345 1207
3 1203 397 2108
3 1336 544 1683
3 792 1652 1924
3 1800 522 867
3 742 1053 1501
3 433 1178 1915
3 333 1979 2410
3 1665 407 1426
3 942 1079 2410
3 1773 749 2194
3 701 1017 1528
3 947 349 1734
3 1273 380 1499
3 1934 1054 389
3 1573 394 2171
3 607 1282 2319
3 371 559 2321
3 779 1715 1978
3 1342 673 1623
3 1753 1300 1264
3 449 356 1418
3 104 105 1555
3 1345 972 1207
3 1766 83 1872
3 709 1686 1349
3 770 1488 1485
3 1022 774 1580
3 887 809 2058
3 866 1139 2324
3 1800 737 1180
3 1028 1937 2050
3 1976 425 2005
3 1040 819 2073
3 1140 314 1959
3 620 1139 2016
3 1001 437 799
3 565 1595 1449
3 1395 148 2010
3 1008 820 1907
3 1099 1001 799
3 677 1440 1659
3 2025 1250 2170
3 1186 4 1857
3 396 2019 2274
3 1123 785 1637
3 31 32 1441
3 781 1768 2100
3 190 956 1615
3 726 573 1853
3 1209 1086 1341
3 480 1753 1264
3 706 967 2183
3 935 913 2331
3 1755 402 1021
3 1912 1315 1408
3 652 502 2124
3 1256 626 1940
3 1244 419 2337
3 1345 116 1182
3 1015 751 1812
3 982 183 2139
3 941 584 1176
3 481 1829 2263
3 452 1342 1623
3 789 310 1809
3 1381 664 2011
3 207 208 939
3 2275 516 1712
3 112 113 1883
3 595 1476 1226
3 1017 1872 1266
3 865 434 1461
3 276 1157 2272
3 1102 335 1054
3 730 1671 1733
3 1013 900 2112
3 180 181 2040
3 629 492 1043
3 1140 425 2044
3 441 1244 2337
3 1230 924 1136
3 771 928 2196
3 687 1179 2002
3 530 2052 2388
3 332 1080 1608
3 1242 925 1325
3 1831 500 1968
3 660 422 2078
3 205 206 1512
3 790 1726 1915
3 1596 682 1793
3 183 982 2390
3 81 1420 2093
3 802 611 1457
3 229 230 1656
3 446 1579 1646
3 159 160 2035
3 316 1878 1923
3 349 1078 1734
3 402 435 1058
3 399 1824 1446
3 1558 584 1367
3 1451 1107 1432
3 338 1845 1923
3 2176 763 2150
3 148 1395 1483
3 435 746 1058
3 1197 362 867
3 573 726 1969
3 1633 1948 1992
3 68 69 1397
3 1439 680 1756
3 1879 523 1364
3 1526 656 2198
3 422 1002 2078
3 1813 693 1291
3 151 152 1494
3 2111 27 2137
3 722 361 1339
3 772 977 2348
3 912 1845 1876
3 490 1123 589
3 2313 845 2377
3 1691 834 1018
3 330 1360 2290
3 575 929 1513
3 981 521 2204
3 1435 1627 1189
3 1139 251 2324
3 1005 488 1516
3 1650 1322 2385
3 1036 1552 2283
3 887 391 1871
3 936 1188 976
3 1184 1722 2169
3 376 1788 1943
3 312 1750 1751
3 1714 479 1774
3 844 595 1095
3 58 1619 1075
3 474 1395 2010
3 692 887 1871
3 1086 1209 1540
3 750 878 896
3 1715 539 1978
3 1148 1816 1966
3 1011 629 1043
3 388 1435 1189
3 923 755 818
3 1816 781 1966
3 1402 611 2361
3 1752 546 2423
3 1321 686 2311
3 924 1788 1136
3 795 1074 1559
3 930 1312 2136
3 1371 624 2353
3 954 2341 1423
3 342 1253 2390
3 682 1088 1255
3 1029 399 1446
3 1275 359 1792
3 288 923 818
3 1173 1440 1546
3 1743 1285 2088
3 1421 698 1331
3 925 1500 1325
3 1903 100 1072
3 476 340 1967
3 657 804 1620
3 106 107 2126
3 995 1447 2118
3 977 2020 2312
3 1048 320 2181
3 846 1805 2049
3 929 575 1254
3 1260 451 2211
3 2103 384 843
3 157 158 1384
3 920 1002 1611
3 1390 327 2231
3 1573 1897 2227
3 932 1280 2299
3 255 1556 1221
3 472 1819 1821
3 1820 357 1143
3 454 1774 1304
3 770 1393 2107
3 699 557 1862
3 720 319 2001
3 1332 697 2316
3 1033 2079 1761
3 807 798 2372
3 635 1275 2192
3 636 1656 2007
3 573 1912 1408
3 454 1262 1774
3 82 83 1766
3 536 1138 1238
3 972 1345 2085
3 484 1430 1593
3 1888 537 1258
3 245 1053 2038
3 1871 391 1926
3 1750 729 2194
3 694 1444 495
3 1044 421 1474
3 643 1322 1037
3 1179 452 1873
3 1064 1098 943
3 789 1809 2426
3 869 1076 1887
3 425 1666 2005
3 1070 1513 2175
3 688 1719 1983
3 1838 380 1781
3 1794 1067 1711
3 350 668 2016
3 731 1248 2223
3 412 1978 942
3 314 1179 2261
3 48 49 1998
3 2116 326 1895
3 996 1163 1229
3 1561 450 1294
3 1078 716 2155
3 643 564 1260
3 1026 1151 2279
3 701 1766 1872
3 1790 413 2102
3 185 1649 1355
3 407 1933 1426
3 1385 1029 1778
3 1950 661 2195
3 1852 861 1804
3 324 1476 1336
3 40 41 2149
3 913 228 2331
3 901 1350 2428
3 1619 59 2162
3 1666 469 1131
3 1476 324 1226
3 137 138 1894
3 71 72 2268
3 680 1081 902
3 801 1053 1703
3 1395 474 1856
3 696 1789 1233
3 584 941 2157
3 748 74 1922
3 1272 676 2383
3 955 1474 1621
3 386 1643 1378
3 1724 857 1543
3 1053 245 1703
3 307 308 1456
3 1138 877 1238
3 888 428 1316
3 285 715 958
3 176 177 1950
3 1500 2105 1787
3 557 794 1862
3 618 1381 2011
3 1827 474 1866
3 1584 1464 1817
3 496 2176 2150
3 1497 482 1499
3 668 620 2016
3 374 1618 1338
3 1151 440 2279
3 966 1235 2286
3 751 1724 1543
3 359 1282 1781
3 532 865 1461
3 419 1244 2262
3 1515 524 2221
3 153 1163 1885
3 1159 1727 2425
3 1518 520 1572
3 226 227 1145
3 1618 675 1338
3 51 1767 803
3 194 195 613
3 1928 439 1299
3 1277 508 2394
3 613 739 1449
3 326 1468 1895
3 1828 324 1336
3 1376 1928 1299
3 501 1584 1817
3 1662 280 1585
3 737 1640 1519
3 1758 510 392
3 1488 403 1485
3 484 1593 2228
3 1483 1329 2341
3 1595 613 1449
3 401 1624 1708
3 277 1272 2383
3 1317 514 1375
3 2009 940 1908
3 914 586 1864
3 662 776 1433
3 38 39 1337
3 243 2056 1432
3 1996 485 2063
3 594 512 1718
3 678 1860 1048
3 893 889 1601
3 1603 391 2197
3 1488 550 2118
3 547 842 1147
3 1448 745 2115
3 1424 1038 2147
3 746 1306 2350
3 128 129 1025
3 164 165 1574
3 504 1120 718
3 1178 433 2068
3 397 1597 2108
3 1440 677 1546
3 2016 866 1713
3 991 1624 1594
3 1188 936 1751
3 1596 333 2310
3 615 1265 1241
3 1062 438 1073
3 560 1336 1683
3 1256 833 2256
3 560 1828 1336
3 1665 409 2147
3 1727 456 2425
3 2039 787 2301
3 733 1663 1144
3 1131 469 1016
3 772 1819 1343
3 1820 570 1398
3 213 214 1004
3 69 1985 1397
3 1748 815 876
3 1011 1043 1681
3 1391 1599 2419
3 1837 732 1509
3 2193 829 2249
3 326 1846 2185
3 756 1065 1435
3 1624 804 1594
3 956 707 2211
3 1306 591 1236
3 1571 365 2364
3 474 2062 1866
3 533 802 1457
3 1001 199 2130
3 1098 486 1893
3 1444 1032 495
3 309 24 1204
3 364 1560 2049
3 1970 307 1456
3 406 567 1725
3 1149 433 1664
3 1937 1069 2422
3 891 1858 1142
3 1167 2192 2117
3 1767 52 1506
3 971 1181 2205
3 1235 787 2286
3 2046 792 2182
3 1889 317 1830
3 561 1592 2213
3 492 1051 1043
3 582 1119 1711
3 36 771 2196
3 1098 431 943
3 936 631 1486
3 1179 687 2261
3 1358 923 1583
3 693 1813 1792
3 726 86 1450
3 1567 777 2322
3 876 815 2416
3 384 2003 843
3 362 1197 1910
3 968 932 2326
3 1517 401 1344
3 777 1522 2322
3 1193 571 2373
3 1014 1649 1610
3 584 1558 1176
3 556 1078 2155
3 629 1993 2401
3 1520 1094 1622
3 1640 362 1764
3 1649 358 1610
3 647 1822 2057
3 482 1497 2051
3 100 101 1072
3 798 2087 2372
3 402 930 1021
3 1135 614 1693
3 162 1573 2171
3 472 1385 1778
3 1635 317 1340
3 1550 912 2198
3 1769 111 1377
3 1076 528 1887
3 1124 768 2123
3 619 1844 1458
3 192 193 1949
3 1878 316 1352
3 34 1498 2232
3 656 1124 2123
3 481 1937 2422
3 475 2009 1908
3 686 1335 2311
3 1235 173 2060
3 322 2210 1881
3 1158 22 1357
3 1274 509 2281
3 1086 907 1947
3 735 1307 1122
3 1458 447 2276
3 1117 588 2072
3 1582 420 2028
3 464 1183 1590
3 1492 625 1010
3 629 374 1993
3 1307 809 1122
3 305 652 1542
3 948 1718 2336
3 722 1607 2129
3 1157 1121 2272
3 189 190 1615
3 949 888 1316
3 630 721 2215
3 1015 1390 2231
3 247 248 1790
3 595 1226 2050
3 1168 321 1621
3 2105 357 1787
3 526 2193 2249
3 71 648 2212
3 394 839 2170
3 1095 595 2048
3 529 1912 2059
3 1390 828 1997
3 1201 578 2349
3 634 1647 1972
3 1954 420 1339
3 954 1981 2341
3 258 259 1958
3 1342 452 1986
3 197 1313 2257
3 998 586 2026
3 538 2178 1989
3 73 748 1544
3 969 665 1770
3 311 1705 1568
3 718 415 1335
3 1135 487 2296
3 1883 1327 1617
3 776 554 1433
3 564 1125 1965
3 45 46 902
3 1775 722 1339
3 1925 909 2398
3 316 1550 1459
3 1269 730 1219
3 1755 555 2386
3 1815 558 1199
3 648 797 1413
3 1141 601 1760
3 506 648 1413
3 344 1755 2386
3 911 969 1770
3 405 1716 1185
3 1816 1148 1952
3 1468 326 2185
3 2097 379 2393
3 545 1269 1219
3 2335 876 2416
3 1798 866 2324
3 638 1201 2034
3 894 1844 883
3 373 1816 1952
3 2250 373 1566
3 1667 527 1411
3 1510 403 495
3 431 1239 2203
3 74 75 1922
3 372 1777 1298
3 1633 731 1710
3 506 630 1850
3 1262 454 1991
3 1009 1539 2143
3 208 209 1481
3 243 244 2056
3 1576 1095 2048
3 86 87 1450
3 1081 45 902
3 2037 921 392
3 75 76 1730
3 557 96 2106
3 1092 852 2052
3 523 1879 2234
3 1962 457 2353
3 101 2047 1072
3 1643 616 689
3 822 901 1906
3 263 264 1171
3 608 748 1732
3 684 1879 1364
3 83 84 1872
3 1561 692 2133
3 1638 1140 2044
3 381 1162 1255
3 1839 1507 2292
3 1138 536 1728
3 445 1859 2303
3 1209 1067 1712
3 356 1224 1418
3 84 85 1266
3 1721 635 2192
3 907 310 1947
3 60 61 1537
3 8 946 2312
3 666 1119 1988
3 929 504 718
3 751 1543 1812
3 521 1927 2204
3 729 1750 2055
3 1036 953 2230
3 729 1773 2194
3 504 929 1254
3 436 928 1653
3 431 1709 943
3 1466 2097 2393
3 1183 781 1514
3 230 231 2007
3 1124 79 2089
3 179 180 1975
3 697 570 1799
3 210 1181 2367
3 465 1502 2110
3 199 1001 2219
3 1593 823 2228
3 1597 808 2108
3 1239 1412 2203
3 695 1675 1967
3 1670 1247 2352
3 1328 905 1578
3 1028 1226 1394
3 2206 1177 2389
3 1538 927 1926
3 991 1898 1473
3 1119 582 1988
3 1716 905 1185
3 1667 714 589
3 1848 234 2191
3 1311 1085 2202
3 1879 1399 2234
3 254 255 1221
3 195 1929 613
3 816 2039 1973
3 870 1277 2394
3 1196 788 1612
3 350 1889 1830
3 809 1307 2058
3 1767 703 803
3 252 1798 2324
3 1471 1454 1413
3 2032 639 2346
3 482 1916 1374
3 72 73 1544
3 905 1716 1972
3 1096 527 1957
3 1328 513 1913
3 1698 676 1388
3 319 1990 2001
3 1313 714 2409
3 1903 1118 2420
3 37 38 2315
3 1510 1032 1689
3 925 1242 1932
3 748 608 2243
3 1172 1143 2105
3 1245 3 1301
3 2085 1345 2357
3 1290 1571 2364
3 1821 826 1385
3 528 1076 1100
3 363 1715 2387
3 711 1462 915
3 457 817 2353
3 628 1114 2177
3 1311 2202 1690
3 1629 531 1953
3 272 1709 1175
3 171 1630 1669
3 359 1275 1600
3 94 645 2391
3 708 2067 1626
3 838 1629 1953
3 941 102 2157
3 2056 1451 1432
3 505 1019 1340
3 170 1060 2021
3 1251 897 1134
3 1108 665 2158
3 1094 1391 1622
3 624 1962 2353
3 177 178 1427
3 1649 1014 1355
3 497 1120 1699
3 360 1561 1463
3 253 254 1670
3 1963 937 2117
3 66 67 2030
3 152 153 1885
3 85 726 1266
3 1470 741 2177
3 1859 363 1535
3 2039 572 1973
3 2031 728 1016
3 12 2069 2418
3 1678 43 1302
3 639 1617 2346
3 1060 170 1669
3 1275 503 2192
3 1800 379 2097
3 753 1644 1653
3 1395 1856 2134
3 1502 850 2110
3 1512 1103 2099
3 336 1875 2244
3 918 1686 2214
3 768 1124 2089
3 1481 209 2367
3 561 1750 2194
3 713 2206 2389
3 43 44 1302
3 1731 377 2299
3 1120 504 1699
3 862 525 2099
3 978 784 1700
3 894 1025 2284
3 791 1186 1857
3 550 998 2026
3 929 686 1513
3 1108 419 2262
3 1153 711 915
3 1118 2106 2420
3 700 2085 2357
3 668 677 2116
3 1046 892 2158
3 356 449 1861
3 1824 399 1964
3 1403 1323 2103
3 893 287 818
3 1727 476 2396
3 648 506 2074
3 1424 2147 2351
3 1721 1167 2393
3 1363 1201 2349
3 188 189 1865
3 1341 355 2320
3 1124 462 2280
3 126 1844 2014
3 181 182 1253
3 974 1674 1720
3 1633 758 1436
3 2106 97 2420
3 377 2053 2299
3 672 2148 1477
3 29 30 1533
3 983 640 1456
3 953 261 2230
3 905 1115 1185
3 1379 1028 1394
3 364 2049 1101
3 668 350 1546
3 111 112 1377
3 1754 779 1453
3 939 208 1481
3 804 401 1620
3 912 1876 2360
3 1068 1859 1535
3 839 394 2208
3 390 953 1210
3 1553 859 2164
3 1012 1748 876
3 749 1773 2110
3 907 1086 2338
3 677 668 1546
3 1151 794 1243
3 972 1505 2179
3 204 205 1366
3 1709 272 1900
3 1180 737 1936
3 454 1304 1863
3 1313 197 2339
3 293 1022 1765
3 1157 276 2160
3 1856 585 2134
3 988 1421 1331
3 781 2100 1514
3 1283 496 1422
3 23 1662 2113
3 232 233 1117
3 564 1852 1804
3 516 1209 1712
3 1727 2396 2399
3 676 1047 2383
3 93 1868 1400
3 1859 854 2303
3 1080 1271 2235
3 938 1786 1738
3 1674 90 1720
3 1870 1252 2345
3 1032 1510 495
3 527 1096 1411
3 590 1698 1388
3 937 1167 2117
3 1200 1752 2423
3 447 873 2276
3 834 1691 2292
3 1874 864 2429
3 1593 1430 2231
3 1120 415 718
3 1877 1097 1105
3 1096 739 1411
3 1387 743 1983
3 901 822 2019
3 375 907 2216
3 460 1443 1191
3 1628 531 1605
3 1045 505 1340
3 1683 544 2296
3 400 862 2099
3 1169 1838 2000
3 1273 359 1781
3 135 1248 2077
3 1205 1790 2375
3 1838 607 2000
3 237 238 2022
3 692 1561 1294
3 665 1046 2158
3 1293 1283 1422
3 1248 136 1891
3 862 334 2190
3 120 121 2023
3 1103 939 1911
3 1099 1313 2339
3 465 1845 1502
3 881 939 1481
3 525 1512 2099
3 923 765 1583
3 291 822 1906
3 1493 275 2374
3 249 250 1268
3 1627 2138 1189
3 686 1321 2175
3 1649 185 1609
3 980 179 1975
3 1076 869 1541
3 554 757 1433
3 417 1114 1588
3 1237 2053 1995
3 666 1741 1407
3 404 1842 2054
3 329 947 1689
3 1723 441 2424
3 457 1177 2206
3 853 958 2018
3 523 1224 1364
3 1274 404 1314
3 1166 1954 1339
3 1320 508 1277
3 1493 669 1018
3 1414 1465 2298
3 2140 1903 2420
3 967 551 2183
3 471 1369 1984
3 1724 909 2001
3 1498 519 2232
3 448 1854 2168
3 2067 653 1626
3 2178 580 1989
3 797 648 2268
3 979 1755 1021
3 632 1999 1847
3 318 865 2271
3 412 942 2421
3 1858 891 2318
3 1946 572 2255
3 1854 1063 2168
3 1833 223 1564
3 1014 1640 1764
3 1868 93 2391
3 1543 1475 1812
3 1001 1099 2219
3 736 1441 1215
3 985 583 1533
3 1357 1576 2263
3 2197 1307 1562
3 757 766 1433
3 1475 1543 2343
3 954 2197 1562
3 1066 1088 2310
3 551 1858 2318
3 553 1771 1105
3 822 890 2019
3 30 985 1533
3 1372 908 1680
3 1059 509 1495
3 1337 835 1904
3 614 1135 2296
3 1306 746 1527
3 178 980 1427
3 879 1102 1807
3 1996 851 2078
3 443 1306 1527
3 917 1445 2401
3 1190 445 2303
3 637 1195 1942
3 640 802 773
3 66 2030 2240
3 1040 536 1905
3 1716 405 2132
3 1813 725 1963
3 514 1234 1375
3 1643 1023 1378
3 2315 880 1749
3 1654 372 2377
3 811 1188 2213
3 568 2092 2404
3 806 377 2018
3 1586 1098 1893
3 1445 492 2401
3 30 31 2295
3 1008 1907 2311
3 360 1823 1289
3 82 1766 2224
3 742 2056 2038
3 953 1036 1210
3 958 715 2018
3 864 1960 1612
3 2300 1052 382
3 1226 1028 2050
3 17 1921 2374
3 1907 574 2311
3 129 130 1479
3 1656 935 2331
3 1823 793 1289
3 538 1642 2178
3 1741 442 1407
3 326 1421 2172
3 997 337 1574
3 755 893 818
3 1489 1494 1153
3 1201 352 2034
3 1880 800 1606
3 1212 1116 1238
3 460 1723 2424
3 631 422 1849
3 246 247 2102
3 865 596 2271
3 1971 724 2128
3 745 1448 2113
3 1443 460 2424
3 900 888 1130
3 1980 649 1867
3 2138 869 1189
3 379 1721 2393
3 610 1295 2146
3 586 1554 2026
3 1550 768 1459
3 527 1692 1957
3 1512 525 1366
3 1208 1141 1760
3 593 446 1646
3 1368 10 2414
3 611 1402 1457
3 310 907 2359
3 1625 1409 2277
3 1975 180 2040
3 1773 465 2110
3 1739 236 2238
3 939 881 1911
3 1054 910 1236
3 880 1337 1904
3 780 2318 2361
3 361 1166 1339
3 1348 1481 2367
3 528 1925 1887
3 334 1386 1636
3 367 1165 2067
3 1009 2143 1990
3 1338 675 1587
3 1082 355 1341
3 702 1224 2119
3 1249 1649 1609
3 290 291 1906
3 1823 448 2168
3 1852 643 1037
3 391 887 2058
3 268 10 2070
3 219 1256 1940
3 1479 130 2362
3 304 305 1542
3 1949 933 2226
3 758 1633 1710
3 793 1823 2168
3 808 1448 2115
3 2086 167 2363
3 2069 961 2418
3 877 1704 1410
3 1017 1658 1528
3 50 51 803
3 683 1625 2277
3 317 1045 1340
3 852 1092 2399
3 1386 1076 1636
3 32 33 1215
3 1092 426 2138
3 665 1529 1431
3 1421 988 2172
3 199 200 2130
3 1092 456 2399
3 192 1949 2226
3 626 1694 1940
3 977 946 2348
3 1729 550 2026
3 24 282 1660
3 1181 211 2205
3 1640 1014 1610
3 203 204 2329
3 148 149 2010
3 904 1909 1232
3 621 683 2413
3 1311 832 1305
3 927 1608 1463
3 519 436 2167
3 577 1888 1258
3 184 185 1355
3 146 147 2341
3 314 1140 1638
3 503 1963 2117
3 1133 1439 1664
3 2147 409 2351
3 2030 965 2240
3 115 116 1207
3 337 1897 1574
3 1163 711 1885
3 1042 2086 2363
3 96 97 2106
3 404 1274 2344
3 667 1880 1606
3 946 977 2312
3 1239 868 1832
3 1993 917 2401
3 985 30 2295
3 554 776 1217
3 287 288 818
3 1705 605 2407
3 1058 910 2156
3 1248 731 2077
3 669 1921 1254
3 1220 1365 1566
3 4 139 1857
3 1109 1357 2263
3 1269 366 2267
3 1960 864 2141
3 1112 484 2228
3 366 1311 1305
3 1790 248 2375
3 981 1338 1587
3 830 1739 2238
3 79 1124 2280
3 149 150 2062
3 327 1390 2323
3 2143 857 1990
3 439 1126 1299
3 1916 482 1462
3 1276 566 2036
3 229 1656 2331
3 2092 1115 2404
3 415 1120 2135
3 223 224 1564
3 189 1615 1865
3 846 1062 1073
3 1126 987 1299
3 366 1127 2267
3 312 1751 1486
3 1126 591 1706
3 1025 1024 2284
3 1224 523 2119
3 476 1967 2396
3 27 309 2137
3 446 593 2347
3 987 1126 1706
3 503 1813 1963
3 2210 1419 1881
3 1188 561 2213
3 566 1662 1585
3 711 1916 1462
3 1061 268 2070
3 319 1009 1990
3 1154 1285 1130
3 834 1493 1018
3 989 2101 2015
3 1560 364 2258
3 540 1116 1202
3 1801 752 2181
3 539 1715 1676
3 743 1387 2348
3 980 1946 2255
3 1709 642 1175
3 669 1493 2374
3 768 1550 2123
3 1006 1952 1811
3 949 1783 1154
3 173 174 2060
3 1109 1158 1357
3 1798 824 2368
3 114 115 2082
3 539 957 2273
3 412 1160 1453
3 1741 666 1988
3 303 304 2199
3 654 593 1646
3 1783 396 1154
3 1165 653 2067
3 1303 992 1772
3 1727 1159 2100
3 673 1342 2012
3 693 1792 1738
3 3 126 2014
3 1652 792 1793
3 739 1096 1449
3 1795 742 1501
3 908 1760 1132
3 1067 1209 2320
3 756 1982 2142
3 615 1896 2325
3 1466 1296 2097
3 2396 852 2399
3 705 1279 2174
3 324 1828 2029
3 509 1059 2281
3 387 1239 1832
3 945 1654 2377
3 969 911 2327
3 1933 19 2272
3 1894 1129 1891
3 268 1061 740
3 657 1620 1989
3 1291 693 1787
3 1967 1675 2396
3 1922 75 1730
3 878 345 952
3 1982 597 2142
3 683 621 2290
3 704 1125 849
3 1178 1696 2405
3 196 197 2257
3 2008 845 2313
3 6 176 2195
3 422 631 1496
3 2135 798 2249
3 175 6 2195
3 1116 536 1238
3 2116 677 1531
3 639 1769 1377
3 1116 1212 1202
3 2017 579 1374
3 637 963 2332
3 936 976 1778
3 456 1727 2399
3 558 1815 2121
3 1296 522 2097
3 1517 500 1831
3 308 983 1456
3 147 148 1483
3 1921 669 2374
3 997 166 2086
3 798 807 1886
3 137 1894 1891
3 1804 861 2394
3 79 80 2089
3 57 58 1075
3 1023 1643 689
3 116 117 1182
3 1716 634 1972
3 1390 813 2323
3 1768 1156 2201
3 70 71 2212
3 856 1998 2042
3 2249 798 1886
3 1823 1080 2235
3 1529 786 1431
3 39 40 1616
3 1744 709 2304
3 479 1714 2239
3 1465 489 2298
3 522 1800 2097
3 485 1938 2032
3 730 1269 2267
3 510 1879 2259
3 1023 990 2236
3 1826 489 1626
3 1497 885 2051
3 492 629 2401
3 990 418 2236
3 450 1744 1294
3 1129 1141 2223
3 1369 987 1984
3 698 1421 1531
3 1112 388 1189
3 997 165 2024
3 620 668 1895
3 1387 772 2348
3 965 899 2240
3 1503 418 2013
3 899 65 2240
3 1446 1824 2380
3 348 1655 1763
3 1695 719 2128
3 919 1368 2414
3 1052 1503 2013
3 1938 639 2032
3 1759 658 2291
3 963 681 2332
3 1064 1709 1900
3 383 1375 1782
3 529 691 959
3 463 1684 2229
3 891 1785 2361
3 52 53 1506
3 351 1403 2103
3 1783 901 2019
3 1784 741 2083
3 1147 329 2187
3 1382 850 1502
3 786 1529 1584
3 1263 729 2055
3 331 960 1776
3 2047 941 1746
3 139 140 1602
3 311 2101 984
3 161 162 2171
3 1798 253 1670
3 653 1826 1626
3 214 215 1567
3 1445 353 2302
3 825 878 952
3 1306 1236 2350
3 1212 1238 1410
3 2287 1899 1679
3 866 1798 2368
3 472 1821 1385
3 1756 680 2098
3 1655 1464 1763
3 1242 1325 2384
3 1143 357 2105
3 1109 1829 2066
3 408 2008 2313
3 1323 1841 2354
3 1214 762 1415
3 128 1025 883
3 556 2180 2289
3 362 1910 1287
3 1163 153 1229
3 1350 949 1091
3 691 1090 959
3 713 1836 817
3 974 1759 1674
3 420 1775 1339
3 31 1441 2295
3 475 1279 1319
3 957 539 1676
3 1129 1248 1891
3 1481 1348 2406
3 249 1268 2375
3 1292 663 2305
3 237 2022 2238
3 622 862 2190
3 1795 378 2217
3 881 1481 2406
3 2003 496 2150
3 166 997 2024
3 869 1112 1189
3 1137 1996 2063
3 205 1512 1366
3 218 219 1940
3 1059 659 2281
3 2023 121 1330
3 771 37 2315
3 1120 497 2043
3 897 463 2141
3 1200 2023 1330
3 486 2170 1893
3 588 1548 2314
3 542 1503 2347
3 1069 1937 2104
3 1035 918 2214
3 570 1227 1799
3 842 567 1733
3 16 277 2383
3 315 2017 1374
3 719 1971 2128
3 1155 1791 1657
3 272 14 1900
3 283 2287 1679
3 1375 1234 1782
3 1276 752 1835
3 582 1711 1645
3 427 1035 2214
3 338 1382 1502
3 201 202 1570
3 1684 647 2229
3 1211 809 1349
3 1739 830 2333
3 198 199 2219
3 1128 1521 1588
3 1952 1148 1811
3 1686 1890 2214
3 233 1848 1117
3 840 1216 1780
3 143 872 2278
3 1634 1652 1793
3 1604 830 2373
3 586 1150 1864
3 1434 2225 2246
3 1999 517 1847
3 1102 1126 1807
3 872 769 2278
3 1237 2188 2258
3 1619 723 2260
3 281 23 1448
3 2022 830 2238
3 1000 1403 2269
3 1443 670 1191
3 1352 316 1003
3 634 1716 1539
3 1463 1561 2133
3 1750 312 2055
3 733 1286 2216
3 80 81 2093
3 994 1208 2247
3 1845 338 1502
3 337 1195 2227
3 274 2165 993
3 2170 839 1893
3 926 142 2278
3 1365 799 1702
3 1815 962 2121
3 1880 793 1806
3 1061 767 740
3 1127 716 2267
3 1844 619 2014
3 436 519 2095
3 779 1978 1453
3 621 330 2290
3 769 926 2278
3 430 1880 1806
3 310 1082 1947
3 990 1023 2159
3 1307 2197 2058
3 1439 1133 2427
3 1085 1795 2202
3 1441 32 1215
3 960 331 2355
3 1088 1596 2310
3 689 1373 2159
3 694 1666 1131
3 425 1976 2044
3 659 1842 2344
3 617 1350 1091
3 62 63 760
3 1040 2073 1728
3 796 990 2159
3 1960 616 1612
3 323 1031 1870
3 1921 504 1254
3 1025 894 883
3 1039 500 1651
3 567 842 1334
3 381 1695 2128
3 1177 301 2389
3 15 272 1175
3 1150 347 1864
3 1879 684 2259
3 231 232 2072
3 183 184 2139
3 1392 885 2330
3 1195 563 2227
3 543 2200 2333
3 438 1062 2417
3 1397 654 1646
3 404 1087 1314
3 1087 587 1314
3 1301 534 2349
3 676 1272 1388
3 1579 1397 1646
3 156 1242 1504
3 500 1517 1651
3 471 1351 2215
3 889 1875 1994
3 639 1883 1617
3 1868 524 1034
3 1275 635 1600
3 388 1112 2228
3 2254 856 2042
3 448 1823 2235
3 1842 659 973
3 1794 470 1810
3 1444 694 1131
3 685 1443 1818
3 182 183 2390
3 1035 1811 2412
3 720 1100 1202
3 742 1795 2217
3 683 1571 2413
3 1025 129 1479
3 2225 1077 2246
3 680 1439 2427
3 1494 711 1153
3 145 146 1981
3 244 245 2038
3 1828 1089 2029
3 531 1628 1953
3 1024 1025 1479
3 390 1210 2413
3 1978 412 1453
3 1552 330 2283
3 2197 391 2058
3 972 2082 1207
3 1210 621 2413
3 19 1933 1347
3 1572 966 2328
3 1302 44 1591
3 678 1048 2036
3 928 436 2095
3 1645 1067 2320
3 1709 1064 943
3 311 1568 2101
3 395 1796 1747
3 102 103 2157
3 445 957 1676
3 72 1544 2268
3 1516 1874 2429
3 987 1369 2114
3 650 806 1994
3 488 1874 1516
3 1759 88 2381
3 835 1654 1904
3 2221 699 2342
3 1121 1933 2272
3 306 307 2282
3 2009 475 1319
3 256 257 1613
3 927 1871 1926
3 1369 313 2114
3 1897 337 2227
3 887 692 2304
3 709 887 2304
3 1883 639 1377
3 550 1488 2107
3 2031 354 2090
3 112 1883 1377
3 1384 925 1932
3 1402 922 1457
3 60 1537 2162
3 1791 796 2057
3 275 1493 2076
3 793 1880 1762
3 842 547 1334
3 1216 352 1780
3 1916 315 1374
3 1195 337 1942
3 399 2126 1964
3 1711 1067 1645
3 1067 1794 1712
3 1880 667 1762
3 10 1368 2070
3 276 18 2160
3 998 550 2107
3 655 2003 2150
3 1332 937 1963
3 330 621 2283
3 1592 2020 2213
3 122 1752 1330
3 1304 479 1941
3 461 1827 1866
3 569 1852 1037
3 1976 1863 2044
3 197 198 2339
3 2092 405 1185
3 1137 1920 1532
3 1505 1071 2220
3 284 285 958
3 1292 2305 2421
3 347 1150 2340
3 704 423 2395
3 763 1286 2150
3 789 354 2163
3 864 1874 1956
3 1494 152 1885
3 2318 891 2361
3 1696 1012 2405
3 664 898 2166
3 988 1331 2155
3 1403 351 2269
3 1125 704 2395
3 2101 989 984
3 711 1494 1885
3 1824 108 2379
3 1110 371 2088
3 478 1794 1810
3 366 1305 1127
3 215 216 2064
3 1242 156 1932
3 2022 1193 2373
3 508 1804 2394
3 1978 539 942
3 455 1131 1016
3 804 599 1594
3 1752 1200 1330
3 665 1108 1770
3 1656 230 2007
3 1519 1640 1610
3 547 1147 2187
3 1126 439 1807
3 1060 520 2288
3 339 1039 1651
3 1323 1353 1841
3 1298 549 1855
3 1921 17 993
3 1548 331 2314
3 158 159 2218
3 167 168 2363
3 940 2260 2397
3 651 897 1956
3 1348 1040 2406
3 1158 566 1585
3 98 2 2140
3 365 1571 2277
3 371 1110 2145
3 910 1934 2156
3 512 1263 2055
3 1615 451 1865
3 1912 573 1969
3 873 303 2199
3 216 1784 2064
3 294 25 2376
3 558 1723 1772
3 1450 87 2291
3 1517 339 1651
3 702 1061 2070
3 1842 404 2344
3 1449 1096 1742
3 565 1449 1742
3 1571 683 2277
3 1927 917 2204
3 455 1444 1131
3 1846 413 2185
3 713 817 2206
3 1077 1563 1914
3 758 1961 1415
3 1774 479 1304
3 630 931 1850
3 1629 836 1361
3 1505 411 2179
3 1488 770 2107
3 1846 326 2172
3 283 284 2287
3 2062 474 2010
3 1035 427 1811
3 1090 1868 1034
3 1238 877 1410
3 1224 356 1469
3 1620 538 1989
3 928 1498 2196
3 201 1570 2251
3 1890 427 2214
3 124 125 2184
3 1804 508 849
3 356 1528 1469
3 1097 1877 2120
3 2104 895 2337
3 603 1192 1825
3 352 1216 1673
3 1351 1106 2325
3 1320 370 1113
3 682 1634 1793
3 2 99 2140
3 538 1620 1831
3 1537 727 2162
3 108 1824 1964
3 1777 372 1523
3 690 1542 2124
3 1038 442 2012
3 90 91 1720
3 2050 481 2048
3 432 1692 1637
3 725 1332 1963
3 105 106 1851
3 1692 667 1606
3 2020 811 2213
3 596 1204 827
3 1563 649 1914
3 1569 540 1386
3 1694 218 1940
3 1493 1534 2076
3 354 789 2426
3 473 1047 2061
3 2142 1011 1681
3 385 2061 1945
3 1858 551 2397
3 12 273 2109
3 1849 312 1486
3 234 235 2191
3 92 93 1400
3 1829 481 2422
3 1789 696 1740
3 1274 2281 2344
3 760 63 2358
3 728 2031 2090
3 239 240 2122
3 296 297 2247
3 1805 846 1232
3 1371 1479 2362
3 1550 2198 2123
3 217 218 1955
3 783 1903 1072
3 1962 624 1436
3 1141 548 2223
3 2281 659 2344
3 1467 606 2188
3 1127 988 2155
3 1093 2023 2408
3 2341 1329 1423
3 1083 1289 1762
3 332 1608 2285
3 1107 242 1432
3 2027 384 2354
3 1535 406 1725
3 806 889 1994
3 1875 755 2244
3 1383 1358 2382
3 2111 780 2361
3 453 1392 2293
3 155 156 1504
3 1874 651 1956
3 658 1912 1969
3 1868 1090 1400
3 1204 24 827
3 423 712 2395
3 780 2183 2318
3 1392 874 2293
3 774 1110 1580
3 756 2142 1681
3 245 246 1703
3 712 1125 2395
3 1948 1633 1436
3 469 2031 1016
3 1282 1838 1781
3 1568 662 2101
3 344 1267 1740
3 1311 366 2045
3 1506 53 1530
3 329 1231 2187
3 1941 479 1882
3 1443 441 1818
3 815 1777 2416
3 681 1060 2288
3 1877 467 2120
3 1815 322 1881
3 1575 1298 1855
3 1796 670 2356
3 292 293 1765
3 166 167 2086
3 169 170 2021
3 1286 655 2150
3 1112 869 1887
3 2183 551 2318
3 1986 633 1882
3 396 1110 2088
3 11 268 740
3 378 1930 2217
3 191 192 2226
3 1441 970 2295
3 486 2025 2170
3 1944 479 2239
3 358 1519 1610
3 91 691 1720
3 1075 1619 2260
3 821 1827 1648
3 841 1922 1730
3 134 135 2077
3 1391 1521 1622
3 108 109 2379
3 779 1049 2387
3 282 283 1679
3 261 262 2230
3 498 1041 1761
3 1409 1629 1361
3 499 1642 1968
3 1086 1540 2338
3 380 1497 1499
3 1052 2013 382
3 2220 1071 389
3 724 1162 2128
3 1060 681 2021
3 1110 774 2145
3 841 1344 1708
3 131 132 1707
3 1803 15 1175
3 1046 665 1431
3 1248 1129 2223
3 1743 371 2321
3 1085 1311 2045
3 1824 2379 2380
3 274 16 1487
3 330 1552 1901
3 17 274 993
3 1049 1278 2387
3 1496 631 2369
3 1965 451 1260
3 65 66 2240
3 1088 381 1255
3 1528 1658 1469
3 1358 617 2382
3 2084 375 1631
3 966 1939 2328
3 2246 1077 1825
3 236 237 2238
3 78 79 2280
3 949 1316 1091
3 1279 55 1319
3 1279 475 2174
3 1047 676 2061
3 1259 468 1367
3 2379 679 2380
3 600 2300 382
3 1040 1905 2406
3 1539 393 2143
3 348 969 2245
3 2081 14 2316
3 1529 348 1763
3 2027 318 2271
3 1615 956 2211
3 2182 1297 2200
3 1656 636 1472
3 786 1584 2297
3 1365 1685 799
3 322 1162 2210
3 307 1970 2282
3 1056 269 1396
3 935 1656 1472
3 602 1899 1931
3 277 19 1347
3 1173 1546 1830
3 1110 396 2274
3 660 312 1849
3 1515 2221 2342
3 1068 1535 1725
3 1443 685 2356
3 2233 775 1309
3 1518 1572 2328
3 354 1959 2163
3 1220 490 589
3 2165 1057 993
3 2094 690 2124
3 168 963 2363
3 428 1240 2345
3 156 157 1932
3 714 1220 589
3 185 186 1609
3 1305 988 1127
3 107 108 1964
3 1498 35 2196
3 1 89 2381
3 89 90 1674
3 650 1467 2188
3 1976 454 1863
3 1776 1482 2314
3 124 2184 1661
3 1521 605 1622
3 902 46 2371
3 640 1970 1456
3 88 1 2381
3 470 1756 1810
3 931 847 1850
3 481 2263 2048
3 2198 656 2123
3 698 1393 2180
3 1801 671 1536
3 1054 335 389
3 41 42 1726
3 699 1206 2342
3 295 26 1867
3 142 143 2278
3 536 1040 1728
3 2079 11 740
3 832 1311 1690
3 703 1416 1841
3 297 994 2247
3 2090 576 1101
3 1006 1362 1952
3 55 56 1319
3 170 171 1669
3 93 94 2391
3 543 2182 2200
3 752 1814 1835
3 19 276 2272
3 1920 458 2096
3 2052 852 2388
3 1213 902 2371
3 1084 1920 2096
3 1522 1954 2322
3 369 1496 2369
3 1538 821 2285
3 1219 730 1733
3 211 212 2205
3 851 1996 2336
3 301 302 2389
3 1504 1242 2384
3 767 2079 740
3 1540 733 2338
3 350 2016 1713
3 560 1683 1589
3 1917 840 1780
3 1766 759 2224
3 1222 535 1132
3 419 2104 2337
3 1546 350 1830
3 933 2233 1309
3 1444 455 1909
3 574 1321 2311
3 1438 1504 2384
3 1333 1378 2236
3 1405 450 2209
3 564 1965 1260
3 1213 1717 2241
3 76 77 2164
3 1337 39 1616
3 1378 1023 2236
3 35 36 2196
3 121 122 1330
3 432 1405 2209
3 617 1091 2382
3 1647 1578 1972
3 758 1962 1436
3 2202 466 1690
3 1198 2335 2416
3 731 1961 1710
3 269 11 1396
3 364 968 2326
3 1061 702 2119
3 1654 945 1904
3 228 229 2331
3 1961 1225 1415
3 1912 658 2059
3 251 252 2324
3 750 896 2252
3 5 166 2024
3 1205 1468 2185
3 1055 2039 2301
3 1959 314 2261
3 369 1611 1496
3 1178 2068 1696
3 1078 604 1734
3 1344 401 1708
3 1280 2084 1631
3 1717 856 2241
3 799 437 1702
3 2201 1156 1702
3 187 188 1700
3 220 221 1974
3 21 278 2307
3 59 60 2162
3 728 2090 1101
3 670 1443 2356
3 1685 1099 799
3 2235 1271 1869
3 1199 558 1772
3 1321 1290 2364
3 1422 496 2003
3 738 1505 2220
3 809 1211 1122
3 136 137 1891
3 1142 537 1785
3 200 201 2251
3 1954 491 2322
3 273 15 1598
3 2087 798 2043
3 1012 876 2405
3 1497 380 2127
3 247 1790 2102
3 1843 273 1598
3 864 1612 2429
3 876 480 2405
3 951 750 2252
3 2305 412 2421
3 698 1531 1659
3 1917 1363 2370
3 161 2171 1687
3 908 1372 1760
3 266 8 2312
3 97 98 2420
3 14 271 2316
3 1939 507 2328
3 806 650 1995
3 636 1087 1472
3 1155 1657 382
3 56 2009 1319
3 1316 428 2345
3 824 1889 2368
3 63 64 2358
3 334 1569 1386
3 248 249 2375
3 1899 853 1931
3 1979 871 2410
3 1996 1137 2336
3 1285 2112 1130
3 2175 1321 2364
3 567 1219 1733
3 783 1151 1243
3 1257 2002 1873
3 153 154 1229
3 271 1332 2316
3 209 210 2367
3 1100 540 1202
3 2020 266 2312
3 1542 652 2124
3 1087 404 2334
3 1004 214 1567
3 1970 840 2282
3 165 5 2024
3 46 47 2371
3 321 1975 2040
3 2317 433 1915
3 2002 1179 1873
3 123 124 1661
3 519 1498 2095
3 242 243 1432
3 99 1903 2140
3 377 806 1995
3 1115 2092 1185
3 2017 459 2237
3 53 54 1530
3 1133 1081 2427
3 2112 900 1130
3 579 2017 2237
3 853 1899 2287
3 1568 1705 2407
3 726 1450 1969
3 473 1614 1218
3 275 17 2374
3 1297 1010 2200
3 1889 350 1713
3 1010 950 2200
3 645 1868 2391
3 2069 12 2109
3 132 1948 1707
3 1683 487 1589
3 1372 1208 1760
3 422 660 1849
3 970 985 2295
3 1678 2317 1915
3 1832 868 2242
3 748 1922 1732
3 976 472 1778
3 1899 612 1679
3 858 1342 1986
3 904 1745 1909
3 1206 325 2342
3 1498 928 2095
3 821 1648 2285
3 1937 895 2104
3 127 128 883
3 1841 318 2354
3 505 807 2372
3 1081 1133 1591
3 1450 658 1969
3 130 131 2362
3 992 1199 1772
3 14 2081 1900
3 131 1707 2362
3 896 460 1191
3 1186 791 1697
3 1146 833 1974
3 1300 2149 1264
3 642 1803 1175
3 451 1615 2211
3 1252 1316 2345
3 134 2077 1992
3 1594 599 1898
3 15 1803 1598
3 1081 680 2427
3 366 1269 2045
3 885 1497 2127
3 1827 1359 1648
3 176 1950 2195
3 1961 758 1710
3 218 1694 1955
3 18 275 2076
3 1151 783 1746
3 1353 703 1841
3 1280 1731 2299
3 879 1807 2264
3 1513 686 2175
3 649 1563 1867
3 798 2135 2043
3 991 1594 1898
3 357 1291 1787
3 891 1142 1785
3 569 1037 1650
3 697 2081 2316
3 554 2006 2256
3 1047 473 1487
3 440 1151 1746
3 1584 501 2297
3 1037 1322 1650
3 1715 779 2387
3 1474 421 1621
3 962 1815 1881
3 1033 1056 1396
3 2149 790 1264
3 1269 545 1779
3 133 134 1992
3 757 554 2256
3 1047 16 2383
3 871 1292 2421
3 1809 576 2426
3 2269 884 2411
3 1350 617 2428
3 1491 545 2308
3 16 1047 1487
3 1491 1085 1779
3 10 267 2414
3 270 12 2418
3 979 1834 2207
3 1922 841 1732
3 1792 359 1738
3 1434 2075 2225
3 502 1917 2370
3 910 1058 2350
3 1278 1049 2308
3 857 1724 1990
3 1358 1383 2244
3 1630 1060 1669
3 278 1693 2307
3 1071 1934 389
3 1128 2006 1217
3 1485 604 2289
3 11 2079 1396
3 1682 710 1892
3 1655 371 2145
3 1430 1015 2231
3 783 2047 1746
3 1985 654 1397
3 537 1402 1785
3 1939 966 2286
3 1871 927 2133
3 1966 414 2412
3 1078 556 2289
3 1914 649 2343
3 487 1683 2296
3 1148 1966 2412
3 1478 21 2307
3 612 1283 1660
3 1174 775 2233
3 1751 936 1486
3 909 1724 2398
3 1393 770 2180
3 1756 478 1810
3 1715 363 1676
3 572 2039 2255
3 2041 1414 2298
3 1100 1076 1386
3 335 2220 389
3 1716 2132 1539
3 666 1407 1696
3 452 1623 1873
3 1363 1917 1780
3 1194 1832 2242
3 221 1146 1974
3 1338 981 1993
3 374 1338 1993
3 483 1418 1428
3 607 1277 2000
3 1724 751 2398
3 545 1491 1779
3 795 1559 2403
3 1057 2165 1218
3 1162 381 2128
3 2114 1376 1299
3 159 2035 2218
3 1206 699 1862
3 1091 1252 2382
3 987 2114 1299
3 1316 1252 1091
3 361 722 2129
3 2132 393 1539
3 1959 2261 2163
3 77 1553 2164
3 752 1048 2181
3 2157 103 1668
3 441 1443 2424
3 688 1983 1797
3 1312 1834 2136
3 1929 739 613
3 2250 1365 1702
3 1834 979 2136
3 1528 356 1861
3 371 1743 2088
3 362 1287 1764
3 318 2027 2354
3 1365 1220 1685
3 813 1682 1892
3 1226 324 1394
3 1614 497 1218
3 1924 1297 2182
3 1162 724 2210
3 1000 2269 2411
3 2006 554 1217
3 2168 1063 1806
3 793 2168 1806
3 1160 412 2305
3 610 2146 2279
3 1364 1224 1469
3 800 1174 1742
3 957 674 2273
3 1555 105 1851
3 971 2041 2298
3 2019 890 2274
3 2127 1169 2330
3 1563 295 1867
3 1174 565 1742
3 1811 1148 2412
3 755 1358 2244
3 1003 316 1459
3 2039 1055 2255
3 1032 1745 1689
3 833 757 2256
3 1152 1843 1598
3 773 1401 1673
3 373 1362 1566
3 2090 354 2426
3 1014 2139 1355
3 716 1127 2155
3 1362 490 1566
3 1058 746 2350
3 604 1078 2289
3 987 1706 1984
3 1706 1380 1984
3 1836 1024 817
3 692 1871 2133
3 618 2011 1284
3 565 1174 2233
3 619 2094 2270
3 2053 932 2299
3 1998 1455 2042
3 317 1635 1830
3 624 1948 1436
3 1623 1257 1873
3 1267 344 2386
3 2023 1200 2408
3 2241 856 2266
3 617 1358 1583
3 480 876 2335
3 1017 1266 1853
3 2259 684 1408
3 1814 405 1835
3 1693 614 2307
3 479 1944 1882
3 2093 768 2089
3 1544 797 2268
3 1416 318 1841
3 448 2235 1869
3 784 187 1700
3 885 2127 2330
3 2121 962 2327
3 1977 1425 1288
3 1198 1753 2335
3 1304 986 1863
3 1277 870 2000
3 856 2254 2266
3 940 1075 2260
3 1674 1759 2381
3 614 1478 2307
3 1635 1173 1830
3 372 1654 1523
3 1111 848 2355
3 384 1422 2003
3 2165 274 1487
3 1236 910 2350
3 701 1528 1861
3 1803 1152 1598
3 331 1111 2355
3 89 1674 2381
3 1508 330 1901
3 670 951 2252
3 1758 795 2403
3 2081 697 1799
3 1731 602 1931
3 769 2253 2152
3 1694 628 1955
3 2219 1099 2339
3 2253 1261 2152
3 1975 321 1946
3 1745 329 1689
3 1362 373 1952
3 1737 1466 2393
3 1948 624 1707
3 1468 620 1895
3 405 2092 1835
3 830 2022 2373
3 792 1924 2182
3 1437 2080 2423
3 1024 1836 2284
3 2171 394 1687
3 2146 1026 2279
3 2047 783 1072
3 708 361 2129
3 2101 662 2015
3 621 1210 2283
3 797 1544 2243
3 1544 748 2243
3 595 2050 2048
3 850 2248 2110
3 658 1450 2291
3 1464 1584 1763
3 1757 857 2143
3 2075 25 2225
3 2192 503 2117
3 2167 838 1953
3 751 1430 2398
3 942 871 2421
3 1578 905 1972
3 1803 642 2166
3 1648 332 2285
3 1454 506 1413
3 846 1073 2378
3 273 1843 2109
3 744 1379 1394
3 1266 726 1853
3 1220 714 1685
3 1315 2037 392
3 1914 603 1825
3 2094 502 2270
3 404 2054 2334
3 2056 244 2038
3 2079 1033 1396
3 2091 618 1284
3 1843 1097 2109
3 641 1743 2321
3 1167 1737 2393
3 958 853 2287
3 1682 1164 1697
3 1807 439 2264
3 2079 767 1761
3 970 1508 1901
3 710 1682 1697
3 672 1477 1973
3 1315 2259 1408
3 927 1463 2133
3 1232 846 2378
3 1289 793 1762
3 2248 749 2110
3 1957 800 1742
3 2037 529 959
3 2053 377 1995
3 1836 447 2284
3 746 2071 1527
3 1096 1957 1742
3 2100 1159 1514
3 1097 2069 2109
3 980 1975 1946
3 1210 1036 2283
3 1753 480 2335
3 975 832 1690
3 1331 556 2155
3 584 2157 1668
3 1055 1427 2255
3 1023 689 2159
3 1795 1501 2202
3 1654 1198 1523
3 149 2062 2010
3 1904 945 1749
3 1082 1341 1947
3 473 2165 1487
3 1913 745 2404
3 1632 637 2332
3 466 975 1690
3 497 2087 2043
3 1296 270 2418
3 2169 1290 2306
3 1675 2388 2396
3 790 2149 1726
3 2265 786 2297
3 1462 860 915
3 597 1902 1951
3 1957 1692 1606
3 906 2265 2297
3 267 1382 2414
3 2388 852 2396
3 502 2094 2124
3 921 1034 2154
3 1128 1217 1736
3 2054 935 2334
3 1534 1406 1735
3 1325 459 2384
3 1905 881 2406
3 646 2288 831
3 2065 884 2275
3 2165 473 1218
3 603 1914 2343
3 611 2111 2361
3 2149 41 1726
3 1427 980 2255
3 139 1602 1857
3 743 1056 1797
3 1144 351 843
3 1372 296 2247
3 282 1679 1660
3 1440 410 1659
3 724 1581 2210
3 414 1035 2412
3 1925 528 1677
3 534 2270 2370
3 863 2032 2346
3 1477 816 1973
3 1133 1664 2317
3 1675 1840 2388
3 2082 115 1207
3 1735 934 2131
3 795 1758 2154
3 1034 524 2154
3 393 1757 2143
3 98 2140 2420
3 2003 655 843
3 1902 717 1951
3 551 1908 2397
3 618 2091 831
3 948 2336 1532
3 284 958 2287
3 1983 743 1797
3 2087 782 2372
3 540 1100 1386
3 369 1446 2380
3 324 2029 1394
3 1534 1735 2131
3 1407 1012 1696
3 2288 520 831
3 1840 530 2388
3 1335 1008 2311
3 1581 1419 2210
3 961 1296 2418
3 2199 690 2276
3 410 1393 1659
3 2336 1137 1532
3 1448 23 2113
3 1184 2169 2306
3 911 2121 2327
3 1501 466 2202
3 962 2245 2327
3 1577 453 2293
3 1382 919 2414
3 1393 698 1659
3 880 1904 1749
3 1271 1577 2293
3 1368 702 2070
3 461 1153 915
3 909 1925 1677
3 2216 907 2338
3 1993 981 2204
3 1225 1214 1415
3 917 1993 2204
3 1967 340 2294
3 351 2103 843
3 2135 1120 2043
3 695 1967 2294
3 635 2319 1600
3 1077 1914 1825
3 659 984 973
3 1271 2293 1869
3 592 2254 2042
3 1664 433 2317
3 2075 1104 2376
3 1406 408 1735
3 1679 612 1660
3 873 2199 2276
3 1108 2262 1770
3 478 2065 2275
3 47 1717 2371
3 365 2175 2364
3 1521 1128 1736
3 458 1808 2096
3 427 2392 1811
3 1435 1065 2402
3 1627 1435 2402
3 1252 1870 2382
3 2392 1006 1811
3 1808 879 2096
3 576 2090 2426
3 986 1304 1941
3 154 996 1229
3 1981 146 2341
3 897 2141 1956
3 2138 426 1541
3 1678 1302 2317
3 655 1144 843
3 1584 1529 1763
3 1717 1213 2371
3 1345 1182 2357
3 2245 969 2327
3 1302 1133 2317
3 2073 1138 1728
3 1758 921 2154
3 2190 334 1636
3 1217 776 1736
3 2091 646 831
3 2139 184 1355
3 25 2075 2376
3 830 1604 2333
3 895 1818 2337
3 157 1384 1932
3 1809 310 2359
3 1870 1383 2382
3 2267 716 1671
3 2270 502 2370
3 1617 411 2346
3 2096 879 2264
3 1253 182 2390
3 745 1913 2115
3 2304 692 1294
3 1604 543 2333
3 869 2138 1541
3 2309 461 915
3 1375 383 1688
3 1317 1375 1688
3 1744 2304 1294
3 1087 2334 1472
3 764 2257 2409
3 1208 1372 2247
3 2257 1313 2409
3 946 743 2348
3 2126 107 1964
3 860 2309 915
3 1908 940 2397
3 1892 717 2323
3 2402 1065 2425
3 80 2093 2089
3 1612 788 2429
3 2160 18 2131
3 2029 744 1394
3 2197 954 1423
3 456 2402 2425
3 1603 2197 1423
3 1580 1110 2274
3 1182 1312 2357
3 2319 1282 1600
3 1115 1913 2404
3 605 1521 1736
3 668 2116 1895
3 800 1957 1606
3 2068 666 1696
3 2069 1097 2120
3 627 1814 1536
3 730 2267 1671
3 411 2161 2346
3 1173 1635 2340
3 444 2222 1288
3 984 989 973
3 2246 671 1551
3 2151 1052 2300
3 965 2151 2300
3 1029 1446 2369
3 631 1849 1486
3 1635 347 2340
3 212 2041 2205
3 1913 513 2115
3 1309 775 1452
3 707 1309 1452
3 1483 1395 2134
3 1027 2352 2365
3 890 1580 2274
3 896 1191 2252
3 2161 863 2346
3 702 1368 1428
3 1389 1809 2359
3 490 1220 1566
3 327 1593 2231
3 733 2216 2338
3 1818 441 2337
3 813 1892 2323
3 2407 605 1736
3 1329 1483 2134
3 198 2219 2339
3 2061 676 1945
3 2045 1269 1779
3 986 1638 2044
3 2349 534 2370
3 2262 911 1770
3 1021 930 2136
3 2212 648 2074
3 847 2212 2074
3 1446 369 2369
3 2222 1346 1288
3 2366 1030 1951
3 2064 1784 2083
3 2263 1576 2048
3 807 1027 1886
3 2258 364 2326
3 979 1021 2136
3 426 2190 1636
3 777 2064 2083
3 526 2249 1886
3 884 2065 2411
3 788 1516 2429
3 1559 1399 2403
3 2352 1247 2365
3 2189 1460 2415
3 717 1892 2366
3 1363 2349 2370
3 776 2407 1736
3 633 1941 1882
3 2011 1412 1284
3 1341 1086 1947
3 934 2160 2131
3 1237 2258 2326
3 1346 1977 1288
3 717 2366 1951
3 1892 710 2366
3 1434 2246 1551
3 2261 687 2163
3 1200 2080 2408
3 2013 1155 382
3 2131 18 2076
3 1989 580 2153
3 1156 2250 1702
3 1847 1582 2028
3 1863 986 2044
3 2377 845 1987
3 1164 1186 1697
3 1073 855 2378
3 331 1776 2314
3 2081 1064 1900
3 511 2130 2251
3 2130 200 2251
3 343 2241 2266
3 1677 720 2001
3 657 1989 2153
3 1133 1302 1591
3 904 1232 2378
3 510 2259 392
3 2065 343 2411
3 2254 1000 2266
3 817 457 2206
3 506 1850 2074
3 909 1677 2001
3 2368 1889 1713
3 2041 971 2205
3 1064 2081 1799
3 945 1987 1749
3 870 2394 1701
3 945 2377 1987
3 1085 2045 1779
3 2293 874 1869
3 632 1847 2028
3 387 2091 1284
3 1987 753 1749
3 1590 1183 1514
3 1076 1541 1636
3 866 2368 1713
3 510 1758 2403
3 2080 555 2408
3 1850 847 2074
3 2394 861 1701
3 1084 2096 2264
3 617 1583 2428
3 2080 1200 2423
3 2385 1322 1452
3 775 2385 1452
3 1534 2131 2076
3 2400 991 1473
3 343 2266 2411
3 1027 2365 1886
3 1471 2400 1473
3 2259 1315 392
3 2266 1000 2411
3 2365 526 1886
3 1191 670 2252
3 1583 765 2428
3 2141 864 1956
3 1541 426 1636
3 727 2189 2415
3 2334 935 1472
3 1777 1523 2416
3 1159 1590 1514
3 1523 1198 2416
CELL_DATA 4558
SCALARS Von_Mises float 1
LOOKUP_TABLE default
56340698.304298185 5615918.849950472 9585241.4549023 31361076.68192539 25742121.926042274 41018160.68177058 76297491.59341274 40029280.530583695 40312793.294499665 5357527.059967295 18823365.74212739 18461675.522662796 16465897.31101392 20808971.828058314 38577158.520741686 10694652.239102751 21979382.887174 27077426.736879654 31703520.60834124 37582571.348962665 27742950.731129024 2196512.3041824284 23074443.04359282 31523253.656489722 31978214.344023734 33953660.6588397 38207105.97738856 39342005.24596972 60005611.346703656 34979756.31900481 28526680.962608114 46275587.80452569 43517275.92768666 7295278.400249624 7645050.444885738 15990226.977477562 27930733.64139093 37740682.02012968 35441234.50275802 29618132.474901795 37338112.45419126 42079416.23705722 34609620.619465694 32855171.780153092 44636459.50898633 37808451.04125496 6258914.04018717 1290827.1690524567 30233693.601983983 24702504.52581318 8988228.224402634 42776755.55713788 34253148.181290336 37336246.0324403 24391999.85646503 37056051.572377436 17722309.84849717 17944979.69855729 40175640.25898478 8756658.305265281 31463788.390807476 37838429.53831105 25323370.70317316 10100472.478321586 9032681.72462423 5503096.7593690185 10181995.263643077 34689825.269271284 36363993.44059026 36593109.874380745 14676594.747669218 11600513.35930857 37785871.643955156 87612675.4343258 11564719.728819428 20708678.638970118 18735303.83073538 11280554.76346361 7148550.283378712 27561846.136426248 13526908.439625826 17540005.718782056 32832418.06179915 38500841.94267924 38271221.68574697 25018250.984006148 27503518.01305829 10983160.322458163 37146500.7681345 37912475.747413665 8884299.645276781 10264898.967907714 32841496.507900774 34066499.987842344 36910021.77221118 27361190.38959075 40044591.76657172 15227729.51233367 39503168.719100334 38683766.84654933 34642933.122099586 31968764.08840118 36899562.69966141 62142777.53960613 8990230.415223408 50471708.97061419 8677346.545080528 14854894.882570965 35560507.11533629 10476584.05424927 35175568.691509895 65732.25297808321 35510981.79654024 32851687.138943233 18045135.46576179 25597055.331247516 50198454.2123115 40829243.14289701 35634634.80253351 37641171.99541447 36124503.38412524 30308357.33397264 9529671.377885003 42712224.58627968 40919553.91446674 20163604.62713037 14773803.104930121 24018646.451136835 40075925.11167481 41849646.2284507 23414693.336272854 35516968.95258949 38229636.87915424 39552980.559484154 37136220.76117803 31148636.512429252 19575528.964828975 31982570.712988786 27795941.17437339 11941873.381952222 38039354.825207666 41457998.489707254 63242038.86044838 23383467.06844463 43341337.02318952 31677932.142995875 11469218.899390094 39643467.13098274 33992938.920270376 8635998.542672412 8144000.488590183 25794663.220914733 15090864.618935555 40071668.11488271 1139735.2462101455 35448957.92879642 30989412.316843428 32868482.968521487 18265363.9282095 10212616.933086539 27481933.94622301 7327259.969137506 38617446.88108084 36405798.439766444 38286797.40022857 30988221.897538885 35530283.2843524 30676058.044291925 21269969.794218462 33271663.552336562 34149757.13307933 35899987.718662485 35876462.51225781 14277117.673444599 42170043.595682584 16043925.804654857 10136613.806592165 23065670.02627909 14414638.29324452 16033370.356689058 20411739.15587929 20461135.7090633 32391838.278860748 11186789.454858227 24091005.747238316 37620752.47353144 42876824.32187579 15363555.119954225 35178171.29685683 31717382.71339202 35552857.23975454 22836761.786242176 22924153.015585925 36531519.95517084 62862877.05793947 106031925.42399265 33905693.222378634 31011746.78431495 3472271.7564875754 40100750.09002516 19852317.155369096 38871273.3188608 7876093.844527779 3955024.346430695 30235098.09338998 34519465.02165097 8081952.035176288 27152606.43220439 27873697.894586623 1016963.5088237784 40513888.66922183 71924650.2941265 9151612.33293921 38353560.62858501 30326087.949788906 34305539.61488812 58621950.98825521 5491479.075950859 35361919.9135718 43021804.460018545 6438880.691905786 71589129.4791087 14036314.661206393 43407101.01119957 21110858.11523318 46538224.00575775 22843096.018329717 11970801.55790412 46714912.07124753 13211268.480793133 33089944.993173152 30410331.699409276 34373673.02442563 5033068.991017674 30889844.820260786 36962771.32951255 33803117.05421455 31859283.893349502 19792764.58458194 43513865.24318019 25023524.895179402 40194281.56251552 33803104.88370518 20551287.80716182 1758898.8399822803 36524925.015316404 30118809.11985138 16534638.824168442 5607864.211927686 25358974.637184374 34622983.51908956 38367570.54134515 11347950.407615263 33521154.341094244 74297225.63683589 23679226.27557221 36032615.328068286 20990258.230253495 6832694.803605182 33337992.49664595 30128926.58428184 5095073.189355942 45815271.33114238 3927380.45304938 23371448.866642848 20177882.401096325 40487924.90203882 35031061.41101271 30143872.845187943 21620551.492864486 88669646.94621158 24661971.254654024 1286129.935976099 35736926.12294433 36417637.21673314 23286044.762408875 10250385.174088022 31008575.154041234 1954726.6378773744 12652236.644635716 34111447.700449936 16734841.989933886 18211239.738429364 40970098.4236851 35863033.16195779 41836997.992416285 7522085.299217154 16327696.345843269 7306785.5977580985 30782973.794053983 24295459.876860473 5969585.914019382 36202581.7598825 8019112.601739996 38445777.715305574 26410032.814543135 56420824.87858937 34727375.84825616 35711713.81438497 15880256.938876398 34709274.53164122 35786964.64332246 16817942.24204511 10107677.479666036 55386331.52240126 33215250.483980816 39674034.17234117 37271295.632556766 12492560.448723225 20375241.122701857 6176397.368674257 12772915.471537495 27370124.201235093 23609193.21363448 45442486.465406194 38377885.61100664 87843184.12944175 35168139.12344725 20744344.978172984 42126898.92002917 34204960.99291242 37610901.144279554 32050640.491034344 6191592.367501639 28338368.936549615 39811026.15112628 23688127.16645275 31456513.480085302 21516147.103915352 34456280.427437834 10366194.862679426 33939043.3486079 20885807.605536133 9878769.579832833 36717635.763314344 27963992.877179924 47755252.621720634 28232594.353027172 38020504.13838498 38913080.25630318 3022622.141252566 3607348.125553877 53005789.06682985 10170393.548751479 30551407.244411483 38203616.1996582 38354268.83100228 19987416.741643198 17848637.027826257 37618282.03693191 5158028.635108968 35398725.77277269 3391431.222906633 8742207.077873986 35106301.74827682 32705341.233418226 12878350.9260334 33769713.4299754 26934619.13653913 35100234.09783881 7561025.596676823 46095937.94174255 11391785.741310932 35248614.1835417 53212442.01362123 26887831.120494723 36609014.73768587 37626302.03997488 26374222.653948333 22601932.28661615 53763864.99589654 38132560.787760414 33063859.774807435 28957425.18944847 34263829.88580874 67626851.52931526 12800889.610207777 40706860.87507209 62133349.858750984 10646906.741177818 2234948.596465002 22484273.225042503 26275283.874940123 37815997.42233467 38584497.757962964 15143888.295300238 23065596.18332095 23916441.120160565 34433299.43146975 147631874.31828475 25489528.32502502 17812380.92205286 5519218.068355815 35314749.802198954 27083536.413559504 39822990.23437339 37436555.383956864 35707422.43477816 29993122.68582971 31532864.56585419 52969603.816077076 11353064.932682335 21044198.942409616 64957830.37779397 2280843.3053720766 12813679.56727934 19993668.518713765 33664457.05491285 14879406.021257425 22884180.19689637 19409453.182395127 34995571.471624985 21999220.646542434 20099454.890873414 28603661.97266581 31140718.379737824 17448070.54587652 117001885.67021729 19439115.82347127 19375112.395979952 1573634.6396784189 33550913.831680004 24056539.448174637 40695544.432971776 31781806.882723887 10404566.828254484 20454381.01672735 40018445.76177559 25274883.528846808 16340834.015904563 36621399.537535176 15050110.6973863 41593156.29985471 40030323.99726212 35045693.75284658 37890611.37211119 74176977.27167892 56412235.89354563 15499629.099657843 39549914.804610275 55179077.81784358 6751854.587689272 30972479.232234634 23061748.33283894 33723309.18006687 7516680.662639509 6053078.515778323 36179912.40863684 37275789.55670608 4568515.907355718 33453159.46015743 21252399.40721393 30453990.65627969 12390567.279015673 35432238.151926935 53025597.00126091 36494706.05505156 18071547.07411953 28899587.824939374 9394293.702716129 35657717.421360105 36662391.02143132 32274498.02572472 33329722.903143957 35755510.554544166 82937522.22904845 22762257.70210031 42827919.70292177 7214370.880212665 2838014.104491378 21670922.24622271 38358497.51932319 34003817.70253739 27437893.362732854 31306699.07704234 32018672.87517215 34186690.91046122 7420514.809303492 49380665.233589575 17357260.87420506 34005242.359150164 55459695.39059503 6966871.701140773 38820428.94209899 155632.03333430534 28054617.83561287 31415899.113516077 26799178.962450653 30692044.093798794 37537428.11602424 13370454.50342067 41600306.202766515 8702777.027947465 39659688.10469262 35116107.85658126 30531227.182179447 25868407.929184385 36821195.682230204 30714132.92860657 51565081.09794631 26185578.52963289 37614997.82595466 13039695.055423686 48792887.05506461 18558306.537797403 11544500.879618518 68733761.3296437 39065049.428470254 20622290.825648263 38908509.68645011 38058412.96693729 31380375.917474393 38814690.896899246 28461005.665558416 36315249.669753246 25166099.15520238 23279214.032922335 27758087.09438672 29538123.352298137 10290976.659738785 37376394.9617906 36331506.012745015 23241815.046704065 1799457.9715430595 17590430.52260638 19109201.647740394 5281745.093371578 18534823.36054491 22307912.58852154 26822547.039690915 23979354.646071825 2957315.508974541 36389641.49061145 17960356.707320087 26708441.878058594 33065603.98076364 9542919.358149897 17259993.742904212 28503270.62598734 16195063.988837061 24587116.509406485 18010314.1907199 37703735.36100869 43745523.78079712 10323206.048449103 10323206.048449103 18452534.757177617 20631750.144151174 30777567.953780267 3343397.755358545 31740974.165275387 9139714.331537873 19972424.84794658 43141020.04996946 19614301.88598261 35080302.68566388 16456380.95043362 37513985.68019809 33083234.53780268 38214542.66985269 35483777.24212253 39708479.09666424 14422944.693393417 34973436.03348008 41339645.40978477 38022496.818686806 33032969.961608987 22267653.7598358 278360.54518639034 21588700.0364701 33107536.096135013 35916831.8428925 57144102.77769142 2359427.5719315894 36085361.63139753 46300631.03993692 34067518.1383639 37968874.853432484 25726268.103900135 18366289.30867159 25330030.58903631 39470585.65162906 37536297.32209731 43165707.24169947 38484671.94306216 901290.8842804913 10613064.663966892 36669831.891464986 43240562.25651265 12543401.491006004 37202232.87716531 10683360.689425742 37402143.817052 6999921.344249904 9107057.365276162 31941059.635534965 40521708.46470333 37073368.10940963 33455034.900704894 18066914.28997441 29151694.25630774 7020076.928891776 9246417.595493916 34327733.3989394 30507031.663937077 40734307.97404556 26722740.29803387 45748898.8649138 36603140.50827215 23285814.53287509 4680486.71596701 35276903.146281555 11329078.92857381 34694121.405961715 29399308.410105083 42300103.82892114 6852369.135577565 57140674.4496854 4743041.504486038 17935821.35863569 51460963.68780898 45382319.99170416 29105281.958283287 64679376.97729764 32823539.245788515 31615662.978652548 48026146.54197163 37812717.35229085 37805354.87740885 33187704.388609145 36821554.37310774 18380113.648880817 34021154.0181165 23736693.253378384 30877438.099121064 17539111.089113835 37622692.66375867 30504947.67394475 1680580.3440316014 11070174.927151725 38543241.29881139 14181568.44132546 34633506.78121231 47326947.368821934 39845937.69792058 31103933.12371986 15594259.355134245 37324239.84481157 36102655.36832296 23217005.250555046 45366101.45004713 22835076.356130242 25009014.31931845 17600964.63733808 18456017.904170237 34341104.162585676 33958260.047001965 26236016.752693668 2389407.759685105 83385719.18454422 17730482.428213388 74927032.59251776 37446353.80170972 36106511.23538751 37900141.5456245 49743972.74359703 38853870.29248345 31515450.000394244 22018123.469089538 10613153.734308712 28098383.24035675 5937720.186695861 29476794.299190223 37609683.27028038 20845706.254672118 14142411.622245593 37833742.21752594 3964565.9784600316 18989110.218873236 63859798.06224088 47566617.333877765 30409751.398279835 37685456.238050774 42249901.38208083 35777553.27019095 16082086.356940784 38702131.02431099 39653769.79241734 42892767.23755283 32353069.706578057 29242461.849980064 7749290.632560164 31855969.37101617 24457217.08782574 32703366.235400114 21916095.085616212 4931830.385393588 20678568.618064746 14236383.693303367 33962288.41048949 22660998.64339967 6822253.772645705 17060199.338004343 22089854.18920393 13398290.877199048 36044374.62262641 37922394.866678804 36253780.27063161 29674856.665349815 22918661.321377236 36658903.05602001 18959047.51921237 28283546.8186985 12924277.969259828 32036729.210470542 2518661.943146132 34222107.19845209 38726966.10815803 33773243.13764599 3762757.723806536 27382069.644679405 26297054.24529026 5550202.82256138 39378292.06248602 35386115.52038733 14651514.006523604 39587233.4066841 30560565.296272136 37677276.61448219 35999693.886231184 23674670.62638757 37469640.62124775 53655112.46180642 27739336.478871975 33628796.26943439 27447018.165991217 21494752.489542548 32852078.977443215 21411596.795625288 4656429.415166697 7712011.038539186 91587610.50822346 27201945.491874073 3346456.428997423 14458146.47795586 14181635.252409833 35200198.551619366 36191632.984788656 3149267.1710958816 32190592.28630845 34448555.333389215 38228119.10179604 34159547.839112714 19581677.27550395 36073817.40095856 32595695.580869485 38481867.446262494 33013513.698937662 15065722.544905988 7186130.727224116 18327034.956021857 91837909.60180692 36160788.20538485 34237256.61356162 34397856.65737779 9348976.740314657 67372480.55389923 39487372.50615173 1838653.7147820115 19913174.25425517 29984044.387329195 43587896.21480446 36329893.68511741 27852706.76486187 39606244.75464281 36639886.96223706 6826121.6369349435 23659993.174788147 9912291.496160451 26106608.374134768 30976044.6938628 10304580.567154538 36235326.88962725 32487658.102108706 22650330.392148346 2651874.848578954 16733405.458212364 7324442.049742786 33488653.898715496 1975863.343270347 2006527.047915186 26492965.58671916 36163313.59851791 38551650.46926447 21777133.26420986 38053440.570947945 2175033.2042811993 30803643.54034602 83204719.71188894 11764904.240199074 29599368.72243433 40038056.62990066 8877420.610053943 24638729.11940546 34571403.65199888 19495404.3611974 1421493.996154143 24658466.38126505 30210260.881507736 31829493.828317046 18597946.280965395 25587802.163890272 9128003.583544705 11612394.209495725 85566859.51658829 11669430.211081993 30515058.187272623 19074166.002309278 33273397.054752357 33823825.745920986 93744408.51092136 23364755.02632111 40606052.27822397 26292479.55544636 13682755.188269591 38235342.29540221 14873303.709204275 74914284.1309553 29059607.65118415 65335480.0727529 39057944.08600339 44411678.958939835 18913472.247634463 16978740.13667358 40528489.04830029 10081107.688449942 23920995.715691973 36676653.0732331 12107830.49236148 40701008.63831962 35854939.17441843 36556937.94593837 19607958.032485835 33565507.16703487 32470079.869903326 30382244.906929567 33582031.58270333 38919566.0683278 36356314.97767256 10706291.77971334 41306493.0581124 2522529.911522131 92875352.07394293 6017780.610665134 495362.5219604445 26951918.138927907 39870663.27989537 2469373.2237166865 37547940.537472405 21944899.575676356 35284178.807772435 29121556.841517054 32158328.183589812 33476481.51124913 23932686.69117476 19952345.248266064 27169955.665336084 5217057.12185941 40237037.425720274 66579454.87285314 39361885.728629634 41021651.40177025 56908768.49700361 15121753.369721256 10856753.772542793 4900872.56354808 9932453.797313882 1133513.9488198736 15673706.245158741 18586025.126042206 56030561.705052264 20178824.637938768 37508786.959677674 34749279.78335981 61522811.159665756 101412987.74793956 20943455.78717947 41811523.623994984 41869177.05713748 41573410.192937985 9680091.716167605 25617428.9269611 55237982.98376732 22061322.499618247 64541655.26006664 27920722.965097867 41229888.185086824 28033025.370627414 132175643.42720231 13640290.314537132 45309509.71462986 22743694.334096923 33648970.99675581 5004498.193664106 38064446.20620383 29180589.185847312 24492622.290804826 19778458.699285965 36601550.432051644 32266275.441859987 52025996.85709396 31853178.36722415 37673014.53919082 29470598.0164612 23580591.872047815 33942650.536358714 44203563.58461659 40274375.05976362 19948255.357527684 25032814.700772665 26762624.878198553 19738295.89910929 28648481.47163644 12962701.26220454 4234059.1673745485 11816501.378929177 14349647.357931342 36500843.556710586 31380331.077072814 33494424.983236466 35396403.083231136 22461766.72070177 28288487.4227105 6410601.543502272 37261456.3331975 39101017.77899039 36888758.36254093 30138710.45341964 22846261.80749333 43152334.90544175 35778382.9263798 30901012.691583842 4209521.9849900985 29982144.271623652 13330696.000710564 98871.26524813031 19778657.25159347 25538610.981992867 36894653.41912261 54477940.00154495 4622961.509559727 25768416.919734165 3998427.521280043 44104655.957665294 19774755.292864136 20558932.988364663 7687995.3836986255 36028504.120910674 41364979.579541765 34410089.62492879 12775435.056078365 13392105.144948877 21632477.00042225 38863423.63892338 14230343.095148068 15652233.446363647 24248743.246268332 42011396.18487188 5241843.904081018 23136586.6394568 20744162.437024172 3703686.0758245327 22093305.234667394 29561562.473488446 35395208.99341888 35063686.8546217 18525371.457575124 13423186.263540383 54757436.37831492 38008319.47479031 38180011.629616946 17937967.7519274 30508187.51662675 30289703.96107056 57347708.787625864 33028191.879156347 35854909.371905066 38409047.48477984 45006234.18892956 32240543.371722914 37065376.34952223 2444453.516680794 2428449.4082410447 23343269.550223432 4287681.9295938425 17175819.493266594 37905621.216058925 6037258.321062605 29766645.920989517 18707500.514720097 36212139.36365984 32973734.55273987 18394202.71425424 38716031.13820128 36039225.21361161 44658633.50982613 27433595.842935763 21382272.45079368 56746895.29315683 37881798.094595775 39830812.13581666 14249146.428112777 38534212.96595046 23102082.730943467 28121189.61132508 22837893.50378435 27062602.59614618 19427955.07548489 34411527.688562095 4803651.366596775 6686955.707397377 21220138.944690283 30073321.05371436 23353431.011018388 40096159.09668085 14077059.527970348 21358727.96000529 19852553.24379874 33551681.037590347 32535829.267561078 32986629.231124036 19697869.920180574 18754664.514234994 11589067.618320033 66423336.89915406 70557549.26740097 6058797.117299474 26617160.54428816 16993186.39382469 42868889.30908115 12041779.152215183 36762794.85819545 8434353.921102857 7250900.801773288 38838457.835753 8647606.508689808 40919170.55927855 16337145.448283758 50641032.5426845 2092225.6514802352 17778301.180275086 17092868.91414235 37593269.48345867 38872320.02324924 34450475.63635101 33642066.402139336 38441457.480808854 31608878.47729999 31198144.314300355 27267303.59711516 5932991.793517643 43302966.493888594 30539132.233849347 3497122.7372984015 10376064.32903067 19213904.580765106 6296953.216208356 59921835.37539787 63223805.188259654 15083308.264426157 15628480.350974983 23275508.236604434 28862630.44070721 28832608.858979117 38614658.62930155 30051607.42973868 37395168.33877964 19349307.019410647 30964987.35831949 14972692.993304422 32674397.917404145 31269542.031594668 9411421.31551002 36507391.912277214 15266972.00681844 29077366.33521844 37873855.42553824 55339882.631089725 41205108.296654284 32193772.0282133 7078334.133920708 13602934.679535942 36672651.42201316 27964642.050025932 57019706.54344126 3898414.4139201124 17181838.144380808 9143690.446682211 4829212.598863408 10146118.218116954 31533868.390929423 11971248.632790033 28464489.098983303 2817092.503604824 19180583.11293188 30572989.0653153 20577471.936515722 29246926.582956515 19687834.49170515 12629021.641244758 24489937.850317396 5891832.590539909 37854498.85558954 24089728.613311213 31877156.163728397 43514818.96091117 9371650.231886096 20076858.481669534 32916273.02532791 3791349.9354987685 16514066.569176415 38043999.83477255 8269708.133109562 28504213.019219782 22893099.070429318 48583553.19806453 16682814.867454765 32954775.938726623 21002672.85501975 38949616.089500904 30028890.51057839 25693089.78179322 13161397.908785436 22665608.882720724 23312351.23133971 48932069.81322358 22495111.640336934 7657625.978662368 9307527.73253533 79937345.27013138 8056269.1304494245 32436975.89792882 36757596.222443454 26358720.40538007 33765950.29568058 18899104.14606011 49146865.45982314 10047718.89568841 17776457.299563568 39276069.813954815 39092996.512502424 20242328.08865069 26668125.109554008 13530530.632691374 27916097.888335176 24308309.814058267 10885987.186933761 25563550.49605378 40334666.99611816 15200621.965934345 28896528.361026347 17809451.570666205 33560256.490377255 54747009.89559027 10233639.449795341 20599324.863575 28397888.423504133 23397936.77410986 88442723.6162729 8021078.894353799 33009552.261302404 22672020.012508087 34902024.80974279 32024516.882868435 54058667.18589996 11876802.708490724 15285199.119827943 26377869.25308042 22222083.570231386 27025824.83231094 34786648.824412905 80218537.30928887 6391439.847245423 44730093.031407535 10758765.757599112 10047410.22987645 19394225.58760854 27168551.83907346 47276936.74825697 9539188.7815256 38576829.31854106 30959611.242520202 22996412.37839005 28927011.378452513 23841905.595617432 2537058.3835049015 31789526.64207417 13742059.597863235 19247944.97982257 16301323.999066362 17876103.78930622 61191401.75850106 12400933.921406303 40373763.56321945 22501118.55707677 7159593.712863195 7603360.217390288 35767280.92425873 21761247.91391924 38988105.382360905 20463868.045546 24450784.19859329 1268445.9479737608 22294894.031817395 3339582.326784542 17269710.05471391 41565400.012491204 13006207.598329136 6133283.268320522 21568300.744038466 21463510.199335996 22784740.420935154 10437940.128119858 18741920.776514243 25483483.408132453 30628928.451385155 322708.73802314507 32657061.75428923 26899923.313195296 15694087.028373118 25727863.164489266 19938646.383442804 32018486.46153793 34389674.60107864 26570752.06066773 34245073.471678354 25107496.63378865 22504241.154317882 26050374.679301195 37029642.83611762 31727708.554052044 6779697.755961469 18016261.539392807 35250833.48291722 38990125.81999964 25258381.52318661 3843099.0963689503 24967369.70774088 77290362.2861977 33167809.54081389 18330816.19607307 5803557.8161874525 8334544.771622785 25029439.157813214 33483235.299372517 30527436.006997548 12106594.369200649 17753311.51167939 21710394.05635082 47558668.77876084 22636688.13389902 11755043.535565117 29517288.867768783 6169032.525708721 5174314.0246972265 2777329.830254547 36777274.45634227 5882987.548157441 36192069.152843595 14935466.572899545 28750155.807333235 48087947.266602 95157.3572407483 9769673.055015925 2270914.2897347766 31688779.83558429 13061570.030914936 30491404.099817824 27191945.009413574 23281285.31706606 15283334.587682748 35159667.64233456 29605217.22133765 24535356.855649006 37520856.349889584 74176621.71991928 12924361.370397372 71705041.67267951 7437820.341646538 20194643.63107584 3655435.9472115724 10847988.96054396 34303349.541474074 5763283.531860106 6430627.470582502 32885132.07538299 61427625.49842715 30522022.622054186 5969458.383535663 25873585.080044497 7707994.908559243 38542184.989374496 7937691.44730172 13545674.224981893 10769272.741889732 17901113.87691604 17770259.242813673 17323179.927794132 25201846.81310581 6014464.391787728 10542675.609534234 6734890.489516564 27540679.660028383 37505522.75462108 13507020.660826625 18731622.235279504 36176725.35617188 18450473.306781143 35052173.41106155 16457536.688766817 15292456.116557406 2385976.5604708362 24432465.98647224 43583857.92528154 33062033.78697424 44912643.242688134 34627835.438344255 33574632.12001714 5502414.993306629 18705404.351761255 37335268.37036152 9121731.66558624 3752046.3911630795 17483631.36014616 8497065.917593857 32471545.713515233 18344112.180726726 4905020.813129 33365883.241305064 22261879.77034947 50478733.13577996 24822970.724995654 26666917.054728407 16231277.678583043 31709419.229668476 9558302.655025184 25854160.47735267 11110607.839280251 38313838.1177525 32205325.195866156 20636442.399347454 33646829.45900248 16014538.540007707 10821755.046621805 27344100.806973733 76987476.06092755 41271832.48752517 3787420.265210134 3838898.372348443 4443546.048171195 15399998.797609795 27051820.139227893 23734519.660850406 24062048.7624682 30441972.487199783 21753153.836178932 12888348.345556045 37300209.662011094 3762733.3813392427 12513895.787777014 19185193.37440745 10805633.444936337 11897230.780444121 65732041.02092941 12302598.908400046 14747266.096215963 10236083.196692456 15498171.132370261 12473913.986583011 48314947.40230666 54594631.782759726 39506147.65419897 28021888.594084714 31432325.899519015 35196822.39432465 12819166.561594998 24260885.8449623 28339970.070523318 39296429.55669889 4007467.8903521555 16256779.691964597 47103757.80532637 10588578.023003861 23679091.007487677 12235677.6453428 8305663.9651073115 34772991.84538325 8719139.906338667 6950756.726661941 6983321.359935484 30639929.923650563 34795758.67725789 14072403.101324534 21409203.67738318 39929301.23049293 16360296.68270899 41704585.04650886 22116256.063282784 12290007.820459582 21620582.773904216 46348816.98714666 28999935.517105464 24259106.944219526 10963764.295155536 31442799.32471231 29207843.594949517 13518661.464930259 32699664.636643104 36161363.27828156 37197134.59943514 23067172.723661423 12795659.382730614 39655101.325260326 35235098.89771888 37815293.675609976 35314896.874904186 1397323.2192337178 43015358.12136103 48506916.728269435 34803530.18226131 24994809.51190875 12815262.682868078 25131676.130776025 32834507.419863172 32090531.05567632 14896190.201382441 2301083.651723158 17802518.6473074 33777353.2834873 22533068.887789294 33298689.389548294 32744973.95357664 30847556.958939843 51354548.50109154 14212296.634438695 34116537.368551604 40456965.803968094 14280515.16644398 39664424.076341264 33406181.522022728 6690442.075161947 12036755.869399041 23651783.504572272 16077223.844372924 25295912.085653663 23301542.595167633 37918161.42651362 104259573.76288736 32359667.573273305 35210124.94726033 31500365.343354523 43476452.935001895 24017841.037035394 8218282.477652323 10866217.35186154 37525501.35691444 31290758.72273394 45851329.86526157 11044887.077350121 35464085.30561093 35107718.811465755 674120.205562981 53421084.5324773 29095230.60413833 22837758.908786293 30992656.93356762 36059.56549715125 37555274.79708797 29182285.771594573 28398539.64033017 11144310.153755896 20515133.972493924 17026280.639336064 21753703.255945716 44347889.30348093 8207617.204202868 23529394.833033014 19356919.037751947 32072639.973827705 31095844.506748144 32854116.56899593 10983996.805367457 23815129.548127595 39342889.970825575 5364912.4323569285 23917485.892112207 33721714.11602313 17404157.52721821 52574085.927773274 38101970.954088636 39952589.47469931 57241588.56302479 49381814.36778963 37293045.03021468 12324250.672672007 12281435.704501161 37208081.70016123 2466486.65664076 22111889.253217917 22023843.931401998 680718.0484624385 21877524.633607306 24211273.44875165 36291847.156893216 24974796.765093148 36029691.280715555 31765302.95610851 1797446.810560003 23451475.965501294 30565725.674984474 16182746.25736174 36019564.18728947 21568088.222886156 17486954.805423062 26727728.692313988 23505341.26568902 39219734.83494988 30936668.05818894 31139745.409393463 41871326.60242144 45974405.15678242 46608459.386099294 45153181.817104325 5045229.121894834 30485106.03463778 3134900.953867074 22847444.4669519 22846184.1711356 30044987.71031867 23895411.497996736 39319711.13296747 41092068.83143317 25411651.50214831 19356528.72115508 26478151.25883519 15219176.074655604 27556300.73854025 30626965.24403475 52451802.35205594 27880344.844511002 20453464.398416836 40824064.046897165 24543739.078446392 18211413.966301266 49757520.89209549 35685566.70696525 24282705.56041331 14470415.35121664 27863117.43084983 1364631.2376333065 18503253.700377885 35606262.93406024 11346843.318917835 34833350.20123959 11016227.733914627 5624415.83067736 30609302.882351514 13641460.69002392 31843248.075784843 42914560.59813832 30876347.877614647 25260888.89682125 37371327.48090947 34414170.945906974 1892303.0531423397 33745402.45010239 56243975.89444274 31976039.70701035 17940286.490586314 13512017.864831306 36937897.40607113 31093710.83575838 11886098.268088495 10587328.271366784 21395577.70328653 17486589.776460737 19141405.5355864 29415838.255802866 48284593.86056744 32572481.390079062 38910050.00707684 28487739.41712829 8339341.304263926 13796211.70912229 35878459.77838462 17284818.811728884 47889387.49126123 25798086.40037847 38505523.34255748 23419301.4225082 35277031.62099069 32601723.61119123 11209635.981307665 25218904.01434318 5281746.482194096 32820898.2677474 27741051.09024081 48182038.41222975 82671869.20611262 25024657.995492697 22784391.989308223 21158934.09136722 33429311.97562395 23135259.547404684 693607.711979314 477545.76696568634 33518724.946655717 46872729.80352663 33147595.201744296 31645406.0851276 26702546.14717594 32822134.36517488 37149117.48202706 31273260.566193182 16184516.337599015 28815200.924924526 25446583.613324583 33248465.71039845 26781832.72025428 15620089.963710684 29879320.79117036 24496215.001420856 83284900.31782503 33096249.912934016 32825501.107567776 32528247.255120676 83069432.57588036 13581111.579828637 3988644.083441186 41903810.551817045 37337018.784068175 6476498.937733447 32594400.15213846 10682380.502002742 35866033.44575505 6200826.223936359 22036213.417051982 26722190.35251433 3136716.639805324 27814073.049389467 24847030.723302778 21345566.971935514 37511975.475460865 21921721.16323332 31100769.58391176 38400094.63651008 6172891.964133195 31848091.00316949 29591141.971750915 31318102.73487765 24827624.123566184 26107972.61264207 37530525.62938352 21649809.29569327 16499603.821667679 25102181.761279706 2437202.427226701 2759504.7428883715 38645377.71901326 39198308.32549249 23665285.115646776 11004854.991289312 36426610.14397263 38141143.304315284 7231906.070144914 16125201.343376324 20147626.568554044 15619796.509223389 31681757.90614984 5373952.0996159855 49587797.55423194 39599737.780061744 112242994.9045424 20085416.708612736 34316823.104724206 34423309.57032077 21603627.704312738 49389431.726183906 35527460.83432841 34131058.28621053 31267545.34209065 30600580.888793863 39475305.02788457 50239864.41245218 39547070.98115631 32266055.288557455 34032252.98699887 37327136.70579745 49115682.15083042 56149625.567013584 30164805.841431912 33307565.68846418 28137686.179603767 48615243.93273393 14351207.217808418 32085038.449968934 24887944.061954282 19556754.48862725 29122637.65629566 34550041.28548258 26714066.75014684 16436488.648432141 21545263.445656385 27918176.729527093 18832394.643625185 1722058.1530006935 3793583.288904604 42308520.521474615 33726293.836266376 11560433.446451725 28664941.887742035 78393490.8613019 20506506.814943902 5020821.906254296 26203229.590453357 32576677.150185976 39203159.09353974 14860437.89779778 36486303.35738646 12178505.855658108 25578609.33465012 39114582.75471965 48070215.10805189 29199401.559929546 40969622.299946964 34537259.47107244 23751806.831362944 15592889.52898524 38815304.5272225 8203667.7609836515 17074114.475346424 42997630.02781539 39434722.469709 13430058.93680437 12957441.81743908 11465247.817119805 30226327.684826754 17442656.48602302 49096023.377362624 44505262.889571786 20318403.707039997 9087825.407075921 18320703.246531088 18848662.247626275 10532058.284131454 41539060.90370797 9057156.995959675 13830825.320807885 44802720.75234372 24647746.223695498 36375252.47315606 16973367.371163134 12368190.037319148 38975443.008353814 22959495.125425532 29089262.495677136 42640238.258685604 31846586.376701675 16119087.919050844 4837357.732580197 36128940.4542263 12985202.170737265 17743149.189247258 9906862.613533104 27386401.04544027 51006941.565868564 28163180.23882386 3862959.2454585214 42212882.69110492 28506963.59108682 9702054.351464016 31257960.657531623 5183853.610590079 28729530.791640766 11719566.712540427 24691258.21520268 13185147.1572457 33530417.595360093 13661558.57463393 29100829.4696235 43711879.19205784 25527226.67335828 27119602.813118376 36061556.17631708 41841039.2707866 25008175.885719202 28648112.455257542 92367652.90131888 27949179.758339446 2576133.111013589 2466809.1401167503 25821230.498657443 81072438.60777825 24445667.39519751 31366609.72479359 25074527.977517255 11756548.797704818 89954640.22179334 39241567.76129997 4598048.107142913 3266253.90719849 19888780.604903873 22896169.810357437 32554001.379367504 16877373.528358188 1393045.7567963332 22727883.955885593 27727701.882094238 53603384.40147369 2487827.2053469704 28707862.48547133 37968145.26805996 12402475.212661574 28006462.822158564 29221531.0083903 35543634.99438513 22736820.36493289 11952361.10239134 28114439.84050754 10600382.80119575 71080932.70618863 32091845.962307066 30364326.948588334 23853837.2614328 1619809.319553409 27396762.026951507 1259033.9728278972 29290814.874867152 37937223.165094726 31281266.7642708 27290058.984958045 38893675.73795538 54535291.516325854 11800256.077698393 21863870.691451613 41177573.15567055 15090750.552125933 10278674.907715967 15372424.17868258 39418059.343516424 36714703.466887616 44162812.57499443 36216079.07765879 16104922.932339946 8794292.32390962 37358551.88446422 31119195.178762116 1216643.0223366462 19646090.4761364 23514805.21136348 50560412.66736235 21053613.67545545 36165663.28864555 16079086.303326108 7263716.6631118525 39265468.09702255 85851512.71769223 21190258.57086093 38456726.260563925 37075295.94789691 33523016.37169392 2329567.802682091 11845549.640156278 17906922.189142708 6524961.410170304 37935287.84762074 23699846.88677229 1390404.6765579581 30431205.228543974 27592277.560855985 17267903.206574753 19449454.42430465 34518154.73653813 28376328.38619845 8664554.239525171 33238919.851412542 38501167.40561894 30484512.429724857 18685032.375902727 11790055.857439654 17194909.149003435 21784876.430010475 26250562.51344304 38760105.71256035 23726269.98853499 36519511.098687686 51012265.36344083 26545148.15674186 13801291.29564567 6410149.979459557 8229030.897385346 19832243.797602326 23346974.184513632 35679953.009167716 41347665.27118233 7480250.595953419 16262833.844956903 33013878.700657535 574007.2476486448 46939932.10520949 32097540.858270865 39289779.97548196 8390176.414840912 27450168.85059531 26852493.155827317 34096936.85146984 26308420.117402095 27446856.669154678 32493125.655722212 38035405.19899805 23786186.94968463 26673130.131768323 40592664.73557475 31471662.635459572 41238974.16036416 34033593.70469955 35563755.48747801 23786294.17939089 19219831.57208354 5635509.877570813 1030164.5644299071 6069849.84315693 31003371.58052591 20171702.88206646 36536694.18998639 2381019.269031002 12254394.605776025 26826591.532771 12353942.413318513 20333067.436253108 1551185.1470053159 3755568.939976718 70496714.32624082 36098062.42430769 34572586.17877924 42698638.17469783 51082864.689045936 28050768.36097067 42761261.40495896 25202055.152583558 37569396.22797884 32716386.83013015 21989142.423138227 4983571.984822966 33740017.709241696 22413193.821315847 37288329.391116634 25871869.612112388 7210635.969711736 16861733.487604402 16911035.777819194 40678787.88489103 38819162.05693377 39695356.79884503 18170332.441384546 45108524.73050188 34224672.616837405 18534866.032633904 50747659.29385948 26448078.638698667 5993575.375965187 10071167.671961967 31934220.959763367 22969487.331712414 13845516.480363457 21611890.32845488 18665258.943656486 28188090.32592081 42049697.39896269 22763431.576894145 34664683.700108595 35667097.73493285 37609267.41173315 32305642.51402129 37210307.82060056 17721734.096010346 2011991.637152695 31077445.046576604 38059867.080552444 43214755.394278094 6467245.009273219 43836116.71327582 35392773.39378119 20047864.572267473 11265167.763543693 19707516.866949204 11685964.961236972 4812023.966603269 32539449.78775078 28631570.039889865 55125822.65119447 2541372.2138816565 22581043.537888944 22958899.20750495 34949107.84071457 31402140.292236052 29750425.302116375 10121530.1188161 38542288.62198323 38293431.36784369 85981636.75089116 35067042.82445498 13974322.47315762 41289085.82186386 33858180.372827545 35195775.72958964 29223476.532868665 37493098.540682405 40042863.59472218 16242087.315906594 12054294.993083097 19141081.848121446 35304963.68959466 12811691.125739863 30863174.919668004 11666723.83460337 19648751.171824433 18523748.165292714 26275234.127433017 31695168.802541357 14858764.522700848 39593328.62343322 6626233.005624765 22874864.304937158 26180939.513416864 11990791.993777405 27420088.123905808 33054413.613674123 70761386.215664 51363890.704620644 48536228.03580082 35440307.83422675 26346742.99186922 36841817.63193958 63804642.89814317 11257215.936824618 10137496.212000642 12396681.837564038 8335769.566580405 6250564.086869402 8738561.216050612 30433556.88724748 29841164.86242631 31955198.04058341 10518026.00593429 45861717.480233446 27106081.464367736 42371298.92036515 31476721.471046004 21517137.59116946 30540180.935713954 61219367.44451754 32684797.28277758 70196217.56452966 16010541.120766997 24878548.747465998 40770529.49059106 34343966.586266726 10039546.758608345 51753388.70176419 44689077.91324219 31630714.08450255 40781817.09930751 19051291.83071363 17495292.619693927 16875637.40779735 32298589.52903186 17215281.39744802 31426604.873495612 22357322.359163903 61492315.22472075 31601119.049817603 14607701.156716911 46731277.43905282 5980487.798428787 31372140.85939715 24027829.22188671 33607587.768671975 16799592.041204732 38194376.72739183 37949715.68534315 32825127.99414222 11992579.26506582 39868267.69117667 21795398.952003464 15758782.389546799 79130620.0419987 33794212.804775305 35173827.37918024 4449148.144110575 33310355.483026445 36981591.37414439 9786342.569191016 30469848.434036646 19970574.281893652 24350043.522850115 8315298.486260888 32186282.75909366 3188680.9542565793 20808114.521352306 3357561.435216144 22010196.549867153 31965426.63360787 30193233.513876848 22276688.829829488 11992165.488009084 5359798.909317361 41145843.5446719 31522130.78407212 31332133.792759117 42505848.12150734 25107583.526009664 30565543.164816894 17307980.133543257 14800657.942724904 14800169.666686837 93550551.1684833 35288298.17920785 23924765.49277564 31732749.779100616 17644579.362108897 34073552.05257892 33160345.746128958 18739042.58060949 26294036.528328333 13414523.739008833 36101139.739193745 35139019.8373755 34730950.77403546 24157518.622295372 41994821.25663667 39250475.37698689 44461437.93630669 19145215.16635751 28860109.3220901 19324665.036697343 22652216.576398473 47214272.16272317 19241326.366528455 38565419.11777067 17015464.07582525 31104668.373929173 23466480.96349887 33716440.02446994 24035054.49854458 13535216.390252125 36231993.9865689 42774726.5753687 30362921.743914604 33095013.820276737 33685510.676389925 30718602.278153222 6058122.43426847 41832801.729925305 40676191.1681967 18972904.803278014 5319857.284356511 35886390.6359341 38151528.569307104 35440871.28250603 31097890.270865966 53913337.015178345 11537327.268010452 18574579.478153173 47174103.6634014 35536100.3043672 15731158.668859955 6373754.065120176 2280679.9765246795 22433429.975325245 31814707.83447414 30785810.124025498 10618459.88462929 32904091.683688276 37934444.47060223 3607683.693304348 32556480.55066463 35197545.41397146 12870641.021106219 24011640.871664997 48849787.977560245 48763764.38564549 26965153.26177611 29539775.73879582 33098577.15887474 32511873.98820176 28564203.493684415 18313079.31788273 28618259.870435048 32949778.6774669 33522032.76856898 33430722.391411126 18425723.559804693 33556801.84432675 41951302.926826485 30543212.82415957 17528935.32252092 24085999.86041205 21401673.98008793 32079415.798023608 27516546.850721978 33063152.82139945 18646353.872486964 29509644.30775557 26932163.300465588 49468128.0276142 18816661.59828344 21172385.29589003 39824252.2957235 21993214.083747473 27405373.128867574 3851578.014542485 37453535.72108395 41178276.157055534 17394463.78312794 24502404.647396572 55858636.65823191 23878382.188597675 26641387.080861922 33888189.3549976 37119122.90435623 16591809.157670125 17563923.963558428 31817247.795346804 39832547.147429936 7619047.482617027 26649258.924470156 6378693.351005634 22522954.927813996 22802106.00120142 40237702.94298734 21822903.062749974 8045907.755142447 14077317.043130487 56575631.704416946 54092100.18778633 12458399.804638494 62185796.72127363 16301629.508298194 3997513.174568827 34230655.00144134 18593334.464537933 15274812.487087702 32636824.120811813 28926517.455195587 36729069.145803854 32334352.199574176 32823644.904540353 60863570.18819074 25607400.354853097 18051469.48533964 38229589.75414002 39612329.51943804 8550328.72440492 31372939.37678221 27920250.318605546 28852407.40842787 15103821.585496146 6661823.574495871 45260129.251363285 28263654.890703004 18138906.570226718 44863257.63666279 30123164.1241453 35896792.190467335 333780.82326407434 22326869.455930673 29128947.100119106 33296417.98617799 24710331.11916324 38271402.32352821 2935231.3058107006 17634234.60243468 26554405.488533948 24639021.791582614 77353051.9909565 27021958.16493243 2597839.557336338 40558384.06264139 26552665.167694364 15478952.795028862 12260173.464617344 23212966.709897082 32367426.246900078 29966210.692803387 20694581.571548868 110025598.75089447 40227825.43738386 14664480.443282593 28154429.320096947 33145110.065597598 34209569.77851065 10211344.943685438 37838012.675554246 47892712.82297247 16149604.913426915 35657676.295942664 16125794.420810994 30152018.416201696 37820141.49087804 12944095.16829423 25309681.80158679 19465381.91027108 1789875.5506619662 27677780.07323033 6553793.17833999 21561315.53766 33234757.371965177 77706185.54409948 28943188.255900677 38209119.84867868 19878663.913718544 40623031.13859147 4037592.5241003092 7924285.092316204 19619462.916881032 47073960.22785393 13975346.771085726 25767979.57361023 14810299.00523797 30720787.684242986 33238277.66169378 14754583.395824887 2277526.217742385 40783645.68144857 8429914.810017135 40139268.21078021 38601352.678600736 43740837.71304787 38295679.50148442 20976256.64143146 25436958.13536719 38536900.154531896 66594389.68720802 53263095.566985145 33489270.54149199 11196563.509500591 25135059.24400921 32668768.97541639 33198112.4437375 38803456.476870835 39005015.166559994 56506153.63381607 37401736.52499978 27181376.82887288 22261165.356664944 11465746.226966279 13343640.881733803 35465949.39121918 38020276.19499291 46531214.43367886 20004930.68872424 18962707.001446426 32730775.133076407 24642853.20250577 23350050.45868911 72386508.54252055 45616368.26324624 34497933.60926812 26809452.14945455 1794348.0779023157 25781301.599778835 22474181.900232773 18287167.454037145 22455080.064302783 16103180.192489857 39083148.514118895 46351232.1985591 29262009.12519558 35905894.86435123 23850314.093335412 35684131.45318513 2522534.6403934336 29477634.66182352 53696091.552350864 32813256.42469539 3172367.6162238205 23834416.834947508 28648739.092364475 22305227.829567846 22375770.130170204 33885735.17391708 39617389.89403306 32774557.068394646 35219408.06964359 11538848.405289391 24459967.015575804 1855883.4668801436 22107539.216901075 33755791.396324836 39480857.01800229 37132947.15700578 35599876.65463905 10004052.19002258 33214894.877997804 46619971.202623844 41830623.40126532 12916566.158443807 25996300.346624974 4387502.598254408 26072067.94869598 32679150.0123289 24972327.3965902 21188829.754488736 12056458.798356574 31271096.734387353 67330157.4697581 15260989.1846676 32409874.269736823 6290138.101676065 29418253.674111526 18359787.471449908 63731885.39628102 31745827.248490833 29391869.538225245 13096965.611033687 4575603.690273874 36599524.641663015 35586186.480681024 19463955.637079943 45776115.53714514 7173604.717286577 20294280.758211978 26558803.219970413 19193566.45008359 23557926.628674816 27690047.0532167 38849348.43302899 20063338.609720238 39544109.26013666 26190602.092939198 10403003.662026152 23759491.504672583 33467404.71225944 27132982.546807118 29150917.182712425 30733146.983455826 38387021.638840996 37963348.492393814 5794066.444582636 12223643.165188858 32524533.420285612 51015233.23291423 12115054.99495029 26235813.54181548 19791853.086793017 34005067.7372432 30241943.288309 23672465.972668946 26658866.9026814 12704263.418892846 39122443.46995044 23819173.769837324 10702775.53452356 31293741.13801269 9461610.824923186 23139433.97608631 14252181.011852043 6143638.209027919 32050747.29951932 11192934.8631733 16799685.718411088 30850574.572672114 32065592.133573815 12435272.543312857 28833409.469675984 16526980.035436835 33460485.895259086 29612686.44507791 35248154.611815006 31905371.42151979 15257241.99344755 44792259.45435394 923995.336292288 69284172.29506572 36824079.42986202 27143004.02592461 37917550.95588979 34396161.11779058 25717479.55278316 13433131.435561668 14012912.773438763 26020582.812140863 1013928.2543435307 39504040.005612016 13725265.539138112 22766870.633119345 3452545.968080081 43799625.18878203 34208454.55443809 9443864.770006115 14161054.705088269 33353227.106430393 17827963.587886706 44136454.539392665 39958259.908541836 23728611.52619143 44265033.08410416 38778657.45527481 35265569.49729471 21281406.40840891 17168112.930037253 43311477.898207165 31871589.656813607 7984655.304820099 38052414.63983458 12750101.489447698 6372452.651936945 22380793.23904328 29395324.4469217 24062105.984445844 32070409.048187893 28341997.645380396 38897540.02061717 55574151.32239864 38530149.49604247 32056885.21045258 33364304.342352968 15910019.831402162 34129534.441619255 23350371.45638198 58273360.693637215 27125262.359824248 26056632.016365778 10328479.655792462 37469657.91329 18693951.514093965 33858161.251532316 35900985.27232293 37364918.25544967 25231905.126953546 5895468.561512839 37972278.57309995 24387051.631418873 42892735.50097841 38437138.854525946 33694976.954210736 6677304.437352597 41304523.41745436 37502645.00667805 11660402.718883347 5838904.196100128 13673173.526214816 9339768.040113436 36244089.91502447 6193442.062162445 34065561.790973924 6747747.295165021 19976276.955892082 4988426.470045271 36486677.194262564 24766284.52376848 534261.4379448664 38016630.08030868 1818464.8187298423 17794069.907121297 33000045.29275201 34346361.03424591 30856326.31909441 13308516.437303904 18691845.454400856 28185406.598116048 28410468.801991925 16483590.406068562 15348830.525304055 60011697.3741901 31003295.676563375 34755231.591378234 45699194.148915164 28109929.06902909 28269549.27551144 21209435.65892481 30473361.53951439 54216001.36202237 6981065.154661376 59469998.12695581 34726181.59843081 12813576.924914109 6376320.074075627 71829911.02453434 33187204.273220513 26580914.449101124 25157462.118773617 15377903.037498102 19124464.151379697 34738685.59198024 58445257.37377368 41200418.28469184 33801273.849429764 22414063.332139507 19431013.977203935 36771830.737063326 5376645.937148012 15224861.753590165 10485792.997705642 7532883.498678839 33383452.430706065 38842292.85792656 31406180.19721985 19189479.055432074 37495412.72123279 40203574.23658288 25877763.064101014 19691319.78814903 6861949.421809469 39295073.998688705 2975035.6659462457 44790126.87868578 35112214.66126121 19838460.01504395 31983036.76872953 10230615.701524405 8766706.220834393 38314614.74542648 33826320.61660556 34571610.50804072 39780282.69988011 13362491.179124475 36562380.35956931 24989706.85611027 31191222.99131107 13182697.982809221 38966520.21005977 2135172.0378940185 13332882.615120059 24321407.06476519 24724274.24180936 38540274.427183464 22053277.176445004 29899936.35430603 32437998.392269388 11545037.873481156 22144509.279201385 25336424.387975834 29606469.83115742 34011874.00206911 16522653.11194944 10705785.397358285 28123625.22237634 5404685.985045715 57413274.65024348 14936954.845999317 55560143.2885851 14864124.864870686 6772700.568371954 6259444.801028114 12306087.247740656 37305064.96960753 19643351.51059508 13088708.833624389 41337472.802769914 25957232.054114617 16815224.32746289 21020758.095642 5839709.309692069 27357551.8432455 13166591.110774325 34140798.16604851 2687378.1004084726 73467493.6672829 40428092.30941389 29758731.380745176 11576247.124607375 12139220.203552213 27991523.633346707 4329634.018982736 28868606.01172908 51341223.935250275 17410864.014540117 32493182.794219658 15613359.05391143 57731262.86583149 56904220.41528822 14119580.301029796 33169517.84556497 72295584.57709569 37773279.21483551 19604182.488921385 30849958.792314112 27863402.335314874 35992544.336567074 58879511.44970523 8820976.760972718 16812803.925044276 25077146.46320021 18250666.100682408 36288301.85487342 33511965.62423813 17451091.70552067 62144210.764251925 22361895.946376488 22546503.3673031 26690507.28630482 32783295.60607144 4689691.375072234 32689633.18419237 21998349.89494696 26828846.865194537 18061973.900524713 24359638.749727536 10375256.832181523 18206511.671115365 35577811.41936623 39084362.6350413 44661625.93415869 67403758.13994461 34839271.29398214 35065228.234203175 32560318.66163897 30488357.69133912 17722785.43930475 18234089.973450057 4347898.126842571 31332088.92807318 3777836.6668554666 24790823.103468142 1290060.9953184458 322461.9239955117 43421769.37188347 5696750.938143041 27179045.350978117 6130514.645184951 27568043.34934502 21416794.086791266 29308696.90483549 33421066.697208792 36208634.64619567 40558128.55046306 44503658.717785835 24979043.071489677 10199736.727737883 7108159.725437973 34160035.50648574 28828840.95546717 66777366.2034992 29547415.946422447 20389157.503880497 3437318.4151333096 32811331.361672994 45154835.83399509 15642093.512069095 43860478.365049005 35483981.721941546 40891143.30121721 50854645.56961737 53610838.749171436 33162762.132739626 24202460.722926095 34083372.559288435 32437674.016611837 80943901.44879498 37216570.08818269 39986356.96837559 26274439.009940587 33055528.21299464 19637681.10361042 12943597.651587076 26842387.341077164 35911291.378310874 37584669.898862354 4438622.165104759 21918679.933494017 24554407.630902242 37325340.50999679 36673072.87677286 78555449.88559763 30403004.42812085 5017935.433042008 4769498.7017531805 36270369.16766032 32715592.424270395 13987408.482785447 8584132.582010899 37483273.38955721 11647519.637378996 31824313.6082639 29644544.690626018 15957226.953011552 5679395.678210789 17823562.6666963 45511650.20242918 31153816.418832738 44295645.9429952 46301236.55597831 58112658.85079168 23086403.04630401 47014988.147243105 47772460.774043955 33264585.134562265 28355345.89555783 24354486.48059385 73326420.23051994 29500099.039666783 30668015.61801346 36823493.129989736 39477808.89362967 57321566.92578401 36628115.20332029 36154689.49252962 19893254.629875273 28236296.02835215 66791332.88918984 19341283.87715494 31811393.512220263 15117410.247547789 27770607.79491129 11354474.807649372 26681493.51887095 7196609.596747698 8966126.743137008 24251989.682627495 31602630.40738276 8901115.628990127 23196455.746515483 19137991.566615175 10203392.134139191 21424565.105932005 7240053.262638782 13178252.989747318 17413378.44539538 45337484.52043404 19726493.97580629 22782435.60211932 1767657.1408402177 24268087.998201925 37202621.74929852 18298045.709534135 11432758.5225988 37771650.7358282 13072429.855234498 45378127.30529037 39043646.006970495 32218032.757307146 11510921.382501632 5703047.171806219 34297390.921010494 28394697.990686387 8391710.232824614 37732146.12353815 216884.8923039343 26178052.95944767 15480624.459122537 28268929.50036133 40053376.06424903 4553952.1572050825 1236257.1352937068 16622707.60151435 32524530.226217262 6574023.051366171 21846754.558984403 32889585.988332734 27923591.28297135 25878251.403230004 7904429.350365873 31384206.411023688 513677.17182608857 82357881.4466178 26344164.78615313 16088345.53144094 60779279.64737163 35127661.634495355 7744625.222144944 36554733.58218587 40005129.00211345 35128551.687697336 31339644.37018975 25465190.580318827 3711915.8294439996 46072963.83578439 39350982.13156939 25612997.792157736 14176451.23185951 44090416.13190767 36706723.74965407 36530964.969623774 14269017.267154315 15898600.799864804 43387061.63156633 26527993.63617374 22966757.73818305 8087277.07792704 32353881.780081216 1704309.690823974 10555073.489952805 35615483.942689136 19285884.23369132 34693892.016675845 7051251.434211571 21338351.618947 36713544.93985361 37653821.599631496 5297249.1244665375 73594808.15533209 13492764.115855418 28562886.92164177 14339828.644861054 35675947.286453426 45700846.304805085 35258042.56897148 23044884.311133873 1201991.9353610927 18576299.233771265 32390213.50829898 38827230.926731475 36274143.04928084 15829080.611372443 17892825.457193397 38093546.28868465 29050383.671183407 3219131.7284026113 30432174.41114753 59683627.37181194 18113632.740120377 28324223.284659788 58401402.96371592 28504273.620163783 67310681.32849975 999782.5799691606 22228607.74484855 26332578.192936882 36541903.66692958 40039347.92675831 41701563.3538643 38256542.49870592 49618323.63763179 46555017.2085714 30628313.46997915 3107591.996827478 14430096.094421536 68765004.58611064 43214991.47288533 32177235.8443067 34865444.01309721 14183039.290517127 31953090.316249903 10017672.906411262 35087760.44619743 25942377.235126976 26831109.189142823 3318496.2223894983 7527443.403261842 36670688.677559435 32602952.171871413 8356491.4534783065 29836399.93456859 24844525.590421606 36588260.74887432 38739006.6043498 32322161.01393548 6239016.754621169 4503069.717431813 28777437.787640374 8989134.28336893 38320698.60560972 33343233.49824006 36650462.955732904 48455633.49861465 4673816.379976728 24585391.17420498 9266782.10921182 13119873.142564869 11505008.300193597 3152151.1417493727 18944406.398036893 32408022.295047875 27358765.101366553 8078526.969675792 32380314.42304253 36321684.04461948 22909241.334001064 43509039.28632107 32416492.345834948 38212766.48453486 6685546.384060076 27894460.588271007 24532248.246806126 29091563.160383414 32367436.23144244 29194634.60276645 45582262.60973141 32726248.376946542 26009339.44435225 6282266.811459275 24816459.48685129 34128949.57975128 11886584.750055257 36968435.5425234 22994177.43765789 33326046.776997827 36311816.585990496 59413777.71330605 19602538.196309905 53219115.51747281 39282272.39218403 31678801.059487022 4020355.962548754 30819655.104382046 4564130.041861004 7012902.266889975 11424998.839822123 36004648.69673829 25880950.93724099 776261.8897935844 32439113.972211387 1994354.2053215497 9162345.103058731 18279263.065291643 18090043.214462146 33942812.22705365 59547072.27352974 40809998.7160881 36908431.52058811 49529066.25289167 2836119.2823614143 25058398.61165965 38531154.211868115 30104264.913196824 25842770.27739867 21519407.877175737 32010851.7528168 39005094.88816833 28332190.069661744 32377451.22329211 44258952.212795585 9456946.310401943 37464049.829504155 34368585.20516159 21700440.266088 14283866.789202513 34366807.10799634 12663606.35817144 1907904.8048678248 36165617.19124628 24715775.868766703 37673987.803741515 25533955.219094075 48047358.20044756 36687652.86535746 18678486.01138079 4017641.073748376 35044989.13931679 12790682.7451175 38234841.48332055 36803542.10771039 57969455.85176918 36569353.405398875 58368142.98455589 31180093.022699192 33205890.99785141 17432069.882116687 7491495.309696827 30742608.711938817 15837673.087967182 13274751.871284494 25922607.41419535 21694408.68507651 22434262.855772316 30458055.898046885 16776206.306602702 8193929.063286709 41266882.35006564 34976639.310615286 29675531.439014845 33721428.17379201 30286607.245003056 6680818.614209731 13428628.819440573 11471124.285214582 31589076.834883373 28423686.2361413 31896306.67132801 30921188.110910486 539987.889399648 38886999.31445574 29703272.50079245 4634553.309015726 25878008.330980353 34489892.71431224 39489645.382133484 40989970.46952426 33675141.868841276 25098572.652256567 38156453.73366732 30171873.615536988 89740736.8606736 29777548.88771036 34365888.1061296 37129240.49134245 57152535.258761495 34402264.59258949 18901244.089902237 19756483.453648403 18638600.58537162 9029119.915195594 17108710.01580955 39166744.89222948 86314726.36996126 75780807.8634571 56428373.2478676 42205552.68361775 34829975.12927995 37137247.772254795 36838078.374830514 21382643.44420071 38868304.08267715 3640160.870750748 39812841.679025434 25294627.368557326 41300948.64358614 13614431.38086479 564098.7162671273 37521258.83609758 4378551.473503023 850389.4353326855 16788025.513634615 21289060.199725363 30347170.319631264 17105779.18551067 33821862.724990994 6917728.963888104 34978800.21129131 33659653.58567308 32147735.603670735 54749377.399791576 40494357.269402064 45490260.945988834 32966107.740882833 62774172.08160888 2601042.8567279954 11163231.663056206 76885614.50232783 41593930.61882967 23433140.917661227 30319860.734884415 36462003.716033556 31598781.7149614 6282926.460899848 51089325.50481657 34980002.31573151 40465466.172218755 5394072.9855482 5102285.080392449 36128899.55532707 45891700.28322741 14276360.227003451 32199103.430933017 50878854.26016439 20820982.34947965 43423952.11001762 34125860.35232987 25872971.968781833 9473920.765451726 37100803.75259289 18032737.09771276 38890072.71423344 32212343.40163352 37041131.40120317 32699446.615432944 50649195.455310196 37121670.27064013 23550929.568107367 29224293.200894967 438900.5639213704 19586350.928973503 17642167.168274473 38571757.9206685 37602615.544402875 39174325.08954727 27519324.054563448 47753282.6631366 28372917.22734037 23965967.88067431 37554291.293303095 32945190.591558833 1402212.292990323 10175502.00362143 9860676.426401084 36495604.95803783 6570161.270084648 39681611.672731414 34771658.10997374 20965677.42653333 16186874.626757128 26784546.884240303 16055332.647218047 23162342.527290802 57292490.97245901 49626514.52224995 53397343.82422894 17296618.974867843 8217688.7693547765 46634537.12945145 18893280.47435824 14594800.760519978 3670615.1887722737 12441129.981338244 28688331.60817554 30204160.37800139 22658412.501041695 34894245.017611206 12727850.712227983 23585634.984787356 13584089.631701553 22213180.37459276 16049218.075948795 64333654.15910605 27658698.414553065 22599671.165847644 13161138.647197494 15215208.69838079 7371183.734490893 11207452.494661422 22480127.926500592 24608209.020277835 23195549.583612543 28791974.089618348 25793092.711107712 9913992.780474775 12843510.35317248 1741448.4238594589 16253020.32395581 2720700.036190056 23790719.68995741 28296827.370485198 66332551.20882728 31370231.57159609 19191912.634299807 34895875.09254617 42444980.367488615 33864347.6469505 29099373.09540636 31122516.34011292 29615596.720885772 505492.8239797332 30351416.587338954 38882502.962269165 40221123.153317854 1325578.4906320276 19181985.029482644 30387574.74225708 13693943.616084488 5121348.191054475 39632908.73702072 30621514.454654675 15136312.540398955 22171982.640662156 37452597.695924036 15988136.122390023 31787862.846953813 18127167.309070963 24086188.229940705 76066798.38611044 32731178.00680651 30353583.978136003 37520289.64217335 5832760.698410973 23078695.261226326 36713592.75332015 18230217.021410372 32227787.599839233 31618892.473317053 54788217.10816953 45064594.425480515 39027227.03202568 31402191.01110461 39750579.22296366 42918652.49614221 9035403.31845445 32796478.613363728 31600482.16741014 35232262.02514915 33063711.933861416 35204990.91707847 26687933.366386473 39493730.057366766 23391510.582967088 57629795.9751818 10313318.104384542 36961031.781078815 33967955.406355284 24032419.795805767 28753259.90331297 66702003.90091008 43533810.41975137 13517896.769261593 15127032.712910598 23735369.771093313 9973901.551016826 33675669.84969983 54359304.19644699 29172514.10778653 19966121.00838644 21875419.35785575 43759402.31527518 3638792.195430879 58223143.681883864 11712451.13947448 35352906.75357764 36757273.647573136 33397729.37792411 36735015.125664994 42128155.606779546 23706333.820758693 21071399.75880467 10370368.691861585 29559759.859422814 3276041.82512783 34298875.78345121 36754887.14131657 31931269.669060722 36801002.82985026 32454648.55057426 17225317.945229255 29779611.566244423 5264557.9777915105 14761396.616170065 30488083.209766775 36950338.54983553 27705678.459156804 31847745.66020088 13402338.865098488 21924027.205903165 38002217.5334678 19749310.5686489 37528650.20577308 36967758.07556611 20787897.252820183 56610196.29636519 21811905.174289703 37742053.70596276 25203167.683523633 30733660.247679807 8791079.982654326 51473475.888639405 21839329.6019856 1243495.2111133009 31271036.043041617 19595653.578114044 39864770.862928085 4983262.272199819 33066449.890292153 23474685.27571359 38830002.95031116 10207955.578351965 12233706.25423745 27787726.994678523 33183474.745479383 39529015.41046273 25045576.88468372 38839048.55530241 37378373.41608944 19959656.427610733 32334284.31813848 11364058.097216137 54483409.42906809 32084766.332418695 5495916.440887921 36433219.19653252 12399589.812262606 22797822.904861383 27693928.66293957 13528473.238079507 18703491.501424454 32441904.08536234 21504065.14982342 30292675.532748792 6650643.9258725755 24498629.58408906 33003636.08007895 16345885.746350346 32655447.84201919 33817146.542011954 34924717.34163183 15370716.195526319 6174200.333679855 23345489.578643568 8796101.071847763 33980038.68935343 3618481.595889378 32268533.481255043 32020944.991429493 5635761.460811991 88375199.58431196 11660557.986004718 16785946.619189583 16926128.136710983 12332193.691573251 31549327.564859916 9334202.069002781 14901335.927556599 9817901.33793305 14471455.253866734 28847698.823117886 39173118.67738769 35672516.26351409 37825097.30171641 21313047.63683615 35399679.30535162 324874.2349939399 16058718.606492124 11706076.352641225 86664708.92403036 24812460.018103074 26617609.80499981 18238631.552620545 33142583.53076222 37817981.731126204 3868262.601450404 32485100.716705054 31653384.39760834 31032565.337761 22556319.965670083 30511798.588182885 30760129.705876723 20839144.90151852 41547883.98158582 33044854.480716538 37607344.09545715 15362098.351878215 35959278.020763054 24968133.322619308 38433148.077183194 32904702.86427427 2364740.820986333 20640577.935079426 29742120.76314687 25871329.26829637 35706788.62378624 1804091.164608967 82195108.09670494 24223092.743910935 25396202.4209543 63228252.12213733 3436242.315470892 62663831.02054957 30114649.9916486 44323072.81287048 33659945.261314794 39089347.040930346 34176476.34078905 42022702.908108674 23144453.672353726 40107944.688662544 33721099.167984806 19895372.52868475 36372695.79304828 22952694.84379396 37001976.35431994 28586931.31493785 33219452.702409144 38140033.45752679 31265125.054283768 30395493.864742007 26766187.769052006 31464455.969640303 23107507.019956406 15423924.830708584 38019686.12777734 12218220.542110188 31518204.353054106 24663587.722218018 46881927.95228577 21548239.523439787 24347178.159496583 21860451.710907735 22120571.961467165 41754623.80655815 42680287.933123335 32363240.06040324 28477977.39495561 39801129.421160884 29822812.975600317 34806588.613945566 20812674.907065738 31563179.506667428 25117478.195879243 37339376.46463525 11459653.962402547 36865278.0752479 1055208.0668923582 27785791.0986262 65737824.09383635 22328763.06323053 16968390.93801624 6845258.24665412 28694688.53635231 39344746.887531765 29275253.355487652 37002158.16476557 548200.6589406277 7509757.293790702 46252285.47519907 33703970.8042259 51131477.70925035 36413741.9063048 5540495.290315076 3245767.3569803177 17344761.09630785 92141750.50764075 24913215.084125537 4023180.427710984 37905936.56016449 10434395.717623321 12409999.246453641 37304175.86391503 37878201.36410843 7069424.204714378 31758248.145409312 26835780.11821804 24565257.011333566 9569017.003012905 23986511.291598674 24092751.28770512 42056751.25821496 38535376.803776756 1362428.2909806848 33382525.19468317 24292970.33079713 24431499.94648737 21414413.81600011 32720981.456089832 31871683.31314271 12148374.448190559 7655886.983104276 13114572.576570345 43164774.32902913 12260994.658311486 41655324.59738579 31912509.267754555 28807963.311349954 41825378.57000174 15161725.744206134 19424687.50622836 16191093.82698344 8767517.580985248 38860473.11384514 37163733.14584104 46539952.877088405 25039409.829907954 698826.4454147491 42408277.02088613 33705961.499339804 21830979.87290178 20484910.34598372 13951819.69233929 40591932.82095228 6529326.002096943 5252570.731033496 35518507.27186779 59917182.57184014 16797881.188521136 35962921.27004673 56842599.62724681 3611820.447430866 6758466.372263302 23504154.94868007 4091114.749282342 14228334.448123297 31485517.058653314 13865978.723078562 34652989.31443925 21847021.912055522 26927684.624944385 6869065.960642368 41992644.83100122 45399926.391520455 16785435.960833114 8976451.00284055 33843018.9626094 14989384.52663544 37498139.34214088 30107091.115848064 46774115.38570449 14759352.876047753 25453006.77466907 26875487.50975724 32049607.356043622 6027123.480266261 2226541.552098771 29497750.664411042 36479756.48417938 14880066.112155788 22222633.984768756 23983436.897797484 31212678.821392514 33078297.96078701 35075716.95818863 34691628.73364487 37539921.03622004 12825260.10782937 25628563.046855677 20586212.610886738 19484578.90626784 20844911.357674036 34457689.12354242 38140592.88580301 22416642.654423915 38630126.32190298 4009809.15801101 12230377.034591768 3178411.6793490155 36087637.7482982 26382064.606121853 38526106.20619304 49504683.0590336 36233659.69447759 32608253.836638592 37133632.619605266 37611653.203017905 30598245.29954836 47073787.10702178 15823873.559951222 32767590.07525396 24968921.061342053 19676323.483918812 24787997.49478372 47270032.384161495 14712718.935807232 28129521.26388413 12333053.6836994 17613422.323620837 31628506.603108868 23707027.533084933 10695907.389602827 40143788.368985035 2029225.4525573687 17092449.918034688 28999943.214023724 27638514.77504516 25434256.01565954 45695056.41696018 39080536.8453339 50818061.38807701 32829781.76159962 38742195.41238978 3414158.2466303925 15458458.18757675 55259899.894193105 31861160.68785473 6195884.905976322 30279889.00206928 33879047.7497656 37208663.06429964 68005523.89416999 16275546.496086584 21928268.41653272 30959234.954955727 23987715.48394918 5670139.868861648 31599913.49192993 1017665.8438076099 47081090.13860154 29117530.930482157 40013274.19066842 37771624.28634551 34452994.68302943 31268152.3598566 12336608.113253094 55356168.34074983 37842741.3133878 37472809.00552477 75135744.32520853 36210708.64367924 58038956.35563341 42569721.996095315 27740046.696380973 24011623.805158604 7368679.366448841 1815122.8265950617 49622803.900208265 28424214.391249903 33026505.852969 36972840.512810335 40481245.809342995 26994317.23025045 12793089.761064284 20142018.705603667 29735689.22677578 9185104.251463521 27929578.094102204 48315925.090844244 26921998.598924503 23530925.04292054 24776175.051905993 22835903.753998224 23500299.644400388 16187189.85633611 27968572.32987806 38042265.86872536 24632745.3181008 4062136.1319446 44065992.36426525 51964488.09028196 55048298.002429076 2516506.7340460224 37401371.105945565 28345538.54299416 14905373.676649025 48621506.96343861 38148611.6617748 32952575.71987601 33012710.502490893 61461701.632983066 11490649.42302253 26355029.222151723 85390574.6650271 21808232.505024966 41820711.69594481 43563589.3528885 12474393.221891874 26831420.385546442 11805579.839450784 37684857.29151584 12393895.105155054 32876491.960879285 36769025.27381543 15626926.187513346 11924262.57067326 6689565.658857768 24269806.380223524 19494197.437885847 36729836.83224165 26321670.83848674 24453302.119369056 19335348.880686626 12765757.234120267 502554.7201215154 2019557.611110603 22735090.598533716 35233357.805495426 21963729.626516927 27948983.200396758 16852476.937949847 10743448.670495586 43319317.878281675 596727.1755569443 22755442.098512318 38478218.87891945 4117802.818447797 32468003.09854403 22071492.52834236 22582660.60607022 35187731.448105715 16724769.565468691 9291361.45837271 36969033.70472561 38103585.74503582 18805886.642490786 77899515.14653735 26032959.831607055 6007774.159636356 7956669.891957965 29535679.586685535 33649361.956739224 28781497.29449586 18639712.099637646 18462438.087827478 32730925.833322678 16760241.6078419 86902817.95246711 38477862.96733978 33706744.6071459 11951372.423179591 38889613.67309884 17018191.051415563 32655013.95211389 33804418.70667913 26158149.56115722 38759461.27522205 42231664.08699094 7540055.061473402 24232174.91380444 53248742.88977112 27075176.687164456 18395996.87013857 41767877.156981185 34022431.25076133 18703956.935238767 77196960.1106951 16315197.269558143 19252181.113985345 37574397.38119575 26529856.348508023 12646383.630784538 28363133.090211812 36840429.7396939 34085340.562129736 37551068.31910591 11076935.804913057 33693545.9598974 15357988.213408807 36413756.947559275 14365861.378783401 30412732.401576627 34064307.5382409 22614164.645523105 8682257.314906605 24280276.70157187 26203720.516882274 21787767.455095384 35582074.70996217 52095209.466998465 27149847.147613604 8615016.767847184 15629676.839907372 12198980.111631555 15645334.841969313 2306177.0810062713 11145558.136625864 15791895.349948984 442375.0886231731 20568975.151940443 1844607.3603168228 35810917.605319016 30974510.48963674 24005469.038137704 22860844.077412155 38392242.25010971 28368212.056579757 8173611.85158483 38356675.05302358 36360488.86375807 33070069.29804463 3644720.0324467663 79343160.95966908 33303914.9730857 28942908.788827337 11377457.669772213 38013541.77501863 37015395.15349266 27542199.71184183 12323061.390785098 23916209.46424012 34865499.27626236 31093471.009298403 100133684.63733402 35743126.945881225 44389591.21343667 21982431.90108274 51375563.751243144 9076594.124804437 27431849.777461145 41660067.64943832 24338136.17347103 59006979.04051953 36800193.119466335 24814691.132854342 13419382.357716907 32122313.06579004 21819543.976191536 31881954.5966461 13757629.795965785 62273270.23820766 85032076.5248751 2305056.5273069683 83636420.82658926 11844732.972019823 22640932.109741226 13501339.412892949 37598670.88344284 25883057.307428233 24096640.549499847 14710613.173043678 39040538.31935374 28085535.373702213 23442644.078771207 23557484.80060704 33802656.002949744 40937155.444154724 33706266.35247755 15109907.77956654 25120369.358048942 1976648.8788010078 37030577.03214354 27991439.250137463 62247151.855089985 41331190.52962129 19578813.021401927 61197962.775867134 12678682.121576859 11271596.505876401 25268702.529217772 28341055.107375074 395457.7761393851 9033780.157953372 14651379.251014443 19414171.739093162 36504744.13294829 29734321.459598515 10741667.263834855 40504644.914227895 741532.8572958834 22506351.85228597 21816259.738480225 31407979.164180364 25343226.452723548 17420252.32570564 32208018.026252493 35582887.4686948 23171268.012955133 15149375.301840171 8080007.666623671 12540413.848976308 54119703.739139356 31628430.938209284 16698635.33867756 31401598.64479003 11897724.27361567 2451974.2294024276 35713798.21518846 36337722.24078166 54060414.49707057 41236614.03619658 1341282.8317555727 18797907.27739355 2702768.6685515963 38245678.088607594 27292205.090318054 26892453.79955234 47842549.21201928 24709953.857731458 11929174.682170948 12722335.855759252 34304793.075747564 11237621.076495215 28398200.84059139 275532.4979553349 15193385.717572184 15726220.559530128 4312360.251309282 32456447.078351814 25073250.579253517 2631420.555711964 32266877.23729627 16371903.697662316 77577010.76170744 985298.4245143513 17360805.259969033 50469997.1942762 36701131.57644603 23028061.385929286 50938493.18768168 39284476.55500616 76086795.53765228 16445839.701098453 25475967.174994957 40763815.33557324 34805553.27319414 1104142.1825161707 25843462.5030462 7952760.532443426 11186970.955348456 4485416.952408307 2080968.4424603751 26654544.199894484 37671985.35345695 19634909.44123119 33652917.534244485 5000802.318076473 39224074.576056115 26813966.187457673 32451559.126859546 38504309.78396285 27244980.753660824 6958530.142139121 15732284.088538101 5266389.901745695 67598090.13687783 38434639.55941151 27770180.434903793 17067373.72149025 36757532.543674044 32156092.732735276 18829228.48316408 25039200.141464673 55487662.665392995 4555438.161077157 39722638.614050046 32994765.384466235 30661098.116002467 17582785.521119576 22973925.69473736 26221224.168947484 4103398.712359268 28289432.63528607 85575051.95906977 84573256.94634019 31538753.997776676 37467489.35437258 48338802.87634069 66989165.25557123 26003091.115244668 34079605.94067987 27881802.2969969 13887219.807250509 19678602.3420846 11911818.011659132 102956286.52434808 33975703.77228143 9161254.543089712 22499125.12835623 75493769.31621107 63162939.370468035 55110920.39162549 32102396.088501457 4473916.9134270325 39585280.03150326 36653425.34620405 8229093.557974851 33237536.29691327 32859974.603242904 22777690.451464243 18804471.758717958 53389806.97785956 32817106.08886434 69211092.29511812 33204363.04116523 37372846.14938107 40387420.04831921 18021011.548763584 24185409.561150394 21534118.56074736 26995576.031727195 5264980.376409307 26570287.08194446 23788895.577589333 34633239.622562915 7274284.909746722 29206369.20312022 38946959.76852694 31151584.100994993 1630671.7776762866 57612.78204238717 33300503.51046083 36538850.140554205 18520863.28072626 47150242.08232974 22982701.00507712 28079806.4852778 22183375.75840033 13695901.150891056 28914040.10624248 38252354.7147038 18135030.850382857 8383834.384652971 21422547.606168445 37546482.27301485 24212273.65202889 2791049.3602000964 10652263.023557834 34108004.078804456 34263446.38388456 18223482.484728713 13771679.911716193 19199553.029882584 6931053.187851705 32046769.429214504 39294751.116525695 36832409.87113909 31856451.44266334 16845438.216079157 39668888.40891429 23683954.76860047 5855585.90270611 36772601.50702503 61961479.86204342 12584398.023432098 10080773.781539254 29129447.928686984 31229812.99443427 14492555.458363457 7102020.023684786 37280759.51246371 36508323.58111424 36707151.439727016 2081525.0584601397 7546732.920931564 37269345.527308255 30284224.837664206 18021333.55205871 26797855.113834966 39578989.55873096 42162582.15349435 14038895.921910148 37232950.06565076 32738854.648215488 19409370.24598338 23493258.85296015 5115615.644478387 24480582.97424574 4885498.356420163 39161774.84091362 43515549.68792717 34624732.361131005 31449880.90032964 23169237.264532384 23781584.230725333 35739360.52908767 34467538.19845729 24521623.120727334 37238528.75616611 36408887.740568325 14295620.302161248 33172186.795835007 22357764.009949654 37764424.960284226 16888590.720230542 26599704.026769105 588005.0693750598 20934023.10463605 29630794.225663755 36409456.150309645 32745938.612407744 30693997.223636065 9971706.862140277 21055035.389930144 23247252.85655874 12287063.995233275 2493270.4719519694 17533109.17007895 62345246.438742615 48656822.104704864 23620733.336900804 39161429.50316416 3009236.3345176005 37181389.77336295 33086193.59117904 41144327.14537872 35434625.52040136 3693107.4660799215 21600367.16913284 38559210.196977906 44629198.4600383 8340237.819004646 27708239.889948383 2035739.3420279245 91584047.91381809 20263503.723161813 20469215.523961443 15586846.027809545 23052501.713167146 16653788.553416949 34565115.489382125 15987704.286984056 59081306.16503583 15317469.864894459 1427549.5323827302 2221613.89848313 13781466.433991173 18429596.26431254 28154531.11758929 25913504.41626764 31301852.74328466 7224467.09194848 40989659.816759534 31673023.423684314 12256537.014958486 25111130.55607264 34559475.26488335 72814625.97833768 36658960.30035251 21743284.754936557 17471295.328388978 38473025.239990115 26451720.972406812 31178614.03961605 16702387.405116491 14153664.241103917 1411227.5215457014 5421979.789208686 9414087.102200963 9569799.236258877 5460288.530221042 38673677.926351994 38559266.77275028 5277717.524470218 72586172.66434114 4537610.55372307 56795020.65666816 8020045.814997278 154159886.1612527 69060303.08247468 9247948.115481015 26209508.232746013 32148867.019956216 15082902.869101891 52502845.45469375 34448688.058957495 38611912.522608556 23883077.332946602 14076256.471609091 9766024.593151746 9988880.32785692 38074864.111776486 5385455.301455582 13471052.363004562 18785784.50362328 10372543.816129867 32536657.487716034 58721274.90443077 17568196.597971227 11097967.459431432 37398410.37512545 82095656.99169283 21684535.321351547 72997189.57924551 37838675.388457164 52531352.24342924 1723647.209149405 69349356.73705919 2264911.9882974094 929982.1774241253 33435146.59415815 25875724.235565126 36016302.66710913 81697828.0430198 36672057.60149475 6615952.376485103 24532148.637182232 10198899.926704723 34395438.36625761 37195113.60356614 32857656.7749329 17818590.417894095 11410174.072570628 5537704.838289178 21563116.8687588 25185214.61968248 23900379.484298892 14140239.852334801 5213309.836071271 37049649.31162771 27606109.995819893 19496022.291668255 32806245.59541311 14811120.66167657 31747180.35628729 7501585.621690564 53862654.78879441 6833319.560033005 27836974.451492563 9350142.386608446 61773863.35725904 12650122.921000002 35746652.74087292 17609532.143069074 48683212.77983181 34305625.397183225 41290328.34168365 35978388.05486465 32375172.455152854 61703790.094353504 34666101.08151892 17856933.594150785 11892577.741365882 8995281.717171894 8758876.917254157 18946923.680672836 28604683.770452388 30530568.369351007 12225952.147225562 19215179.81664774 10272628.97647052 8920827.14540039 51315235.71637437 17396629.68480653 7429476.5160085885 30402772.43575405 6647007.359411445 21390992.294080757 46444959.58134283 28116232.057444587 22711025.263125625 34213529.903654195 31546366.89086852 21586422.059400797 25225630.54499836 34120968.556244895 1481542.9040787031 18576278.247194264 36799004.04100212 32018355.590997852 23518468.795023978 14837110.289866552 14729529.907948047 8372122.729621656 1851421.5480817803 24900380.835386388 47198293.517698996 26029980.04850881 15009016.363964412 42343723.8635211 20733563.689550627 10634914.611903694 17023846.63601103 24829790.66141496 28364730.626072463 15783761.534780163 9139735.40300042 28882848.527271204 14848312.499300105 37295505.72313609 15564961.248744663 35351979.24016539 54934368.77689932 6160750.617499411 21955260.83567769 41585281.402020045 75866616.15594554 10900358.660251308 32732985.60102174 29802338.6708854 39915425.701726325 36411625.35818531 54881923.97224741 23463582.40187562 14531917.366543697 36893719.12600128 16837650.065637913 33806014.57962925 22123812.86083138 29786595.730367094 32948969.714005787 11623654.75467183 31054769.7564979 37185782.857665405 17864696.84135729 3718823.793070766 39274429.954144545 54111285.3544546 8141077.470466574 13604183.74443391 37095285.2501947 7159731.049543681 20380160.680444445 108016619.73336534 12312324.702200817 26808841.587630343 5236383.936779449 27216100.587966617 20520554.56040357 9470732.460321445 11730154.850087171 12213125.563282736 36649603.13277159 32845195.351578087 32504677.56717947 33435825.8480826 22377253.59107382 32588205.356282495 37356169.5243646 30120711.543271042 40487233.4012069 28483110.53224326 33470330.468186945 39586904.57599048 28839059.13309503 17639178.838061888 22599391.17068955 57957442.39920916 8491721.385532526 32187300.766579706 37193901.727460854 17928432.74384379 19666190.08539563 14219650.635579066 30248294.042620663 11276155.583155448 15165614.187598217 23611709.031577602 159272871.7900596 35205802.51359342 14093249.079344459 21596954.246098895 30836919.432365637 20447352.919888176 25376242.132252466 25094307.461494237 33510947.36083005 37566836.30407208 19490312.034486428 44270238.722993225 32447451.137616787 35916746.0258681 30381513.628682483 34045636.399111845 37346200.776067846 37079895.30374608 32798444.60179153 9806522.937551502 38748040.89987871 25658083.41772793 39803472.40295373 10008467.252270786 21392542.363858126 35122220.753549 24859169.470961366 51964689.345189415 32508166.876280036 24057305.327360332 35041445.90111125 45514287.42643246 10323678.469563704 32922691.62657279 33219320.800854314 32817846.16830966 46728554.24141249 32022158.57775357 52066463.57436273 32196392.298021324 12564972.85019404 21133632.02847769 36646412.212288246 26973987.684868727 10223858.910945166 14211840.935063772 24491822.70458619 33878470.07779405 22525607.846425023 4229824.768823981 14230613.630167164 32209455.055989295 38270837.65081972 38055500.22551664 29595510.297172967 41041244.78587057 21100080.012494687 32629932.14651505 45376007.75628944 37517101.498606965 37533507.17810251 33001506.690911792 9644058.636000741 40986843.45893733 16143050.825008864 35045356.677138366 10138460.104565507 29810318.085620888 35670413.62562805 35241189.410333775 28494388.879571598 18337754.458016172 54096609.75901582 15198109.071485426 33142597.147797428 40947086.98872964 20896537.30117259 27099017.322781023 36588842.0404343 30413973.096440524 32212202.198996846 32424010.250482414 39224875.93273051 39005271.237560645 29845769.28899259 3974402.5254701884 48310645.36851154 14817327.009463917 13520974.017027222 10870181.825924575 26170414.332029436 31987643.5288949 29906422.982317757 18681950.237969793 5472924.319705433 17306822.697731372 34782330.5578219 24126514.93241608 7282385.936203915 33016329.740148038 53108796.15705202 30755200.524434168 11721618.7307207 45637599.81358734 24547151.189084083 30629108.198430926 19618663.999600228 25482183.871342305 1613378.6137822508 48690050.33330996 56714754.13544186 34037236.70048434 34830322.04492688 30937517.5069508 37411860.79976608 6048821.393120539 43206731.23587938 35356471.420909874 14708271.64494069 35726177.42459021 15659620.354119416 67741951.12066819 24933291.53749816 18279410.455874782 18147352.872405797 41888999.45012505 41758071.13505293 12049881.118011378 17425260.514346596 42557904.95826552 16860779.582389712 24329301.800065465 7176468.026693689 15982283.202040128 10013345.504325034 14867065.399088385 38461836.08825985 17739361.030149173 16564723.881588927 30972631.68815123 10221744.834213424 15252500.038457723 42625160.404300585 14321748.630174352 25786264.41593679 37995653.18637324 13047285.38694765 15947841.17167162 13268161.079998063 32431554.390760645 27472175.58255405 13930803.669751443 13952346.644671684 31380125.977368478 39038942.523432106 42004269.64642643 38552385.215314 20543501.4296626 30808466.819674812 37703392.61442756 37591251.24558411 18259918.068648018 38611982.185031034 13351149.519038064 9443747.827158792 38540531.311509535 5281378.6086263675 12744748.454234766 5429428.927707869 14247485.405693771 22251036.37800693 37900289.44335881 29994403.77362326 32122762.699477546 12719047.529856618 23223318.613507897 33656267.712010674 22455277.924266238