# vtk DataFile Version 2.0
Really cool data
ASCII
DATASET POLYDATA
POINTS 1742 float
0.07500000000000001 0.14 0
0.09 0.14 0
0.105 0.12 0
0.09 0.1 0
0.07500000000000001 0.1 0
0.08 0.085 0
0.1 0.085 0
0.12 0.105 0
0.1849999999999999 0.10703125 0
0.28 0.11 0
0.295 0.095 0
0.315 0.095 0
0.33 0.11 0
0.33 0.13 0
0.315 0.145 0
0.295 0.145 0
0.28 0.13 0
0.1849999999999999 0.13296875 0
0.12 0.135 0
0.1 0.155 0
0.08 0.155 0
0.32 0.12 0
0.305 0.135 0
0.29 0.12 0
0.305 0.105 0
0.07875000000508221 0.14 0
0.08249999999796713 0.14 0
0.08624999994477348 0.14 0
0.09250000002338489 0.1366666666354868 0
0.09500000002871781 0.1333333332950429 0
0.0975000000446217 0.1299999999405044 0
0.1000000000410235 0.1266666666119687 0
0.102500000018899 0.1233333333081347 0
0.1024999999875588 0.1166666666500784 0
0.09999999995672679 0.1133333332756357 0
0.09749999993295566 0.1099999999106076 0
0.0949999999327388 0.1066666665769851 0
0.09249999994687409 0.1033333332624988 0
0.08624999997475842 0.1 0
0.08249999996713511 0.1 0
0.07874999994528169 0.1 0
0.07625000000843644 0.09624999997469066 0
0.07750000001273936 0.09249999996178188 0
0.07875000001609363 0.08874999995171914 0
0.08400000000596312 0.085 0
0.08799999995500563 0.085 0
0.09199999996395028 0.085 0
0.09599999992275061 0.085 0
0.1028571428503666 0.0878571428503666 0
0.1057142856933277 0.0907142856933277 0
0.1085714285545847 0.09357142855458472 0
0.1114285714042253 0.09642857140422527 0
0.1142857142114174 0.09928571421141742 0
0.1171428570758205 0.1021428570758205 0
0.1240624999989257 0.1051269531249664 0
0.1281250000108618 0.1052539062503394 0
0.1321874999670118 0.1053808593739691 0
0.1362499999441054 0.1055078124982533 0
0.1403124999576916 0.1056347656236779 0
0.144374999923171 0.1057617187475991 0
0.1484374999409883 0.1058886718731559 0
0.1524999999707582 0.1060156249990862 0
0.15656249997474 0.1061425781242106 0
0.1606249999551973 0.1062695312485999 0
0.1646874999071797 0.1063964843720994 0
0.1687499999007214 0.1065234374968976 0
0.1728124998824691 0.1066503906213272 0
0.1768749998938552 0.106777343746683 0
0.1809374999374818 0.1069042968730463 0
0.1891304347682509 0.1071603260865079 0
0.1932608695542663 0.1072894021735708 0
0.1973913043516907 0.1074184782609903 0
0.2015217391334448 0.1075475543479202 0
0.2056521739020605 0.1076766304344394 0
0.2097826086681942 0.1078057065208811 0
0.213913043447771 0.1079347826077429 0
0.2180434782403647 0.1080638586950114 0
0.2221739130419126 0.1081929347825598 0
0.2263043478224318 0.108322010869451 0
0.2304347826290946 0.1084510869571592 0
0.2345652174128625 0.108580163044152 0
0.2386956522045267 0.1087092391313915 0
0.2428260869786249 0.108838315218082 0
0.2469565217064497 0.1089673913033266 0
0.2510869564583179 0.1090964673893224 0
0.2552173912086243 0.1092255434752695 0
0.2593478259831423 0.1093546195619732 0
0.2634782607608773 0.1094836956487774 0
0.2676086955430016 0.1096127717357188 0
0.2717391303553551 0.1097418478236048 0
0.2758695651988822 0.1098709239124651 0
0.2824999999990965 0.1075000000009035 0
0.2849999999699022 0.1050000000300979 0
0.2874999999557849 0.1025000000442151 0
0.2899999998914104 0.1000000001085896 0
0.2924999999173861 0.09750000008261395 0
0.2989999999490425 0.095 0
0.3029999998369631 0.095 0
0.3069999997754347 0.09500000000000001 0
0.3109999998106712 0.09500000000000001 0
0.3174999999904143 0.0974999999904144 0
0.319999999932322 0.09999999993232205 0
0.322499999889081 0.102499999889081 0
0.3249999998645312 0.1049999998645312 0
0.327499999855595 0.107499999855595 0
0.33 0.1140000000157887 0
0.33 0.118000000013417 0
0.3300000000000001 0.1220000000099611 0
0.33 0.1259999999541247 0
0.3275000000124231 0.1324999999875769 0
0.3250000000276133 0.1349999999723867 0
0.3224999999832288 0.1375000000167713 0
0.3199999999956519 0.1400000000043481 0
0.3174999999914168 0.1425000000085833 0
0.3109999999821106 0.145 0
0.3069999998541748 0.145 0
0.3029999998025397 0.145 0
0.2989999998086384 0.145 0
0.2925000000026258 0.1425000000026258 0
0.2899999999597377 0.1399999999597377 0
0.2874999999280869 0.1374999999280869 0
0.2849999999173861 0.1349999999173861 0
0.2824999998824037 0.1324999998824036 0
0.2758695651827341 0.1301290760880396 0
0.2717391303765318 0.1302581521757334 0
0.2676086955683148 0.1303872282634902 0
0.263478260738841 0.1305163043519112 0
0.2593478259468048 0.1306453804391623 0
0.2552173911128917 0.1307744565277222 0
0.2510869562938488 0.1309035326158172 0
0.2469565215305712 0.1310326087021697 0
0.2428260867369406 0.1311616847894706 0
0.2386956519376654 0.131290760876948 0
0.2345652171380654 0.1314198369644354 0
0.230434782358882 0.131548913051285 0
0.2263043476009834 0.1316779891374693 0
0.2221739128400872 0.1318070652237473 0
0.2180434780690053 0.1319361413103436 0
0.2139130432664298 0.1320652173979241 0
0.2097826084880816 0.1321942934847474 0
0.2056521737213209 0.1323233695712087 0
0.2015217389818209 0.1324524456568181 0
0.1973913042334238 0.1325815217427055 0
0.1932608694811608 0.1327105978287137 0
0.1891304347276304 0.1328396739147615 0
0.1809374999819677 0.1330957031255635 0
0.1768749999865293 0.1332226562504209 0
0.1728124999704435 0.1333496093759236 0
0.1687499999306638 0.1334765625021667 0
0.1646874999507533 0.1336035156265389 0
0.1606249999697216 0.1337304687509462 0
0.1565624999275303 0.1338574218772647 0
0.1524999999086943 0.1339843750028533 0
0.148437499935088 0.1341113281270285 0
0.1443749999536966 0.134238281251447 0
0.1403124999208135 0.1343652343774746 0
0.1362499999171458 0.1344921875025892 0
0.1321874999521708 0.1346191406264947 0
0.128124999979305 0.1347460937506467 0
0.1240624999897477 0.1348730468753204 0
0.1171428571290868 0.1378571428709132 0
0.1142857142438951 0.140714285756105 0
0.1114285713965052 0.1435714286034948 0
0.1085714285352482 0.1464285714647519 0
0.1057142856792428 0.1492857143207573 0
0.1028571428452602 0.1521428571547398 0
0.09599999997086206 0.155 0
0.09199999996340819 0.155 0
0.08799999997472453 0.155 0
0.08399999995751281 0.155 0
0.0787499999903777 0.1512499999711331 0
0.07749999998627809 0.1474999999588342 0
0.07624999997448739 0.1437499999234621 0
0.3199951861294739 0.1203799907136155 0
0.3199807476075471 0.120759737532949 0
0.3199566937016074 0.121138996714788 0
0.3199230398507109 0.1215175248314592 0
0.3198798076555079 0.1218950789258199 0
0.3198270248647546 0.1222714166636595 0
0.3197647253565871 0.1226462964959647 0
0.3196929491183191 0.1230194778036086 0
0.3196117422188834 0.1233907210632695 0
0.3195211567817266 0.1237597879887722 0
0.3194212509488553 0.1241264416959581 0
0.3193120888435674 0.1244904468523558 0
0.3191937405326579 0.1248515698172431 0
0.3190662819785587 0.1252095788025207 0
0.31892979498931 0.1255642440237461 0
0.3187843671694491 0.1259153378380118 0
0.3186300918610945 0.1262626348973994 0
0.3184670680867635 0.1266059122872225 0
0.3182954004818457 0.1269449496778117 0
0.3181151992318693 0.1272795294565222 0
0.3179265799982134 0.1276094368746833 0
0.3177296638501286 0.1279344601746262 0
0.3175245771726789 0.1282543907495108 0
0.3173114516017562 0.1285690232499168 0
0.3170904239324845 0.1288781557281231 0
0.3168616360367832 0.1291815897605418 0
0.3166252347558307 0.1294791305968335 0
0.3163813718222957 0.1297705872619129 0
0.3161302037616157 0.1300557726816449 0
0.3158718917882556 0.1303345038073659 0
0.3156066016985039 0.1306066017370926 0
0.315334503768988 0.1308718918247365 0
0.3150557726428144 0.1311302037966978 0
0.3147705872287473 0.1313813718507674 0
0.314479130563267 0.1316252347832006 0
0.3141815897246442 0.13186163606457 0
0.3138781556865743 0.1320904239629944 0
0.31356902321243 0.1323114516278478 0
0.3132543907197214 0.1325245771923118 0
0.3129344601476612 0.132729663866936 0
0.3126094368442797 0.1329265800161109 0
0.3122795294250613 0.1331151992493315 0
0.3119449496507376 0.1332954004959881 0
0.3116059122615408 0.1334670680993609 0
0.3112626348590083 0.1336300918787341 0
0.3109153378001873 0.1337843671856809 0
0.3105642439878029 0.1339297950036675 0
0.3102095787742442 0.1340662819890313 0
0.3098515697897956 0.1341937405420398 0
0.309490446826674 0.1343120888516252 0
0.3091264416820811 0.134421250952826 0
0.3087597879747958 0.1345211567853454 0
0.3083907210438624 0.1346117422233869 0
0.3080194777896189 0.1346929491211941 0
0.3076462964815011 0.1347647253591794 0
0.307271416652284 0.1348270248664972 0
0.3068950789190473 0.1348798076563705 0
0.3065175248228456 0.1349230398515868 0
0.3061389967028894 0.1349566937025135 0
0.3057597375299025 0.1349807476077016 0
0.3053799907096217 0.1349951861295751 0
0.3046200092906239 0.1349951861295813 0
0.3042402624694918 0.1349807476076709 0
0.3038610032964121 0.1349566937024603 0
0.303482475176675 0.1349230398515381 0
0.303104921079642 0.1348798076562036 0
0.3027285833425963 0.1348270248657129 0
0.3023537035126829 0.134764725358137 0
0.3019805222000699 0.1346929491190751 0
0.3016092789451481 0.1346117422208368 0
0.3012402120130406 0.134521156782196 0
0.3008735583041778 0.1344212509488941 0
0.3005095531541231 0.1343120888456002 0
0.300148430182186 0.1341937405324628 0
0.2997904211972879 0.1340662819784879 0
0.2994357559827431 0.1339297949919021 0
0.2990846621695089 0.1337843671726765 0
0.2987373651071871 0.1336300918632019 0
0.2983940877049744 0.1334670680829359 0
0.2980550503159825 0.1332954004786041 0
0.2977204705401073 0.1331151992299985 0
0.2973905631195393 0.1329265799948124 0
0.2970655398154584 0.1327296638439483 0
0.2967456092429487 0.1325245771677093 0
0.2964309767499306 0.13231145160165 0
0.2961218442755553 0.1320904239351857 0
0.2958184102359738 0.1318616360340861 0
0.2955208693972441 0.1316252347510017 0
0.2952294127307884 0.13138137181603 0
0.2949442273175445 0.1311302037608834 0
0.2946654961900731 0.1308718917858212 0
0.2943933982595548 0.1306066016951512 0
0.2941281081716805 0.1303345037652187 0
0.2938697961998407 0.1300557726389831 0
0.2936186281410023 0.1297705872191601 0
0.293374765209175 0.1294791305539165 0
0.2931383639304908 0.1291815897182633 0
0.2929095760325162 0.1288781556804605 0
0.2926885483654019 0.1285690232027316 0
0.2924754227975951 0.1282543907044069 0
0.292270336122433 0.1279344601306055 0
0.2920734199760286 0.1276094368309267 0
0.2918848007469617 0.127279529418383 0
0.2917045994998984 0.1269449496428626 0
0.2915329318965808 0.1266059122532674 0
0.2913699081232418 0.1262626348633087 0
0.2912156328155117 0.1259153378029662 0
0.2910702049968045 0.1255642439889846 0
0.29093371800881 0.1252095787684152 0
0.2908062594555484 0.1248515697827396 0
0.2906879111472171 0.1244904468229842 0
0.2905787490439584 0.1241264416708432 0
0.2904788432118975 0.1237597879641473 0
0.2903882577762054 0.1233907210421058 0
0.2903070508780572 0.1230194777859759 0
0.2902352746409771 0.1226462964823747 0
0.2901729751336077 0.122271416652969 0
0.2901201923431214 0.1218950789150582 0
0.2900769601484046 0.1215175248227608 0
0.2900433062979104 0.1211389967084562 0
0.2900192523921943 0.1207597375278497 0
0.2900048138704844 0.1203799907119698 0
0.2900048138705243 0.1196200092864559 0
0.2900192523924456 0.1192402624671937 0
0.2900433062983763 0.1188610032854257 0
0.2900769601492602 0.1184824751688251 0
0.2901201923444469 0.1181049210745345 0
0.2901729751351805 0.1177285833367643 0
0.2902352746433247 0.1173537035045276 0
0.2903070508815658 0.1169805221969514 0
0.2903882577809712 0.116609278937357 0
0.2904788432180943 0.1162402120119196 0
0.2905787490509285 0.1158735583047976 0
0.2906879111561758 0.1155095531484623 0
0.2908062594670416 0.1151484301836359 0
0.2909337180210846 0.114790421198442 0
0.2910702050112646 0.1144357559748155 0
0.2912156328318258 0.1140846621590174 0
0.2913699081392596 0.1137373651018299 0
0.2915329319143344 0.1133940877105392 0
0.2917045995192576 0.1130550503200761 0
0.2918848007696411 0.1127204705407566 0
0.2920734200013781 0.1123905631260106 0
0.292270336148358 0.1120655398278017 0
0.2924754228263451 0.11174560925197 0
0.2926885483965775 0.1114309767524772 0
0.2929095760637763 0.1111218442769689 0
0.2931383639630207 0.1108184102397115 0
0.2933747652459764 0.1105208694009502 0
0.2936186281787511 0.1102294127368678 0
0.2938697962385849 0.1099442273181331 0
0.2941281082127425 0.109665496191584 0
0.2943933983021018 0.1093933982623018 0
0.2946654962314072 0.1091281081748878 0
0.2949442273567504 0.1088697962036954 0
0.2952294127751404 0.1086186281458951 0
0.2955208694408404 0.1083747652134502 0
0.2958184102790434 0.1081383639325756 0
0.296121844320286 0.107909576031968 0
0.2964309768033635 0.1076885483611596 0
0.2967456092966084 0.1074754227969259 0
0.2970655398723127 0.1072703361206142 0
0.2973905631772329 0.1070734199712253 0
0.297720470595685 0.1068848007391533 0
0.298055050369089 0.1067045994936553 0
0.2983940877601369 0.1065329318900056 0
0.2987373651543056 0.1063699081151485 0
0.2990846622069513 0.1062156328112557 0
0.2994357560169533 0.1060702049944327 0
0.2997904212292094 0.1059337180096897 0
0.3001484302169162 0.1058062594556661 0
0.3005095531806441 0.1056879111460787 0
0.3008735583275588 0.1055787490444157 0
0.3012402120344335 0.105478843212265 0
0.3016092789647297 0.1053882577746192 0
0.3019805222128562 0.1053070508782972 0
0.3023537035206152 0.1052352746404413 0
0.3027285833490014 0.1051729751333058 0
0.3031049210820675 0.1051201923434875 0
0.3034824751776987 0.1050769601483579 0
0.3038610032977143 0.1050433062974405 0
0.3042402624701827 0.1050192523922941 0
0.3046200092903962 0.1050048138704244 0
0.3053799907097289 0.1050048138704276 0
0.3057597375311601 0.1050192523923622 0
0.306138996704119 0.1050433062975801 0
0.306517524823828 0.1050769601485131 0
0.3068950789205339 0.1051201923438188 0
0.3072714166571428 0.1051729751342471 0
0.3076462964872278 0.105235274641847 0
0.308019477799711 0.1053070508808799 0
0.3083907210560863 0.1053882577794497 0
0.3087597879890103 0.105478843218335 0
0.3091264416996652 0.1055787490522055 0
0.3094904468536255 0.1056879111568309 0
0.3098515698217821 0.1058062594688936 0
0.3102095788053431 0.1059337180224866 0
0.3105642440141166 0.1060702050068435 0
0.3109153378314484 0.1062156328277343 0
0.3112626348931337 0.1063699081369455 0
0.3116059122774255 0.1065329319084309 0
0.3119449496753327 0.1067045995168593 0
0.3122795294494477 0.106884800764204 0
0.3126094368574405 0.1070734199916364 0
0.3129344601629472 0.1072703361425918 0
0.3132543907385635 0.1074754228201062 0
0.3135690232360357 0.1076885483885823 0
0.3138781557151312 0.1079095760579753 0
0.3141815897559754 0.1081383639596822 0
0.3144791305940294 0.1083747652418828 0
0.314770587259284 0.1086186281754476 0
0.3150557726805608 0.1088697962374049 0
0.3153345038021425 0.1091281082067792 0
0.3156066017333305 0.1093933982977341 0
0.3158718918239709 0.1096654962302065 0
0.3161302037955122 0.1099442273558733 0
0.3163813718534223 0.1102294127743453 0
0.3166252347812405 0.1105208694343292 0
0.3168616360619641 0.1108184102719893 0
0.3170904239557804 0.1111218443036015 0
0.317311451623205 0.1114309767808995 0
0.3175245771929882 0.1117456092813049 0
0.3177296638684541 0.1120655398547744 0
0.31792658001478 0.1123905631534593 0
0.3181151992457225 0.1127204705684365 0
0.3182954004941019 0.1130550503456516 0
0.3184670680986095 0.1133940877369273 0
0.3186300918725309 0.113737365127491 0
0.3187843671784792 0.114084662183031 0
0.3189297949968907 0.1144357559952319 0
0.3190662819848372 0.1147904212144317 0
0.3191937405391366 0.115148430201711 0
0.319312088846977 0.1155095531585113 0
0.3194212509511636 0.1158735583121092 0
0.3195211567842279 0.1162402120208886 0
0.3196117422206596 0.1166092789443847 0
0.3196929491189364 0.116980522199395 0
0.319764725357051 0.1173537035066237 0
0.3198270248649533 0.1177285833376383 0
0.3198798076557081 0.1181049210757519 0
0.3199230398506049 0.1184824751674993 0
0.3199566937017073 0.1188610032865238 0
0.3199807476077263 0.1192402624705849 0
0.3199951861295194 0.1196200092881822 0
0.2921918510696802 0.1322991330345831 0
0.3202389750099733 0.1297876965814506 0
0.2869405143140113 0.1220993714955868 0
0.2905971038293353 0.1122087858220333 0
0.2484495593333966 0.1199986866781883 0
0.289679346747451 0.127350532611315 0
0.2949037904410967 0.1079559855788975 0
0.3105687319187813 0.1344703217928549 0
0.1286724994288223 0.1259492772160391 0
0.2853691872039186 0.1232502225207166 0
0.2892504533819069 0.1124859792699352 0
0.1215644836374469 0.12 0
0.2838538151437753 0.1219260635502919 0
0.1378789306685598 0.1204118703186632 0
0.3222794214621289 0.1256819841222635 0
0.1768940494591684 0.1150020435802451 0
0.1459632872872111 0.1248849535545785 0
0.2916379309585257 0.1310780672435551 0
0.1580907870993615 0.1114226947854112 0
0.1068943159984912 0.1278426738534221 0
0.3087342681142614 0.1023261017880631 0
0.2939948362940814 0.1081241069512433 0
0.3177445969172694 0.1103906312988577 0
0.306204896456971 0.1043248171828937 0
0.2424772841737604 0.1238633842327558 0
0.2905617512431488 0.1105667183056713 0
0.3096750936191984 0.1044772390733154 0
0.3123402646367462 0.1034759537778785 0
0.2977530033891026 0.1057312759034111 0
0.2891485529613833 0.1256425938300434 0
0.28905763179643 0.1194137019515154 0
0.3160923596521763 0.1341343788907257 0
0.3176090205615936 0.1295071447923934 0
0.2830951973435417 0.111185078412825 0
0.2939821237869838 0.1313006155212741 0
0.2730956096412296 0.1195204041047584 0
0.3052662461387535 0.1025623555992242 0
0.1834260079605953 0.12 0
0.2401727555332543 0.1125477899529326 0
0.3036341682478862 0.1353624536520127 0
0.3076783490100711 0.135680168921654 0
0.2971859149897983 0.1336767124569224 0
0.2300738788446425 0.1241149556076255 0
0.2864314028314482 0.1154859777510315 0
0.118399148383436 0.1091059727557679 0
0.1960760865037387 0.1199999999956663 0
0.1132961001221432 0.1238006791719449 0
0.3182544885670551 0.1280338962018564 0
0.2917640589055949 0.1059267946004721 0
0.09416751015764131 0.1493727567147781 0
0.3271822025728936 0.1151234047551989 0
0.3027218427698576 0.0985754199119255 0
0.2803127477363754 0.1203127477363751 0
0.2846667617413838 0.1149711014802836 0
0.3202267433717884 0.1158510156995854 0
0.2872365967235078 0.1162428910607406 0
0.2451473558487235 0.1127157921481258 0
0.3242720137613487 0.1143311725083285 0
0.2539976871918552 0.1241435044868716 0
0.1623751971379895 0.1246733018767942 0
0.3000335855733143 0.09827894972145658 0
0.1456390902037936 0.1148857781779875 0
0.1551396977885628 0.1269339876799478 0
0.1214123230643935 0.1126422538090699 0
0.2644715533932747 0.1238519306140776 0
0.3013664172165637 0.1040430978646224 0
0.1097435299971 0.1171903605221956 0
0.2932760578503562 0.1045277538813769 0
0.3211514380369377 0.1110669593631027 0
0.2900716492329339 0.1296656510133498 0
0.2848314556830837 0.1250536895174998 0
0.293122274010945 0.1089685227799425 0
0.299395653464362 0.1053113149384512 0
0.320754482568791 0.1186911139309827 0
0.1132822418187235 0.1132822418187235 0
0.310934114239414 0.1056819285375896 0
0.3171301444058323 0.1331226913136942 0
0.2992089591717058 0.1030671200229795 0
0.3202533301643 0.1186665163354134 0
0.1897510472338378 0.1248769254244156 0
0.2919316733248346 0.1111686789550536 0
0.2964055517282435 0.1040426821282367 0
0.217830725248626 0.1239804898938812 0
0.2871253015195337 0.1235896146188834 0
0.3170962767349092 0.1103893013994187 0
0.1592738315665976 0.1200995258771436 0
0.3182922119652216 0.1378479234929451 0
0.2913929611769244 0.1117561428008201 0
0.2362755814473712 0.1200000000248721 0
0.2991809242898312 0.1363447750117679 0
0.1541293629863942 0.1199644301605502 0
0.2589978532894668 0.1251528454718861 0
0.2887092960158475 0.1272256548940736 0
0.3055851042529137 0.1353887968257053 0
0.3171392216939491 0.1098856868167924 0
0.3085077396712228 0.135872428115776 0
0.2902260796069785 0.1028951509792738 0
0.1128945345213982 0.1330908130335074 0
0.2963618899079834 0.1327548387305419 0
0.2698948119912887 0.1200000000015727 0
0.2962218845942166 0.1423103824530247 0
0.3055310153722089 0.1369603281978291 0
0.3220756759679013 0.1174220314503466 0
0.3168995599760336 0.1299564084527562 0
0.206965757768959 0.12760957379802 0
0.3205715428614132 0.1235555613482973 0
0.3158494155931587 0.1317070447940992 0
0.2942337250298905 0.1322194710993712 0
0.3201680724588796 0.1141628205676999 0
0.306783630177496 0.1044232550356934 0
0.3207185044821885 0.1208857181301698 0
0.2948988069782817 0.1072863741371912 0
0.1405971091574571 0.1187498260275805 0
0.3065159880937058 0.1389443490368713 0
0.1993922260829069 0.1115916105312695 0
0.08279240517423914 0.1456116034487316 0
0.3158238650578367 0.1088996897608865 0
0.1795558921969721 0.1210577769162763 0
0.2110099150365055 0.110738379699493 0
0.3208666233241808 0.1201772014699878 0
0.1710218762843536 0.1200612974017918 0
0.3143430556356157 0.1340511044200446 0
0.3191577480414211 0.1092188521141474 0
0.2953783680997283 0.1329356524372113 0
0.2925705167919561 0.110124563105044 0
0.3072850882927035 0.1039544836142207 0
0.3196589035145916 0.1269615705825369 0
0.2668334098803439 0.1267775937203652 0
0.2822019983524827 0.1180228052688865 0
0.1897510472304964 0.1151230745768507 0
0.2952590724284944 0.1343655859842194 0
0.2918156343774753 0.1090770406445606 0
0.3222721985674253 0.1148262460830329 0
0.2894606467449702 0.1050916226993353 0
0.3053985851878356 0.1386963470389493 0
0.3184664891395471 0.1122975801912611 0
0.3196175004945981 0.1143747207183311 0
0.3110169792837434 0.1415529345299784 0
0.2898143980622057 0.1150233285781761 0
0.2364580063651675 0.1140353397075456 0
0.310079078280832 0.1034873455933198 0
0.2982940514413991 0.1350961047649862 0
0.3124881555244131 0.1060967367273273 0
0.3020060816098938 0.1042890649994091 0
0.1921541904791173 0.1114966742438408 0
0.3210010386499024 0.1075575104913153 0
0.3165431114528099 0.1301662312208598 0
0.3073122197100209 0.1364859706450348 0
0.1039994500930476 0.1413144080039649 0
0.193370588058535 0.1279583273027956 0
0.298089722910122 0.104934246487657 0
0.3096565154799487 0.1358250731997892 0
0.2932041711416018 0.1315273166026659 0
0.320243420250336 0.124153528427695 0
0.1793353913488041 0.1288373024619895 0
0.3146042308753227 0.1358644174466337 0
0.1028710675160456 0.1454693615629084 0
0.2901171760238121 0.1266113171108619 0
0.3247734345780547 0.1166460253421788 0
0.3190674724747176 0.126250960157248 0
0.1300105014479449 0.1084791233109931 0
0.2537886338522921 0.1159586577767241 0
0.09798979590567071 0.09558163263802337 0
0.3158165008966459 0.131098466271123 0
0.2950175433292258 0.1060383923580093 0
0.3209530089857182 0.1243848843658415 0
0.1028710675229499 0.09453063844073369 0
0.1128945345067455 0.1069091869589373 0
0.1730323636860886 0.1117104222542491 0
0.3196122937050188 0.1276201911008089 0
0.1829561427153419 0.113351891690692 0
0.3190532173317375 0.1119425654449413 0
0.2889989871458585 0.1169224275508939 0
0.2893275773945311 0.1213862782313054 0
0.2401387945704621 0.1273795538178197 0
0.3157329481987402 0.1084186292390802 0
0.3008921527888181 0.1361458713917135 0
0.2987722979018432 0.1340196906687423 0
0.3001159755554131 0.1018106891506022 0
0.3134772378606176 0.1357396931648304 0
0.3063748390863487 0.1014799677274442 0
0.2887333765906956 0.1155904294180574 0
0.3237277633335097 0.1218725091364363 0
0.2886445866601546 0.1214541129562425 0
0.2877123932771728 0.1247273820244464 0
0.2897735859456026 0.1238468473199769 0
0.2883355116312064 0.1184483056486545 0
0.2995349532908626 0.1046496309714573 0
0.1230643044416569 0.1310760957660529 0
0.3112335323698637 0.1361291209095069 0
0.318160113933328 0.1034916439192644 0
0.3222937317021703 0.1185312054778448 0
0.3219978196221072 0.1229287138630633 0
0.1342276558106607 0.1079559173993755 0
0.2912881714317234 0.1287897611598867 0
0.08092866971620143 0.09157093176541195 0
0.2869381399235199 0.1295695233794198 0
0.2858072500525427 0.1074111011766612 0
0.2044173448163474 0.1296232904567863 0
0.3134010483503978 0.1061335066177622 0
0.121412323061308 0.1273577461912664 0
0.3028702450440897 0.1043042536850792 0
0.322673292991179 0.1332921300877484 0
0.2854682313749531 0.1192573739787958 0
0.1387812081043197 0.1307110382982755 0
0.3174344373436855 0.1304039424418221 0
0.2886042721406705 0.1231371682910975 0
0.2921873044923431 0.1297926241859582 0
0.2920075047466406 0.128800848427418 0
0.2701469777167729 0.1253750572073956 0
0.2974293941357188 0.1007741648996736 0
0.289491980757021 0.1229827519628711 0
0.3198935623521475 0.111343076596441 0
0.2928219199980684 0.1393146283069076 0
0.2904026338097562 0.1330603124702693 0
0.1128872057686369 0.1272238033174097 0
0.2900631398472779 0.107499946145178 0
0.1183991483875579 0.1308940272376446 0
0.2901377863185153 0.1155506338173255 0
0.2983708529512419 0.1339589228888932 0
0.2904908357977736 0.1134665904589392 0
0.1293708771912365 0.1145652718124805 0
0.2992644272013399 0.1349040447595831 0
0.3195990335689225 0.1260471177153749 0
0.2985981576881614 0.134413387818582 0
0.289583089607755 0.1182243754687916 0
0.3201753948590047 0.1249733263280739 0
0.2872934398380618 0.1110050650053772 0
0.1104370779449294 0.1396117873962568 0
0.2893923706021206 0.1139747823771343 0
0.3258183988964649 0.1106735596856831 0
0.3120793893624383 0.1341264919978023 0
0.2909007807269409 0.1128748707291615 0
0.32218153745989 0.1207230282941961 0
0.3039681243969419 0.1037303637424272 0
0.3082562010800978 0.1349406642971751 0
0.1565153713992465 0.1187887066830483 0
0.3231299069303909 0.1284771322955725 0
0.2831852072915576 0.1288382587482945 0
0.3123471138180822 0.1053368690705843 0
0.304767421595904 0.1041247151252903 0
0.2900118681554676 0.1163212458738077 0
0.3206720607110624 0.1274427228952752 0
0.1063343229260272 0.105131636127041 0
0.2875958543436689 0.1142962607169642 0
0.3189312443193171 0.1351217100384497 0
0.2938006368918226 0.136906650294751 0
0.3090405061587964 0.1374299220127606 0
0.2328444334231013 0.1124993727635717 0
0.103341018711781 0.1295738569251126 0
0.1988999538733399 0.1162226632760534 0
0.1646503098279698 0.1117280131709769 0
0.289691078218252 0.1225404954109962 0
0.3029825320832012 0.1395277611508767 0
0.3035120640777333 0.1383662258624359 0
0.1063343229376069 0.1348683638635456 0
0.2982724877421098 0.1388964158091215 0
0.315164453467779 0.1320972690577445 0
0.2898921421262866 0.124447487010032 0
0.3182475910826679 0.1337693275204032 0
0.1252218737995514 0.1240700415419879 0
0.1677371017317673 0.1200907425506555 0
0.3125373545214931 0.1384792730430305 0
0.2932846621515922 0.1333668396461203 0
0.2864573438889468 0.1206082897172138 0
0.3074679558875771 0.1399314030856552 0
0.2891779935372643 0.1234718815851501 0
0.3183450356820295 0.1080855119091817 0
0.3200726452048144 0.1150811475473103 0
0.1380602694050813 0.1126426665271219 0
0.2956801038921539 0.1335436468056249 0
0.13708735144144 0.1270111777946495 0
0.2803058531918038 0.124815755838864 0
0.2956957506329256 0.1052463443290631 0
0.2932852265918175 0.1073514878953013 0
0.2937054501389423 0.1348348884415844 0
0.3192750506725316 0.1104726172879812 0
0.1695225789794229 0.1266698316395578 0
0.3019560380664718 0.1011591120499458 0
0.316126082165704 0.1357084139353314 0
0.2896423188259418 0.1166731827119431 0
0.2364102409420574 0.1260439799071139 0
0.1692388892510255 0.1171290116626565 0
0.2918210872676905 0.1074712003432135 0
0.2930270325059975 0.1305448132862937 0
0.3182945243905321 0.111477745375864 0
0.320785075825341 0.13258774642953 0
0.2766449451151654 0.1262101264528184 0
0.0878985203872755 0.1479593464837809 0
0.3052192578407424 0.1356783798686632 0
0.304679530060818 0.1376536646892847 0
0.2892197806556542 0.1221256397970472 0
0.3236883457992756 0.1118750789579226 0
0.195988320184294 0.1136544289305499 0
0.2592868994331463 0.1199624237067826 0
0.2967954194076577 0.1361408037502989 0
0.287274463344306 0.1171503350564804 0
0.3165825058705858 0.1307340001592906 0
0.2238799963914628 0.1200000000060791 0
0.2903423006000987 0.1278944870676398 0
0.2032798453995792 0.1158193368208445 0
0.2966372294016891 0.1069601274847098 0
0.3247031048519297 0.1237896183959428 0
0.093778388615218 0.09605962361528342 0
0.3207178316438619 0.1222044853208608 0
0.2939891960332362 0.1307353155999379 0
0.3245929563611296 0.118817176929725 0
0.3120183285150199 0.09908102411444193 0
0.3085472728567908 0.1039036677701266 0
0.2114687710201912 0.1200000000152667 0
0.1068170970675069 0.1120752248645059 0
0.322048549593566 0.1097182074664994 0
0.2877028753795787 0.1201694716164761 0
0.3250042243298772 0.1261410215716872 0
0.1325641185705931 0.1295377945700534 0
0.2888666604543667 0.1108773552854282 0
0.3225600396440394 0.1315203159627504 0
0.3082852686174075 0.1049504158073383 0
0.1540747056023814 0.1167845677405807 0
0.3052440672157307 0.1400302863643687 0
0.1753038059600702 0.1198485509305186 0
0.219115398245564 0.1199926243155268 0
0.2904285132660511 0.125187748610468 0
0.3141465528365677 0.09905787786948811 0
0.31826234039625 0.1310966521684666 0
0.3190131521498814 0.1065435049051345 0
0.2888800893635423 0.1317998378363822 0
0.1214284964305136 0.1230890053183412 0
0.2892442197276779 0.1242520331334965 0
0.3151916203920899 0.1328274401086943 0
0.3153957308280227 0.102565074243385 0
0.3108735216463332 0.1005316436468721 0
0.3009654670318146 0.1035623391966465 0
0.321456619882783 0.1051172407339704 0
0.248532808730862 0.1143720578252552 0
0.3199017373333302 0.1129231067211361 0
0.316160020085974 0.1059423047266058 0
0.2301547237646531 0.1162093476541815 0
0.2915637966267524 0.1354127404965122 0
0.3013630851628107 0.1367971430511908 0
0.3058690242921185 0.09981705879773306 0
0.3101904491783741 0.1366751528356219 0
0.2944329965295468 0.1316549232031928 0
0.2854570133108039 0.1125738419080994 0
0.2960583951260432 0.1067997091516662 0
0.319209526078192 0.1282091536255067 0
0.305911361192105 0.1038999378132752 0
0.2897544656910044 0.1158458955342378 0
0.3078480641712579 0.09987338832918155 0
0.3079510260808965 0.1033196138661849 0
0.3168217735008254 0.1314828319194054 0
0.3206421030613486 0.10998920950542 0
0.3202221335712807 0.1229658652868061 0
0.3048652497789826 0.1353863757531388 0
0.3026354042426362 0.1359971010691835 0
0.3127739198659112 0.1335970795272863 0
0.3102999273685208 0.1051134227035435 0
0.2424772841485537 0.1161366157670552 0
0.3044307802695918 0.103159002225442 0
0.3079845689921913 0.1044825336529909 0
0.08789852040223285 0.09204065352018642 0
0.3026796677608039 0.1034561875591956 0
0.1764627771450202 0.1248766949302055 0
0.3109627713612553 0.1047112396718226 0
0.3082962675180371 0.135323306024502 0
0.320337356327371 0.1258282726958418 0
0.3012134698470362 0.1046230981438801 0
0.1657243602781414 0.1166796578585571 0
0.3044082693769322 0.1354798591864906 0
0.3174473456374903 0.10649435316836 0
0.2881243156448354 0.1260077975120862 0
0.291563201713648 0.1123139245210241 0
0.0941675101703037 0.09062724329668119 0
0.2037724287569967 0.1239017410802587 0
0.3121595327576144 0.1348284041150405 0
0.3060858251569599 0.1378064078009429 0
0.3025407357174186 0.1368815884755785 0
0.28202628768847 0.11553059364588 0
0.2067129679252173 0.1193823732181912 0
0.2116637925862735 0.1262406901299007 0
0.2683889920950789 0.114174549881021 0
0.1417554208719366 0.116199160267476 0
0.3139604025271928 0.1052102550556197 0
0.3002548019269557 0.1357458036626343 0
0.1098170734779982 0.1225621956433681 0
0.3214895752414725 0.1288561721552221 0
0.3166754026949903 0.1078175864159528 0
0.3047916248612835 0.1364484312805311 0
0.1432398040803895 0.1290727366872943 0
0.2906767691866123 0.1263626445597048 0
0.3184394176314594 0.1286148516924066 0
0.3107959565476727 0.1350609536966613 0
0.2917581792601714 0.1104473769397964 0
0.3172947791423532 0.1091717612486481 0
0.1832947466170917 0.1265958221155516 0
0.3074171325949785 0.1024220304736392 0
0.3184059977599764 0.1294788433808858 0
0.2909113635001955 0.1271629732147908 0
0.2937626740829183 0.1090191913400895 0
0.321387029309663 0.1192819457768459 0
0.3216388990648018 0.113558894570291 0
0.1077509579115625 0.1424436376068675 0
0.3211594905541928 0.1214636283318475 0
0.3186604658167925 0.1107862743884646 0
0.1433638655824172 0.119999999998576 0
0.322365911457322 0.1161971143567327 0
0.3060281525162349 0.1362109341482018 0
0.3138983927984631 0.106947504103109 0
0.2876552090027503 0.1281208824670242 0
0.1689516094089003 0.112999974046722 0
0.1339756428377243 0.1149046122971412 0
0.2965081726381404 0.1059129337907209 0
0.2485641006463703 0.1256328276350063 0
0.3213346852025775 0.1124433697628162 0
0.2976815884661951 0.137304759447976 0
0.3094970895331018 0.1050149850294612 0
0.3012473294704338 0.1426257944666322 0
0.2912735854007556 0.1110075193900184 0
0.2788788047452538 0.1151951178442331 0
0.3204043727910937 0.1217638925426272 0
0.3135214194027404 0.133293221460048 0
0.319743250888077 0.1311656757533928 0
0.3236286424628272 0.1178359993703504 0
0.2910740108609675 0.1266146395542204 0
0.2994555809060196 0.137685769198341 0
0.303418755403876 0.1373457962619955 0
0.2892767644504611 0.1186020921527616 0
0.2892569817379648 0.1176705874637481 0
0.3114366384078798 0.1344141767598574 0
0.3143223469660359 0.1323626655181013 0
0.1650678703349745 0.1282665671265362 0
0.314310821636708 0.1329078577225885 0
0.2911751940634059 0.1277949956373726 0
0.3189123538945295 0.1274930516469665 0
0.2953671700100459 0.1324213475435533 0
0.3163602248735587 0.139376224409792 0
0.3209457254863992 0.1152180101581879 0
0.3003842545434899 0.1047649062145431 0
0.2899474725391509 0.1249351184610175 0
0.2172497041131797 0.1154773093331734 0
0.1039994500979409 0.0986855919952003 0
0.296029719118645 0.1074540359919021 0
0.3000465764657957 0.1350150163679096 0
0.2890981448633952 0.1206484508552956 0
0.2902905914592802 0.1143393296965627 0
0.3114797496983615 0.1054131030933805 0
0.2983224887578307 0.1020030781874825 0
0.3146623850849628 0.1066643281021995 0
0.3106147884888952 0.1381271439729982 0
0.3136957788199982 0.132835745896322 0
0.1802875811085245 0.1248828696285435 0
0.2968611469059954 0.1342879607971938 0
0.1542117441941709 0.1132309164162773 0
0.2958869031742994 0.1327734324846274 0
0.3059684852831362 0.1047298422366394 0
0.3164419829097147 0.1089372147052766 0
0.2855795368727778 0.1325419324469244 0
0.127302353629777 0.1200000000019926 0
0.3130667344689932 0.1341092480588803 0
0.3138346356945039 0.1411336270659818 0
0.1883348664574089 0.1199934317483378 0
0.09798979589693306 0.1444183673724298 0
0.2963897899646986 0.1334317327509605 0
0.3156871052737364 0.1004375786636096 0
0.1724834979942892 0.1160051507615912 0
0.3039908155605914 0.1359118634842862 0
0.1348193141162911 0.1223613948056419 0
0.2949413588709155 0.1320217449728302 0
0.3275421681770301 0.120719249031621 0
0.2971708565422694 0.1062614276316474 0
0.1099478639338382 0.1137803091594034 0
0.2868744988346246 0.1192325180908584 0
0.3154293582150425 0.1075351865834306 0
0.1267220557698955 0.1103810314944042 0
0.2883586189719829 0.117593941545272 0
0.2927234181363486 0.1297744284805615 0
0.3193320960130911 0.1291280654972248 0
0.3126345166079648 0.1066467293939421 0
0.2735149602184838 0.1162329659448083 0
0.3272714233549903 0.125086828188989 0
0.1622291563971135 0.1154497378142395 0
0.2978042635467871 0.1342175221397505 0
0.2963292756855102 0.1021311898261081 0
0.2096509186638568 0.1136916501654721 0
0.3204229167938517 0.1169781328421773 0
0.200962765966449 0.1199023708005227 0
0.3244298313816494 0.1325235040030181 0
0.101096930968029 0.1349285770574074 0
0.3209107465139155 0.1165196340775778 0
0.3210637519496743 0.1177469980498154 0
0.110437077936073 0.1003882125971935 0
0.3138693231706745 0.1035102573677577 0
0.2152300112913369 0.1192599400264758 0
0.3200128081350532 0.1368747593368949 0
0.2892651320563426 0.1264725881457722 0
0.3044136571435284 0.104538289739816 0
0.1540522442703249 0.1303537134260628 0
0.3176048331917457 0.1109838574904324 0
0.3052054635524996 0.1353038358473558 0
0.3206761658064461 0.1193999028508987 0
0.1979778193856215 0.123067968616034 0
0.1923952575013693 0.1181141694923158 0
0.3163571447706249 0.1094758888930088 0
0.3203241507603563 0.1164083024706516 0
0.3014222237702097 0.102547309545562 0
0.2833329762499036 0.119792963989716 0
0.3001779770713124 0.1052841549525902 0
0.2960929617292124 0.1341220033461273 0
0.1650123083643074 0.1200186091416309 0
0.3011625063529199 0.1354353461321901 0
0.2083294552157476 0.1230147448909685 0
0.3009315571219759 0.1349329167543204 0
0.291466069626052 0.1127107633911651 0
0.2944543009098554 0.1014901704570343 0
0.2529761255203274 0.1198378017409932 0
0.3097924363436294 0.1053713732561176 0
0.3119018619357836 0.1044700406840727 0
0.2904339689510252 0.1287449386248239 0
0.3071718177501715 0.09767280877196176 0
0.2895342081237235 0.1190134313710533 0
0.3154295470257755 0.1087460137944086 0
0.3151834827982474 0.1084322462767679 0
0.3059911341571064 0.1356288327847208 0
0.1146989629840397 0.12 0
0.1176180457581261 0.1158922702432997 0
0.3267265754832145 0.1296647796790613 0
0.3006063365009822 0.1390340816592489 0
0.2768713346598939 0.11844091327008 0
0.1659409712780952 0.1236369226073824 0
0.3200325537547557 0.1027782740427518 0
0.3200283994092463 0.1236886375781335 0
0.3037744045824407 0.1020266799772138 0
0.3174277538925719 0.1318866251183221 0
0.2984853562017171 0.1055591541019747 0
0.2983592778468255 0.1060167034033106 0
0.1492653675273133 0.1237107600322897 0
0.3021570556621107 0.1355569506653113 0
0.2952946949627525 0.1357686798393395 0
0.3137032892574389 0.1339060829689853 0
0.2939937983151552 0.1086865549930468 0
0.287186097910698 0.1254811101418958 0
0.3195180630987561 0.1123970041343748 0
0.2902709195620244 0.1256682406627992 0
0.318748051306615 0.1325904364470911 0
0.2973594975800352 0.1351947555403765 0
0.2906786200203508 0.1140667103488473 0
0.3073377565575249 0.1045201193193449 0
0.2647441869650051 0.1159193340373534 0
0.2903896188097913 0.1147876185356211 0
0.2865387030434617 0.1265552356786583 0
0.1177205718552847 0.1239266386863539 0
0.3092099262918445 0.10468176840024 0
0.1976321150551178 0.1265276537987514 0
0.2923285945134321 0.1285840867153876 0
0.2934079598075279 0.1323743119941189 0
0.2750325958373219 0.1225275840544792 0
0.2969968609388375 0.133209717381053 0
0.09055963044655618 0.08877965601096671 0
0.2506038487529486 0.1170021754593673 0
0.2969802657460872 0.1049979291090815 0
0.09845712388093655 0.1017331702808222 0
0.3221429410777455 0.1272381658608636 0
0.1432931562599183 0.1109353208308154 0
0.09845712387548272 0.138266829702003 0
0.1588034735559057 0.1243264227450109 0
0.3143089154373517 0.139165085518892 0
0.3195952353615422 0.1247831947018445 0
0.2885331204350831 0.113438958540611 0
0.2461442702797356 0.1232071585740379 0
0.2405841302075591 0.1199016196120359 0
0.3068731271736747 0.1357178594954398 0
0.3213150109860752 0.12066187420375 0
0.1096700164589986 0.134871726242469 0
0.3071521817640042 0.1352991948561103 0
0.318955962738244 0.1113100066641591 0
0.2907044104342364 0.1114266782716359 0
0.2953321780546012 0.1031282459415228 0
0.289380273806771 0.1284182493963814 0
0.3144752776805199 0.1073614614610471 0
0.2520852775085092 0.1271704717003639 0
0.2783145481539845 0.1225101672223594 0
0.289892294148735 0.123321942104656 0
0.3103505804940918 0.1356020575289905 0
0.3123032475518381 0.1335727176412635 0
0.3098766884152928 0.1350277072588796 0
0.1869662630765326 0.1286677963042459 0
0.2624779025890405 0.1269835213124408 0
0.3194153902569236 0.1135273493002152 0
0.3160211218930684 0.1078490380044901 0
0.3091872982347819 0.1352260682317182 0
0.29766809532797 0.1063868476768257 0
0.320638276589727 0.1133857617120459 0
0.2930409268799771 0.1295068203897033 0
0.2936489272892455 0.1094950342743963 0
0.3190965828202904 0.1128907878033663 0
0.3198222841387932 0.124445079179028 0
0.1098994605929662 0.1259532783992764 0
0.08430524850954049 0.1428843903555894 0
0.3123972454934841 0.09725160768494379 0
0.2240613285489252 0.1260528736890841 0
0.2241619425316573 0.1107274856424728 0
0.2279329785443153 0.112231189115697 0
0.2240613287600471 0.113947126334001 0
0.2204568793403539 0.1277677961998594 0
0.3162550101071384 0.1327046133701233 0
0.3139582148263745 0.1074717173738082 0
0.3225755821603839 0.124176790211003 0
0.3087127196038908 0.1046439146692661 0
0.1538636347843395 0.1235137453260773 0
0.2853948296608012 0.1302833036621742 0
0.1144422719447886 0.1302886666327799 0
0.3197761385391482 0.1155703799150598 0
0.319527447412651 0.1148276589142969 0
0.1135279536456824 0.1032287637488145 0
0.2908915886353849 0.1293675456996975 0
0.3018249557864699 0.1033974013586661 0
0.08279240518124849 0.09438839654648253 0
0.3150508212323579 0.107987452041775 0
0.3111366823944346 0.1038214984157869 0
0.2957298091098966 0.1385947722321899 0
0.3016944845301283 0.1048885949919018 0
0.3032017920262203 0.1356109976157434 0
0.3216488991099236 0.1200597947925488 0
0.3235657418752895 0.1203423082180519 0
0.3210248410906378 0.1143001607893132 0
0.3093389871817831 0.1393209765588496 0
0.2887446208675203 0.109332744895972 0
0.2920138110650352 0.1116753991347478 0
0.2826859047575799 0.1261794860513414 0
0.3192375382070213 0.1140964236061982 0
0.2899050533740781 0.1170830994353717 0
0.3112431789143714 0.1023221435489523 0
0.2019998311018766 0.1277723281761465 0
0.1038650478504122 0.126227475731246 0
0.1944620562956167 0.1239268593813543 0
0.2897351062387161 0.1174594954506779 0
0.2895976835233878 0.1209768672382447 0
0.2962746954547195 0.1349810903926379 0
0.289666929799705 0.1217557279606487 0
0.1037829536968063 0.1031070435910046 0
0.2990735295174251 0.1056840059755488 0
0.3232925549356355 0.119032110896679 0
0.2955955342298358 0.1073481200913949 0
0.3148377184969728 0.1317469175747168 0
0.3212134550707285 0.1306237511195184 0
0.2931773344675818 0.1101143229027954 0
0.3099504709460907 0.1021709425726645 0
0.2911665905753446 0.1084688580834798 0
0.2559956113659402 0.1127970591637273 0
0.322276470452137 0.1217926360394566 0
0.2931074986351751 0.1096711877740944 0
0.2945395942385512 0.1312384889107688 0
0.2924646414331026 0.1000351956054991 0
0.2385384604172842 0.1232761137102796 0
0.1417159060294893 0.1228527143713236 0
0.3114891429601445 0.1351130511257494 0
0.2165344702890511 0.1215696352601836 0
0.2940090999015767 0.132876614131573 0
0.2614040527141756 0.117228084151081 0
0.2976831702873803 0.1335863010913599 0
0.2520393621168406 0.1128427745864853 0
0.3035755022108593 0.1043028262897903 0
0.3176903543923416 0.1097559271830371 0
0.3032475779986061 0.1046807384666965 0
0.2813280481411224 0.1132958270241382 0
0.3236897285241067 0.1252499571132777 0
0.1489689037168741 0.1197755744398963 0
0.09408413230618143 0.1399995121074274 0
0.09377838860011756 0.1439403763922197 0
0.09590778066826483 0.1466308433635022 0
0.1330943243846606 0.1106531091691001 0
0.146515786269407 0.1088543692573689 0
0.3071079644385741 0.1032245665321256 0
0.2967119379739853 0.1329301059748426 0
0.3120740091669176 0.1058502736889853 0
0.1260236255633318 0.1325655888347488 0
0.3005847521874778 0.1347228103346577 0
0.1267220557630735 0.1296189685028338 0
0.2886662163207449 0.124921854480695 0
0.180731302486583 0.1167544093171492 0
0.1325663531818788 0.1192608582978935 0
0.3097758021973092 0.09814130031021981 0
0.2871874682992646 0.1052057154631802 0
0.306399956606825 0.102757509587536 0
0.1017598465696952 0.1490180068507297 0
0.1494746774434547 0.1291161728938389 0
0.1503979324808851 0.1082183076357431 0
0.2624466210926042 0.1130230863629344 0
0.1503826881783915 0.1112035759923859 0
0.2883383647126166 0.1238705708928657 0
0.2936330736680174 0.1305299861815722 0
0.2926669859128382 0.1106935238520504 0
0.3132096674323868 0.1336176965379281 0
0.2932795472113223 0.1082357750128268 0
0.3055661032452044 0.1043150902382529 0
0.3135406158587828 0.1066219565195249 0
0.3051868208617612 0.1046194863271686 0
0.2989100452488218 0.1050420387540511 0
0.1034147520947061 0.1104897851311687 0
0.1830102839165211 0.1099955423164117 0
0.1010969309583017 0.1050714229301521 0
0.3129123693923601 0.1062438006644815 0
0.1831067802048792 0.1300330748014701 0
0.3214501628895178 0.1350653986903699 0
0.3236402278574255 0.1073419033980745 0
0.1037829537037213 0.1368929563997165 0
0.2851875570045342 0.1166847186067805 0
0.2591692909410041 0.1144744990481549 0
0.3234079655723857 0.115712764580807 0
0.2897027596431352 0.1186399661654513 0
0.246131844859059 0.1167974981646867 0
0.2897736690128127 0.1178375925589033 0
0.2975821181932873 0.0983547992485918 0
0.2855866862610615 0.12174356930881 0
0.3000734106418361 0.1039073572313698 0
0.2059387225043793 0.1122315943491982 0
0.1583921535298061 0.1286419598631688 0
0.3138203985090928 0.101510577538065 0
0.2902248120073666 0.13108691884254 0
0.2894511307113607 0.1249402790899472 0
0.09801967201881041 0.09090099258720875 0
0.09801967201040736 0.1490990074202456 0
0.09936479412773447 0.08801436183451458 0
0.2988619276143253 0.1355778395152346 0
0.2893759599289992 0.1197696491060412 0
0.2321104370018214 0.1203692790728524 0
0.2915575236398344 0.1377208465501288 0
0.2636988794890835 0.1201916973603788 0
0.3129984560302247 0.1056120455173181 0
0.2892573702539524 0.1161678328327962 0
0.2909035901009235 0.1283390927373586 0
0.0843128932571067 0.09027040132978853 0
0.2919360816282586 0.12793577849275 0
0.08092866970383837 0.1484290682086142 0
0.08431289324005978 0.1497295986682032 0
0.2994972012990975 0.1057008250791846 0
0.3206613061154577 0.1174313859866108 0
0.3099210395825292 0.104880701838638 0
0.3150094015168282 0.1070946073013442 0
0.3145853386143503 0.1079308867027208 0
0.2703416860522358 0.1168273955212423 0
0.3063722914281612 0.1353548899098435 0
0.2924733453252865 0.1311796961225621 0
0.3214198615783597 0.1222433978267284 0
0.3205040924805442 0.1178241074468177 0
0.3201876068566268 0.1174760433741717 0
0.2877255346965055 0.1336957188753642 0
0.3203366744657803 0.120191813481006 0
0.3148138720996538 0.1082687956877188 0
0.2830044503233729 0.123938846061358 0
0.3178340810636493 0.1286897674134329 0
0.3195195215569273 0.1264973091987235 0
0.3196038709663903 0.1251960702002429 0
0.3177328089906689 0.1113750576701956 0
0.3119471870151975 0.1062795536678847 0
0.2878552907741773 0.1229881682602376 0
0.3193539538428997 0.1255238794970317 0
0.3116460835324643 0.1059981709182676 0
0.2942693707489202 0.1089940026488467 0
0.2958476455635775 0.1004773025307048 0
0.1248304783335284 0.1127767072798881 0
0.1250279837260922 0.1166122221055946 0
0.2559653070787741 0.1274674171226891 0
0.3108863090898755 0.1342108073121427 0
0.290263744807368 0.1091986614919783 0
0.3122588676544712 0.1065224840140435 0
0.2951941584532261 0.1317239880273479 0
0.3145633915379355 0.1320367348340472 0
0.3191348178971943 0.1267126802739835 0
0.2873326218822049 0.1128246290020495 0
0.3185423882470284 0.1127062081024 0
0.3151973833734175 0.1374126161942756 0
0.3063549381865454 0.1047600738146543 0
0.3180693542409044 0.1109255381216904 0
0.2138484124677515 0.1126602495359843 0
0.1748952449224732 0.1295089013739567 0
0.09408413229919645 0.1000004878697199 0
0.2883810187137403 0.1207527141457339 0
0.306084297293588 0.1422651371333026 0
0.3130396704488004 0.1067299850660575 0
0.1183634271624799 0.1204921343015816 0
0.2987480381854449 0.1059690808814476 0
0.2915761675579471 0.1282233384680633 0
0.2697938269428791 0.1279914724596543 0
0.2139617463706776 0.1230454868048505 0
0.3075083543544476 0.1378826450324394 0
0.2851966391222235 0.1098272887803202 0
0.1005592844359537 0.108781756373146 0
0.2923469234101989 0.1292777862298123 0
0.1081923092996733 0.1199190117786523 0
0.2862006388413127 0.1141361772102917 0
0.1408253730895509 0.1263646979872362 0
0.2898176308054595 0.1144570199861027 0
0.3244158242329928 0.1303050740046279 0
0.09998811822384607 0.09347858758308966 0
0.1065326437649608 0.1161630452627854 0
0.1496370339602421 0.1155344366376259 0
0.3154592025217643 0.1066483005258637 0
0.2924989619281467 0.111061840791601 0
0.3258119025119817 0.1127316184893931 0
0.2215387992866912 0.1233041253338652 0
0.2899235357286085 0.1229021927493748 0
0.1003212934204703 0.09766903824336319 0
0.1953661990633976 0.1102196715199012 0
0.2934723990982775 0.1059744200611491 0
0.3020644831004591 0.1362405429157132 0
0.1096774903352235 0.1051314886760992 0
0.1793353913548878 0.111162697547274 0
0.2897504200080946 0.1370402164421344 0
0.3081939323163042 0.1366220088510111 0
0.3253893061178718 0.1210093751629586 0
0.3154618057697055 0.1045346703005913 0
0.2846640485226119 0.1268141467593702 0
0.1585617386438418 0.1157951169140908 0
0.08430524851244117 0.09711560965157141 0
0.2882680011840546 0.1222441160027546 0
0.2944585820529393 0.1086251615713783 0
0.1301248655268711 0.1222685863697487 0
0.1868223855748944 0.1115275754710462 0
0.2909668004023013 0.1137598142199257 0
0.2948869796353113 0.131525668901777 0
0.2941064587690067 0.103190150225202 0
0.2977290177863244 0.103345377002789 0
0.2889753126144821 0.1147292501770773 0
0.2946580732501342 0.09880337652512285 0
0.2948798014302216 0.1043076799349791 0
0.2971030745788999 0.1057258916087152 0
0.1565372181970176 0.1212998927228759 0
0.308757955978861 0.135423583972518 0
0.3162919045377828 0.1083308669862304 0
0.3273179034846248 0.1275291144935335 0
0.2116963276239133 0.1294353759435142 0
0.3125821147826948 0.1344700210794282 0
0.2910259930337061 0.130178249200317 0
0.3091164249932664 0.136380918378402 0
0.3204065811338018 0.1212897840405228 0
0.3025225786295422 0.1025988562592258 0
0.3064866186174667 0.1036691951190474 0
0.3197935967141176 0.1256073690989615 0
0.2913978357959663 0.1273227082464211 0
0.2916679340952927 0.1276223931236596 0
0.1917951509247483 0.1214697807591005 0
0.292305740950627 0.1304491504457126 0
0.2342894954888945 0.1167001133835729 0
0.318585155158316 0.1118115113202522 0
0.2716099076876036 0.1226385722778126 0
0.08704570850963408 0.1518679563456354 0
0.2954396741295077 0.1319860462153895 0
0.09055963044015405 0.1512203439957512 0
0.3214715610408683 0.1183364491071571 0
0.3026718263593162 0.1354844377609393 0
0.228338205844932 0.1200000000051409 0
0.2264648162762004 0.1167862832189849 0
0.3175728442045844 0.1015543636766957 0
0.3116030585045201 0.1339135066714905 0
0.292553840373986 0.1288989214167402 0
0.3114154192216075 0.1372602536573022 0
0.1248990399054069 0.1273658339461686 0
0.2759426144446691 0.1139232509326655 0
0.3189100977059422 0.1133891191173585 0
0.3040271497948681 0.1046610202589379 0
0.2653333512913134 0.112442687533161 0
0.3112207957322942 0.1339905899615811 0
0.3024620480302572 0.1047281777558099 0
0.3013381584815725 0.1050908412208983 0
0.3167558026011221 0.1101729005635044 0
0.1303797123249319 0.1117326399083675 0
0.3094230628448938 0.1347524193407577 0
0.3172588331333778 0.1107568950050685 0
0.3055722275261982 0.1047376970129701 0
0.3197614957999799 0.1159774647436918 0
0.3189903230971126 0.1301193327579945 0
0.09561014948783618 0.1035315595024408 0
0.3182955111794305 0.1094791936805816 0
0.161606582448275 0.1093747144006764 0
0.1004881930710206 0.1311382769583515 0
0.3164902456808955 0.1320663266062357 0
0.3128999394401478 0.1046117196681091 0
0.2910492885451874 0.1133747525935388 0
0.300312960250137 0.1029611750204857 0
0.3017015091944328 0.1351517243701042 0
0.2910424875010134 0.131991323329574 0
0.2961195383834819 0.1324384945431046 0
0.1694842049346807 0.1230189566319142 0
0.3152110296871354 0.1315939773478243 0
0.2913241483107217 0.1269302365823125 0
0.2990863692687895 0.1342767675024786 0
0.3079004798793514 0.1049197324518969 0
0.1327641043778849 0.1264373769594297 0
0.2203604319640349 0.1120497619561611 0
0.290295515942197 0.1272163524899115 0
0.2901217152404386 0.1236517927421927 0
0.2958606362567257 0.1370001566368023 0
0.3157891927149951 0.133327794371252 0
0.3125610812063752 0.1339751116609321 0
0.1726526820954555 0.1234682982887321 0
0.2730207208058758 0.1264246059131368 0
0.3009333470315347 0.1050754119818253 0
0.3125009715494117 0.1368905775253535 0
0.3249637423570494 0.1282199682585763 0
0.2264648161932597 0.1232137168225301 0
0.3162278395431025 0.1304052974786563 0
0.300575738030908 0.1052782266678906 0
0.2030166541867448 0.1105028007683127 0
0.221509407587562 0.1166637962710976 0
0.1514321782763575 0.12688241576362 0
0.2878851180499875 0.1073068345152234 0
0.2443747774711174 0.1199999999937154 0
0.3203201562100033 0.1190421596863807 0
0.3203715662798745 0.1198026829569514 0
0.3053245296741684 0.1035658591758728 0
0.3223397742046633 0.1126088955499742 0
0.1163596035232866 0.1272485935395666 0
0.2327877283903161 0.127698104844405 0
0.2155390780831146 0.1280907346440119 0
0.1781212625256984 0.1181656951860473 0
0.288239919219946 0.116413541447102 0
0.3021946615853358 0.1379771275563325 0
0.08806277756790191 0.1436859667540843 0
0.2967558690938013 0.1064887877592906 0
0.2919039962633488 0.1097683928056431 0
0.0880627775778277 0.09631403325232069 0
0.09629280437579414 0.1515418270980625 0
0.0910999650097935 0.1427153171595965 0
0.2943616199045476 0.133657037813694 0
0.2900324171118284 0.1167259446022904 0
0.2994798252482603 0.1343441130188194 0
0.1677167050621034 0.130679268943931 0
0.3270077924481508 0.1182712050863193 0
0.300260777500322 0.1367537637828816 0
0.2998221525911414 0.1345436758616454 0
0.2943257419718481 0.1309476302916647 0
0.3211498722729833 0.1253829615681244 0
0.098009491379435 0.1059241395221781 0
0.2857293562407837 0.1283635584491568 0
0.1130793721001728 0.1168332920502937 0
0.3040285658878624 0.1353166521130386 0
0.2277555463224585 0.1276541525031857 0
0.3154835464674913 0.1080445104291087 0
0.3034625711364953 0.1417805938187968 0
0.313596214283964 0.1073267485652874 0
0.2953855616986114 0.1078773257833772 0
0.2451537572604233 0.1272865769379407 0
0.3129829741668502 0.1331828506744404 0
0.322381702276761 0.1196338644874229 0
0.2931860077496627 0.1298866960678705 0
0.1858870786261837 0.1233481941318736 0
0.3103406510481957 0.1044264891307523 0
0.1856865976162136 0.1164598444739296 0
0.2861034303550418 0.117956751950538 0
0.3091275208452267 0.1032805372640772 0
0.2907604727017988 0.1259012424752216 0
0.3208212333060543 0.1181708996280906 0
0.2128462410635772 0.1164198369959728 0
0.3091171152588006 0.1041372349282133 0
0.3203945619646584 0.120576886273735 0
0.2924952438694955 0.1093332966933941 0
0.3097601512721643 0.1345553320992144 0
0.2920925503895916 0.1282892639104952 0
0.3149100394518198 0.1075819188180635 0
0.2863689796773225 0.1246340253523923 0
0.1106112289449915 0.1300389282137603 0
0.3036387416959492 0.1047529702922446 0
0.1106635461471031 0.1099835762687425 0
0.3195002957917137 0.1046390991439978 0
0.3070897595375821 0.1048213098713053 0
0.3041227717354547 0.104248782633476 0
0.2925899555999992 0.1024969009110969 0
0.2895898347006349 0.1201889806860323 0
0.3132805341825105 0.1329174459668317 0
0.1358784908135221 0.1107644267396755 0
0.3086684512324146 0.1349702198684163 0
0.3079060878165554 0.1351051042483759 0
0.3167804885589457 0.1094718919256856 0
0.2876954492445428 0.1212275487770477 0
0.106995796508311 0.1383338132521367 0
0.1827890982347344 0.1230467517186948 0
0.3203709860232677 0.1088627505027867 0
0.298063236480401 0.1063001395953782 0
0.311907311466215 0.1336750369811811 0
0.1230643044477333 0.1089239042316884 0
0.2888136364664102 0.1200163570130188 0
0.2906149671027569 0.1267935853858979 0
0.3101589884841652 0.13449070450277 0
0.3195775921093005 0.1080536259845131 0
0.3179227929461598 0.1291225732277939 0
0.2911347899063139 0.1124079185293062 0
0.2963927837803288 0.1072933596266289 0
0.2881108860825875 0.119308344696741 0
0.3090476134442307 0.1051354683009443 0
0.3203122784903935 0.1182558296056803 0
0.3028754933051131 0.1048001917483681 0
0.3147383454674497 0.1324412859965172 0
0.3199743079895076 0.114619115878452 0
0.2887974157860064 0.1188703740949039 0
0.3086513699138295 0.1421784085512976 0
0.3214885313851027 0.1237405614096966 0
0.3187344130554408 0.1269522635720294 0
0.3179157773907136 0.1362450912688196 0
0.1077509579147259 0.09755636239849155 0
0.1057814379470293 0.14498833859185 0
0.3057782055322025 0.1031674942833513 0
0.3181555821915191 0.1120296589250354 0
0.2875124693805791 0.1182825497616617 0
0.3211098611508539 0.1263438224857207 0
0.2388032467925852 0.1164547356916327 0
0.1296974181858946 0.1179430302591881 0
0.2039821846420178 0.1207881878439425 0
0.216927201134014 0.1111945675306676 0
0.1135279536698409 0.1367712362255856 0
0.320033751631162 0.117105693802518 0
0.1381646815944558 0.1236555672172958 0
0.1761291358599884 0.1100764833211741 0
0.3138483776272666 0.1347801701316633 0
0.2937662003463 0.1318538573976307 0
0.3170432071140575 0.1295685339330996 0
0.3172229034273449 0.1292160310465264 0
0.1038528985742919 0.1137456110368348 0
0.1458987666745147 0.1180680633902536 0
0.3162635728568063 0.1312382557786092 0
0.3163258038201742 0.1070258911855802 0
0.3065289866682037 0.1369400933851239 0
0.2906693734793173 0.1144850976332115 0
0.2973964556257509 0.1066910521295673 0
0.3133010498203831 0.1070505501408312 0
0.2947575326143254 0.1327654101045606 0
0.3169397600834631 0.1304531275961918 0
0.3209476956194998 0.1228275255784137 0
0.3202787453795835 0.1225077456050919 0
0.316011484842245 0.1307359795241206 0
0.290301186496529 0.1128467896244813 0
0.3175102294918055 0.1289447310184742 0
0.2896872228895541 0.1132201780729786 0
0.2672299058708891 0.1184135493207634 0
0.3189353481274719 0.1124468291352687 0
0.3183509669794449 0.1276331995632634 0
0.2911486989345546 0.1097432364477599 0
0.3179564456569943 0.1283054732463666 0
0.3075164481554667 0.1048922093306048 0
0.3105234687101137 0.1056471135877878 0
0.3184816667286261 0.1272605987833187 0
0.207042416663636 0.1157109654906341 0
0.2896180145524395 0.1100719544766151 0
0.2910193587376264 0.1262112998510843 0
0.3112475840389644 0.1059357487027835 0
0.3092140854957998 0.1007408882033959 0
0.2948405880485409 0.10846463131757 0
0.1515351658785024 0.1211433719047695 0
0.1014566918229394 0.1011729078369734 0
0.317375823411284 0.1346390341860783 0
0.3125898215707881 0.1332788854216865 0
0.2970322924855973 0.106848764628985 0
0.1988403102631327 0.1297431523056079 0
0.2914633597415798 0.104187644614311 0
0.316536907942089 0.1098392323926365 0
0.2980614849612732 0.1337050429363087 0
0.2975077918507937 0.1043186489116238 0
0.3129426047084123 0.1349828600676856 0
0.3192757126191997 0.114504996089698 0
0.312293492103527 0.1356062785012033 0
0.2836350903954738 0.1166022771636709 0
0.295284195268917 0.1066999184393692 0
0.3269812005003644 0.1225210141578945 0
0.1610277148833123 0.1127540554170789 0
0.3149521736728492 0.1058816589293634 0
0.2903671947627459 0.1152039128526442 0
0.2897572908400926 0.1114924192913791 0
0.2904064507284866 0.1247826420950978 0
0.2886872233292951 0.1299508610601167 0
0.1353373512451048 0.1291921964380554 0
0.1387010303456211 0.1091234253013534 0
0.3063946116349054 0.1358413581649002 0
0.1619455666520035 0.1276069708406018 0
0.3202215564669603 0.1221285238116119 0
0.08002511191149927 0.1436057693037189 0
0.08002511192941467 0.09639423070781222 0
0.09936479413124126 0.1519856381697098 0
0.2911855537096576 0.1104412127708115 0
0.1003212934097322 0.1423309617550811 0
0.09692614681768941 0.1417912094658322 0
0.3150684527952279 0.1346614763298392 0
0.2998451067186629 0.1055207981957458 0
0.2998325468298341 0.1050945907569962 0
0.3139552252643493 0.1325016289455708 0
0.2896314519297141 0.1194599278948779 0
0.3160202972590955 0.1092743375774225 0
0.1065899044818663 0.1237208479575917 0
0.2901905172948955 0.1159647109117978 0
0.287875303645022 0.1154028503923825 0
0.2897993153806168 0.122131953484044 0
0.290679147654147 0.1255111408980714 0
0.1930458446997425 0.1151896714562927 0
0.3154358871772119 0.131260827608707 0
0.2918733285869181 0.1120471745515652 0
0.2863618945768167 0.1167617506567068 0
0.2934669076529041 0.1301575710787759 0
0.3200253534358286 0.123324052616023 0
0.3198129178214746 0.1240362250899484 0
0.2929835914312582 0.1104527579676182 0
0.1299882448761501 0.1315746813449821 0
0.1952810925524969 0.1166361866301756 0
0.3173994240944369 0.129903408151556 0
0.3201421620696452 0.117877896968012 0
0.320083215287251 0.1285014263150208 0
0.2896619458700193 0.1205908054038784 0
0.3021090875691199 0.1350737530730619 0
0.3013391899683673 0.1349150232937503 0
0.1161196806867277 0.1340211813660592 0
0.3142157153184702 0.1077624011110467 0
0.3186623074731945 0.1130870506211407 0
0.3178874313268324 0.1117387222214348 0
0.1463784487050032 0.1311924602293091 0
0.313764342083087 0.1371650738450688 0
0.3101353962098778 0.1055743774077658 0
0.3014583781782151 0.1407274629249477 0
0.3086392221421251 0.1051193799550667 0
0.3020993679807502 0.1048896326531719 0
0.3191469244090598 0.1258603078462825 0
0.09629280437095138 0.08845817290824887 0
0.3189954970441795 0.1137669838668588 0
0.2488844457244134 0.1285843290706862 0
0.3195764121085455 0.1152274339473778 0
0.3090330083937934 0.1347782230358127 0
0.3075194194474016 0.1351358512070966 0
0.3047975817783179 0.1046574610125399 0
0.2894314139739099 0.1351779192509666 0
0.2894889422027873 0.1171346787609632 0
0.1543817131149144 0.1092281249319312 0
0.3127147439254374 0.1432848718069239 0
0.3196932576016998 0.1139344475304923 0
0.2991597475212662 0.1410824382826088 0
0.3067620408215466 0.1352349583538702 0
0.304961519719914 0.1012129210426113 0
0.3040705521676077 0.1001302841797709 0
0.1161196806690042 0.1059788186115522 0
0.1383751011643949 0.1162990972220435 0
0.2995292258262177 0.1355230625977468 0
0.1617961586086838 0.1305673085288241 0
0.1585263399060934 0.1083631765704043 0
0.294549944799178 0.1077054534708308 0
0.1700869796385914 0.1095637939187608 0
0.3110157055743094 0.1346393727722269 0
0.294149468711804 0.1074190699156868 0
0.2943470939596655 0.1065821033959365 0
0.2980410093128391 0.1360212104420892 0
0.3033177625803062 0.1364147143199021 0
0.1211004603000355 0.1167676927285339 0
0.2923962184037932 0.1083819044334108 0
0.1422750068082687 0.1078980224148539 0
0.1710173622242153 0.1301245296532052 0
0.3229298473360884 0.1135182609723467 0
0.2871031489672507 0.1311647248816017 0
0.2921755841885757 0.1338142248320429 0
0.2916381605275359 0.1294591285001103 0
0.3231957442569317 0.1230500111445489 0
0.3180108954768143 0.1300810111377089 0
0.2507247934008977 0.1228593113442855 0
0.09150319913618665 0.093566860154799 0
0.09150319912497544 0.1464331398529249 0
0.3140629178758701 0.1062482366698644 0
0.2913307340663545 0.1130819049488961 0
0.317239185774201 0.1310050557062303 0
0.2676651425125527 0.1224866097188417 0
0.2987674344902147 0.1041615595428303 0
0.2561289400840325 0.1214035544530223 0
0.1017598465775174 0.090981993155792 0
0.234130097825023 0.1237002152220647 0
0.2901974268167354 0.1240381517579033 0
0.2957569018192265 0.1061197320175658 0
0.2946841904095234 0.1405606530124215 0
0.09800949142569301 0.1340758604188239 0
0.3107575795187399 0.1052646756718388 0
0.256964221987274 0.1173802971486408 0
0.3280985515299258 0.1116548765398326 0
0.3174633703524436 0.1050425458180209 0
0.3201373803292105 0.126514217264474 0
0.2973872344583046 0.1333152265237705 0
0.3200043027197335 0.1135385377844706 0
0.08704570853120659 0.08813204366591747 0
0.31494505853256 0.1335583304097089 0
0.3006774031217611 0.1001260483314552 0
0.3032888141788713 0.1037709721015711 0
0.3034781818108577 0.1030064470647714 0
0.28973833886489 0.1213568705803534 0
0.2614184604941026 0.1227223224249931 0
0.1144955282756499 0.10977425593545 0
0.1422750068055857 0.1321019776010294 0
0.09590778067833924 0.09336915664584756 0
0.1905138386002246 0.1297590940738141 0
0.3171741990704014 0.1084130489837245 0
0.300569085206948 0.1351751763107291 0
0.3242315762868938 0.1093488688680479 0
0.08174404610133165 0.08779539900937947 0
0.08174404606501913 0.1522046009637513 0
0.3215015528585751 0.115891892526081 0
0.1014566918091119 0.1388270921447225 0
0.3002222929161448 0.1345574663884551 0
0.3113725392214178 0.1397819221024314 0
0.1169055012845489 0.1123172271694492 0
0.3167564943477017 0.137278706623218 0
0.2903525359725368 0.1243770338713721 0
0.2798754478481966 0.1176433128778102 0
0.2842460556778528 0.1181010392145467 0
0.3211281624965914 0.1171316482200721 0
0.2869972766155608 0.1090657609613806 0
0.3156840494099358 0.132322223949397 0
0.2927820793742085 0.1292122571279048 0
0.2923216835081878 0.1114165009771699 0
0.3199912833130896 0.1167390146716571 0
0.1070419657949392 0.1314769303637872 0
0.1070486688313514 0.1085239339379208 0
0.2951760444808459 0.108258267207838 0
0.3007637934451641 0.1041989098602306 0
0.3029095162666797 0.1351842692372438 0
0.2833146616450644 0.1135112884942452 0
0.2957902139292843 0.1077454843662435 0
0.2940404957271857 0.1093134245434437 0
0.3203523281435054 0.1122195798558872 0
0.1458734362386098 0.1215788564096469 0
0.2934844369618677 0.1098908370012574 0
0.295796077809641 0.1322623259635179 0
0.2784038065059855 0.1124570239427004 0
0.1672880367458329 0.1093658646411852 0
0.3067349251616366 0.1048143708726947 0
0.3199060953750169 0.1163042147584765 0
0.304039697693375 0.1367548940071999 0
0.08579942804072278 0.1453745504332113 0
0.08579942804327026 0.09462544958147714 0
0.09353917853577615 0.08771409375907539 0
0.09353917853698021 0.1522859062480726 0
0.2815207317998691 0.1222160907331607 0
0.2898190265334931 0.1260113084064031 0
0.2935999598912379 0.130969711684848 0
0.2883870427461444 0.1118862418527324 0
0.1114707040761147 0.1198776212859732 0
0.3007541859338286 0.1377138590558606 0
0.3024891809388305 0.1351332998455045 0
0.3032665745594206 0.1351921136025483 0
0.284939810583728 0.1206656521089655 0
0.2241577370032768 0.1291702771179942 0
0.3202914177779607 0.1209302245384329 0
0.2967745777089101 0.1400851404020175 0
0.3103501891720007 0.1349303489560313 0
0.2925856929658451 0.106680975725034 0
0.2006096031816888 0.1246010475683994 0
0.1301082329969043 0.1285952448198812 0
0.3081023858995466 0.1014019525733745 0
0.09561014953189197 0.1364684404317568 0
0.1622301448718538 0.1185812571630515 0
0.1503979324466771 0.1317816923580958 0
0.1057814379567058 0.09501166141646761 0
0.1069970421511328 0.1016667225641717 0
0.2917227308805132 0.1303757138136582 0
0.3186936513510883 0.1279225755938468 0
0.2889347303642294 0.1182349460623553 0
0.3140561255310855 0.1334782181110833 0
0.3216439317309842 0.1166801459755007 0
0.2899086293500183 0.112275077139553 0
0.2890755177488194 0.1227503421749861 0
0.2095686532838247 0.1171520816692095 0
0.2802952909563837 0.1274913281665914 0
0.3235252366773193 0.1268450530885006 0
0.304755221181809 0.1358375610797195 0
0.1244334186332108 0.121155014713947 0
0.3049722060986921 0.09769926194356521 0
0.2877568809267237 0.1269773926379605 0
0.2365567951976656 0.1110011686406993 0
0.2365567949273539 0.1289988313843207 0
0.1342199790929514 0.1319716611639917 0
0.1470935509743505 0.1122826961792367 0
0.1468774754813698 0.1277610525048173 0
0.2990268275562209 0.100224621589877 0
0.319210556413355 0.1271479514352651 0
0.3217360027930277 0.124775266932564 0
0.2943679688972952 0.1053564657371652 0
0.1959963573051156 0.1299195960177298 0
0.1621376816937679 0.1216312079338783 0
0.1514881082508563 0.1184165556486976 0
0.3184132973229559 0.1101470048678228 0
0.2488782498917364 0.1114204303054602 0
0.0969261468242984 0.09820879052944241 0
0.323206977269403 0.1168027460781752 0
0.1260236255839538 0.1074344111577224 0
0.2903288728015482 0.1261109506429981 0
0.2894454515884759 0.1154845617262784 0
0.2716423079598693 0.11281607420296 0
0.3202687644067139 0.1194210034505996 0
0.312637983864723 0.1022829054051654 0
0.312251429717038 0.1007375953175611 0
0.1353921279776705 0.1182504074144469 0
0.2945552270994422 0.1081653517015972 0
0.3015567987102585 0.1358879297543705 0
0.2950879376908654 0.1335816212677155 0
0.09998811821951423 0.1465214124284149 0
0.1038673079700621 0.1328547241826 0
0.1038741477861646 0.1071507610408565 0
0.3225617602239248 0.1299564891075383 0
0.3167222261837299 0.1034989695831917 0
0.1585264627426264 0.1316407547221325 0
0.3059694528141947 0.1352619921660969 0
0.3221085161910724 0.1116211841730751 0
0.3208540797636044 0.1158934245753662 0
0.2084068677549993 0.1104287922338967 0
0.3090974024375068 0.1357760674970077 0
0.2897204120859745 0.1198077133946815 0
0.3179768962524682 0.1088461210867168 0
0.2922334793671439 0.1107235733225824 0
0.1730510951657097 0.1266419876113393 0
0.1409684882575675 0.1131455647525167 0
0.2900595452624231 0.1139207684900941 0
0.3176270610456502 0.1074216400420686 0
0.1799792215039953 0.1140677605338401 0
0.2898339582138658 0.1254104165903852 0
0.3196324250846918 0.1338269238251688 0
0.2935585781856757 0.1086379235566117 0
0.305634979583062 0.1358456759803008 0
0.305333720156106 0.1362086616206377 0
0.3043633557250638 0.1388548570211831 0
0.2778836579798791 0.1284285504764145 0
0.09109996501745335 0.09728468284262237 0
0.3093908055748505 0.1053576973591119 0
0.3204858743765946 0.1146492316446216 0
0.3188067726750422 0.1265568902375766 0
0.3067083528993501 0.1362942744862953 0
0.3229871338936197 0.1211555926422488 0
POLYGONS 3067 12268
3 716 814 849
3 599 1227 719
3 445 976 567
3 179 769 180
3 52 907 51
3 162 645 161
3 664 758 865
3 219 424 220
3 892 1362 701
3 517 1547 117
3 430 529 1071
3 944 1275 835
3 952 1322 1687
3 506 1553 800
3 874 1234 677
3 883 1706 430
3 457 1389 781
3 677 1234 425
3 1105 1544 869
3 952 1687 433
3 42 612 1492
3 1491 1150 171
3 537 881 737
3 737 881 432
3 396 552 397
3 468 1550 695
3 1192 571 146
3 1097 1706 883
3 1687 1322 1102
3 199 520 200
3 1178 1680 428
3 376 1196 377
3 497 1044 504
3 885 1345 106
3 542 766 776
3 453 775 948
3 91 1203 450
3 590 1055 708
3 1071 1428 430
3 435 1230 869
3 761 858 1059
3 649 1295 637
3 643 570 582
3 100 740 11
3 568 999 758
3 1492 612 1033
3 532 1150 1491
3 579 1697 720
3 1085 1496 878
3 600 590 708
3 895 1275 944
3 729 681 888
3 1067 1062 541
3 695 1597 468
3 726 1201 927
3 994 1485 825
3 631 1569 755
3 432 1332 737
3 755 692 663
3 916 1325 490
3 670 1734 736
3 417 1159 569
3 1042 1614 554
3 1356 1195 116
3 531 1220 71
3 740 1015 11
3 860 1053 590
3 860 590 600
3 1270 880 100
3 811 1363 1002
3 1235 1365 587
3 185 1169 186
3 869 1213 1105
3 688 1305 883
3 1288 1572 813
3 69 561 1235
3 741 1572 1288
3 203 580 204
3 195 1167 196
3 536 1326 916
3 392 914 393
3 193 464 194
3 265 1107 266
3 370 492 371
3 372 1174 373
3 688 1486 1305
3 1002 1363 496
3 546 1365 1235
3 927 1201 796
3 1036 630 663
3 1563 1197 941
3 805 1208 433
3 478 1725 979
3 100 880 740
3 646 1240 984
3 869 1544 435
3 1133 913 479
3 428 1197 1563
3 333 718 334
3 1036 831 673
3 72 531 71
3 140 521 139
3 479 981 1133
3 870 515 879
3 787 1095 446
3 446 911 787
3 748 1462 1098
3 1094 1274 425
3 638 1177 890
3 634 1329 617
3 480 1615 461
3 97 468 477
3 852 503 112
3 617 1329 967
3 941 1615 480
3 845 1271 648
3 644 1186 760
3 836 1252 819
3 750 1121 562
3 474 467 575
3 720 1604 579
3 878 1086 1085
3 208 846 209
3 668 784 897
3 826 784 668
3 428 1563 1178
3 994 422 716
3 799 908 1228
3 387 919 388
3 891 1333 589
3 1070 1583 505
3 521 1049 790
3 624 1669 1570
3 314 788 315
3 716 934 994
3 655 1026 122
3 1405 1420 603
3 476 945 847
3 847 945 694
3 547 954 692
3 1071 529 821
3 1345 1227 723
3 898 641 558
3 720 1697 1193
3 1084 1496 1085
3 661 1207 1186
3 118 1586 517
3 567 950 445
3 521 1248 139
3 326 1233 327
3 234 785 235
3 995 1022 824
3 814 1256 849
3 890 1283 638
3 425 1662 1094
3 582 570 522
3 819 988 650
3 1102 1322 913
3 113 876 852
3 10 1129 1241
3 765 1663 597
3 631 1163 743
3 742 750 562
3 776 766 725
3 758 999 606
3 558 641 639
3 484 1221 465
3 777 1644 1148
3 1151 1643 705
3 433 1208 1071
3 798 1725 478
3 913 1666 1102
3 1105 1103 1544
3 14 876 113
3 634 605 18
3 7 1397 461
3 605 1274 1094
3 890 1177 1397
3 1148 1644 1033
3 532 1643 1151
3 703 1061 733
3 1036 1309 831
3 617 605 634
3 461 1397 480
3 104 1590 647
3 779 571 1192
3 692 1569 680
3 977 1465 1117
3 904 1612 980
3 521 615 1049
3 300 1052 301
3 1098 1462 765
3 1111 1113 657
3 1038 456 882
3 760 1203 644
3 585 881 826
3 474 1567 709
3 691 1560 1559
3 874 1680 1178
3 674 1301 523
3 942 1247 13
3 1006 1284 1001
3 1004 1276 1011
3 639 1347 859
3 508 1581 711
3 475 1581 508
3 450 1081 9
3 614 1203 91
3 1221 1660 465
3 435 1480 1230
3 741 838 960
3 949 1293 767
3 1313 1262 972
3 432 881 585
3 508 1003 127
3 633 1181 1043
3 1385 1398 1141
3 512 1226 457
3 439 501 511
3 821 1635 1071
3 1071 1635 433
3 1377 957 966
3 980 1587 904
3 1117 1350 977
3 569 971 417
3 940 1352 941
3 500 426 419
3 127 1179 508
3 888 1405 729
3 941 1197 940
3 663 1309 1036
3 754 1142 1268
3 827 1423 638
3 737 1312 537
3 779 1312 737
3 941 1352 491
3 1097 1423 827
3 1043 732 644
3 104 1608 1121
3 907 1416 51
3 162 818 645
3 1110 1564 691
3 606 1072 1476
3 1476 1072 791
3 1380 1627 1223
3 989 1626 1378
3 113 852 112
3 86 1104 1124
3 243 928 244
3 527 1372 536
3 853 471 685
3 91 450 9
3 1124 1065 86
3 659 978 802
3 711 1601 508
3 478 1686 1213
3 1163 1542 120
3 1213 1686 1105
3 737 534 779
3 1213 1435 478
3 726 927 795
3 319 1108 320
3 491 1615 941
3 1083 1435 1213
3 698 1583 1070
3 820 1695 693
3 462 667 902
3 775 1599 948
3 575 1345 723
3 1380 1223 584
3 514 989 1378
3 16 655 122
3 1230 1480 897
3 540 1709 1442
3 868 458 898
3 343 923 344
3 1232 1391 600
3 984 1240 661
3 70 561 69
3 487 1377 966
3 1275 1702 90
3 795 1424 717
3 433 1687 805
3 979 1686 478
3 776 963 542
3 638 1283 827
3 827 1283 1087
3 575 1125 474
3 1078 1080 618
3 879 458 868
3 425 1274 677
3 1178 1177 638
3 862 1588 780
3 641 1303 639
3 633 550 465
3 1135 1485 486
3 1260 1422 505
3 647 1608 104
3 126 1003 544
3 953 1267 771
3 808 1072 606
3 458 1076 898
3 979 1725 1487
3 621 1208 805
3 117 1547 833
3 791 845 648
3 967 463 940
3 504 1403 420
3 354 912 355
3 1024 734 776
3 765 597 757
3 68 1224 67
3 146 571 145
3 445 1007 886
3 96 1129 10
3 52 1030 907
3 645 1426 161
3 675 1617 1484
3 457 781 512
3 1096 1365 454
3 587 1365 1096
3 707 1642 804
3 898 636 641
3 467 1345 575
3 813 1402 807
3 1574 1736 1338
3 1335 1340 1575
3 710 1220 531
3 856 1370 1191
3 945 1693 925
3 743 1135 631
3 723 839 575
3 879 973 458
3 465 700 633
3 717 1424 902
3 701 1649 569
3 778 618 560
3 819 1252 527
3 754 1260 1142
3 1257 1149 1199
3 844 891 589
3 585 1429 432
3 816 916 490
3 118 517 15
3 729 1391 681
3 1331 1201 499
3 796 1201 1331
3 147 1192 146
3 1098 935 98
3 730 1082 719
3 476 1693 945
3 897 1665 1230
3 1230 1665 502
3 855 1136 675
3 864 1576 1481
3 967 1329 463
3 564 987 457
3 981 1489 1133
3 176 836 177
3 508 1179 475
3 606 999 808
3 1188 572 696
3 567 1473 1580
3 747 908 1134
3 807 1670 762
3 864 995 824
3 796 1248 521
3 534 1096 454
3 602 683 998
3 531 1320 717
3 704 1313 972
3 709 1717 728
3 18 1524 634
3 461 1551 7
3 782 1255 643
3 433 1635 952
3 952 1635 1083
3 617 1274 605
3 1397 1177 480
3 940 1197 967
3 3 1193 37
3 28 1084 1
3 1144 1450 1579
3 476 1489 981
3 967 744 617
3 480 1563 941
3 709 1216 474
3 434 1159 417
3 536 916 816
3 1235 561 546
3 790 927 521
3 1137 1604 789
3 466 1086 1138
3 1144 1579 481
3 848 1409 746
3 802 1061 418
3 562 1121 728
3 443 1371 557
3 691 1564 700
3 554 1412 1042
3 1481 1576 799
3 589 1543 844
3 13 1247 108
3 697 1146 658
3 798 1435 821
3 478 1435 798
3 463 1329 632
3 126 544 125
3 877 1363 454
3 454 1365 877
3 777 1574 1338
3 1335 1575 705
3 305 635 306
3 1178 1423 874
3 15 517 117
3 638 1423 1178
3 717 1320 1132
3 1148 1595 777
3 705 1263 1151
3 828 1336 761
3 1544 1555 435
3 883 1234 1097
3 490 1266 816
3 692 1341 547
3 3 1736 1193
3 1084 1340 1
3 557 1364 443
3 1221 1560 691
3 708 1232 600
3 1133 1715 913
3 444 1704 908
3 629 958 588
3 797 1450 964
3 470 460 1123
3 496 1363 877
3 877 1365 546
3 656 1091 862
3 719 896 730
3 857 1219 583
3 573 1495 565
3 566 1051 969
3 699 678 784
3 528 1358 423
3 106 1345 467
3 90 1702 89
3 816 1266 608
3 1421 1592 782
3 998 683 628
3 1596 1310 448
3 1059 1358 528
3 471 1028 685
3 17 1002 144
3 69 1235 8
3 107 885 106
3 661 1505 460
3 780 1364 1035
3 810 1390 872
3 288 669 289
3 721 836 819
3 883 1305 1234
3 1487 1565 979
3 805 1603 621
3 790 1661 902
3 741 1288 838
3 556 1422 1260
3 568 1006 1001
3 494 863 595
3 103 1121 750
3 137 1331 1020
3 1004 1011 752
3 660 1668 1223
3 989 1392 672
3 66 1429 585
3 588 991 629
3 763 1418 1254
3 762 1520 893
3 1094 1092 605
3 1397 1699 890
3 860 1398 1385
3 762 586 1520
3 487 1166 426
3 1234 1305 425
3 736 530 682
3 815 1010 488
3 790 1424 927
3 658 1146 764
3 1043 1323 633
3 488 1010 1067
3 984 1449 646
3 1223 1668 907
3 645 1392 989
3 469 997 944
3 1181 1453 442
3 1270 1714 747
3 97 477 96
3 281 739 282
3 338 951 339
3 546 918 877
3 521 927 796
3 950 951 445
3 493 1293 949
3 693 1695 539
3 1436 1293 523
3 784 678 925
3 780 1035 933
3 275 1256 276
3 927 1424 795
3 538 1497 1430
3 665 1018 79
3 134 1354 1330
3 694 1344 847
3 865 1042 664
3 543 1592 659
3 432 1429 1224
3 210 866 211
3 769 1445 1444
3 1228 1591 753
3 541 1723 809
3 1321 1269 715
3 715 1317 1217
3 978 1678 654
3 109 903 1210
3 439 1695 1190
3 659 586 543
3 933 1294 656
3 296 936 297
3 385 533 386
3 573 1710 1495
3 1219 1211 583
3 725 1024 776
3 298 642 299
3 26 1014 1491
3 1492 1231 39
3 797 1157 1450
3 684 1722 1606
3 902 1424 790
3 800 1346 506
3 643 1012 570
3 1349 1421 782
3 1495 1710 878
3 579 1211 1219
3 595 1296 494
3 570 947 522
3 307 965 308
3 309 962 310
3 17 1119 1002
3 1235 1116 8
3 1333 1146 589
3 1678 1316 654
3 622 1572 741
3 944 452 895
3 183 1012 184
3 349 1280 350
3 216 1271 217
3 1437 1727 803
3 909 1370 856
3 786 1591 742
3 767 1578 949
3 430 1428 883
3 847 1489 476
3 566 1605 496
3 897 1480 668
3 122 1026 873
3 741 1578 622
3 984 1650 427
3 121 1163 120
3 109 1210 942
3 728 1608 709
3 981 1693 476
3 502 1693 981
3 181 947 182
3 572 1529 596
3 799 1576 616
3 419 1391 1232
3 457 1226 564
3 500 1377 426
3 1224 1429 67
3 1294 1145 656
3 379 1022 380
3 581 1691 690
3 547 1054 954
3 987 990 457
3 1228 1481 799
3 417 1569 631
3 807 893 813
3 804 518 707
3 558 1561 961
3 496 1051 566
3 1117 1465 1056
3 1122 1612 904
3 149 1554 847
3 116 1195 115
3 585 1557 66
3 680 1341 692
3 616 1145 799
3 399 1276 400
3 222 1284 223
3 755 1569 692
3 1135 1250 434
3 44 1595 1148
3 1151 1263 169
3 847 1344 149
3 853 1041 549
3 1199 1147 849
3 405 1028 406
3 560 1037 783
3 14 1545 876
3 896 1479 107
3 780 933 862
3 241 1297 242
3 664 1042 1202
3 783 1314 854
3 363 734 364
3 831 1309 712
3 633 1323 550
3 601 1095 787
3 336 1007 337
3 4 41 40
3 172 0 25
3 1035 1364 557
3 1520 586 659
3 696 1497 448
3 659 1592 1421
3 876 1614 679
3 88 1702 797
3 902 667 717
3 345 1314 346
3 943 1334 670
3 762 893 807
3 583 1667 857
3 565 1417 573
3 626 1262 1313
3 562 1401 742
3 787 911 509
3 604 1580 1131
3 509 422 994
3 1227 1479 719
3 1051 917 969
3 496 1605 1002
3 228 990 229
3 1020 1217 1016
3 499 1217 1020
3 1019 1321 1306
3 1306 1321 856
3 1240 1505 661
3 94 1384 513
3 46 974 45
3 168 1265 167
3 548 1064 1564
3 347 1037 348
3 902 1661 917
3 1137 1211 1604
3 1086 1710 1138
3 994 825 509
3 549 1611 853
3 1020 1331 499
3 1217 1317 1016
3 1019 1269 1321
3 140 615 521
3 789 1535 1137
3 1138 1339 466
3 1057 1114 489
3 441 986 1324
3 601 1377 500
3 115 1412 114
3 534 1332 1096
3 1042 1412 682
3 500 1106 601
3 1453 1064 548
3 862 933 656
3 637 1447 649
3 582 1349 643
3 883 1428 688
3 1033 612 1148
3 1151 1150 532
3 311 1295 312
3 558 961 898
3 42 1492 41
3 172 1491 171
3 994 934 486
3 716 1307 814
3 248 1303 249
3 445 1243 976
3 682 1195 736
3 250 636 251
3 12 1590 104
3 205 1301 206
3 1241 1176 930
3 944 997 972
3 498 899 1239
3 825 1485 613
3 604 1131 854
3 877 1258 496
3 913 1322 479
3 1163 1568 743
3 854 1499 604
3 668 1639 826
3 799 1145 1294
3 390 501 391
3 618 1280 560
3 960 949 741
3 754 1018 665
3 1330 1354 459
3 1596 1497 538
3 882 1679 804
3 1487 1725 686
3 688 1208 621
3 1591 1381 742
3 736 1195 1356
3 800 1607 926
3 47 1139 1535
3 1339 1493 166
3 608 1361 816
3 717 1458 795
3 504 834 497
3 541 1373 1067
3 631 1298 417
3 701 1259 892
3 936 1501 447
3 949 1578 741
3 684 1727 742
3 470 1207 460
3 6 1139 47
3 166 1493 19
3 777 1595 974
3 1265 1263 705
3 426 1166 429
3 665 1260 754
3 556 1260 665
3 755 1542 631
3 131 591 1359
3 1106 1172 623
3 1002 1119 811
3 587 1116 1235
3 795 1676 726
3 885 1227 1345
3 838 1061 703
3 1193 1736 720
3 1085 1340 1084
3 736 1356 670
3 826 1557 585
3 675 1136 745
3 531 667 710
3 1051 1258 462
3 717 667 531
3 109 942 13
3 473 455 82
3 663 1143 755
3 607 1714 1270
3 1232 1172 419
3 597 1663 812
3 99 1098 98
3 468 1597 477
3 1186 1207 760
3 219 1180 424
3 759 1431 451
3 30 1292 1587
3 1350 1204 35
3 650 1066 819
3 564 1226 1202
3 1059 1478 761
3 842 1642 707
3 547 924 1054
3 89 1702 88
3 769 1513 180
3 1202 1438 564
3 486 1250 1135
3 138 1331 137
3 424 1400 220
3 1205 1570 625
3 573 1417 164
3 49 1667 583
3 690 1585 581
3 898 961 868
3 1148 1609 44
3 169 1610 1151
3 799 1294 908
3 803 1727 1606
3 757 935 765
3 519 839 608
3 104 1121 103
3 462 1517 667
3 749 1296 921
3 462 1258 918
3 286 998 287
3 765 935 1098
3 252 1076 253
3 888 1420 1405
3 948 1253 695
3 303 658 304
3 908 1704 1134
3 77 1306 76
3 137 1020 136
3 462 917 1051
3 1270 946 607
3 254 973 255
3 519 1266 906
3 1023 1571 719
3 290 1055 291
3 950 1114 1057
3 106 467 105
3 602 675 745
3 606 1476 1315
3 611 1199 625
3 396 1419 552
3 292 1053 293
3 448 1497 1596
3 598 1505 1240
3 450 1203 760
3 493 1310 1021
3 1186 984 661
3 85 1077 84
3 552 1187 397
3 930 1069 1241
3 788 1403 504
3 802 1520 659
3 30 1587 29
3 36 1350 35
3 753 1481 1228
3 1016 1317 1354
3 1354 1317 459
3 1018 1269 1019
3 754 1269 1018
3 1444 1445 721
3 1188 1529 572
3 1295 1236 637
3 26 1491 25
3 40 1492 39
3 179 1445 769
3 664 1251 758
3 643 1349 782
3 471 1718 920
3 720 1736 1574
3 1575 1340 1085
3 16 1677 655
3 578 1589 931
3 135 1354 134
3 79 1018 78
3 906 1620 519
3 129 996 128
3 164 1101 573
3 583 1582 49
3 114 1412 554
3 246 1347 247
3 199 1432 520
3 427 1650 1483
3 85 1065 1077
3 520 563 200
3 461 1602 1551
3 1524 1027 634
3 760 1207 470
3 1196 1441 377
3 1191 1425 856
3 25 1491 172
3 41 1492 40
3 448 1310 493
3 127 1003 126
3 1570 1669 1250
3 80 665 79
3 134 1330 133
3 420 992 504
3 628 1675 669
3 996 1179 128
3 376 894 1196
3 87 1104 86
3 1087 1387 827
3 617 744 677
3 1178 1563 480
3 101 1270 100
3 766 1367 725
3 764 1701 635
3 827 1387 686
3 752 1634 1008
3 651 1599 775
3 954 1309 663
3 86 1065 85
3 614 1099 1323
3 1083 1464 952
3 846 1409 848
3 103 750 102
3 67 1429 66
3 1491 1014 532
3 1033 1231 1492
3 931 1589 1581
3 693 991 820
3 340 1057 341
3 659 1421 978
3 493 1466 448
3 448 1466 696
3 844 1543 1052
3 75 1425 1191
3 668 1291 64
3 128 1179 127
3 316 1044 317
3 681 1391 419
3 675 1484 855
3 1606 1727 684
3 1398 1405 447
3 1359 591 441
3 1107 1649 701
3 1551 1602 584
3 514 1027 1524
3 893 1520 418
3 965 1482 555
3 637 1236 962
3 733 619 703
3 758 1251 568
3 1604 1211 579
3 878 1710 1086
3 677 1274 617
3 480 1177 1178
3 82 455 81
3 132 591 131
3 966 1229 487
3 1385 1521 860
3 1120 619 110
3 580 1509 204
3 1023 1413 609
3 1453 1494 442
3 1107 1512 266
3 1290 1722 539
3 445 1395 1007
3 1021 1293 493
3 738 909 856
3 774 455 473
3 1483 1459 442
3 329 1358 330
3 392 1285 914
3 679 982 876
3 629 991 693
3 580 1436 523
3 872 1390 919
3 807 1402 1167
3 323 1010 324
3 505 1583 1142
3 902 917 462
3 147 1566 1192
3 92 614 91
3 94 1069 1384
3 331 858 332
3 657 1383 651
3 598 1146 1333
3 439 1190 914
3 321 1062 322
3 825 1351 966
3 865 1614 1042
3 185 983 1169
3 421 1573 985
3 1191 535 75
3 351 1080 352
3 203 1446 580
3 591 1070 441
3 698 1070 591
3 1167 1448 196
3 444 1294 933
3 704 997 689
3 914 1170 393
3 1127 975 421
3 1 1335 27
3 38 1338 3
3 771 1222 953
3 849 1257 1199
3 677 1680 874
3 1169 1173 186
3 265 722 1107
3 936 1411 843
3 1597 1688 477
3 689 1677 704
3 98 1681 97
3 691 1559 438
3 267 1362 268
3 611 1147 1199
3 738 1321 715
3 715 1217 738
3 492 1588 862
3 647 1216 709
3 629 693 768
3 195 1454 1167
3 370 1456 492
3 539 1722 684
3 436 1626 666
3 1115 1627 727
3 438 1110 691
3 809 1337 541
3 761 1336 718
3 464 1454 194
3 1542 1225 120
3 1191 1370 900
3 635 1701 555
3 728 1394 562
3 1566 1724 1192
3 1334 793 842
3 193 1452 464
3 794 1631 470
3 427 1449 984
3 492 1461 371
3 1426 1524 160
3 53 1551 1030
3 417 971 680
3 865 1273 679
3 464 1670 807
3 64 1639 668
3 694 1724 1566
3 333 1404 718
3 372 1461 1174
3 1174 1171 373
3 545 922 469
3 643 1255 1169
3 550 1470 465
3 431 1421 1349
3 948 1549 453
3 828 690 976
3 500 1172 1106
3 673 841 943
3 879 687 870
3 862 1091 1174
3 655 1677 1045
3 528 1560 1478
3 513 550 93
3 669 1675 708
3 555 1482 635
3 539 1695 1290
3 966 1682 825
3 713 1333 891
3 1066 1571 609
3 600 1194 860
3 969 1692 566
3 1048 1035 557
3 742 1401 684
3 1413 1690 582
3 517 1658 1547
3 597 1100 453
3 756 793 1334
3 10 1241 95
3 976 1473 567
3 976 1243 828
3 441 1070 986
3 108 896 107
3 767 1293 1436
3 493 949 960
3 742 1381 750
3 843 1671 642
3 951 1395 445
3 718 1468 334
3 974 1574 777
3 705 1575 1265
3 1108 1723 541
3 944 1618 469
3 236 456 237
3 279 1368 280
3 256 515 257
3 277 840 278
3 846 1500 209
3 1268 1142 459
3 933 1035 444
3 143 1605 566
3 131 1359 130
3 83 473 82
3 695 1550 948
3 1190 1695 820
3 1362 1512 701
3 1373 1564 488
3 569 1159 701
3 173 1372 174
3 630 1143 663
3 856 1321 738
3 738 1217 499
3 1129 1688 627
3 788 1510 315
3 673 1658 1036
3 208 1184 846
3 314 929 788
3 122 873 121
3 447 1411 936
3 679 1529 982
3 387 1502 919
3 789 1574 974
3 1265 1575 466
3 24 1113 356
3 522 1413 582
3 919 1471 388
3 719 1082 1023
3 982 1529 1188
3 866 1672 837
3 523 1622 674
3 851 1442 884
3 53 1030 52
3 161 1426 160
3 442 1459 1181
3 644 1621 1043
3 1233 1463 327
3 859 1553 639
3 486 1485 994
3 642 1671 844
3 326 1175 1233
3 746 1596 848
3 1120 1730 703
3 747 880 1270
3 1562 793 771
3 657 1327 1111
3 888 681 620
3 560 1533 1037
3 1420 1366 713
3 1212 1206 2
3 1324 986 774
3 761 1585 828
3 779 867 571
3 571 867 811
3 418 1520 802
3 447 1501 1141
3 1552 1725 798
3 730 1316 1678
3 686 1725 1552
3 947 1513 522
3 511 1079 439
3 831 1561 506
3 477 1688 1129
3 838 1288 418
3 94 513 93
3 592 1246 533
3 856 1425 1306
3 214 1000 215
3 1135 1298 631
3 985 1573 829
3 596 1430 572
3 1228 908 747
3 786 1437 753
3 1268 1317 715
3 715 1269 1268
3 212 1360 213
3 785 1353 235
3 882 1562 1038
3 1052 1047 301
3 1442 1709 1341
3 381 1156 382
3 751 975 1127
3 848 1672 866
3 961 1561 712
3 300 1128 1052
3 383 938 384
3 536 988 527
3 639 1140 558
3 1192 1724 779
3 1240 1209 555
3 872 1606 810
3 828 1585 690
3 544 1003 481
3 908 1294 444
3 566 1692 143
3 111 1120 110
3 972 997 704
3 709 1608 647
3 499 1073 738
3 1202 1042 682
3 1055 1506 708
3 1280 1533 560
3 1348 1068 451
3 761 1404 858
3 465 1470 484
3 234 770 785
3 1449 1674 1447
3 624 1205 892
3 745 683 602
3 686 1552 827
3 434 1298 1135
3 1428 1208 688
3 571 1119 145
3 811 1119 571
3 68 1116 1224
3 1224 1116 587
3 900 535 1191
3 909 1201 726
3 524 759 884
3 821 529 798
3 926 1607 928
3 835 1618 944
3 1304 1455 776
3 1230 735 869
3 1677 1735 704
3 514 1524 1426
3 1030 1551 584
3 401 1046 402
3 1224 1728 432
3 1222 793 756
3 414 1325 415
3 487 1229 1045
3 1071 1208 1428
3 9 1638 90
3 403 1029 404
3 817 1008 830
3 416 1326 21
3 474 1216 467
3 802 1713 1061
3 533 1246 872
3 224 1388 225
3 1315 1476 596
3 169 1263 168
3 45 1595 44
3 639 1343 1347
3 1359 985 829
3 441 985 1359
3 923 1499 854
3 853 1718 471
3 869 735 1213
3 460 1207 661
3 751 1127 473
3 473 1127 774
3 1250 1031 1570
3 66 1557 65
3 1223 1627 660
3 672 1626 989
3 524 1431 759
3 700 1660 691
3 505 1422 986
3 692 954 663
3 1626 1711 666
3 1115 1712 1627
3 860 1521 1053
3 1334 1652 756
3 226 1389 227
3 33 1212 2
3 1065 1589 578
3 1124 1589 1065
3 886 1243 445
3 857 1667 1416
3 818 1417 565
3 1566 1344 694
3 1095 1106 745
3 901 920 905
3 662 1730 1120
3 844 1671 891
3 1132 1458 717
3 900 1458 1132
3 294 1385 23
3 1108 1515 320
3 2 1503 32
3 515 1090 879
3 683 1675 628
3 899 863 1239
3 1301 1509 523
3 319 1215 1108
3 97 1681 468
3 943 1652 1334
3 1213 1694 1083
3 1195 1412 115
3 1547 1658 673
3 232 510 233
3 785 1679 882
3 1580 1473 1239
3 452 1157 895
3 410 1162 411
3 549 1041 817
3 230 1158 231
3 574 422 911
3 18 605 159
3 54 1397 7
3 439 1285 501
3 802 978 654
3 873 1163 121
3 1549 1550 757
3 555 1209 965
3 954 1054 712
3 412 1407 413
3 943 1547 673
3 881 699 826
3 928 1093 244
3 2 1206 1503
3 141 1469 1049
3 72 1320 531
3 974 1595 45
3 168 1263 1265
3 708 1675 1232
3 243 1523 928
3 589 1146 697
3 728 1717 485
3 729 1405 1398
3 602 1584 675
3 1303 1343 639
3 110 903 109
3 978 1421 431
3 1550 1681 757
3 1305 1486 731
3 1564 1064 700
3 479 1025 981
3 117 833 116
3 895 1702 1275
3 367 932 368
3 962 1726 637
3 964 1278 797
3 920 1718 905
3 440 1254 526
3 907 1668 1416
3 818 1392 645
3 1045 1166 487
3 421 985 1324
3 1049 615 141
3 1106 683 745
3 1335 1014 27
3 38 1231 1338
3 680 1569 417
3 1430 1497 572
3 1324 1127 421
3 218 1180 219
3 1199 1375 625
3 51 1416 50
3 163 818 162
3 784 1665 897
3 925 1665 784
3 624 1570 1205
3 188 576 189
3 429 1647 922
3 365 1406 366
3 564 1740 987
3 829 1573 996
3 996 1573 475
3 1098 724 748
3 190 1414 191
3 826 1639 1557
3 506 841 831
3 1134 880 747
3 343 1498 923
3 1315 1273 606
3 76 1425 75
3 220 1400 221
3 860 1194 1398
3 631 1542 1163
3 700 1064 633
3 812 1100 597
3 926 593 800
3 417 1298 434
3 555 1701 1240
3 691 1660 1221
3 395 1419 396
3 965 1209 861
3 1361 1040 650
3 744 1197 428
3 119 630 118
3 1077 975 751
3 578 975 1077
3 1181 1064 1453
3 743 1485 1135
3 923 1319 344
3 397 1187 398
3 768 693 539
3 861 1726 962
3 471 1641 1287
3 1483 992 420
3 459 1317 1268
3 1268 1269 754
3 198 1432 199
3 849 1147 716
3 377 1441 378
3 200 563 201
3 618 1598 1078
3 1474 1476 791
3 967 1197 744
3 502 653 1230
3 1146 1701 764
3 786 1727 1437
3 864 1481 1214
3 1186 1650 984
3 375 894 376
3 477 1129 96
3 1044 1510 504
3 1131 1580 494
3 822 1611 549
3 83 1696 473
3 107 1479 885
3 587 1728 1224
3 483 1206 1212
3 178 1445 179
3 1306 1017 1019
3 77 1017 1306
3 1020 1656 136
3 1016 1656 1020
3 426 1130 419
3 635 1482 306
3 1522 1653 953
3 912 1383 657
3 1333 1505 598
3 972 452 944
3 196 1448 197
3 912 1541 355
3 451 1068 759
3 450 1631 1081
3 953 1708 1297
3 202 1446 203
3 264 722 265
3 393 1170 394
3 444 1035 1048
3 868 924 879
3 305 1504 635
3 1359 1537 130
3 369 1456 370
3 105 1590 12
3 186 1173 187
3 708 1506 669
3 1444 1413 522
3 797 1278 88
3 1216 1590 467
3 473 1696 751
3 194 1454 195
3 679 1273 1315
3 651 775 657
3 192 1452 193
3 313 929 314
3 780 1588 773
3 371 1461 372
3 373 1171 374
3 1142 1260 505
3 960 838 703
3 354 1277 912
3 1076 1472 898
3 829 1537 1359
3 981 1244 502
3 1228 1714 1591
3 1056 1668 660
3 672 1392 1122
3 334 1468 335
3 827 1706 1097
3 560 1032 778
3 207 1184 208
3 537 678 699
3 537 699 881
3 449 1402 813
3 945 1300 694
3 1254 1418 1100
3 288 1218 669
3 879 1090 973
3 607 1381 1591
3 75 535 74
3 327 1463 328
3 388 1471 389
3 816 1039 536
3 325 1175 326
3 1117 1204 1350
3 1587 1292 904
3 92 1099 614
3 669 1506 289
3 898 1472 636
3 58 1487 57
3 156 621 155
3 707 518 792
3 739 1484 282
3 301 1047 302
3 1503 1206 801
3 123 1735 16
3 431 1690 1023
3 1023 1082 431
3 456 1353 882
3 80 1683 665
3 665 1683 556
3 1330 1684 133
3 698 1684 1330
3 542 963 526
3 819 1160 721
3 836 1490 177
3 1341 1074 1442
3 1505 472 460
3 1346 841 506
3 696 1616 1188
3 1202 1226 664
3 1081 1638 9
3 540 851 870
3 666 1292 31
3 34 1204 1115
3 554 1614 876
3 281 1507 739
3 1297 1708 926
3 275 1257 1256
3 1478 1560 581
3 1008 1634 830
3 702 1190 820
3 437 766 812
3 767 1436 714
3 176 1252 836
3 1025 1322 952
3 56 577 55
3 158 1516 157
3 569 1649 451
3 1315 1529 679
3 1256 1302 276
3 1002 1605 144
3 625 1272 1205
3 997 1647 689
3 318 1215 319
3 1391 1194 600
3 643 983 1012
3 1043 1621 1323
3 22 770 234
3 640 1255 782
3 114 1545 14
3 965 1439 308
3 690 1691 1242
3 309 1439 962
3 307 1482 965
3 494 1580 1239
3 498 690 1242
3 549 1567 474
3 60 1088 59
3 154 1528 153
3 921 1296 595
3 792 1438 1202
3 776 1455 963
3 419 1172 500
3 962 1236 310
3 420 1403 649
3 1483 1674 427
3 1331 1248 796
3 138 1248 1331
3 244 1093 245
3 1622 1310 746
3 768 485 629
3 925 678 945
3 50 1667 49
3 164 1417 163
3 282 1484 283
3 852 1616 503
3 43 612 42
3 171 1150 170
3 599 1571 1066
3 613 1351 825
3 737 1332 534
3 31 1050 666
3 948 1550 1549
3 876 982 852
3 342 1498 343
3 893 1288 813
3 479 1322 1025
3 210 1500 866
3 712 1561 831
3 274 1257 275
3 866 1386 211
3 1049 1469 969
3 804 1642 882
3 875 955 1430
3 11 1015 99
3 1054 924 868
3 296 1501 936
3 558 1140 1561
3 660 1712 1056
3 1122 1711 672
3 986 1070 505
3 572 1497 696
3 474 1125 549
3 308 1439 309
3 1430 1474 875
3 936 1126 297
3 642 1128 299
3 842 671 1334
3 150 1554 149
3 522 1513 769
3 306 1482 307
3 298 1126 642
3 1121 1608 728
3 854 1629 783
3 726 1370 909
3 774 1422 455
3 455 1422 556
3 904 1711 1122
3 1056 1712 1117
3 420 1674 1483
3 338 1395 951
3 1036 1586 630
3 485 1634 629
3 771 1267 1038
3 533 1502 386
3 453 1549 597
3 951 1198 339
3 649 1447 420
3 762 1670 850
3 437 1367 766
3 1271 1279 217
3 385 937 533
3 873 1568 1163
3 1560 1691 581
3 1250 1669 434
3 684 1401 539
3 1205 1623 892
3 719 1571 599
3 1416 1668 857
3 565 1392 818
3 920 1641 471
3 216 1396 1271
3 112 910 111
3 889 1214 1437
3 1306 1425 76
3 561 1508 546
3 209 1500 210
3 353 1277 354
3 550 1099 93
3 64 1291 63
3 974 1645 789
3 466 1646 1265
3 295 1501 296
3 149 1344 148
3 609 1571 1023
3 1045 1229 655
3 299 1128 300
3 760 1631 450
3 426 1377 487
3 508 1601 1003
3 1003 1601 481
3 470 1631 760
3 1437 1005 889
3 297 1126 298
3 152 913 151
3 62 1544 61
3 710 1508 561
3 557 1063 1048
3 386 1502 387
3 142 1469 141
3 1239 863 494
3 310 1236 311
3 135 1656 1354
3 1354 1656 1016
3 1019 1017 1018
3 1018 1017 78
3 175 1252 176
3 759 1237 884
3 141 615 140
3 459 1583 1330
3 1330 1583 698
3 7 1551 53
3 160 1524 18
3 810 1722 1079
3 620 1619 1366
3 548 1564 1373
3 1483 1650 732
3 1453 1337 809
3 1022 1525 380
3 379 1357 1022
3 1352 887 491
3 559 1091 656
3 632 1013 463
3 969 1661 1049
3 1049 1661 790
3 707 671 842
3 605 1092 159
3 54 1699 1397
3 763 440 1111
3 779 1724 1312
3 70 1220 561
3 287 1218 288
3 46 1645 974
3 1265 1646 167
3 144 1605 143
3 304 1504 305
3 123 1313 704
3 817 1567 549
3 1012 983 184
3 184 983 185
3 694 1300 1312
3 886 1336 828
3 1132 1719 900
3 1104 1075 1124
3 964 1075 1104
3 483 887 1352
3 463 1013 801
3 289 1506 290
3 1405 1411 447
3 222 1374 1284
3 399 1526 1276
3 124 1313 123
3 732 1459 1483
3 31 1292 30
3 35 1204 34
3 921 1032 749
3 419 1130 681
3 119 1225 1143
3 679 1614 865
3 183 1514 1012
3 727 887 1212
3 739 1729 855
3 1212 887 483
3 182 1514 183
3 742 1727 786
3 406 1287 407
3 695 921 595
3 1356 1531 670
3 337 1395 338
3 922 1647 469
3 362 1304 363
3 204 1509 205
3 953 1653 1267
3 311 1236 1295
3 180 1513 181
3 727 1434 1115
3 1485 1568 613
3 1324 985 441
3 800 593 1346
3 947 1514 182
3 391 1285 392
3 1276 1536 400
3 1067 1373 488
3 1295 1577 312
3 866 1500 848
3 181 1513 947
3 242 1523 243
3 774 1127 1324
3 240 1522 241
3 591 1684 698
3 132 1684 591
3 455 1683 81
3 556 1683 455
3 421 975 931
3 931 975 578
3 475 1179 996
3 1284 1539 223
3 746 1409 674
3 931 1573 421
3 475 1573 931
3 315 1510 316
3 637 1449 1447
3 280 1507 281
3 646 1209 1240
3 768 1394 728
3 56 610 577
3 1516 1685 157
3 961 1054 868
3 1280 1408 350
3 344 1319 345
3 608 1266 519
3 276 1302 277
3 336 1440 1007
3 633 1064 1181
3 1398 1194 729
3 438 1556 1707
3 1028 1287 406
3 561 1220 710
3 732 1650 644
3 349 1533 1280
3 1589 1075 711
3 701 1512 1107
3 1007 1395 337
3 496 1258 1051
3 734 1532 364
3 405 1538 1028
3 249 594 250
3 791 1072 845
3 540 1442 851
3 1023 1690 1413
3 363 1304 734
3 251 1472 252
3 1124 1075 1589
3 549 1125 822
3 755 1225 1542
3 346 1281 347
3 148 1566 147
3 266 1512 267
3 1077 1065 578
3 320 1515 321
3 534 867 779
3 655 1229 1351
3 1115 1434 34
3 348 1533 349
3 247 1343 248
3 753 1591 786
3 332 1404 333
3 1008 1041 525
3 956 1731 438
3 872 1502 533
3 1528 1666 153
3 60 1103 1088
3 119 1143 630
3 959 1729 739
3 32 1050 31
3 1241 1069 95
3 1193 1697 977
3 980 1496 1084
3 1297 1523 242
3 1371 1367 557
3 577 610 1087
3 731 1685 1516
3 241 1522 1297
3 1378 1013 632
3 783 482 560
3 1132 1320 73
3 884 1264 851
3 339 1198 340
3 489 1114 604
3 1062 1515 541
3 215 1396 216
3 1301 1060 206
3 504 992 834
3 1081 1631 794
3 787 957 601
3 418 1061 838
3 833 1356 116
3 627 1176 1129
3 523 1509 580
3 211 1386 212
3 703 619 1120
3 670 1531 943
3 842 793 1562
3 977 1289 1193
3 1084 1664 980
3 557 1367 1063
3 666 1050 436
3 436 1013 1378
3 1303 594 249
3 1143 1225 755
3 1487 610 57
3 156 1685 621
3 511 1390 810
3 293 1521 294
3 205 1509 1301
3 250 594 636
3 47 1645 46
3 167 1646 166
3 497 834 809
3 901 1625 920
3 380 1525 381
3 217 1279 218
3 58 1565 1487
3 621 1603 155
3 1102 1666 1528
3 1088 1103 1105
3 384 937 385
3 1503 1013 436
3 454 1393 534
3 801 1013 1503
3 312 1577 313
3 743 1568 1485
3 390 1282 501
3 697 1543 589
3 998 1218 287
3 914 1285 439
3 1574 1604 720
3 1085 1086 1575
3 1445 1490 721
3 970 1272 625
3 501 1285 391
3 345 1319 1314
3 658 1504 304
3 263 1348 264
3 206 1060 207
3 248 1343 1303
3 228 1540 990
3 1579 1450 516
3 255 1090 256
3 888 1366 1420
3 674 1622 746
3 286 1308 998
3 102 946 101
3 719 1479 896
3 1351 1229 966
3 1361 1039 816
3 931 1581 475
3 221 1374 222
3 378 1357 379
3 400 1536 401
3 636 1472 251
3 685 1538 1029
3 630 1586 118
3 1314 1281 346
3 389 1282 390
3 290 1506 1055
3 394 1527 395
3 398 1526 399
3 990 1548 229
3 145 1119 17
3 8 1116 68
3 223 1539 224
3 197 1433 198
3 619 903 110
3 368 1530 369
3 701 1159 1259
3 201 1318 202
3 350 1408 351
3 303 1342 658
3 721 1160 1444
3 235 1353 236
3 347 1281 1037
3 851 1637 870
3 863 1688 595
3 27 1014 26
3 39 1231 38
3 404 1538 405
3 101 946 1270
3 503 910 112
3 963 1382 526
3 1037 1533 348
3 364 1532 365
3 120 1225 119
3 187 1534 188
3 603 1420 891
3 509 1682 787
3 335 1440 336
3 467 1590 105
3 90 1638 1275
3 1055 1600 291
3 374 1182 375
3 1193 1289 37
3 28 1664 1084
3 191 1457 192
3 1141 1398 447
3 498 993 899
3 355 1541 24
3 718 1404 761
3 528 1478 1059
3 789 1604 1574
3 1575 1086 466
3 88 1278 87
3 292 1600 1053
3 1066 1160 819
3 536 1164 1326
3 864 1155 995
3 490 495 1407
3 1096 1728 587
3 809 1494 1453
3 227 1540 228
3 1169 983 643
3 629 1634 958
3 918 1517 462
3 1053 1521 293
3 1366 1619 1123
3 682 530 1202
3 21 1164 173
3 413 495 414
3 892 1259 624
3 935 1681 98
3 1251 1226 512
3 460 1511 1123
3 1259 1159 434
3 469 1618 545
3 825 1682 509
3 1620 1673 519
3 229 1548 230
3 253 1593 254
3 810 1079 511
3 1100 1089 1254
3 1366 1511 713
3 960 676 493
3 152 1666 913
3 1544 1103 61
3 746 1310 1596
3 62 1555 1544
3 913 1715 151
3 890 1699 577
3 1516 1092 1094
3 1134 1705 740
3 1312 1300 537
3 577 1699 55
3 158 1092 1516
3 177 1490 178
3 955 1109 837
3 1312 1724 694
3 1267 1630 1038
3 457 1540 1389
3 71 1220 70
3 601 957 1377
3 648 1249 791
3 1361 1058 1040
3 252 1472 1076
3 712 1309 954
3 1131 1629 854
3 44 1609 5
3 20 1610 169
3 233 915 22
3 1478 1585 761
3 93 1099 92
3 1076 1593 253
3 1088 1565 59
3 979 1565 1088
3 1528 1603 805
3 154 1603 1528
3 73 1719 1132
3 1081 794 835
3 620 1655 922
3 254 1593 973
3 609 1413 1444
3 1113 1541 657
3 541 1337 1373
3 1346 1652 841
3 316 1510 1044
3 1030 1223 907
3 645 989 1426
3 165 1101 164
3 49 1582 48
3 484 1470 1384
3 909 1073 1201
3 823 1438 518
3 685 1738 853
3 973 1090 255
3 1011 958 752
3 811 1393 1363
3 706 1733 1679
3 763 1254 440
3 625 1570 611
3 494 1296 1131
3 1469 1692 969
3 567 1114 950
3 1325 495 490
3 526 1189 440
3 504 1510 788
3 1347 1343 247
3 623 683 1106
3 813 1572 449
3 284 1584 285
3 73 1320 72
3 1044 1624 317
3 855 1484 739
3 285 1308 286
3 291 1600 292
3 302 1342 303
3 246 1613 1347
3 271 970 272
3 1157 1702 895
3 1351 1026 655
3 272 1375 273
3 794 1618 835
3 839 1058 608
3 37 1289 36
3 29 1664 28
3 844 1128 642
3 592 1355 1005
3 95 1069 94
3 329 1628 1358
3 689 1647 1166
3 245 1613 246
3 596 1529 1315
3 440 871 1111
3 773 1364 780
3 1358 1632 330
3 824 1576 864
3 964 1450 1144
3 820 991 702
3 1606 1722 810
3 1456 1530 773
3 321 1515 1062
3 1202 530 792
3 340 1198 1057
3 858 1404 332
3 1010 1633 324
3 644 1650 1186
3 65 1639 64
3 491 887 1380
3 34 1434 33
3 1057 1152 341
3 331 1632 858
3 323 1636 1010
3 1368 1507 280
3 418 1288 893
3 725 1371 1024
3 1144 1601 711
3 267 1512 1362
3 848 1500 846
3 1581 1589 711
3 711 1075 1144
3 1062 1636 322
3 828 1243 886
3 277 1302 840
3 1362 1009 268
3 1380 887 727
3 519 1698 839
3 1378 1027 514
3 584 1602 1380
3 714 1578 767
3 1232 1675 623
3 1144 1075 964
3 620 1366 888
3 1096 1332 432
3 1123 1477 470
3 1559 1560 528
3 595 1597 695
3 797 1702 1157
3 451 1431 569
3 584 1223 1030
3 1426 989 514
3 1001 999 568
3 1372 1164 536
3 143 1692 142
3 632 1027 1378
3 1380 1602 491
3 1256 1257 849
3 432 1728 1096
3 910 1415 662
3 787 1682 966
3 1338 1736 3
3 1 1340 1335
3 602 1308 1584
3 427 1674 1449
3 513 1470 550
3 728 485 768
3 481 1579 544
3 544 1579 626
3 341 1152 342
3 1323 1099 550
3 545 1618 794
3 469 1647 997
3 279 1460 1368
3 1375 970 625
3 1167 1454 807
3 481 1601 1144
3 919 1502 872
3 840 1460 278
3 429 1130 426
3 1450 1157 516
3 1338 1644 777
3 705 1643 1335
3 773 1530 932
3 150 1715 1554
3 1554 1715 1133
3 1341 1709 547
3 807 1454 464
3 1242 993 498
3 966 957 787
3 640 1534 1173
3 1487 1387 610
3 1685 1486 621
3 409 1427 410
3 449 1433 1448
3 1066 1741 599
3 1240 1701 598
3 1452 1457 850
3 5 1609 43
3 170 1610 20
3 862 1461 492
3 729 1194 1391
3 702 1527 1170
3 896 1247 730
3 352 1379 353
3 1174 1461 862
3 1432 1433 449
3 667 1517 710
3 986 1422 774
3 782 1592 640
3 1142 1583 459
3 1419 1527 702
3 1446 1318 714
3 516 1157 452
3 809 1723 497
3 488 1564 1110
3 1001 1374 1400
3 824 1357 1441
3 637 1726 1449
3 1078 1598 651
3 317 1624 318
3 891 1671 603
3 826 699 784
3 1021 1310 1622
3 613 1026 1351
3 714 1318 563
3 283 1617 284
3 576 1534 640
3 1080 1379 352
3 859 1607 800
3 918 1258 877
3 722 1348 451
3 351 1408 1080
3 682 1412 1195
3 273 1149 274
3 260 1183 261
3 612 1609 1148
3 1151 1610 1150
3 516 1262 1579
3 1000 1396 215
3 506 1140 1553
3 830 1634 485
3 546 1508 918
3 328 1628 329
3 568 1720 1006
3 1203 1621 644
3 1221 1691 1560
3 261 1237 262
3 330 1632 331
3 256 1090 515
3 1363 1393 454
3 324 1633 325
3 1043 1459 732
3 1598 1599 651
3 1183 1264 884
3 778 1598 618
3 212 1386 1360
3 43 1609 612
3 1150 1610 170
3 322 1636 323
3 1384 1069 930
3 515 1299 257
3 1180 1279 845
3 850 1457 1414
3 1210 1713 654
3 139 1248 138
3 604 1499 489
3 882 1353 785
3 656 1145 559
3 381 1525 1156
3 468 1681 1550
3 850 586 762
3 800 1553 859
3 359 1640 360
3 938 937 384
3 1579 1262 626
3 559 1182 1171
3 1114 1580 604
3 236 1353 456
3 1623 1009 892
3 855 1729 1136
3 360 1382 361
3 456 1654 237
3 74 1719 73
3 268 1009 269
3 108 1247 896
3 214 1467 1000
3 875 1109 955
3 894 1182 559
3 1101 1493 1138
3 1137 1139 1582
3 269 1623 270
3 408 1625 409
3 745 1136 1095
3 1360 1467 213
3 885 1479 1227
3 712 1054 961
3 173 1164 1372
3 1335 1643 1014
3 1231 1644 1338
3 428 1680 744
3 611 1031 934
3 270 1272 271
3 744 1680 677
3 1430 955 538
3 442 992 1483
3 769 1444 522
3 1372 1657 174
3 294 1521 1385
3 1384 1238 484
3 926 1523 1297
3 1048 1704 444
3 1156 1165 382
3 879 924 687
3 238 1630 239
3 383 1165 938
3 262 1068 263
3 1079 1722 1290
3 657 775 1327
3 1113 1286 356
3 1111 1327 763
3 841 1652 943
3 24 1541 1113
3 606 1273 758
3 812 1663 437
3 237 1654 238
3 1052 1128 844
3 434 1669 1259
3 136 1656 135
3 78 1017 77
3 870 687 540
3 165 1493 1101
3 1582 1139 48
3 1378 1626 436
3 727 1627 1380
3 1120 910 662
3 1427 1625 901
3 174 1657 175
3 401 1536 1046
3 218 1279 1180
3 1535 1645 47
3 166 1646 1339
3 922 1655 429
3 798 529 1552
3 1553 1140 639
3 1032 1253 778
3 257 1299 258
3 486 1031 1250
3 771 793 1222
3 1444 1160 609
3 648 1396 1000
3 463 1651 940
3 623 1675 683
3 407 1641 408
3 1237 1183 884
3 803 1005 1437
3 224 1539 1388
3 258 1637 259
3 922 1619 620
3 1005 1355 889
3 431 1678 978
3 527 988 819
3 259 1264 260
3 1029 1538 404
3 1048 1705 1704
3 361 1455 362
3 1104 1278 964
3 313 1577 929
3 1385 1721 23
3 1100 1418 453
3 87 1278 1104
3 1011 1526 1187
3 959 1507 1368
3 704 1735 123
3 801 1651 463
3 356 1286 357
3 752 1594 1004
3 932 1530 368
3 19 1493 165
3 48 1139 6
3 1400 1374 221
3 1559 1556 438
3 654 1316 1210
3 874 1423 1234
3 581 1585 1478
3 1234 1423 1097
3 81 1683 80
3 133 1684 132
3 239 1653 240
3 57 610 56
3 157 1685 156
3 884 1442 524
3 1046 1475 402
3 395 1527 1419
3 1552 529 430
3 1040 1227 599
3 840 1302 814
3 414 495 1325
3 1360 1386 837
3 539 1394 768
3 1640 1189 526
3 357 871 358
3 403 1475 1029
3 524 1074 971
3 1561 1140 506
3 1187 1526 398
3 1441 1357 378
3 764 1504 658
3 689 1166 1045
3 198 1433 1432
3 438 1731 1110
3 358 1189 359
3 188 1534 576
3 886 1440 1468
3 577 1283 890
3 1094 1662 1516
3 1129 1176 1241
3 1056 1465 857
3 565 1612 1122
3 1063 1367 437
3 61 1103 60
3 153 1666 152
3 1389 1540 227
3 1088 1686 979
3 805 1687 1528
3 1326 1164 21
3 264 1348 722
3 365 1532 1406
3 834 992 442
3 687 924 547
3 536 1039 988
3 563 1318 201
3 1388 652 225
3 1414 1457 191
3 278 1460 279
3 84 1696 83
3 55 1699 54
3 159 1092 158
3 1325 1703 415
3 130 1537 129
3 125 1200 124
3 541 1515 1108
3 367 1737 932
3 207 1060 1184
3 416 1703 1326
3 1448 1433 197
3 1170 1527 394
3 410 1427 1162
3 226 652 1389
3 1314 1319 854
3 155 1603 154
3 59 1565 58
3 1028 1538 685
3 202 1318 1446
3 369 1530 1456
3 1406 1737 366
3 375 1182 894
3 592 937 938
3 63 1555 62
3 946 1381 607
3 151 1715 150
3 1038 1562 771
3 1471 1282 389
3 554 1545 114
3 576 1739 189
3 1047 1342 302
3 1407 495 413
3 628 1218 998
3 190 1739 1414
3 900 1719 535
3 1173 1534 187
3 1162 1519 411
3 1349 1690 431
3 436 1050 1503
3 510 915 233
3 857 1668 1056
3 1122 1392 565
3 1637 1299 870
3 230 1548 1158
3 601 1106 1095
3 1468 1440 335
3 598 1701 1146
3 192 1457 1452
3 1212 1434 727
3 574 1700 806
3 1171 1182 374
3 1503 1050 32
3 806 1399 574
3 603 1411 1405
3 1712 1204 1117
3 904 1292 1711
3 412 1519 1407
3 1554 1489 847
3 830 1328 817
3 976 690 498
3 1463 1628 328
3 1115 1204 1712
3 1711 1292 666
3 232 1716 510
3 1239 1473 498
3 971 1431 524
3 911 1648 574
3 1406 1532 1024
3 1158 1716 231
3 1484 1617 283
3 325 1633 1175
3 1242 1691 484
3 1214 1481 753
3 891 1420 713
3 1474 1249 875
3 929 1577 649
3 575 1698 1125
3 1046 1536 1004
3 740 880 1134
3 930 1238 1384
3 952 1464 1025
3 1181 1459 1043
3 911 422 509
3 274 1149 1257
3 882 1642 1562
3 574 1307 422
3 523 1293 1622
3 490 1369 1266
3 651 1383 1078
3 178 1490 1445
3 503 1415 910
3 318 1624 1215
3 213 1467 214
3 1156 1525 995
3 1382 1640 526
3 1416 1667 50
3 163 1417 818
3 990 1540 457
3 382 1165 383
3 596 1476 1474
3 889 1155 1214
3 597 1549 757
3 415 1703 416
3 1184 1060 674
3 1095 1136 446
3 757 1681 935
3 1596 1672 848
3 1373 1337 548
3 748 1705 1048
3 1188 1616 852
3 928 1523 926
3 548 1337 1453
3 871 1286 1111
3 1458 1676 795
3 1079 1695 439
3 1093 1613 245
3 756 1652 1346
3 934 1147 611
3 905 1620 901
3 695 1253 921
3 402 1475 403
3 342 1152 1498
3 511 1282 1471
3 225 652 226
3 528 1556 1559
3 22 915 770
3 1040 1741 650
3 484 1691 1221
3 1027 1329 634
3 461 1615 1602
3 977 1697 1219
3 1495 1496 980
3 567 1580 1114
3 429 1655 1130
3 993 1238 930
3 1630 1654 1038
3 1327 775 453
3 943 1531 1547
3 1508 1517 918
3 872 1246 1606
3 770 915 706
3 857 1465 1219
3 1495 1612 565
3 632 1329 1027
3 1602 1615 491
3 1570 1031 611
3 295 1721 1501
3 1370 1676 900
3 1125 1698 822
3 231 1716 232
3 876 1545 554
3 738 1073 909
3 1057 1198 950
3 733 1713 1210
3 1110 1731 488
3 852 982 1188
3 1346 593 756
3 1584 1308 285
3 854 1319 923
3 657 1541 912
3 1388 1539 1006
3 635 1504 764
3 899 993 930
3 411 1519 412
3 272 970 1375
3 627 863 899
3 23 1721 295
3 696 1415 1616
3 493 676 1466
3 1333 472 1505
3 353 1379 1277
3 36 1289 1350
3 1587 1664 29
3 437 1462 1063
3 726 1676 1370
3 284 1617 1584
3 423 1556 528
3 1209 1726 861
3 446 1648 911
3 526 1254 542
3 465 1660 700
3 1025 1464 507
3 1287 1641 407
3 669 1218 628
3 697 1342 1047
3 366 1737 367
3 263 1068 1348
3 1375 1149 273
3 792 551 707
3 175 1657 1252
3 750 946 102
3 1552 1706 827
3 362 1455 1304
3 1222 1708 953
3 569 1431 971
3 791 1249 1474
3 1087 1283 577
3 1516 1662 731
3 189 1739 190
3 547 1709 687
3 1219 1697 579
3 878 1496 1495
3 1201 1073 499
3 721 1490 836
3 1230 653 735
3 778 1599 1598
3 1323 1621 614
3 33 1434 1212
3 926 1708 593
3 1266 1369 906
3 650 1039 1361
3 534 1393 867
3 1449 1726 646
3 649 1403 929
3 1048 1063 748
3 488 1731 815
3 560 482 1032
3 271 1272 970
3 740 1705 724
3 680 1074 1341
3 240 1653 1522
3 623 1172 1232
3 1627 1712 660
3 672 1711 1626
3 867 1393 811
3 1214 1155 864
3 1557 1639 65
3 1275 1638 835
3 723 1227 1040
3 647 1590 1216
3 837 1672 955
3 773 1588 1456
3 422 1307 716
3 1535 1139 1137
3 1138 1493 1339
3 739 1507 959
3 1166 1647 429
3 1036 1658 1586
3 525 1594 1008
3 1158 1548 987
3 1029 1410 685
3 593 1708 756
3 1271 1396 648
3 875 1311 772
3 1448 1402 449
3 512 1720 1251
3 831 841 673
3 599 1741 1040
3 814 1302 1256
3 845 1558 1180
3 772 1109 875
3 613 1568 1026
3 1047 1543 697
3 1400 1659 1001
3 1648 1729 959
3 1105 1686 1088
3 1528 1687 1102
3 702 1261 1419
3 609 1160 1066
3 1170 1190 702
3 451 1649 722
3 1407 1369 490
3 996 1537 829
3 129 1537 996
3 1663 1462 437
3 1442 1074 524
3 261 1183 1237
3 716 1147 934
3 714 1436 1446
3 1072 1558 845
3 449 1518 1432
3 1080 1408 618
3 1022 1357 824
3 1005 1246 592
3 269 1009 1623
3 706 915 510
3 1623 1272 270
3 1136 1729 446
3 932 1154 773
3 1173 1255 640
3 1441 1112 824
3 518 1733 823
3 751 1696 1077
3 1077 1696 84
3 563 1443 714
3 1034 1376 889
3 1237 1068 262
3 409 1625 1427
3 850 1670 1452
3 686 1387 1487
3 621 1486 688
3 889 1355 1034
3 835 1638 1081
3 747 1714 1228
3 1284 1374 1001
3 940 1651 1352
3 837 1386 866
3 861 1439 965
3 962 1439 861
3 1679 1733 804
3 260 1264 1183
3 608 1058 1361
3 1219 1465 977
3 980 1612 1495
3 498 1473 976
3 674 1409 1184
3 845 1279 1271
3 1131 1296 749
3 859 1613 1093
3 833 1531 1356
3 1215 1624 497
3 1001 1659 999
3 1352 1651 483
3 542 1089 766
3 756 1708 1222
3 789 1645 1535
3 1339 1646 466
3 991 1261 702
3 360 1640 1382
3 640 1168 576
3 917 1661 969
3 1171 1091 559
3 533 937 592
3 735 653 507
3 1572 1518 449
3 1468 1336 886
3 1437 1214 753
3 559 1118 894
3 423 1628 1463
3 1611 1673 905
3 959 1700 1648
3 972 1262 452
3 1187 1451 1011
3 1040 1058 723
3 843 1411 1671
3 1471 1390 511
3 681 1655 620
3 654 1713 802
3 408 1641 1625
3 1498 1152 489
3 958 1634 752
3 1004 1536 1276
3 950 1198 951
3 258 1299 1637
3 723 1058 839
3 1562 1642 842
3 1637 1264 259
3 596 1474 1430
3 773 1154 1364
3 824 1112 1576
3 1175 1633 815
3 1382 1455 361
3 1414 1689 850
3 238 1654 1630
3 497 1723 1215
3 1014 1643 532
3 1033 1644 1231
3 714 1443 1578
3 1307 1399 814
3 1008 1594 752
3 359 1189 1640
3 430 1706 1552
3 544 1200 125
3 735 1694 1213
3 507 1694 735
3 1210 903 733
3 995 1525 1022
3 1082 1678 431
3 1648 1700 574
3 1313 1200 626
3 124 1200 1313
3 1630 1653 239
3 740 724 1015
3 671 1734 670
3 843 1126 936
3 642 1126 843
3 1011 1451 958
3 839 1698 575
3 574 1399 1307
3 1025 1244 981
3 507 1244 1025
3 1251 1720 568
3 357 1286 871
3 750 1381 946
3 1276 1526 1011
3 734 1304 776
3 871 1189 358
3 442 1494 834
3 1133 1489 1554
3 1368 1700 959
3 519 1673 822
3 900 1676 1458
3 1592 1168 640
3 99 1015 1098
3 582 1690 1349
3 453 1418 1327
3 821 1435 1635
3 1635 1435 1083
3 1000 1311 648
3 649 1577 1295
3 814 1399 840
3 1145 1118 559
3 817 1041 1008
3 538 1672 1596
3 1567 1328 709
3 1041 1738 525
3 804 1733 518
3 1007 1440 886
3 553 1546 525
3 850 1689 586
3 1350 1289 977
3 980 1664 1587
3 452 1262 516
3 1247 1316 730
3 1582 1211 1137
3 1138 1710 1101
3 988 1039 650
3 626 1200 544
3 1006 1539 1284
3 525 1410 553
3 1024 968 1406
3 148 1344 1566
3 837 1109 1360
3 489 1499 1498
3 1466 1415 696
3 583 1211 1582
3 1101 1710 573
3 733 903 619
3 1024 1532 734
3 1093 1607 859
3 1277 1379 1078
3 724 1705 748
3 1619 1477 1123
3 998 1308 602
3 817 1328 1567
3 484 1238 1242
3 1045 1677 689
3 929 1403 788
3 725 1367 1371
3 1384 1470 513
3 1447 1674 420
3 1334 671 670
3 1463 1707 423
3 1606 1246 803
3 781 1245 512
3 1291 1555 63
3 435 1555 1291
3 905 1718 1611
3 1259 1669 624
3 938 1355 592
3 1371 968 1024
3 618 1408 1280
3 749 1629 1131
3 815 956 1175
3 1052 1543 1047
3 658 1342 697
3 424 1558 808
3 808 1558 1072
3 999 1659 808
3 1012 1514 570
3 674 1060 1301
3 1233 1707 1463
3 590 1600 1055
3 570 1514 947
3 808 1659 424
3 1175 956 1233
3 1053 1600 590
3 995 1376 1156
3 812 1089 1100
3 713 472 1333
3 706 1679 770
3 822 1698 519
3 501 1282 511
3 1162 1427 901
3 443 1154 832
3 921 1253 1032
3 664 1226 1251
3 471 1287 1028
3 905 1673 1620
3 801 1206 1651
3 1651 1206 483
3 1015 724 1098
3 823 1740 1438
3 832 968 443
3 588 1261 991
3 1364 1154 443
3 1252 1657 527
3 641 594 1303
3 636 594 641
3 1004 1546 1046
3 1368 1460 806
3 806 1460 840
3 710 1517 1508
3 614 1621 1203
3 595 1688 1597
3 518 1438 792
3 1254 1089 542
3 552 1261 588
3 1184 1409 846
3 1161 1153 906
3 987 1548 990
3 1501 1721 1141
3 1297 1522 953
3 588 1451 552
3 1185 1168 543
3 1358 1628 423
3 142 1692 1469
3 543 1689 1185
3 497 1624 1044
3 1059 1632 1358
3 622 1518 1572
3 925 1693 1665
3 906 1369 1161
3 892 1009 1362
3 930 1176 899
3 1466 676 662
3 858 1632 1059
3 1078 1383 1277
3 1616 1415 503
3 815 1633 1010
3 111 910 1120
3 1576 1112 616
3 610 1387 1087
3 731 1486 1685
3 1578 1443 622
3 1010 1636 1067
3 919 1390 1471
3 958 1451 588
3 1155 1376 995
3 1245 1720 512
3 425 1305 1662
3 823 1732 939
3 668 1480 1291
3 1291 1480 435
3 1067 1636 1062
3 1662 1305 731
3 543 1168 1592
3 648 1311 1249
3 1546 1594 525
3 939 1488 823
3 650 1741 1066
3 1586 1658 517
3 853 1738 1041
3 438 1707 1233
3 520 1518 622
3 586 1689 543
3 1233 956 438
3 1629 482 783
3 1006 1245 1388
3 622 1443 520
3 616 1112 1196
3 616 1118 1145
3 783 1281 1314
3 1180 1558 424
3 703 1730 960
3 1037 1281 783
3 1196 1118 616
3 928 1607 1093
3 1130 1655 681
3 955 1672 538
3 1000 1467 772
3 899 1176 627
3 458 1593 1076
3 772 1467 1360
3 489 1152 1057
3 1401 1394 539
3 973 1593 458
3 1347 1613 859
3 446 1729 1648
3 443 968 1371
3 1591 1714 607
3 424 1659 1400
3 1141 1721 1385
3 545 1619 922
3 736 551 530
3 1498 1499 923
3 1034 1165 1156
3 934 1031 486
3 938 1165 1034
3 1488 1740 823
3 530 551 792
3 1249 1311 875
3 834 1494 809
3 1611 1718 853
3 535 1719 74
3 1215 1723 1108
3 722 1649 1107
3 803 1246 1005
3 1622 1293 1021
3 932 1737 832
3 1419 1261 552
3 778 1253 1599
3 889 1376 1155
3 718 1336 1468
3 552 1451 1187
3 1063 1462 748
3 1511 472 713
3 832 1737 1406
3 470 1477 794
3 1210 1316 942
3 758 1273 865
3 870 1299 515
3 1167 1402 1448
3 687 1709 540
3 1004 1594 1546
3 1446 1436 580
3 1665 1693 502
3 1185 1739 576
3 823 1733 1732
3 914 1190 1170
3 1414 1739 1185
3 1432 1518 520
3 987 1488 1158
3 1244 653 502
3 901 1153 1162
3 1456 1588 492
3 520 1443 563
3 1196 1112 1441
3 510 1732 706
3 1290 1695 1079
3 945 678 1300
3 646 1726 1209
3 1694 1464 1083
3 894 1118 1196
3 553 1475 1046
3 806 1700 1368
3 1277 1383 912
3 1029 1475 553
3 987 1740 1488
3 1038 1654 456
3 832 1154 932
3 840 1399 806
3 1452 1670 464
3 1032 482 749
3 1174 1091 1171
3 1169 1255 1173
3 1078 1379 1080
3 676 1730 662
3 1111 1286 1113
3 1327 1418 763
3 971 1074 680
3 1406 968 832
3 781 652 1388
3 1620 1153 901
3 1389 652 781
3 1161 1519 1162
3 527 1657 1372
3 916 1703 1325
3 576 1168 1185
3 1061 1713 733
3 1326 1703 916
3 1407 1519 1161
3 1438 1740 564
3 1185 1689 1414
3 1006 1720 1245
3 772 1311 1000
3 942 1316 1247
3 1360 1109 772
3 510 1716 939
3 939 1716 1158
3 1242 1238 993
3 1156 1376 1034
3 770 1679 785
3 1162 1153 1161
3 1034 1355 938
3 1026 1568 873
3 1547 1531 833
3 1300 678 537
3 1584 1617 675
3 1199 1149 1375
3 730 1678 1082
3 707 1734 671
3 507 1464 1694
3 662 1415 1466
3 507 653 1244
3 485 1717 830
3 16 1735 1677
3 1599 1253 948
3 1123 1511 1366
3 1046 1546 553
3 1410 1738 685
3 553 1410 1029
3 525 1738 1410
3 1671 1411 603
3 1388 1245 781
3 1161 1369 1407
3 1205 1272 1623
3 627 1688 863
3 1732 1733 706
3 794 1477 545
3 545 1477 1619
3 759 1068 1237
3 939 1732 510
3 1707 1556 423
3 1158 1488 939
3 815 1731 956
3 1328 1717 709
3 906 1153 1620
3 851 1264 1637
3 1704 1705 1134
3 822 1673 1611
3 562 1394 1401
3 460 472 1511
3 960 1730 676
3 1625 1641 920
3 766 1089 812
3 963 1455 1382
3 830 1717 1328
3 1267 1653 1630
3 440 1189 871
3 551 1734 707
3 765 1462 1663
3 736 1734 551
3 749 482 1629
CELL_DATA 3067
SCALARS Von_Mises float 1
LOOKUP_TABLE default
94558.87473936965 10021.47285578644 59480.5096435905 74130.8564557802 46223696.790491864 46204348.03550659 31170.628836245127 43703.74439221834 90043.37772122512 67331.87568894874 9521519.385693137 516897.6981047409 76151269.69529575 79290.75101850976 26695509.00399904 6708337.945624719 67753.17275534484 33749317.74371944 90908318.3440901 44602926.50318464 8286426.122184585 8289043.457414052 2499619.1733210213 36469744.97993075 46843.23353647332 11750.499365709815 75886017.70576333 9366005.874831809 75229221.43913531 16474.85520160347 2769966.14480636 6687.094122588879 100351.63333833491 17412.20388024957 41014.80953201543 29168.855468720165 37133.55952411995 90627.26715794216 26986301.489269305 66899161.81694286 92448.17257203185 76326.62622007067 52688.76417625603 4441.229980499427 46248.53782765337 9758919.163354138 9759264.004137116 47480107.515592024 47439568.106305264 86612.77939810063 465527.6622156369 155618.26754580985 102713.78176805179 30855.77669096234 16445819.154448215 117250.91813715633 20056.43295854716 10961652.25865042 45678.44754547189 69238.23498074416 16938.569805005674 76361.7707982794 3656.65643152244 53159.96998022871 59671404.89389283 10315.785475492488 89414.59857930592 66631.57774558206 8186.989737438598 52897815.05841904 52073230.51708787 56437.54575244622 67208737.86340551 71368795.2039221 27511.252891276446 60568600.77372942 23180.249186612436 8041.904950587718 26174.218562657385 68911.90756683184 36599.57162902746 31680.198014436097 123237.91911970182 11389.325291532045 5058.31090142033 68596063.32954855 33154196.697707567 32366125.805758607 14191437.985032586 55326.89167417432 23081052.996180315 60231266.07270704 65848044.896156706 7406.990296462713 46082.81880165477 84791467.30215488 90288530.24904312 3897541.4975554263 118694.52178334373 53455.7773952957 74283918.93361944 61955836.11751086 68731355.33153158 113239.62500809955 61122.70345501503 107728.85143949327 4967.500804420157 66450289.98293146 62017732.96762328 52381036.20927369 52775997.15593262 44157.22774950737 11579.366262425992 52132640.37783174 54530096.45366549 28002.48261593013 31155.583344291856 70534.32767139809 13014.553272180583 8749.268972757676 45991414.38065266 45961638.290812954 5746.892868936922 43199453.291767195 65235612.76607021 27260936.834107067 110400.1244258982 19496.446262683072 26085.537526819582 26889.4340776368 9103798.044488894 43195096.06420765 85384.74079812033 123664.37609024768 119543.70497395792 174114.27457949935 37917.53303588893 43165832.42067309 61923694.98240641 43973.99499069163 4310832.206480768 5907.736689265925 109148.82632823601 56166157.13661874 56134735.622265756 44300.68747316446 61529.04525152425 84511.06595304245 43614644.09809914 120479.48117043193 129732.20506912144 10612.395786594974 53747.9109708201 98268975.9082067 98915833.16814639 53663.57752831521 56825.84257567454 102073262.57943322 11580.114885105357 49009.48804868352 12198.313485178925 42277.3655519415 15522.59526787099 30639.43621067121 32771.48589542874 96865.39401092028 34115.38495141265 22197882.535403896 22207735.18310853 54929630.599411815 56597107.90828492 102675131.39092448 110144327.0291173 12492.174669132484 97396236.15992424 97683068.60289454 106064552.71436629 106276910.84481774 16521470.267948573 16528008.272978652 24450.706786447576 33184.25471478586 96226671.92069383 96447661.72941859 14849.41923813995 74647857.40444061 42729.161714561276 63199283.77301106 63148830.85767775 41626448.19183524 77600.27656870196 4454.779069730329 62767.53742384533 107349.96151539893 31396.142684615712 62983112.51892982 10811.916707580313 66656.56908826329 7026120.437364356 9555.29622019822 7825.033405767362 49141.068263761765 45596.58996278641 108345.8166030819 2587136.8278566897 5528150.88109863 64391.68989659357 107009.95526849628 50390.47725390321 72033387.06124268 24470.669210378754 22001.105878943927 2275614.20517126 40647580.37962104 5635297.006356388 23174.956114182496 92441.74451615379 61738.735484642835 28305.562306884338 23660699.06039904 32673474.572588652 157789.70026841215 46964470.94348503 46914989.75318399 64350.02956362046 18312166.90031229 172602.51879581105 8238940.014355615 71491.63797121657 5627417.124312905 36485.81529926987 1390450.670129941 52702475.47825411 4525529.388330925 30347924.798181262 22153856.175513353 26484100.65832224 28439.867718781086 8824.112489907558 34738193.22797695 34708902.716637366 68137.19643652494 28493.398899800508 33886.633442925 43265464.858466625 43127642.78669286 11830.262275896317 4073580.353970984 147212.31896604583 67142.926069113 57726.12332799603 129427.9686060916 6621797.668388476 23560.817180259368 2874258.0578164654 47721306.49409925 51050.19646431166 83773666.66260499 8893168.196315529 45745589.55654291 2221447.5765321236 131819.6906571543 32081180.973013528 21484651.551432714 8806044.691569714 32579.484320722437 2054841.9247697385 43319.140985471924 10013.417348067152 75227728.81095347 74791319.8106035 236017.11318886458 38314529.825305596 91181.80189872076 94763.98631090966 115201.21277935094 41929.501407312026 47099.67167675729 86271035.5633186 168578.02489435326 961734.4974101271 4581281.35182073 90511798.4596625 88627951.46210828 41818.3561994072 52582983.580711305 89678691.63527776 10359.45052507712 76973.61773924483 106656.63150486254 61395728.67311189 55642845.93718763 16913.78732700518 116000.4813251328 22167.074039123898 84022.49494245442 7791811.831256457 6236.874772906559 4894512.823755423 111860.49492843675 36895.11019798136 113130.91758263817 106825441.6781322 105407872.04310706 72534.79183915249 32786.93914173747 19023374.371498935 85576.76461522291 89492.93779933783 35179.537200051374 7506.42521169075 104371908.98414433 104763305.17618936 90707.4475948932 68818.35963826563 44021311.36784671 44012452.530632354 157141.31718786492 66223.41886159044 26619773.07082011 24587411.035538528 70887.50325222516 106521.10859888558 17032.074267239095 26964.946872280838 36486094.055719934 36512333.22754303 53946393.849763766 19134408.480835594 18227061.570369076 12524.922298877149 12017.992205640105 103454.03700977484 28806.748758257938 1794050.7519155063 95587.62263466847 73763.73306382292 66772.36054981843 9518953.02303059 45153.66133327927 20913.3138897757 70113893.04462017 68410.33389420655 58715.99060179372 83888.51875241652 18440098.040720534 32803583.603595085 113006193.8706396 22746.180760805484 9025.087323530326 34913311.96367868 38167994.37821531 15800324.193240516 120889.35063394342 17718.300896728866 19956953.386144996 73616.92436642424 74416667.44890532 80498.88014284334 5151550.256623898 41408.862947393616 24459.97419109175 48859.625598534294 17728.63791012679 32088.12698773669 13823.428576061817 40721004.35910418 2205450.2909474224 129700.079296765 48266959.680009276 2176412.2021719315 15871.446240218094 104094284.48286547 104215445.2704512 46467.19596447559 37763776.68589263 16213422.184144104 62130349.25787919 60048485.23899655 5773927.245633485 105217793.79257533 105216699.51454999 1368969.7156474087 42132190.74998212 26584215.40799224 26181587.0710043 10565.567232230705 70171.84300897928 66144.37639948123 62080267.31495499 21842231.36071651 20202896.18943141 20177088.70889602 2202446.6233906294 15580.688592674147 22493.54950292597 16837.11006743544 27073.331556372523 65613.78791732248 21699.4334661652 15875.768818693245 26553.34944699186 20143.66423440019 24467.07094074927 26376966.63806393 39401137.16073873 38267256.237419546 5443219.315530759 2099162.5941558266 3697345.7515151366 35801469.10827625 35816792.53314978 14712.025320295152 26733405.311948653 79353.08263223275 32735604.954633065 42105395.068139754 14642433.177281056 14649775.593010467 87814.81344874178 109383038.26004885 27063741.62823441 54522.45018419117 55899.11303767363 118529003.17935741 118540456.03177497 24087.821681183057 59642.2962505563 12148.600524622 104857010.81480163 18090.179632212457 36536.60951398866 1698633.9968697946 143393.17957035685 29160748.1829957 29024440.15532328 14422.23145748777 7894.836898930543 52273484.45392857 52242000.89396167 44249141.79277699 29226415.735218387 98048.30791570454 13482.828467185136 1018530.8095936854 54063.204825478184 40991.132102418844 110250.92204750012 24828.20385317941 91503.81707580439 56746.95267099362 92733679.60097985 92781940.06563067 45648.786634142714 52405.69828799929 22457.307769440493 25612.482068492864 215444.98462910706 61280.70077450009 24811226.339447673 114264030.98332745 112575861.03840229 22259198.275575384 28576.90000903505 7349659.960516946 53542.24025702278 32345.36933950474 11766.040106935485 34847661.269847 47342.95406102348 60752522.1915501 60692714.096254945 83746280.4080788 36506.73537824403 43237.05755376321 29195.006815721263 117595411.14544098 117441490.45614281 65739.72411363505 33500.532290037154 432406.97323183133 65839364.555890806 13916.45686403712 103227.51867310474 17366690.363107283 21792.23048527784 25126.673403610494 101604.05165866771 50333.24366670458 51238659.92557365 51211669.84023181 1277753.9200585375 59667.2545093303 19487.426798922672 87177.1300862267 161207.67553258708 119710.09927333143 10237369.963602876 34748422.154232636 84680.31940574906 23170.320854458976 25927.086346797256 17393.804082735234 2388263.2106103776 17431.3788144796 24198.707917656375 8734439.34974274 23670.528958699437 23052390.801494062 24340136.690251507 71546409.08012691 20724.2863104919 37001.131333788726 74019413.4174631 10226.23362883416 65789.47493345001 24344.464008997336 101848.55117107376 11377707.099698022 12653197.296899345 15240.207538293433 9301.357610650222 32559.360219165283 35886.65470571596 16632.672212445417 134284.73485811023 22521.25122330099 40310648.915115766 40357241.864462055 38790.57995129032 108405.98782629345 9053060.37708882 9054123.999131078 537496.1206514746 26493.428476151414 2337245.963491697 59555.47246615042 51039.41424288711 35025.21826777312 46490772.81004063 46526595.90284618 32115.778595076623 55994.84937653915 47120.89527585254 76772.30715847824 74238674.34986052 72724990.69182989 31752.499944284278 15527.085923324908 24243.28955360545 750965.3116012497 62606.01069442739 104979.39090125132 30327.84704097192 23767.616715235796 18153527.671381697 22331.687949047457 22666.804141975434 29044353.468113836 75759139.58428676 52715498.59183184 74700045.79641145 310815.27347640117 23402.0436001656 51843.5864662012 157117.62819510003 5615.712837913918 8686.350616263899 42528178.401461795 16904426.848708842 68770.73347617539 23964.86459216085 15103.45270745388 73169.3146281774 55254.86261043813 223051.873278877 78202225.43286932 16390.720594210165 12698.761424976341 57344.36180301207 58154.71488214028 72744.6804058252 21749.227633723414 29055.880707525816 28106.906102982928 58417.664533594354 71339.72410917097 33475146.368033923 61719075.358975805 61656818.03166926 101094190.66857323 100718.07856184352 92572394.66714802 52538.346627211795 15984.98376266336 55566.05984692061 59929.25778428721 25171.10276735353 63808.01461728237 11079902.640369238 11082862.656704348 100116242.57897145 41799.753191980584 84446.07435293216 71411.75051406733 82772.44211355712 23834.82647686509 13581.978739263976 18623.857929154652 144835.55607984698 28853.63749539708 85033.50117825205 41924.603298246315 50555.57591040714 22244.213619628557 42491.151579866215 119758.28667251533 29138214.056982934 29150135.283463832 18547.334538668732 28665.291994473704 27446.782253585494 30998.476188657543 4222.148985669227 1483111.255446291 25106848.17483388 113535.82479040869 23209.86551230013 29853.72562013753 37057133.970679455 37015255.948683 2616975.4909052355 24128.84430644851 74345.29118276367 51845.611219611135 111584.2367882978 7778.9689125479335 24616008.558328833 65615949.52015395 95946.06713975611 24345509.97060891 16127683.288536388 23498203.7368262 17761428.753470954 49610.23230643784 47733.895028999184 8120269.27525365 8121617.560244613 66894.03151202714 109900.89850354225 18164869.125526667 32474353.45384321 32442898.913523056 131169.2932783946 40897.991929639145 34787032.41304463 11253156.20933031 10697665.028001677 52238781.71960879 20163329.013914905 20142170.113172505 88068.30273912173 1349889.4420291218 122584.82242111415 69909.82933887912 14740912.57549556 1901.002177773734 83974.51846861633 61179.71803052125 15098.936893183332 64172.71388632248 43282.55361340466 35981081.023698606 9341349.229056014 9347475.720964922 101546.17709518355 76536.82298846774 16469872.120420473 16478894.476604026 106299.06660127964 89006.84843945845 147659.56399194975 75616.02505787215 5551.609109351999 146104.97296200757 14047.804597343104 4558.814154966683 38411.45651396864 1278972.0454067325 37429.3219805635 85472.83811215321 73786.30821563734 8592771.286761332 70502289.25367008 17397.61650106191 76113.01201927505 71968190.19931865 15176.039394507447 32091.790896993054 74048.20178885314 26906.063524826284 22984394.593648255 25094533.929518998 25310.91810061308 95383.47093069839 78763331.97430758 77192439.57943621 23057.697506907236 50830.951677225654 101016.64268985741 9433175.384554211 9416503.326813893 42012.62301168773 21908330.164777156 87990.11319424593 98542.73545947712 40173.2597274233 87627.08445805858 91177.32179550234 21793.891934398343 24152.588738504546 73613.90424679495 1804617.4336560322 1797417.2288996992 15893550.958902763 15897714.91218157 541664.604074102 9986980.838867767 15830616.034148363 51289.2467294595 15493243.056728574 32671.244201946698 65479973.79647896 61904869.28914836 2943547.11074826 11141.539581881503 22257.107252576265 57407191.39270744 57380264.78196867 14233.611333908702 68600980.53807166 66882.19414064632 39969283.88062174 7458216.9994267635 25116793.355128758 7642.841608373856 14296128.929797858 26760.08768570555 18117.17159425806 90388.46142690345 11666.058215089713 42457.189371765795 47810.6835937712 59899.77638392558 37044.40582493067 106459.04325245439 23940994.812454302 24727431.122832295 43867.19658633341 51426.11088866449 85545.07183738655 49530.431369875514 60861.93451443752 2211718.9526987136 65397.39532499291 52888.0669469465 90671.10451038468 53196969.69813605 43221.38756170768 77136.04902467736 31054588.83105366 31081762.52593082 56519.51292557543 89475.1790721708 5602293.400265341 5606055.570677159 20493.60189563708 25253.782927059226 6233.7884567150295 39030.48398674375 13117.918747647136 21171871.46913695 32825.44203050598 4502579.151807696 216600.8031167337 21295.576456475523 145062.4031572997 76604.29745504605 21272.827147155043 24015.03898871043 18882.43919271493 46168121.64500797 47371502.8279321 22415687.786219116 18834.269906771802 143000.4174243768 50703.05679814352 27060.44764723428 207268.97358117942 91702.90715551692 40625.6916947566 123973.67867715459 32500.939785449875 77056.00876753265 41468.03811622798 191394.18473105424 22738.997373400376 41554.09820868451 42305.11295725796 23582.93744612579 50958.65846207954 11675919.86844857 44155.66639319804 65994.08392321276 87719.44214961141 30888.799425209458 22076430.5422368 22290159.138905752 19497.369787900072 23342453.637074523 13097488.427018762 22339387.903122805 11648792.265948879 60423.81573093563 21200.061742200898 79561.5606690196 11072003.644546106 11069575.938172689 65559.76946145478 35520.35247941326 44199.929860003285 61873.844794815064 48584331.5304157 48583738.10861991 1961241.8248440016 1907529.9035776164 37401905.78862749 36314732.15228113 54799.54975055659 13085093.605155395 16520088.114933718 16548701.52691067 29949.72047319507 149929.39205441246 16671.59393552813 49272.547759367684 7921609.60260159 13696.370262892506 74740139.7444 74310835.4004792 57497.210677572926 7704.093398035494 33908837.45746067 17160607.912409544 17154935.335100334 23831.937002642437 7812254.595433822 76230.91337767817 31358477.975569237 33073232.368548226 70103.72987636249 121056.05093143588 9313623.918961603 4509.686063042818 6289805.907652786 101879340.49669363 35459622.34087892 27754484.67830313 8241.594988128452 27453.58227286826 20161.700151670535 72721380.70822664 34656.13714917682 41711.74522966427 59225.91321597644 8620764.574422669 54786.1957342808 10475239.223433794 10663.38666746947 10901.736917786335 113122763.34869587 9124843.862329211 9120987.128792014 896630.1437113562 33750.75892613526 118074.21982441115 33647.80191906325 27802.547364388192 24982.256525381115 26656.881412339946 38325905.40533132 103395398.12583008 9988291.425657038 131802.1990871768 180991.7584938206 109040.13291362526 21795.191511103498 27339.19296726078 15764556.871561155 96567.09441702763 74251800.72573929 75043290.3661827 28188.273835650263 38355.376042176664 60456.80746330009 18282.24927919393 41634.34716684942 32844279.744969387 32804056.78970993 63022859.88165236 62518998.62214687 22816296.00929439 24063355.19966671 336159.62124786794 125199.24952456223 13870.828119805828 6127.069034272198 38039.62541435502 63903.24259863169 104553.11488783378 29179.4402970409 103465.5626328247 23590.210010533865 3103152.2543229023 14348495.84776726 56900.51101143855 119064.78600818063 31997.525186380208 9967.36689151312 29531.191239991567 11531.046815528312 22993.434876950527 24968.858181324067 124762.98615143089 1323568.4506054972 1515382.1870758748 86525287.61291142 116490.70965409595 64367.216662373954 119961.02072732271 64122.97663017021 31716.66713150588 31008.37171854013 129652.78431082152 146342.80723816986 4995.948224423177 53403.51144219957 5582475.514204218 45183814.38972458 100126.46922140918 9063.18623295948 8585403.019919759 16118315.857732521 22436.12352560999 19245.78587980958 1710438.1586583501 34402.01415590038 4213434.7819713345 18462727.30264585 18428507.15012481 92120.51579216431 55681.3773135169 9589695.153066868 49978.030135543864 110856.85010563157 59859.026467209194 25311.072990413628 1989636.5383211758 78643.5967852989 75191.05566728883 116046.00335097099 77056.81569968034 2774443.146968594 647738.6303339837 13137.103971342443 6889.672716503865 30164.076975766216 25459.563375340233 13141.574115997295 22222.9661556854 30035202.765005298 30345647.367347986 75023.77229579071 83856.97854167767 86760.3719074402 27124.70941999741 82653.23724598851 31339006.024807774 33051.376888916166 13418.560671330817 85969969.53338219 49024.20299115465 30804.945690860433 89471.00366877945 51370.52000358005 7793.163569925425 62426076.800186686 62315695.25864009 59466.27331335179 16031.586441388037 28521.74787121669 98338160.57666276 58003472.93005068 109298.33262660615 6965.388279556525 3108.5733271134445 516053.28774206864 47123.4626913704 47427.351308147 36117.43616793893 26402.83131270427 54820.63442357064 59801.52305727209 40975.41705785027 99575.4344736943 8935.32353242076 658250.7991324875 74727.49637915545 60294.438868250225 73376.84467174186 20490.707288021193 29315.8182667635 113013.4863575349 37541.428861819906 37073.7614447133 21181.233489294773 50533025.93601911 22396.387209182292 19416.296876165517 40872.736864206956 61363.23890200637 30418.66271135097 61125.51698215402 51545.50430537047 57630.44151161783 72548.29850810392 8806157.697868656 35061.38643607367 17098.80044470233 25876.892347157565 21160.033947307078 57653.69293893569 95449.5948624136 103547.16033299033 23058292.34611098 23062594.774223138 101627.38500922514 637803.5640527153 136577.5553061171 119617.19646713407 141490.78324084822 67735.4835839281 6734.212932367654 1621303.6229966406 20867.783347667748 69497003.03186853 20163789.359170612 18820508.43339879 11021.90007671992 29725.072014516765 99841.32542089433 81622.32833637971 78202.55824993204 85301.7753099416 54977.64890985152 14946089.981543109 15128635.292721357 37439.35263582157 116816.33698599308 32180.56301956407 4412.699632448055 104354.8006597235 268263.726809554 50646.16196819072 14372.937229278872 22044.2302175467 20768538.0731444 20762150.54097006 82932.07494044112 47398.045572916366 24701.29133818427 15511.576078962658 16851.594545624335 17950.093688664456 15552.00541786895 108359.21784153681 70467970.02705383 70540021.72934447 41990.99428412225 19555.512353211692 105745.49414412757 107521.59516463584 93747.60011177111 32138.898981320763 107903.39041406052 18272.15027826595 22459.98361811794 16212.349517499399 78967.49559935837 64599.6654264026 186164.50000756074 93989.41795845638 81924.99431796206 6558091.780565561 1109956.3581655684 69381.72216071401 39856925.39528457 54970648.65665754 27496.08796275584 91250.62729378075 40090116.01966846 5139.590391701498 76893828.69592707 63028.96326717872 29267.747287925205 51344.303537531676 58943.919396459634 24258.80422996777 80410.23270672353 20184.69072836595 32658699.56074953 22378.89170754122 56083.56331202142 5322173.430770594 25079.679286952174 22073.77546940963 23152.558613122626 261069.0032519968 2245445.9370297617 15536.18479658813 120873.65033173941 98534.47656437574 40239.56268371621 73859.60707988364 15998.256198840185 4222119.551578247 14898.615557624636 53453.423454480566 58882.94633388322 19421.33830831693 66679.8304891464 89352.54872651174 53664465.96932325 42397.7339532304 23346.586952911817 68534.84598343841 4495605.9056844935 19065.590206869616 66421380.649038725 10144.457098935914 2076037.5357430899 4860.814049449628 6502067.749915552 5442.490973345438 146042.51614798463 88094.56518129983 117328.81492480646 104908.05133787676 38562.29951789505 112902.0235393518 56319.06932235659 84742.97356879643 57466.87969302728 56514111.59261567 63148.890142645476 74006506.84242372 75391087.74779163 71222510.2508235 75770214.40973131 71499788.12627696 32308815.559891574 405175.18328020343 108624.3387095538 7205143.071278837 111626.13172978934 382056.99337553466 45453.19918486839 42106088.14442396 2444403.255842048 93706027.37070647 93356501.23510857 61300.16139777635 44688431.347792186 60591.289044668636 86467.79917112568 330326.785156346 33477459.071357783 145093.46777448335 66647.32335927153 28836.144365458164 86074.08597402222 8114.459780363134 24548.013788614473 21789.119547984174 71923.42746726403 26891.319186822184 6487937.127959159 6481106.498190872 124410.36270379846 10296695.76621253 8080325.884374518 87842.18048937844 50462.29362155078 47427083.58693472 74939.4613515017 8899715.625837456 6790949.70797816 91836.98383617897 120642590.00245191 62179778.819962464 62074323.703409284 89521.2979719707 44812.70304566856 1449511.5526269274 31178.380042093955 46096722.14824369 46488760.52729473 137703.56619387894 33025.56727686825 84920.72205433049 16765481.109089926 3981195.537652552 4159287.302432988 77507.28493507637 46920017.310697876 46886917.38225732 92498231.35525848 8744.461469002785 64723.05006126367 24016.737794383476 26184.990424055006 21746407.24597023 33458076.980375756 177341.83767412687 117781.75572659206 16672734.2345446 124602.03736504276 67113.8988368789 44253.26797175331 9984.851676810766 115895.06910658498 36375.88463864617 30547.33338327897 13890378.400876785 37326.49962856074 65723.94689768374 118388.06862153226 96030.92987498843 46693.70837901417 889817.3445466422 82198.89908415501 29281.838973925584 107980.16709368241 91427.42605522792 203076037.5852938 203021081.94734 32017.48207032917 25368.813184612463 92007.84652192885 12733.413442166055 33448.15982185172 50256.992602233775 84560.3195983879 23083.17498933594 34643977.972663514 135300.57039982371 6440480.258713118 60156745.03900557 49814374.693064384 13420606.819644932 13422479.34153825 60349.79272695397 130489.46222821441 14040.55132836822 15208.376304473955 41219.97573163114 113015.92629076894 130427.80079255247 7724.893732916706 25216.225940060805 7703.630246398128 100762673.56945682 46106.68949690941 40538665.95122803 121695.3275740642 663544.4020342644 23166.233646045515 63303.76468672608 1611699.236153004 53537.31889539157 54853.424927002714 56461407.03247524 56439241.630864896 780254.9079699707 1126472.0794008358 55974136.96280449 72439.8574624129 23142374.30304082 23122599.914710727 47446.00140652554 26258.83312703239 1280054.7880264146 39893.4159570428 56047.344009338805 33275563.881335177 33227539.049159184 33241594.031302452 14561651.821262179 76539.91188230191 47614.73229004009 561782.3281518017 32591.13769630597 65947.48589618124 9504319.894783104 5489040.790006374 7240.359637732218 40965.882995877655 94012544.96414146 34268.35035370527 16630.143487376685 106548.21312307539 24301.727491866975 52741308.91571191 49476.114729876834 29723.653018701694 79202.26714749158 49086.979761950024 23278.641264949143 91729.09655810686 44594.13859348038 31719.630940403043 55639.583618488075 45464.572983653634 46815.3904223855 39784.57197300616 4431979.41159248 77296.19106140325 8215971.569574058 4100552.28064641 47391.37846826369 58392.65023392325 101187.7771588261 50233.38667159078 27984.30433185024 48312.83027886206 68148.05259847431 65665.33988254088 12982707.467889227 11800593.526073145 18660.03823532372 86303.69584429788 8791.15762328783 14669.40057513558 76560.64696825625 27707.1014232353 23447729.365073364 9781852.415803524 19868.314876543882 21953.868460951187 16675.878642717766 42606.494845450354 4979.757561609011 49092.2976786204 111351.87518521577 51144.0749432294 31394.583060675595 12115503.81498118 14161.554310767928 53086629.22661243 4332952.217765486 76727.53476942104 30450058.197260976 32137547.895726744 33114661.808749426 31015959.211629976 339163.46901145845 34121.3701281346 128693.56703266765 67816.83612602702 39286.9324695867 1367330.6748720987 24130.913720775137 77555.57242858068 105747.10862875886 83741.19069532318 107513.7813763397 9802.226636635087 128296.35530937595 39426.01196617587 17991.298367962765 80378.88592286906 9011.951882052503 13426073.48016034 15259.446983686825 27144.894916662113 54680.96079216639 145408.61192469415 52934.22121131614 2968256.0494053 15411.556366644869 12041710.942622272 29506.516699140062 24693.344605163784 60577.70784591689 34915.85098572869 120365.87543169638 20499.002534295305 8213.494000166063 2361.116242718019 1835012.3084642934 28232.530708165144 83765.55356387638 127431.12759312254 13321641.179767163 11253992.204388201 21551.223680418916 54716209.00666564 54682572.18877905 121087.43534869095 13694741.23157701 52685.97933712521 4038.635173826641 739602.1483307946 28256828.28708074 26226.10054531564 32468346.22737573 39754.12833845913 169054.64311262133 115566.852376463 21212.595432981947 58248501.19940399 122771.93187783899 28227.7630925177 57641.99644867172 124597.88864618055 44065186.45916158 44155972.539980546 79094.6887117628 155533.61416477268 119191.77762080492 157208980.30077806 155679252.91436428 42636.04719300131 130478.72810208418 64022.35552219851 4257587.023088009 1978396.4865009477 27875.71221356767 29269.98585678923 119230.58999439575 21399663.879418064 20002969.05272456 22715734.172485575 21788712.242079463 50528.072433106514 57201.72278773314 72105.24345906648 74691.37013715813 70289.79823681715 55426.88939741826 20592.344172301924 29187.776634893864 254711.91122749084 111824.53910693896 31533422.66099445 31270087.049004108 11544.466267967999 114722.74026960864 112165.45432703919 23384.386692790722 61131.436651676486 36355.24025141568 35994.116879395006 21602.801264837773 17818.046921522146 70956.57806990533 35839004.76816853 167155444.02124026 167669558.1340881 99309.29339643425 19731.72127044251 29408.885981816802 65643287.72859525 69744.89027410158 1498213.4029648837 134399.34381584878 2311.9767969461805 55439.01683748733 9574.534165391497 127864.61377609315 47104.80454705415 31867.28944438146 59572.24946354923 39696.71939207605 62662.263031871094 36788.69201362007 35401.46742680859 52516.857878245675 21410.242921742796 151456352.93183726 151932696.29538637 29582.498811552785 34421.59899900314 42387.168185579976 180404.1960886522 83590.12740330774 77107.8001191347 56519.13960319355 37261581.205765836 43463441.679033756 151578.0571832824 20763.171942795394 22951.511201311074 1229281.5980340187 21719290.274635952 21677858.041614644 183694.63665672546 16890.287570189394 7439039.095742032 7443831.847386381 26915.747060198784 152543.75203546867 4154470.6565347128 18965117.39465811 13047.06551905326 7771.8463829621305 119947.60904504775 25036.922731536608 72672169.51643823 7889.1262364097865 39732.56682990546 22556.513899057274 11007.319830397006 45814301.43483146 76908.34605368681 25337.44529637142 16500.596252807194 81559.50022312098 103420.78462699559 70302.10969950008 62148043.648032695 62136807.693190426 628362.2260998255 23301.49563006191 19073.712537487372 62899.674532607634 23731.185150964175 89340.54762157037 63151.68272110753 33857.70134382427 130817377.13159999 63574.08218802635 29396.185224951463 84027.15416442162 1799.9945524516684 83426.86151863122 1711735.2131775662 7662636.753736881 14820065.144320717 50154652.404890195 50163089.987147406 57166.412624951765 110225.4610785598 61698.82561738974 32027.114752614423 109639.98004147327 21374.95757004896 13506.013010458915 104775.26573825286 67685.53093917835 34325.02133212885 27729.5107682562 30116.151790334774 19209.741815945865 201746.65020615835 59938.483031512005 83329.41955992767 26370.065976691527 82906.9912273389 19700.55785314079 47744575.03475552 47720442.27497951 62622.41089748122 25102.1183747653 13184.398225565792 18783.127478989114 35224031.47306993 33358561.22198071 8115.84220166987 95261.5499066472 69819.66840554804 129647375.3838988 15031440.813696658 15026562.208602302 152878.02289649373 127420683.58187297 29863.66106983707 496219.36577122455 100061.05814401321 37355.03652690305 349283.7753334683 5678942.164045411 3406586.414041482 110995.45719334774 20576.159665959887 133096.90019384673 139369190.49588874 141082453.1274127 43127465.261061475 15464.118979067995 24896.2733096716 77869321.2776239 31509.418150864814 91172.13500859452 31943671.175527975 26042641.599885236 25279507.378210813 30828065.522458043 82107.8442922831 109101.92312001658 73229326.36899656 12505929.45479967 17502364.46881522 137600765.803658 137550786.35805458 27305.93164091136 238689.53455019285 69595.86160145838 50150.15533611297 79067.63834426703 12926.341739842206 10246.09253178612 23199126.86295671 12221.025082037913 17915591.91290846 43025452.20129124 24608306.13650145 43998.83510598506 143685595.70978317 143483355.51863128 61801.597624305556 39620247.711089306 62843111.944879934 232676.69881433545 12390593.248232104 12384097.811617576 90100433.32815015 10201.871661421332 2697816.1944282707 28897.480523463164 55195.993808665095 61000.92058941942 30764532.18383449 85777.13750123995 39779228.37844306 4325997.627063223 1641456.8280040487 10137318.570465429 14596983.84438372 224633.14748362798 22837.842321215805 51085.99594686492 49815.727235953316 2663947.4960095743 40024.44972032151 26756936.03592429 26992233.30789483 48711.627271341684 201966.00841563556 63769.389935135936 13958.672963803683 58838.47995520506 23306237.001133915 102703.73302253097 2435574.5994414156 67199.72839339425 25467.376541636742 74978.1819906001 19259.75913364767 36187.48964005018 122792.26653937563 876972.3760382181 46746.76283275921 6427.79376304033 113252.3496178664 84296.98240179205 72693.03361730721 34565030.86046892 69545.41735840512 7270294.705606083 76725.11176552284 61210.881596056126 35252.92463380146 51675.61743611315 90877.05376190362 102325.93958399238 13716.599618128277 63330.04858873036 150463.48432760822 5982434.987798809 147098.157227515 17182264.859315664 21724224.132715482 20415097.666236863 16200967.486956049 1400897.5843368145 4112695.299697458 9645640.185978739 57482.26991566314 15309.0952639822 865195.9028948308 5229619.2365392465 131567.8880003496 61768.69342853557 148243.56654989292 43781.343905987276 24291.090500147166 131448137.26948658 132218676.81458962 64393.67174246613 91420.70391480575 116738.272675132 40182.5170354036 45441.747369433426 111645.88128879709 36395.54834627429 7552.300111381252 87817.13578916003 66768.19797125939 55773919.00368 32776.28431433451 96527.55497044908 1866934.849816706 104415.20361329129 103594.31517050687 31418728.33939743 34962.23468925917 64228.84728528035 149788.92667502828 30112.627674034455 90576.43286548235 38669.86149643483 40530.03307773948 148207.39745214884 1821542.9118506585 32188.245052823906 36551.96454606684 114546.6992496295 121668430.06637321 123771.2492997768 7947090.559477962 133883.05533460045 41028546.734948196 326270.98428060487 19188415.62676174 109131.32080969332 151036.5992655197 22043.24216006922 122371.68006624268 39511.00570575628 89633.74916727928 22133.07056953922 119222074.89652063 117887782.33844714 55950.84821037434 111551.86007858299 35972739.27206279 45494.34926442973 79871561.30145726 79855744.42689447 133756.97317271846 21972.029608607023 131767998.75826254 134031418.7869733 129901.26649176455 34973301.01607751 75003.32600981087 53764637.209987275 111067.475783206 121716.24454184152 75610.41232839861 116017.15329747966 26618.53396398351 3721.5194252980245 79731.4381688544 186606.43441957346 87881.0369363674 28151.360460316937 58532.32181110261 49066.70511933406 11353.256291075759 12925.272197789614 19525.09268624493 10313.300986833015 65758.41436227511 60629880.19742578 60616610.9904726 24219.14798563142 34360835.93811333 22085105.625145968 135691.97739278432 78225.28817669205 128745335.28979151 127075218.44581127 27131.935055662307 189775.1737513787 5452.7874541037745 129535.06383616684 4163224.275613068 4155086.3318916224 86165.79652626814 64895.63975583485 14681.536528744167 35127.74859951578 125042814.75082797 125367036.21261448 120089787.459039 116391891.07584646 21648.934204461133 22242897.922898427 5991978.237245605 2459950.9258672153 113362.29255713483 7416.398876983723 28222.97421198608 38198.06511349591 161765.5997525645 33223.11245488026 29680462.511376593 29660284.38880431 69460.25369210324 71920.20501276871 29883.72741666517 104031.76726596584 5680.15363918618 132853.26511101084 3586.217921319012 130735.33452131425 82071.59296939289 1344595.1382795328 144865.681954184 132941.80034779533 14001.434713617718 170600.90781473703 11817.750586983993 14115.631900663713 123666.11528788881 53292.250587752336 2276925.780246518 55227.87655251766 11163.18686420981 59036.96833456674 133255.89226845984 62298.82021673711 45085.422079804666 100218.84506160452 30869.33186074523 158373.38983640476 42781.210238188076 53704.34834439294 90601.34475886765 105484679.36238782 105947783.06766716 66352.29888258249 21411.01595744728 7100.046201124996 19243.86921522483 84503.46332217271 12192.861590138153 104089.90656109557 18168.709772069673 55811.91877402611 136257.48492267999 102041.709720894 112420.67077772078 22336.828858991972 2150966.2443501037 2140141.3894470804 69916.4967827064 7885.948171673648 14126.682995294914 48470.320795158106 94884.47370768836 37736.8824770247 112841.17301505058 51512.44148767208 25275.664638742008 104118.85678616315 122829.89976401275 15785.907829223177 249329.1529104193 152360.15750439806 2723.4005507616093 42860157.28084917 42865576.58895601 38407.92201733111 38522.52130225781 39578.84977110851 87657.83769007128 95674.18774325665 82175.81647023074 30650901.152867224 30634510.371764626 4059805.5252183196 152945.53790338428 52190.72403630873 77046.14338365252 13755.809760872906 76316.29527972566 51676604.837264776 68813.79162260726 91306.7818486425 53480.70608781217 32381.950339962314 8994476.568218872 137594.525202769 185547.9170682831 17009.184613159865 86095.59511528311 86456.27448249856 81567.95686556009 29709.584878775706 45780.43780222997 98907.29864689009 68186.72632025612 734732.175820258 88188.49652698204 44733.08069955884 103262.20807370037 147096.6274149731 25451.66364685692 33407.01811516447 129655.08798169512 26597.735997601034 116386208.24498567 116254067.06648925 20009.2249062507 110423812.98143892 108868281.55384086 130178568.27270427 131062349.75097159 10871.536876513394 29315141.376865763 138806162.18324813 139083251.0857067 80834.79368429462 21056.91458671002 58291561.40376923 113337.92611298 79736.95286787012 86311202.80558112 116780.31134385876 26851.786286042145 25394.773267193676 127200.3773843517 35022.49372393757 63827.313424525135 2231546.6880512177 2233663.425558993 124811.33026957921 76090.97459899822 96768.19769039206 132000.16246523106 125040021.45459372 123153300.62990521 122492927.15438665 124549448.49984963 51107638.78824123 160130.9307972656 338553.2043079832 125750.07727394857 43959.71882298809 73897.88417995625 87281.22197215108 32869.177553858026 112841.25059733423 68177926.88752589 68225859.4654936 15429545.258342406 15456157.143248409 35577.8426929855 9395597.214457046 57950.611612032815 48427.0568948549 129396.75376620641 39113.04103458303 24130290.714740757 96368.10790748194 50366.50240694873 75909.74956958662 33355.912796980985 62769493.58371999 69242.49769561774 77690.95035409274 53200.938401124076 96177.92599841066 135659.2753702179 5977.078015317745 22316.088827922704 213292.93021686838 70429250.3579526 122152.78801224314 139513.06093019102 226039.58753811463 210717.60873436133 46685.78176676767 133472.93434057865 75573.22106462484 462502.4857416487 222577.6301045628 58985.35970816979 461733.4627171707 26217.980849035917 39216857.23551266 39209215.926082164 63309.48637938148 19664.411329844635 65893.48248269327 109247.05407079887 1058302.3904366056 152227.76336296747 24153.179545349252 61424.334020826274 18875.324199843348 104657.86668635569 12104.947467490754 639076.9423596879 32787.35427582624 25070.625374745552 18824.805735579546 113297.60037867277 34013.36310068309 109083.70116575828 103422.42249998469 112026.19819059917 42755.09761952453 127577313.63872282 30473580.48401975 36056342.755021304 105739.29986235523 108925.41901957711 111890.41368541523 97915.1268924003 29720.505911465232 27827.40335658023 1236517.9704929357 103828.21085174094 11735.177362789542 1333021.8702465717 1210179.0192276682 114952.03807246665 70522.33459799724 37017.979442172924 99186.54788490866 23111079.843482364 24700.080185769068 51966234.182297274 51471605.257043496 17473.30224897428 20690.668528273494 1791080.4734289558 168690.63147352563 28330823.198424242 118631.44749116169 72763.21270297145 17082.010807363455 1824319.7333005453 85348.49818785705 54281296.5810137 54379632.11611818 41366.95249303206 75992.14154101844 85397504.235558 49325710.512611814 49176643.51543976 55925.59637924949 42402881.5882289 22312.905815732927 131866.77589939418 71222176.2577545 71292139.55489111 172730.79065587983 52984.35224583033 32974.53253425716 23189.600323227034 3109198.6652970905 2977955.561263422 121993.11591161523 48264.07374136758 317028.976324448 990799.4740290007 79044.39450083462 59651.17354832263 27912.656669617234 3120412.184034406 24250.081876562745 63828.208416008136 354205.4353526141 926872.3153100552 28223092.876288243 28241820.657353874 22475.76297280181 111125082.61421835 101033318.17227621 64996.32503303241 29953.5989562473 35140.924453400905 122245.22395302543 47866.81135497175 126776285.65991198 123031127.10436244 81477.82659658096 22417.855299719085 31139.387836879032 36058.015783531766 36130.99131982496 3411458.8195829135 3413174.9280580063 13576.478565247911 92126.12943976658 39353.90483566694 10141.767510187334 99262.95104067375 10194.027628385853 20928.42704560209 20138875.061908208 7810003.237604628 38407.23900224965 12300814.165393708 39867.49845117748 13161.627852326073 913558.0270317897 97703.11087117511 79804.68048859504 50075.12766341634 8739.837108932106 51631.83662363053 59473.97606479118 136312.68602910158 22831.77488627706 29491937.259579312 19689.608077568955 92657.6342971822 14740.263389070082 203017.3913856288 46835.34750286889 88842.54210998444 111887.96005585529 437181.45313603425 114904.89357967144 92105.87843994256 38361.93447651469 39753.37846739943 137591.08329656703 10838369.823026001 10840859.225502007 1902813.3439008538 22573.094399217494 78828.32863962598 24788.44276942366 34263090.3197798 123491.19874691196 49983.58105084057 28505.002960953974 50482.46314939604 134501.16272944125 123362.48821580605 123728.95783076977 24672552.789696023 127687.16173303293 37418.0374599363 58650.6760632204 119993.42468295025 60028.18523145568 12210.432695630398 2419223.7571398853 2420511.9082114235 131178.94129904069 34305.96858003144 130630.07626681872 36163.11252219462 37618.3264023964 17133.71535321307 62376095.46269239 87473.2517885051 111773.94546942315 11357.015152456846 13249.329703979374 35616.55870579838 31719.99708582012 84435.54044347689 63061.96002302206 18445.579033717946 2324533.6895404547 5994.649580626654 66980.86127959783 119756.86146672016 90294.5778495762 94434.63070157306 57831.9894792246 128504.12373167732 65874465.348024614 112142.13163935655 9324.911672135864 18401.056476994796 20181.9770356179 5699.290557715298 19212775.01146633 19239297.479923856 101963.96853490204 79433.51981263037 82372.92399822311 16198.159086437137 12516.774794920046 61967.03158017217 77418.13461478867 25988764.0656238 25978214.54081191 7701890.84717901 96385.3558662311 90332.61864767405 25862934.005151 22261.40860058199 59564.28914243782 56041.864012053 77114.2141496945 133389.8886088255 46440.51495210353 121376.74556166139 17642.051818567994 15999.269720270739 88625.2280001702 143486.79398231927 16492.902655725607 132129.1031474171 25417.36484551644 47436.03161393088 72694.61429826307 50927.46521218259 26826.47980876605 75622.8984426393 34949.65825513794 21434.803571477394 142127.23436808525 58613.73140218807 82006.1193002543 45550097.14822349 43961128.08005832 96819.74994518167 6400926.134524328 6416840.313216227 50951788.58732269 50472879.04315351 21572.138697938342 73599.10637979522 85821.16745159613 54986.51593684576 32840.71879985463 11472508.787938587 11461980.009755583 540579.7951483374 41351716.714042544 80571.96303713103 51963.04962041886 143187.39874286688 88408.9199225843 84743.06871233322 49883.022628649676 25871.777112718784 4665368.730759955 73653.01062024837 76858.67600902259 123672.42070740295 19382.218763590434 61537.68037979184 139873.97452349134 337228.3002832727 17022.12409927027 26686.470965084474 56480.80753937356 137373.64235439926 61471.93099832668 16133.121092843623 52722.59478864182 3540143.0247223144 102312.7478605257 127285.91559038105 29478.51033042852 3409106.2818965567 48789.048896982014 120496.09487095464 2169005.4936714005 6531179.345673094 79037.21614135538 42366.938702968866 18190.562109147453 5924870.707066023 5940339.535245554 47081.46406856737 84373.87425997239 7112.800064363174 2086822.8852737814 70821.73327931108 10123483.579378817 29157533.934537698 30406973.794759676 145678.41142248642 166939061.60643795 167319547.95736593 91943.43788136143 57763.93920755929 39694.81119390773 9783915.395985967 23992.112467899617 71757.16332763956 78473.87754605668 17150.997597950252 19287.167476587194 60331.6922645839 73373.90722804192 60703.108125603394 74656.36531859949 51016.721327493324 46483.01703072011 9716.12995644868 19520.18256495302 909001.7143996413 18203.933142294893 87046.67020286512 68858.56656240288 44879.61765428215 107160.73581270271 103683052.00570154 105252536.76321733 65001.484674911364 58656936.18915772 58642660.70099433 17589.254590945307 148289833.87440395 148680389.02321073 78156.64292398165 93560094.20788644 93935803.5350501 77685.30512013324 115860.58628801003 32340.656521969628 67546.0336262355 73876.16607142331 57787.22311800569 11671.518487932692 69922.62145229176 35958.80065763661 99311.82439725687 16229362.13790949 189767044.5374553 189908192.83135715 79222.29013620743 17602421.129825037 3901576.691142478 109984.15402444341 23885.815561506428 2819.9249720382904 79472.28964216866 20089.192083846072 36805.956384320445 74844.80822868134 73755.20484412287 94483.19716876124 158964380.9559313 158279735.9339429 62659.67981468901 10366.096654094821 15863.142774722657 26688.665613102716 3016.611450760771 18805.605878924194 139821347.9250385 17304.39488632687 140439727.32891577 95019.42401309918 26291.6141108254 25941.366793009303 42364.60528600445 27567.868931004057 77605.96859784656 160715.55161921593 39312.426565150105 46514646.18146195 47608.85206476923 76120.96741520533 34992.555746149825 9143480.407486668 110354.50221231593 60435229.411439486 60408287.01802065 128060.18964140443 92951.71086049567 61578.39546502995 106320.64782688618 31209.743580434137 33179.558563361956 9431138.284687372 94099.9375780907 2079.4855212332686 18014833.09644923 95107.74676699094 32060.129307090665 46368376.485086486 46148134.6212759 77556.84342125428 77353850.27873321 29879.391537110445 48766.707897042674 107206.94222935001 34587074.192662895 34386490.60658064 104805.6303554694 37372.462230882025 86365.77836290414 115353.47240719911 33482.26311300158 102120.93104636105 143793.02996453244 110819.74340586529 56228.17295180597 21515.680087926587 78542.49616966891 28288.27862840689 97736.80683087821 21318.923276870602 53999.40747284938 10751.022712615282 62436.516746187765 38460627.4127131 36651.82615981534 125385.968825104 35672.820741792195 82158.71584440063 110584.60948735465 16286.491855156302 65418.623860995365 73641.79261919686 70870.3666711707 19913.760219183612 117710.4729132861 19298.784934859563 14312.022606017392 56287.63308585395 26874647.850580346 26848274.158835165 82552.2860582637 18148.733144228823 27672.476462298884 18526.463571276738 12555.194658177888 87024.76059581367 8328.250979236831 59972.77447130979 32531.14056451164 18538.504886547744 79263.52234696521 10066.14641392203 20112.17072460783 129566.368051895 67887.30603070415 69390.06210481637 12868999.690989591 29894.771708375174 136792.37927741915 57678.05760928735 101729.93019366846 55442.166185656286 30618.802372828875 65492.54418411832 108748.66278465909 28478.880057829152 79755.62759859288 83070.90278168158 112527.24606433634 30653.469774618214 42253.99251307308 66812504.335282676 65431677.77793004 64806599.99948494 64765694.33323068 64817.83193776429 379288.68963827187 33980.20432755946 127436.62029274189 46298.47159014296 51335.85206936493 20169877.820136983 23118.750185198576 111004.14721395193 57148055.08774869 57096404.05840573 37823747.44955137 44026650.418524496 89616.97396728859 125897.65970930252 16155801.644656563 22939.170491483004 116069.25453771384 14795.510181868342 1859925.2151203365 95192.91227016215 17186.091458700488 88770.45082386679 12021.35990882861 57598.45203484304 165221.72638314046 100373.9973098805 77732.10761022844 64149.751240105215 21996.21044596616 48838.805446878796 85025.87481780835 64721.29492984436 30098.084559215626 176518.92222477612 22532.015943850056 25979.97311026522 44298.24041734451 87684.32446191218 22384030.509091683 22303099.07286827 16098.308835587985 14855773.541495759 160488.5250826478 83200.16156169858 47730.6947286486 66320.55608513892 42750.10864438823 35549.601631441445 9640826.13476222 69222.16889041955 140155.02275654514 37237.523478500545 28419.916755181817 117341.22418592525 46269.724066067945 41444.747798236036 76700.3744983291 11796.294607119036 44570060.11669637 44782.912215816694 96902.61398317364 86391.63019029544 29208.198446367416 105552214.642231 106152721.10242254 45118.819603948985 74872.95511417571 57552498.414180525 57518269.745228425 17498899.312437706 70558.31890228849 37962012.81183272 53103.96416105583 56473.7839863256 18274186.20067581 88284.0056509515 58269.59104441464 40222.57033420558 21658155.985084172 49524.41201412278 84170.22641276362 16058.112752834777 89578.00912541234 67468.76569725535 76600.5645684142 6178.366914052301 62600.60372877664 130953.62999089688 23910.200187033177 42436610.52656246 42549132.99488784 41122569.677255325 18222.12005945672 93668324.77068722 467396.39019051165 11577.644443029763 3735.9173922425803 17615.487754002126 16584.468155190352 111640.96590916594 10661736.087386651 10642989.742418205 124749.54658949368 699183.3182653273 68815.606637039 45673.39990380377 93244.75456544031 54796.55522400191 82841.10403269308 29608.47474742872 23989.625822195518 21634.799856775833 54973.95973856227 27785.45275580256 23611.414968891 64887.89571246223 33938.56082983045 21341.120237822786 55120.82481726274 22112.843260895654 44165.58320494728 84443.18910629222 93784493.41346934 97045242.04501823 37659.57528398296 38166.33627767025 33960.922682704746 101566.55958062247 66564.36278738457 9966095.867009085 12843094.232264496 13001.274676925508 87453.90028186767 120912.20393685973 100646.10773413815 12925.404531053797 37698.814986162644 19620.810781176668 87325.82918411982 11066.882396785295 19606.20684342125 97474.78073759 106285.0918152585 88026.57655651092 81567.86631510581 19880.826638993465 44284.18320411651 8931.94055715853 77176.99644775433 8580141.813170126 11557766.42024859 14617.22839498578 15748.505948753465 119676.36729250626 73205.31372918173 31813.386772651196 106453996.84758404 109365951.6593191 17172.14214520823 192122.43215598832 21735.54731789892 54354.8218042412 5086965.828163915 14212.01194761451 38784.785927992634 63218.649051727574 83931.9504685851 124664.08838461239 41672.74376762475 60629443.73674089 60596145.06332364 48048.33445276664 8510.300684673215 33141.80961437556 50884.35505902562 127177.35025631143 48206.071836070274 118971.19565044227 47914.46893023135 7956474.113197405 31119.710421138625 79103.42334736184 12292750.28917351 12278912.614697142 38175.43572148423 55715.401089377396 41394.97283524555 28038824.43060628 6341.0878229069895 20934.21159844628 12100910.117753144 23633.318059828423 88945.75014315589 20721.636498671607 6483.549600211122 109520.16646957997 45362.3739048336 113522.28411760654 1628953.5229310514 42594.54455336081 23668.925770257272 18457.932268448472 25118.17532917385 274184.347000088 16550.64936221504 71130.794194574 100794.52520742922 40247.394072767056 53321.26697890334 104116.076665666 125176.39431235968 23723.609471889926 70849.8675764806 124739.44814456678 28291.28791922645 24378.51774338788 12341.644589094272 111527.13537409276 49802.30788450485 35145.17611777219 128257.4063641685 101932.89743972034 17765007.218641516 17755471.896364257 19019.484219528636 99646.95325536426 44366.48388817069 59521.38511871832 20813573.036113232 3896112.174569232 38927398.53347483 15676825.133285545 7851.055236210907 11900.734087643294 16198.982931698445 82184.01571733416 2893435.0539048756 3437693.8834534273 130812.03196955277 2911.5434056249414 17221.279296670622 88744.13117094111 71142.409102948 45406.41625677725 22562.434978286386 82693.89510062496 39798832.51252287 12961136.424175942 48968.21848142902 69629.60014332201 14354.103921472686 49243.63354763892 42012.92049793883 64329.354123087105 69543.79811476263 81815923.02783439 91690.97487655445 39565.408179642094 21766456.620143626 43251.949969408786 14197.998063142726 41231.315429459726 38439.078211773434 110838.92824675665 2382269.7508843387 24430.98810593146 80588.3940789644 73316.36903805386 10979.523425615149 40306.06182410719 19641.583212686706 16913.599510111068 47613.66941917005 76320.08120287847 98323.13192728943 52537.106585726964 36938.62545004064 52182424.99790064 52214277.403446555 1528120.138888138 5292.223296330388 19637967.452823278 19605696.643361975 52111.80755329114 3753134.071457654 59048.87382567345 52592.8470864066 31030.351594796273 92110692.16394743 17118.895020280797 92241.10062146316 26375.90958587526 33692040.26397379 33663470.1295958 17199.1633261297 38412.61150917557 114710.39756778728 83597.8774105589 7891.679347033925 293358.0941798226 140286.0002546867 21583.350168408702 29046.312111011746 1817617.6616368804 103215.74454408546 30331.211623543037 57223.95028719344 64810.84503552063 28687.99769121363 96732.55728382799 20678.394419830096 63421.97618898002 111984346.11618036 101725082.450784 53622.17740620075 81307.29417945418 17631.151720670332 32608.991247756516 90121.81698189092 55612.763239847176 101299.12083944285 49995.04334120328 23568.97825718051 38578.41121176943 36976.511661108416 39246.27726009956 58715.518686427175 9206.494923571665 108654.58332356939 148905.26241417375 60620.717002615005 42920.2008417332 107391.13210389437 135274.13369993184 13161.572028315924 30305.32650798465 67929.11641257288 99214.82259297249 36896.41248820136 29573.66381498095 72377.74663022079 24019.77936941105 31405.36534589934 47769.677429542106 66498.89738662695 55746.236068744984 1013134.5988769234 352391.51825550606 13598.285871324819 70934.74181623162 28597.243421144714 34777.87998812664 23999.900769002503 73387.33104813559 123584.15698251035 129987.51141151902 51320.843762870514 95652.79383172706 84906.58636571896 33260067.84441217 25494.29647847564 35996.56779178162 58469.66059279917 43992.43580973919 40042.39112889956 10345.608233066581 65446.89170277685 87668.06884021858 115758.993531 127329.18992729741 41302.24294694477 39987.364954276294 99939.97686912262 62271568.05303545 38067.420625018814 107344.88688157254 107071.12289466783 20443.02150186387 1060822.2112545033 64604.55128325679 99435.96538780868 51883.943514787476 27412.414024971942 102800.86523770202 74797.13233763032 20738.978615865148 108940.1188778988 12446.199352470914 11526.202983231182 99978696.66580749 101930150.57321233 18960.298244153455 113126.93049801663 26387.53862661218 38873.80773506072 15425.168239408911 53469.6007461602 64692459.04713148 89442.88432315087 76710815.28597587 85993984.91228563 113414.49380392749 95719783.66200197 37438.8724060798 28352.035741483374 44897.6110485639 83397.33922523823 42882.707247190185 60628.14900914642 42774.66643948846 96196.61927096917 20239.267895395624 34444.70218694858 98644.95324707581 67788.89464636646 58943.510604008996 18083.041628125822 9584.321253510192 10162.060303218346 99492.42508891018 41567.98469961298 25172.8624867527 92608.47573795641 8992.719166139277 125083.15437077168 305761.89358138567 22664.342273191174 21916.14150089952 54427.54637659841 119865.82867887057 18733.443513187132 105301.00313634888 22267.796974432556 127593.76476682648 132952.23914558065 104026.31170275739 24686.143939621234 23618.265876102643 44547.5000379943 119660.73111290367 480699.0639339816 13838.43200701668 97314.59877707939 15066.281845489748 100906.7831693504 17585.99486346005 72727.26369576348 18726.29585155862 22717.564517567364 78673.6221033237 49120.695927562534 47136367.080651425 118869.71273121538 110610.00387707133 22357.77310388986 20201.5084852067 24938.03891350792 42205.89193815222 40861.612206451624 15167.667944152601 106059.01919471785 45710.245669381606 6283.264285988473 70209.34743425905 29714.03824081972 214870.5074538442 7441.586646253634 26762.28609621746 118111.4704188347 25796.74852654258 83749.76717314568 49876.048633737155 12248.992972565047 508778.77076801274 42891.89194547192 77019.37857319845 36267.00920766147 40985.726103940615 19131.36569635353 82608.61634912343 1055134.4637150737 67096.96246167856 15072.00967540914 18110.383940685904 7632.28283844108 98953.83604440273 27701.20973838219 30661471.50333552 45909.223397962865 2452989.1187336557 7780.281218446938 58587.698102719645 96822.32843548755 78559.88714550842 58960.74290077037 82135.69999164862 119512.38144974023 25878.225955143116 84580.2888536022 32900.826999722325 49127.21999191013 8859.79746701161 50626.70608129717 88528.83849996104 25496.06956589904 73064.51536920173 51915.56472506373 69448.21384883308 28182.25025705352 69222.39981970197 64168.496321056264 75631.03897769643 75149.07008575535 76296.22966846844 78155.76790939528 42097.27119599878 17162.436505071786 77328.8128892165 74886.43330384218 57958.465144250105 39120.58276049605 59765.270694623956 22411.396331169846 6680.24314794798 20470.513492817718 104172.9487102273 98239.8394725528 53389.803699285054 15884.479971382729 112021.55527981726 69120.87475491806 16581.066248509855 86438.20783912073 42350.90760607939 719442.7230864314 158574.60545123048 54722.561379320556 17083.528841587984 29746.69429675887 1111867.64469643 25344.244458203404 598279.360270172 26360.889214068793 2315166.1034154785 31892.510846835623 149227.47606802173 53758.07488469514 56376.69108058041 57347.0554199963 48063.41065212208 24921.811586442785 65867.13100601856 70639.89478346112 83073.48758311883 49055.49908233031 91523.29952168629 325207.470555471 288219.34258271224 120566.61880387478 94275.98233200026 100595.72895760965 92162.25084402692 103908.41190310496 21755.036620852792 55522.36979572492 124545.34814913559 13239.218296458173 45432.81929100728 21069.115987247686 94781.29785607944 28294.704833988955 71088.7073025933 32879.173715091645 51688.12114984254 20398.579880689573 128760.98651137517 64866.246798290005 21004.630291276488 3970.17962182545 18839.026041592282 65874.8860476425