# vtk DataFile Version 2.0
Really cool data
ASCII
DATASET POLYDATA
POINTS 2288 float
10.0 25.0 0
9.749999999999998 2.5 0
15.25 2.5 0
15.0 12.5 0
20.0 12.5 0
19.75 2.5 0
25.25 2.5 0
25.0 20.0 0
13.015625 5.0 0
12.5 5.515625 0
11.984375 5.0 0
12.5 4.484375 0
23.015625 5.0 0
22.5 5.515625 0
21.984375 5.0 0
22.5 4.484375 0
13.015625 21.5 0
12.5 22.015625 0
11.984375 21.5 0
12.5 20.984375 0
23.015625 17.5 0
22.5 18.015625 0
21.984375 17.5 0
22.5 16.984375 0
12.5 15.5 0
20.0 15.5 0
20.0 14.5 0
12.5 14.5 0
9.995967741929068 24.63709677361624 0
9.99193548384352 24.27419354591668 0
9.987903225752747 23.91129031774724 0
9.983870967693909 23.54838709245178 0
9.979838709643776 23.1854838679398 0
9.975806451588815 22.82258064299319 0
9.971774193518987 22.45967741670884 0
9.967741935433088 22.0967741889779 0
9.963709677331826 21.73387095986437 0
9.959677419249761 21.37096773247854 0
9.955645161201263 21.00806450811359 0
9.951612903119845 20.64516128078604 0
9.94758064504518 20.28225805406609 0
9.943548386962053 19.9193548265848 0
9.93951612887461 19.55645159871496 0
9.935483870792845 19.19354837135627 0
9.93145161272193 18.83064514497369 0
9.927419354633525 18.46774191701725 0
9.92338709656502 18.10483869085204 0
9.91935483848279 17.74193546345097 0
9.915322580408823 17.37903223679417 0
9.911290322326463 17.01612900938176 0
9.907258064267786 16.65322578410088 0
9.903225806182238 16.29032255640144 0
9.899193548092457 15.92741932832128 0
9.89516129001441 15.56451610129687 0
9.89112903193036 15.20161287373247 0
9.887096773848848 14.83870964639635 0
9.88306451577868 14.47580642008116 0
9.879032257707456 14.11290319367111 0
9.874999999632388 13.7499999669152 0
9.87096774157541 13.38709674178694 0
9.866935483520326 13.02419351682927 0
9.862903225484896 12.66129029364055 0
9.858870967443991 12.29838706995923 0
9.854838709394688 11.93548384552203 0
9.85080645134599 11.57258062113923 0
9.84677419328547 11.2096773956924 0
9.842741935225352 10.84677417028196 0
9.838709677185804 10.48387094672252 0
9.834677419124317 10.12096772118856 0
9.830645161077069 9.758064496936328 0
9.82661290301319 9.39516127118734 0
9.82258064496042 9.032258046437814 0
9.818548386911868 8.669354822068383 0
9.814516128856654 8.30645159709885 0
9.810483870799494 7.943548371954425 0
9.806451612739686 7.580645146572026 0
9.802419354698465 7.217741922862086 0
9.798387096668439 6.85483870015975 0
9.794354838615694 6.491935475412687 0
9.790322580551589 6.129032249643185 0
9.786290322498939 5.766129024904508 0
9.78225806445883 5.4032258012946 0
9.778225806418291 5.040322577646533 0
9.774193548368817 4.677419353193986 0
9.770161290304422 4.314516127397968 0
9.766129032236005 3.951612901240819 0
9.762096774198463 3.588709677861742 0
9.758064516136995 3.225806452329888 0
9.75403225807409 2.862903226668307 0
10.11666666610577 2.5 0
10.48333333385953 2.5 0
10.85000000105818 2.5 0
11.21666666867316 2.5 0
11.58333333336224 2.5 0
11.95000000131839 2.5 0
12.31666666820478 2.5 0
12.68333333056934 2.5 0
13.0499999971377 2.5 0
13.41666666013254 2.5 0
13.78333332331241 2.5 0
14.14999998971309 2.5 0
14.51666665948202 2.5 0
14.88333332845008 2.499999999999999 0
15.24107142855263 2.857142857894746 0
15.23214285711795 3.214285715281784 0
15.22321428568154 3.571428572738167 0
15.21428571423432 3.928571430627341 0
15.20535714279942 4.285714288023047 0
15.19642857135995 4.642857145602022 0
15.18749999993289 5.000000002684433 0
15.17857142846358 5.357142861456524 0
15.16964285700679 5.714285719728339 0
15.16071428553705 6.071428578518076 0
15.15178571407274 6.428571437090492 0
15.14285714259704 6.785714296118296 0
15.13392857114501 7.142857154199406 0
15.12499999971972 7.500000011211233 0
15.11607142832301 7.857142867079478 0
15.1071428569088 8.21428572364799 0
15.09821428549156 8.571428580337546 0
15.0892857140937 8.928571436252073 0
15.08035714273443 9.285714290622575 0
15.07142857134667 9.642857146133258 0
15.06249999994795 10.000000002082 0
15.05357142854956 10.35714285801773 0
15.04464285713485 10.71428571460605 0
15.03571428570876 11.07142857164946 0
15.0267857143025 11.42857142790003 0
15.01785714286502 11.78571428539929 0
15.00892857142013 12.14285714319497 0
15.3571428591223 12.5 0
15.71428571719138 12.5 0
16.07142857423201 12.5 0
16.42857142974857 12.5 0
16.7857142846084 12.5 0
17.14285714112862 12.5 0
17.49999999772317 12.5 0
17.85714285297952 12.5 0
18.21428571083795 12.5 0
18.57142855939082 12.5 0
18.92857141386655 12.5 0
19.28571427430228 12.5 0
19.64285713574168 12.5 0
19.99107142854329 12.14285714173175 0
19.98214285710808 11.7857142843235 0
19.9732142856822 11.42857142728799 0
19.96428571423453 11.07142856938133 0
19.95535714282337 10.71428571293464 0
19.94642857136245 10.35714285449797 0
19.93749999989375 9.999999995749876 0
19.92857142839276 9.642857135710214 0
19.91964285692271 9.285714276908246 0
19.91071428546458 8.928571418583031 0
19.90178571404575 8.571428561829856 0
19.89285714258144 8.214285703257598 0
19.88392857110147 7.857142844058753 0
19.87499999962442 7.499999984976929 0
19.86607142823917 7.142857129566706 0
19.85714285687816 6.785714275126081 0
19.84821428547457 6.428571418982778 0
19.83928571407323 6.071428562929247 0
19.83035714264225 5.714285705690037 0
19.82142857123506 5.357142849402467 0
19.81249999981376 4.999999992550225 0
19.8035714284025 4.642857136099819 0
19.79464285702924 4.285714281169751 0
19.7857142856151 3.928571424604182 0
19.77678571422344 3.571428568937625 0
19.76785714281399 3.214285712559351 0
19.75892857141964 2.857142856785682 0
20.11666666646139 2.5 0
20.48333333599902 2.5 0
20.85000000037297 2.5 0
21.2166666666204 2.5 0
21.58333333661485 2.5 0
21.94999999805711 2.5 0
22.31666666291099 2.5 0
22.6833333246655 2.5 0
23.04999999031157 2.5 0
23.41666665336712 2.5 0
23.7833333158213 2.5 0
24.14999998189816 2.5 0
24.51666665379502 2.5 0
24.8833333260793 2.5 0
25.24479166666316 2.864583333578429 0
25.23958333332243 3.229166667430228 0
25.23437499998316 3.59375000117879 0
25.22916666664224 3.958333335042977 0
25.22395833329952 4.322916669033526 0
25.21874999995567 4.687500003103358 0
25.21354166662136 5.052083336505047 0
25.20833333328796 5.416666669842317 0
25.20312499994325 5.78125000397244 0
25.19791666660968 6.145833337322924 0
25.19270833326647 6.510416671347334 0
25.18749999992573 6.875000005198308 0
25.18229166657996 7.239583339402762 0
25.17708333322847 7.604166674006945 0
25.17187499988757 7.968750007869894 0
25.16666666654491 8.333333341856315 0
25.16145833320392 8.697916675725455 0
25.15624999986355 9.062500009551652 0
25.1510416665306 9.42708334285754 0
25.14583333317543 9.791666677719402 0
25.1406249998306 10.15625001185779 0
25.13541666647126 10.52083334701201 0
25.13020833313536 10.88541668052437 0
25.12499999979433 11.25000001439681 0
25.11979166647349 11.61458334685533 0
25.11458333315809 11.97916667893395 0
25.10937499982347 12.34375001235711 0
25.10416666650693 12.70833334451501 0
25.09895833318476 13.07291667706603 0
25.09374999985275 13.4375000103075 0
25.08854166652795 13.80208334304352 0
25.08333333324327 14.16666667297151 0
25.07812499994489 14.53125000385754 0
25.07291666664035 14.89583333517551 0
25.06770833336538 15.2604166644238 0
25.06250000006882 15.62499999518263 0
25.0572916667336 15.98958332864792 0
25.05208333341046 16.35416666126748 0
25.04687500010878 16.71874999238476 0
25.04166666678705 17.08333332490666 0
25.0364583334479 17.44791665864697 0
25.03125000011321 17.81249999207509 0
25.02604166678298 18.17708332519102 0
25.02083333345432 18.54166665819793 0
25.01562500008643 18.90624999395011 0
25.0104166667187 19.27083332969072 0
25.0052083333458 19.63541666579472 0
24.65909090697006 20.11363636434331 0
24.31818181387862 20.22727272870713 0
23.97727272112545 20.34090909295818 0
23.63636362933978 20.45454545688674 0
23.29545454074166 20.56818181975278 0
22.95454545175678 20.68181818274774 0
22.61363635870555 20.79545454709815 0
22.27272726938004 20.90909091020665 0
21.93181817642107 21.02272727452631 0
21.59090908415283 21.13636363861572 0
21.24999999070893 21.25000000309703 0
20.909090898365 21.36363636721167 0
20.5681818062032 21.4772727312656 0
20.22727271532826 21.59090909489058 0
19.88636362288735 21.70454545903755 0
19.54545453222531 21.81818182259157 0
19.20454544067146 21.93181818644285 0
18.86363634917439 22.0454545502752 0
18.52272726008306 22.15909091330565 0
18.18181816691119 22.27272727769627 0
17.84090907624678 22.38636364125107 0
17.49999998161302 22.500000006129 0
17.15909089129634 22.61363636956789 0
16.81818180107666 22.72727273297446 0
16.47727271035784 22.84090909654739 0
16.13636362113641 22.9545454596212 0
15.79545453028867 23.06818182323711 0
15.4545454400335 23.18181818665549 0
15.11363634812483 23.29545455062506 0
14.77272725866684 23.40909091377772 0
14.43181816866006 23.52272727711332 0
14.09090907805834 23.63636364064723 0
13.74999998745307 23.75000000418231 0
13.40909089754563 23.86363636748479 0
13.06818180839043 23.97727273053652 0
12.72727271853859 24.09090909382047 0
12.38636362812021 24.20454545729326 0
12.04545453791708 24.31818182069431 0
11.70454544876188 24.43181818374604 0
11.36363635991656 24.54545454669448 0
11.02272727049761 24.65909090983413 0
10.68181818161208 24.77272727279597 0
10.34090909059876 24.88636363646708 0
12.86460193220061 5.364601935898014 0
12.13539806564783 5.364601933746452 0
12.13539806779939 4.635398064101986 0
12.86460193435217 4.635398066253548 0
22.86460193304701 5.364601935051613 0
22.13539806478868 5.364601932887309 0
22.13539806695299 4.635398064948387 0
22.86460193521132 4.635398067112691 0
12.86460193226812 21.86460193583051 0
12.13539806566697 21.86460193376559 0
12.13539806773188 21.13539806416949 0
12.86460193433303 21.13539806623441 0
22.86460193292542 17.86460193517321 0
22.13539806482679 17.86460193292542 0
22.13539806707458 17.13539806482679 0
22.86460193517321 17.13539806707458 0
13.0357142863834 15.5 0
13.57142857334916 15.5 0
14.10714285783675 15.5 0
14.64285714470339 15.5 0
15.17857143070267 15.5 0
15.71428571720997 15.5 0
16.25000000702564 15.5 0
16.78571428904744 15.5 0
17.32142857412979 15.5 0
17.8571428511085 15.5 0
18.39285713616606 15.5 0
18.92857142211578 15.5 0
19.46428571101452 15.5 0
20.0 14.99999999601014 0
19.46428571160309 14.5 0
18.92857142040583 14.5 0
18.39285713577575 14.5 0
17.85714284336419 14.5 0
17.32142855637984 14.5 0
16.7857142655791 14.5 0
16.2499999775787 14.5 0
15.71428569556309 14.5 0
15.17857141150299 14.5 0
14.64285712475407 14.5 0
14.10714284117721 14.5 0
13.57142856006613 14.5 0
13.03571428124737 14.5 0
12.5 14.99999999867727 0
21.81941767868212 13.66138144399191 0
21.05380334904197 14.84349370479329 0
23.21370693000905 8.835550244941057 0
23.06203766597194 3.432515542158501 0
23.58886479025074 15.50716081857372 0
23.10962984751285 15.02661525197048 0
12.22887579160518 11.67648138929307 0
21.51024436683419 9.497787900728362 0
21.55269578312642 11.9321039738299 0
21.370990174835 7.528907626266798 0
12.60640286834704 13.36259315926317 0
23.7098868875694 3.134967810596887 0
14.65068363195029 21.79448577582271 0
21.14631793983366 10.8650926912649 0
12.47270438349663 8.340329301635888 0
10.71870640439223 22.70980680389331 0
13.7883705632043 8.35999945179285 0
14.14123979016257 10.3727756228746 0
21.54641000236724 6.950094932169605 0
19.05684105765545 18.60308228177223 0
23.89161846585379 8.271049556108728 0
13.56723124098952 4.431334331129753 0
13.5995194275651 3.621739108321462 0
20.79009023653234 19.37157449941035 0
15.03852701004804 21.30198130333103 0
15.92379237989915 19.35696063591327 0
23.96905603826627 5.847235820841726 0
21.3294066771307 8.976862475184381 0
24.26869492162175 11.59471353976814 0
21.11905873860758 13.35711302498297 0
11.06625097025644 13.88918554454863 0
21.59640848913087 13.29089535862259 0
20.26838923423637 11.60114018711273 0
10.47317819158853 8.233565962076728 0
11.82052789159059 13.59799593353618 0
17.42639231104279 21.43603950405019 0
12.58051762077054 10.23284377003969 0
14.13832039250392 11.30366896849495 0
24.19341918844914 4.813472099343368 0
11.06055905293141 20.81431367199679 0
21.86400885241341 19.10098348511766 0
13.66361222859705 10.24083742818578 0
11.97462240760253 12.38416029076022 0
12.00755926431636 6.938842211641642 0
12.46917715772092 9.3480884942559 0
12.1454523843627 9.85604085058024 0
23.32566839998199 5.687790685995642 0
21.43285521245274 4.433076781728349 0
16.52200315899869 21.24059722196256 0
13.44579898627646 6.937245149248267 0
13.34064625881256 16.9723283092503 0
13.97422218518672 19.63064665112766 0
24.42327463232516 12.23588442046026 0
11.20251453560186 15.73146396906965 0
21.81092960899955 11.31612115049591 0
20.74852891194171 9.305546475125906 0
23.51473060886345 9.614899005223716 0
14.37130568619625 16.56197381987179 0
24.48214743291304 4.176485937348164 0
16.60804356685497 19.4018421642043 0
11.48783978819332 17.18008580823438 0
19.23905127884857 20.2953130000198 0
23.76321638083392 13.87321117071642 0
11.10051935176157 8.548907674499674 0
24.64957462270014 9.103203356021446 0
21.32273687638628 9.986430685173142 0
11.37399740444441 19.7641139230158 0
14.13979229560461 4.833405059756835 0
12.50406853658957 7.355169039751137 0
23.96319839866711 17.99500391343261 0
18.68921177368652 17.97873688786575 0
24.3707412052406 13.48989181298834 0
22.52855949672971 8.327076180833378 0
10.9013540818975 3.438584658982863 0
10.89165202569508 14.81769148302466 0
23.49507149824693 6.936414288629752 0
22.50414041617503 11.77940373148494 0
15.7305043954372 22.02010510680132 0
22.0187595886208 9.698956024007032 0
21.70825259585322 3.896687472864507 0
23.45811540188246 16.76862711361327 0
24.03643481318602 17.00222862090982 0
21.77856670543211 15.02704576611197 0
13.39523460329895 21.70708153346468 0
14.14111305299452 22.24295952333107 0
23.86650818572097 3.839434187007602 0
22.71459144836258 16.03818465539994 0
11.79305034431108 15.28944950757316 0
21.58798400423424 20.06130247887923 0
21.10100379083413 3.815098717567061 0
24.61942146709248 7.066423928762469 0
23.15176872232562 19.71649848004405 0
14.17324582895657 7.510534749241256 0
23.70345427027829 8.949245560321282 0
12.80957816623796 9.748272826708401 0
21.18799353742774 8.182569614945516 0
11.66732424332726 12.822715184248 0
12.29645703857073 10.69002681333973 0
15.01521163234476 20.09343565869148 0
17.08859251129038 19.00725718343264 0
24.41174152347963 17.56389481925818 0
23.10511662988388 13.39958767960177 0
14.47465041177411 9.815403151200192 0
24.06664280562497 12.8318562657525 0
13.37458180682798 9.762368576084567 0
11.48187807073558 23.87262733684548 0
10.50737312130067 4.197868979167366 0
22.36244638474916 10.74739210847397 0
13.62125113582606 5.248165437762058 0
12.75819703444542 19.78133828892224 0
19.82142856787083 13.5 0
14.36980370067829 10.97190566369228 0
15.53571428815681 13.02646970694898 0
21.83375615104285 4.722923859596893 0
17.18019547607696 17.64085898830562 0
13.89899620930613 3.815098716951268 0
13.73212459103529 11.21462055947419 0
24.08779968527066 14.74713561720329 0
13.09936331392731 9.395537489935123 0
21.78073952059599 10.27266953803923 0
19.53337103096474 16.40926498218898 0
11.13176527372196 3.846268280431426 0
14.60562444177887 17.6196082783149 0
21.7683540805386 15.74961262022448 0
13.066875724065 11.67653761022387 0
24.28259370165175 10.00588559966429 0
12.92704387055868 3.557595560412492 0
17.75315927992379 20.26115641042379 0
13.50558517320366 16.45154355828566 0
22.05168776831088 14.39266016020745 0
22.33122591402353 19.43857847180995 0
18.71789448177942 17.18600829221294 0
20.20340026492391 17.28262483480205 0
17.6223391629764 16.69498614174671 0
10.51159904106214 11.35600913425804 0
13.22257160206136 20.40653110466181 0
22.44988988235882 8.81807691864567 0
16.92270596055305 13.5647311207819 0
12.62225770952753 18.2478748852139 0
11.48609471137886 23.11624783614796 0
11.98688228886445 22.60096395678836 0
11.54242680814265 9.789683162194745 0
23.95396988066081 10.77867664531968 0
13.32838243052389 12.60683428636401 0
24.2699757827011 15.51071794199451 0
20.76068637972944 10.04841813732006 0
10.69169238884153 9.323389226676834 0
23.06492251798126 14.43436975696892 0
22.47579231757143 13.19795016040666 0
12.4392531323392 11.17716812310757 0
13.46468947750989 18.85204535348426 0
15.12495765704471 18.15310370333385 0
13.78940158878494 21.577483635592 0
10.45745628248055 19.60015903604547 0
10.90014643749505 23.76942117314099 0
23.80125839676649 16.17283796005388 0
10.54139860965927 3.183885462279477 0
11.10740261992136 6.680818376837154 0
21.0262172520143 5.863072238718305 0
22.172122056781 6.728533538887163 0
23.33222302784366 11.56873773317183 0
24.27860333045439 9.11031293776814 0
22.26310906968887 20.16759680293156 0
22.65369856474517 7.808949897548052 0
23.53299175065074 11.94731246792835 0
14.21997857656482 13.33898779154735 0
11.2055493125291 18.47184160990319 0
10.26735241337084 3.726482731961601 0
21.29321798685957 15.71256566712927 0
11.46620112664152 6.988062024821389 0
10.92134247800115 12.0517094256852 0
12.06505386878066 19.62927162056622 0
24.33372933908319 6.620349925994188 0
13.09202827205619 23.32011312148855 0
17.88283261615297 13.34754481112354 0
16.5846912337275 20.11795066632502 0
18.05535898075566 18.29996242052641 0
19.80897803660761 20.09710768603949 0
12.14657572547101 6.413979404590915 0
22.49918309953004 9.420048622515392 0
11.93669574600103 3.433656501516119 0
11.01239836724248 5.866979766505675 0
24.27448276916191 19.52867267480161 0
18.38586423845069 21.07566329997227 0
14.22407247614853 6.626302857611988 0
14.21418098758901 9.19855510979744 0
20.54254775137273 3.274790291689832 0
22.86029857227119 14.06599905977636 0
10.85567455682619 19.13142459316033 0
24.25184874999183 7.482455373173048 0
21.16633584463636 16.57795759795981 0
11.71415556829769 11.70469165445001 0
23.66620561145265 19.00442899229057 0
10.74003916490464 7.630017842141359 0
11.73652897901824 7.841393683123441 0
11.79089941082157 10.50649428057183 0
11.88166120748964 8.806285773799317 0
22.06147953764222 3.495286331954815 0
13.98684961027851 5.873821594869957 0
10.79454387748594 17.69747307819039 0
20.83656923912477 15.83428423590881 0
15.95245261839047 16.90180752933202 0
11.03995860001454 22.02691853600415 0
23.15635356326988 11.24832362190427 0
20.86005900728751 4.833210205918871 0
20.47089983720927 13.11895155771144 0
20.3987318644363 20.40074108569517 0
11.38244587283364 22.49519537248342 0
14.80722892444645 13.02913179061923 0
23.49987646635026 4.469859096686475 0
14.42914223795676 8.593681735624747 0
14.94447394990691 19.39702681642668 0
20.77563260929853 7.422391806324391 0
21.07872692559755 20.5704077695006 0
11.10658808374545 10.92952138200918 0
19.77858685022072 20.93332082057393 0
18.69220024875286 13.58837935758354 0
10.64954715533154 6.663907352367468 0
10.26115772955616 13.92265187947772 0
21.77693057434141 6.609374494161711 0
13.48388533256668 22.85479753240776 0
10.64158272418835 21.45669203907373 0
23.21758609389188 12.75657380372058 0
23.48006041418245 14.4355718790855 0
11.99267280594925 23.5687098851536 0
11.99525347069692 20.26918639541551 0
11.25786280623647 13.3033781067544 0
12.78760681843341 12.00026815476129 0
22.52319018171356 7.292149942310706 0
20.94897513209136 18.17218461291883 0
24.31867193900385 18.62892780537364 0
14.45745224874913 3.274790291637977 0
12.99542618219991 6.221187137461244 0
20.67252255685783 6.595117140011604 0
11.82072882204978 11.07879747024799 0
12.54864810203979 23.03871175257853 0
13.78595066710256 10.72412959103335 0
22.07007528429311 16.37469330222409 0
15.75567160157205 20.69472442264496 0
16.46627693505175 22.03326131264067 0
11.41822795216645 4.47398883885545 0
20.7801447929352 12.58198483476992 0
22.31168845328023 15.11297384987485 0
10.80058170087545 4.907481790741696 0
20.30990039368402 16.40912595077679 0
12.01922214913671 18.94846027214144 0
12.18242508966898 12.95241929180111 0
21.75045806866796 12.8410432672553 0
20.03141235009721 18.47519187611982 0
20.38456806967599 17.91743750544106 0
22.85678121247511 18.7407611064096 0
10.462252351874 10.76316501812372 0
14.84489267019761 18.7537485774102 0
24.57637167211087 6.067851817805156 0
11.57974530336858 14.50130620033417 0
10.77172494545197 12.96056417886104 0
20.54955739754066 8.058361581690118 0
20.89875836895827 19.96172921616295 0
21.18510079105944 18.87661216930402 0
23.13363011559937 3.998234652401866 0
13.35878707253904 13.40569391917145 0
19.38332598648746 17.81954563023159 0
21.20178622798004 20.23655334621147 0
17.94143185779859 17.4741171309176 0
14.72829223953245 3.737738557672149 0
13.25596085981373 10.46609532112508 0
20.78323671008021 8.983149807677252 0
13.04332223881443 13.87151076367734 0
13.95037999461665 20.76664813343396 0
14.1987698160546 17.04314394894966 0
13.72651868678621 8.892202805858451 0
12.59142868680278 17.40981535121122 0
11.2885974221752 3.135257097692463 0
12.85932349730371 10.6499068756327 0
20.08951785076769 5.45645690696103 0
21.03317518462192 6.953344771710789 0
13.81860126946589 17.67359208407186 0
11.27575684255043 10.27990172308396 0
19.49262952529001 18.25058087879099 0
18.07782790075354 21.70760370875138 0
10.42013536142461 15.17895601378703 0
14.35114348026478 12.63714663467376 0
10.6831891738781 13.91341625380756 0
24.54607271666654 15.95522273944414 0
16.35113413024663 19.81009949557928 0
12.83677479208457 6.799748277974013 0
21.2499641691012 14.1150308193638 0
15.9085976815584 18.14409600544231 0
11.86120708145241 4.002370048737921 0
24.46177588114255 14.12055809827059 0
12.94410927379899 4.147201070028743 0
12.44731063769519 12.19234770515944 0
10.51802347844698 24.22285428806225 0
17.11686332249376 20.79208771395181 0
21.88711997154432 7.793602574528942 0
16.04121269758941 16.19290360254614 0
12.70753591570867 12.77332968518404 0
11.33127866029857 17.88837313209808 0
24.50236440821103 8.119325728301853 0
16.81437295217308 16.35625022091401 0
23.78771083698002 6.52075930763935 0
23.7155648537967 10.17068878617988 0
20.65161920973227 18.75467449494165 0
10.66349757990902 23.56218516918406 0
14.36392750898213 21.24454648771962 0
17.1493083730165 16.9802284919581 0
18.41726896606052 19.57695078313294 0
14.00198965381457 3.007130200487457 0
14.10084865826215 12.10437813091698 0
24.52319377911125 5.42094177459858 0
11.95704425616956 16.34886605699434 0
22.33599418135748 6.066342496502978 0
14.52950497520653 8.016168125829006 0
24.50603135347193 10.59989808747733 0
24.05327241877998 9.579720084876087 0
24.8460692437382 16.89821020736414 0
15.28579186641642 13.49574907806909 0
23.46695649492709 6.294622627828391 0
18.65814973253514 21.59101639362506 0
14.47212570781509 4.224952383137036 0
12.37678403040062 16.56787205787889 0
10.4719944150375 14.73135203452813 0
23.33405951397813 9.981371537872098 0
10.44019954766167 18.08026984123357 0
24.73420223074324 3.71246005343027 0
13.70084017847374 18.48567977925751 0
15.75048999006516 22.35164567487934 0
22.78458826901389 15.46165905350563 0
22.94350829026299 12.20764845955961 0
24.39504087883929 16.47555824584485 0
12.77408911297726 7.907394165376759 0
13.92279063142472 9.798588483168398 0
19.76541610688636 19.45660099545583 0
23.62978184285117 17.4392114716046 0
21.52598909090822 19.3713999409894 0
11.68442563902476 5.773935004296407 0
17.0858015445162 22.02088264617369 0
23.41442265263919 10.7753869848572 0
10.73306907247865 10.1997451475993 0
22.57387842011712 3.075201240070159 0
10.3966740231578 7.202889364606066 0
11.99167576722489 17.11017232871919 0
15.19096445546721 20.70753829795214 0
10.32006613153054 18.97462067058667 0
20.93556147030721 7.885656172575427 0
10.84360780646011 6.343161986818385 0
16.70965416876658 18.31177235692412 0
21.84635407110861 8.773655774711063 0
19.18771329390582 19.62296121373689 0
20.33304504919586 7.620539605864829 0
14.27257231274225 20.17114350400197 0
11.45206499452072 2.778648777349675 0
22.56170133768299 3.875774814846574 0
19.55786879483271 15.884506739532 0
14.10151588872677 18.54185658461583 0
21.260132214485 15.23326980631917 0
22.73158043444977 12.47347016781328 0
11.36375301538192 6.024883962973834 0
21.83448295388626 6.216590009323912 0
19.10627797331354 21.19194864194136 0
22.82347412164675 6.428275825498372 0
12.43292098743315 3.874257894087716 0
10.40749381789896 5.468255695390447 0
11.56878328765746 16.40934325993559 0
18.10711695080266 16.0166489820865 0
10.51632861360424 20.80446412711248 0
13.77457395761922 23.25554009700535 0
13.10983226183884 7.813439718807878 0
22.9391255463468 6.923025388075167 0
22.68904226410547 14.63694022989786 0
13.65704141305244 9.391132821456504 0
14.47044356672511 13.01966825934181 0
10.53723441222742 15.73885597044047 0
13.21003965701264 8.95389112284105 0
24.37090472770618 12.65652734887389 0
21.75390393570166 18.70432480142959 0
24.57949770014595 12.88520966739615 0
20.49178035438523 11.17332090251913 0
24.75137060031381 12.54459020683919 0
23.13518706837658 10.32727940524313 0
10.52713382132646 17.11000515500486 0
14.62838380861908 19.55864766445073 0
13.04525385303988 8.380092631817867 0
10.57457438170143 18.59248999831227 0
23.19027650166456 7.785458033497532 0
12.52950230161465 23.59074042065857 0
20.80024982705661 11.61318363948353 0
10.93167039044992 7.122882059287086 0
11.84924389601539 17.91188790033765 0
21.68730810343425 10.77923120176979 0
12.92934465656409 22.51286328182659 0
22.38226349181476 13.75812316631574 0
21.55328642385635 16.96560054845874 0
22.95556838069575 9.786097866212462 0
17.75718891592601 20.90991730237161 0
24.64274938852728 8.687249855652727 0
12.63889685899326 20.39508277184012 0
21.24107682064338 6.428231577667885 0
10.48327113642138 22.15327499547534 0
15.41055550471837 17.51377772302453 0
17.74214060057119 19.53072419098454 0
10.92171425582061 16.5534126492104 0
20.26342498518216 2.998975399599717 0
18.62050513621295 16.37407160340701 0
10.39853228266548 8.840525997078807 0
14.97494583636629 22.4874828974766 0
20.87672680158755 15.33064576207916 0
23.8136735885445 9.198493886525766 0
17.23349770495195 16.5415325329473 0
20.58518669597082 10.64551450781514 0
10.71949850626678 20.11118659109954 0
13.60129152721131 6.364017363794894 0
22.87548937547497 10.77909016762042 0
12.97430510138246 12.23779657574593 0
16.06786421082841 13.3597849946596 0
13.0555456520914 16.25878155734621 0
11.99328963316841 15.90923227299322 0
22.06152891914086 12.66258251199024 0
16.08798771533614 17.27725543326362 0
17.44118997259856 13.88736458423105 0
21.71245516665324 5.612218967177558 0
22.75490203311355 8.752152086597324 0
14.73657548131793 2.998981390390588 0
13.63677845372202 20.22819869635063 0
24.04928871476454 19.05287045726658 0
21.352155266949 5.31411668905753 0
21.27980169620225 19.7465282443238 0
11.10453028546997 24.3186988633988 0
15.0281292774049 20.45978800089127 0
12.23388765423916 6.116255140735886 0
21.94370635491933 7.284042733525251 0
11.3044603624013 5.266808306876117 0
23.99866248873547 16.55880962562446 0
17.28342058649734 16.12478681533797 0
21.5029505993413 7.924883477385899 0
24.45859981602041 3.181111210481508 0
19.10511403206887 20.01838337209513 0
18.85355422900524 12.9624903908972 0
13.21707489106249 18.46056599552118 0
20.67282655075833 19.71016301313451 0
14.66998357892541 11.24096833924774 0
13.88296107743478 6.680371140409505 0
23.79574294968779 9.833662305289597 0
23.28293798859821 15.98142743997464 0
22.81511867440696 20.15018466093921 0
14.64927250550246 13.84254529163815 0
20.73777102302406 14.43423054277239 0
24.0156020339349 7.02210232326718 0
21.15248992147666 17.43278302753133 0
19.43902849811224 13.49699497329228 0
15.31480608801018 19.53711037879719 0
17.53627597393038 21.98222870161234 0
23.69609107933897 11.34555746830111 0
13.80098843594014 12.91478979150876 0
20.27155696353342 3.737742322680579 0
11.54805685934236 11.25534601208923 0
20.52780511500687 4.224873440850757 0
16.34545848355809 20.67587882113686 0
14.90434873934248 22.76866056959206 0
11.08734378614243 19.64057782265192 0
22.02248072257512 12.07456275187397 0
13.78343884250448 16.13052748618112 0
15.98570842766196 12.98342332712521 0
22.41960944087175 10.10464620626873 0
19.43858084755628 19.95834661297247 0
22.42220730073485 12.54594618275366 0
12.20678541080897 10.32603850413592 0
24.12846460568842 8.590935008044006 0
23.73580466002873 8.60707106458093 0
18.55048421110073 20.41513092582193 0
10.98869237980242 9.74960573789101 0
24.03932064763146 15.16813853822129 0
15.23298598147932 16.33528025061116 0
21.48571161150205 3.210195637051247 0
14.41753519776687 4.584329209684986 0
15.60342669743653 21.68507699636042 0
13.60786638105307 2.817467415225575 0
20.85525774620133 11.14220741411419 0
21.83748000415192 10.55230282028021 0
13.00533235594821 2.994614074827399 0
13.51428838471144 3.210195637956325 0
11.89398262609442 22.99291481155482 0
10.11724192012844 6.30687382685521 0
11.63042402707885 21.99454200716153 0
10.15882521248818 10.65681054876914 0
14.37672139609806 18.24836199837571 0
12.42497546115917 3.075305653432557 0
10.36041211482788 16.22344055663634 0
20.7135450186309 17.57968183125945 0
24.12324216114785 4.052503587435625 0
22.61542865719779 11.27871380675108 0
11.57273595669927 15.99857687675341 0
24.54732866127912 19.06973641724036 0
10.39499460739311 9.747746910654714 0
14.55301565764267 7.112982174655623 0
18.14094904640259 18.98049122342888 0
13.55943782475287 20.67457491722917 0
20.43214905856401 15.191001825142 0
23.16859788794697 7.37538779707954 0
13.29090304036815 3.895493231164691 0
12.18760577870502 23.23861098058651 0
20.25146648780304 9.770759427166432 0
23.84604181946472 6.19410906552679 0
23.16105743593825 6.641960629430826 0
20.50318631604696 9.52354634928826 0
12.31528554685594 14.0025015291702 0
13.05211497230155 18.98027646661592 0
14.49001650924759 5.442602815669587 0
14.59172237146013 9.11776179214666 0
20.42418621518562 6.039006646324969 0
14.83166342897607 4.487640271223998 0
24.55968773501113 15.05730267889686 0
21.02761165519027 9.464604033822063 0
21.19778879644286 4.732252185054506 0
20.35529072530549 10.15974807914882 0
20.50250495394588 5.422739037760778 0
12.51045138100834 6.028062463590288 0
24.65245512908076 19.35766436190402 0
20.99801034388069 3.007130197625274 0
21.73954086215208 3.520587544669366 0
14.74738993018248 8.796638713892026 0
12.1244749894395 11.34539413052566 0
20.03033101355181 13.92949490493693 0
22.57426985959551 16.37397746949274 0
16.96312339426164 21.53312766240989 0
20.551773757521 13.91092263864953 0
21.98805866502892 9.138436042637 0
11.34440664394773 5.643970230288376 0
18.79488165430423 20.08124235187064 0
24.56735854836037 16.88990076458498 0
11.19664264991478 7.932016053921711 0
19.58201524887764 21.32971185123453 0
10.53475470807501 13.53285914278495 0
13.044234558151 11.10387849932388 0
20.15923483844384 12.82961508594395 0
22.76777711806181 10.38650258996678 0
10.96358851540113 23.37492836371961 0
23.51018837988995 18.44914304683136 0
10.20200756404504 5.750620069351999 0
14.1483165043328 22.91845284660686 0
10.74730625007483 11.04248184264972 0
15.63785743221122 13.84669647791203 0
24.63336561851342 7.703264776203024 0
24.17509282440858 4.332636692457121 0
15.52669569042547 18.79131165414223 0
13.09067665877185 12.99391684515309 0
12.27376329749664 8.893773303689423 0
17.88368653368599 22.03795743798617 0
11.51068037516428 6.373346180614047 0
19.12141340916839 15.98938572179671 0
12.42358199722203 18.75315431965201 0
23.62955152934542 5.243406074670866 0
13.42097273054003 22.22210798687216 0
11.93788035885872 8.037311619633849 0
21.54680987570149 17.63240871089701 0
21.39213361258945 2.817467414641219 0
14.73427151616168 5.736187013423377 0
15.80345510986227 21.3660483617427 0
18.27948357004007 16.75562943991637 0
18.32017670063122 13.89343365893288 0
14.56611265692402 22.50773409546721 0
10.82033730304147 11.70192740288527 0
19.99381181009673 18.85910735178082 0
10.78362845138596 8.778823307969118 0
14.83581050120524 6.60194681433407 0
16.12843003185782 21.13931329397581 0
10.51204374595878 14.27967053501604 0
20.28883791293176 10.87520525844989 0
24.09817642130043 3.433218396676784 0
14.72280375536326 16.0861480776972 0
11.33142489928507 21.41485406673084 0
21.57253711670375 14.43359291150104 0
24.65910031842369 18.73157016578596 0
24.74679202101139 14.26070305487152 0
13.92615284606827 7.039107172762266 0
13.44801554815471 21.05164899648457 0
19.82142856787083 12.98405612181365 0
11.13199700336719 14.48904557053452 0
10.31443055605577 21.1498620174617 0
21.35931016647194 12.51455104453372 0
24.59707361224067 19.70438734449549 0
20.27764908185055 21.17787179594953 0
17.326855098509 21.75381143461133 0
17.74444739849167 18.82841386209595 0
10.37700168854167 6.059753682398068 0
13.90325181557754 21.96054081992821 0
22.8974500287516 3.767612492070334 0
12.36882814612518 17.87091899203661 0
11.30002937854183 9.180856879478588 0
14.59667129808028 6.034724871238592 0
24.77789121823443 16.59015787613143 0
14.19472773915372 4.014768461586028 0
13.49727424939024 7.401073945530475 0
14.42117756682678 11.51754568829685 0
20.77314232219557 6.816284212637584 0
11.86220013776992 23.91347534722672 0
14.6485734338386 20.68326359632285 0
23.31532829412625 17.83830991926034 0
11.43975895577763 19.14212929403882 0
20.38557599382213 7.090291497950544 0
20.54240911038342 20.06340364182228 0
24.3132957613468 3.817131908678687 0
21.97704618078172 19.79176144297283 0
15.2449716889531 21.68569842343745 0
18.96671710138677 16.75857445971539 0
19.96580364434676 16.81041431783687 0
23.74680461159572 19.78771480122051 0
20.82417522504318 6.228681997545071 0
11.42289793284758 10.65892465324307 0
11.99699045122421 7.709751580644584 0
13.92351460728406 4.097623789009726 0
15.94374527129078 20.03332350985331 0
23.37742990147358 20.21666503482515 0
23.43928726227562 9.188994840609512 0
12.31385314827568 19.96824670526466 0
15.56739491694692 15.96251331367201 0
16.40738475376577 17.52471827356734 0
11.9412437185798 7.313833987650919 0
19.90750211027807 18.05288082149194 0
24.87280955593197 4.052805269312226 0
23.54742053466385 2.778407949490997 0
24.67226400011321 15.40410372748027 0
10.14986365192982 7.465955460644635 0
14.22029355583979 18.96090575554342 0
13.73155363685603 5.610276721736121 0
16.76407442930645 17.80634428607492 0
11.55306066399767 8.17411874155389 0
12.79990524526509 16.89606170712262 0
11.11853596215832 22.75612794057262 0
18.09066471484245 19.95089083023199 0
14.12767837101567 8.078094161514116 0
10.97032824231881 22.40402888506454 0
22.65598209184017 3.467988435633645 0
11.25172184088028 15.21134379931672 0
10.24882383595865 2.979695343111791 0
20.19502127696498 9.463978963447031 0
11.34285950050041 22.1754348795614 0
19.4017045075947 21.08529159633595 0
10.41372441946944 12.43651279265954 0
10.58591381262336 23.26729383410352 0
20.85347420566253 8.56167168429926 0
10.33874636926 13.13426168805994 0
15.50485087726899 17.91800031561738 0
18.4175640102382 21.78918174920858 0
11.98574429418482 11.97917027629333 0
19.32354840149017 13.80308196930728 0
24.21250025068729 11.14344678893596 0
23.56394918006852 8.005125656707369 0
11.47053312446025 12.22299507648714 0
24.60006504855496 11.81004047602088 0
23.70491679261456 7.462937372863282 0
19.26284482588009 13.12429435086304 0
13.70342443517248 7.801717205287389 0
22.91946056398729 18.37639832396203 0
10.40362392629728 21.76674737313651 0
23.80497456887337 4.76479098753984 0
13.64375584337303 19.12628394365751 0
12.94118263481725 9.012784287762353 0
24.15263563437902 13.83397694791171 0
22.56053270441678 20.41751889471919 0
21.49871151904615 11.08037185732084 0
24.11872547802339 2.975439728958749 0
10.17171435982474 12.80908912470653 0
22.75492568384451 19.72898076103557 0
19.92001359331574 21.36075024727419 0
14.85970714936782 3.366551560435968 0
10.78507112432728 20.51366711112971 0
11.39180468794176 20.33757587556975 0
12.42288613524004 2.776841430204118 0
13.51414633037882 12.06552470152693 0
24.64509222229293 9.525068358760745 0
24.16721684456846 10.50634849895518 0
23.9316207272324 11.90054104299669 0
17.1706949853439 19.89795932916772 0
24.86733469439775 5.195788952919457 0
12.84582217503619 23.68899833781448 0
13.38765955765644 19.78833890490155 0
16.04575099897932 20.42306519565448 0
21.99447005911142 2.9945867305822 0
22.04386285609314 10.75340228180549 0
13.38419182703336 5.796757726136587 0
13.11708848162376 22.88912765698138 0
11.82907449151431 17.46667651163509 0
23.8923320163356 12.32285717847625 0
19.58724219311866 17.16249421916162 0
18.41916817833627 13.03664624275589 0
24.00096069718768 7.614420961712907 0
14.18390805177055 10.01024614154767 0
20.15258242744767 6.242279180264171 0
24.82813879386877 8.008879504230048 0
11.01830004153701 17.01490150674054 0
12.88519147571581 20.70070881311774 0
18.37264629213588 18.64975147546745 0
11.92541331607729 22.17609148743654 0
12.10700019867366 2.82569530001728 0
16.27129097266664 20.1550103838427 0
23.00721104578423 11.70277877163342 0
16.98480609920744 14.05933814203223 0
20.53343919921127 12.10061715942418 0
10.81368269875659 18.07841101079414 0
23.25101001839822 3.066085992478347 0
22.90851539536149 5.948687226951405 0
12.66060013606496 8.834033177221452 0
12.25239456258145 7.846230223320422 0
19.38816107750971 20.79156277928619 0
13.72285868975922 12.35548741338404 0
21.58293651109481 18.12013301580407 0
10.87143389425187 13.33500669122473 0
20.43097329989638 12.50076354568376 0
20.3363759401353 19.75597849432797 0
10.79135493042164 14.49348538756802 0
22.48765681886641 18.97821862718201 0
23.69320832452034 13.25545914939715 0
11.83703680852893 6.128180604135673 0
10.2465190012419 15.44129029748187 0
21.1706230986099 10.47366781697293 0
21.10310421100306 7.309126281917854 0
24.36036972411459 5.788707067125337 0
20.9438430443918 13.79149115598213 0
13.788584399583 13.26657006749647 0
20.55669156803598 20.906282249013 0
11.89708898891007 13.03189266693832 0
20.51348395661109 3.909031799549392 0
24.94179723223961 7.076270023565946 0
10.12996894303305 3.386037291959549 0
20.93856486387202 20.97726001589274 0
11.61235582564235 14.04752785913347 0
15.51940220172914 22.58606827411811 0
11.91201870521952 9.356159480321004 0
10.13705454349954 9.924505955128119 0
22.72608757367891 13.54517870412606 0
11.16974983731463 11.55611435221464 0
23.30243363379316 17.19187601827032 0
12.15673905395406 5.798717035531107 0
11.39726219889901 7.495567690579231 0
16.63583878079781 13.0830192451262 0
21.40375017999083 13.70822601126726 0
18.887165592702 19.2133356723819 0
17.33001732802833 13.04151634454833 0
16.97824692543089 12.82724837626259 0
22.4579143327592 14.12635032963282 0
16.46294142188037 15.97329072216301 0
10.9713570352838 18.75895346803097 0
14.65847786139287 7.670139610136321 0
17.07701787182236 20.33147306186093 0
12.70791360161903 2.884914216829923 0
11.69671432806601 10.8021868209923 0
22.06481014507399 8.279415651208609 0
20.43850843111262 8.563399212001038 0
19.90744586076905 16.07959703116123 0
11.68130904994718 22.40095553157525 0
11.60374112899898 20.88075347580338 0
23.28540723138407 18.82065424305436 0
23.49493358968553 13.54943636089842 0
10.64681625958995 5.778848439468632 0
17.37382395833279 18.34620950972096 0
24.88848917243417 8.844691144346783 0
22.31546672606929 18.56420048474573 0
14.49039403262011 23.14660834334495 0
14.68794387159628 4.808828063791955 0
15.14384983074084 19.05330471302387 0
20.58227883025945 4.584182143964965 0
21.98723783728779 15.31933966363307 0
20.3119615508648 4.808830418406066 0
11.12195555361357 23.11086560294021 0
16.33735505789314 17.98463223973827 0
13.1269127351066 19.4840715010473 0
21.28941790836214 11.38760598603715 0
21.52714680583206 4.932039925472725 0
19.43195404509601 19.26141066965127 0
22.89263018630236 16.5657695147584 0
11.95025969637867 13.89938053656573 0
20.22002942612808 19.12087177110507 0
16.06003118856733 22.43825393391023 0
13.11501659173918 10.79935843499194 0
19.50340499622077 19.62543557756159 0
15.64666298714275 13.44105992173446 0
18.44514121062858 17.55221339542894 0
13.89738472959465 22.5754548361603 0
11.85198797834973 9.686932728017108 0
11.42464550856649 24.21178231392876 0
12.22790068742019 23.85668882281426 0
13.14996535220713 17.76946310688231 0
19.1117664308174 18.22708977414791 0
14.10761882357635 23.27967651292323 0
16.79215630035187 19.78693393476249 0
23.05356778440864 8.295247683533127 0
11.14212014552254 17.51198006914225 0
23.62582340271956 12.21305681618598 0
10.23058377554972 11.58745357796684 0
11.39503353309684 11.86760629067466 0
11.69011243752337 6.70339668789018 0
13.4711029476568 18.01611441776174 0
20.14028000883006 3.366529286497371 0
11.93973561122689 19.91261781028139 0
14.66966408827381 21.0802894699405 0
10.35004628442747 11.87889581536559 0
21.74513182340614 2.858035748149836 0
15.87948356573431 18.9837902924036 0
20.65003564366535 21.18046463186651 0
14.35718835601077 5.788431868796236 0
22.08415065940091 11.65777888785551 0
10.19188633411584 10.29402274828687 0
17.85714285031339 14.06498105623528 0
16.2015280874366 18.79892492175452 0
23.31649396158051 12.32023529881684 0
24.66374973710635 13.7939338000876 0
11.77718747499228 10.09693137334681 0
23.52292075408861 19.42139319239891 0
18.96774335351016 17.58813541546175 0
24.48758201911841 18.14284810230492 0
23.86604878197508 5.058759333389611 0
11.80619446145951 23.33905990496937 0
12.7570819421622 23.3302669478572 0
23.76749304133725 15.27108806667394 0
12.33771592397709 3.452817125827864 0
14.23042952564297 3.603215775597222 0
18.16359391656599 20.71793486659737 0
16.42803841265608 17.04885616419819 0
11.45657991897099 8.791324953643118 0
24.30509563235598 7.827753623354671 0
21.60459544172228 20.60924089087704 0
14.99836626789075 3.741216321341968 0
11.11255134417046 20.05437280927033 0
10.27177711508153 4.843359000918997 0
14.30330509583524 13.70903831085516 0
15.1697763370114 12.8370523304699 0
21.46833123126588 14.85884920491787 0
11.63758948875977 7.273391949585459 0
11.67014338623568 4.783233230688774 0
24.72107978281269 4.836254305934165 0
11.0060380740547 21.63830221841859 0
14.85691984055433 6.248057168373558 0
16.7590544877614 22.26170403711992 0
23.33923441295438 8.497857919553736 0
12.48077140524063 22.63238650372952 0
11.92084325106556 8.342502110603192 0
10.79336545395764 12.38147677997519 0
21.60198788488831 11.63893317124711 0
12.45902496267204 16.0613475495853 0
13.79036649579246 22.93632915890795 0
13.35128958646975 11.37053130385989 0
20.63548234551241 7.732832144898289 0
23.04766319686867 13.06290002293002 0
23.19507056764808 9.56423214978933 0
24.73488782847081 18.35141850209652 0
23.90304286025694 14.31041825718627 0
21.04408146844632 9.812273378866966 0
23.3933035003689 15.22046513747487 0
21.7423060608446 5.244595502919024 0
21.72193674248333 7.513002534394871 0
11.00830695382917 7.473198517757883 0
17.84739691061706 20.57408443101266 0
21.1141686526346 17.02616556255449 0
10.70531973812334 21.0647853505757 0
24.2584533831771 10.79906458538093 0
20.68842936460225 5.758845823370848 0
13.03269842748544 7.278691077165525 0
10.181024192985 6.65864965088983 0
18.32231420203787 17.11982192897545 0
14.58910053862988 10.51524974020905 0
14.85745592836936 4.052551356027452 0
13.47091712812812 11.74008469116328 0
13.85283754432978 13.89554299272886 0
10.88024670459564 2.976196919237531 0
14.11095320406891 8.840951932639856 0
15.43475741200883 21.03364752306322 0
21.41497501463069 12.93027081421691 0
14.47046084572883 18.65838106394225 0
10.1585733910572 13.48837860585974 0
14.21384212138065 16.00132868876842 0
23.84647305255838 18.29063823947255 0
20.24839441513092 20.76113864574353 0
23.15950326088002 19.19282541607892 0
14.66186664391297 22.90753037878458 0
10.92484689358016 15.45459714433816 0
23.37467941214074 17.54332411879968 0
18.46846440229795 19.1381871647869 0
13.85484467730821 7.401531380792782 0
24.60259438386793 11.18329992763553 0
19.0931349466147 20.89492061907587 0
10.38359162857575 20.38584633225464 0
17.42450910211048 20.18501910394227 0
22.20424554997145 15.70873532287164 0
11.80256869018181 11.41384312751041 0
24.38091842186678 14.86322040745026 0
22.69743482796747 19.33005247309498 0
14.04931966730607 5.262392547610798 0
14.95313157228786 17.01824084964836 0
14.6606874913693 19.10591742339548 0
22.14256429897527 6.351898283045086 0
19.51045473097214 12.8342608436049 0
20.60590863023109 18.3206280676815 0
18.82254400316108 20.68791951899497 0
13.97753405762088 10.98705365231732 0
23.6476693985868 15.00626520589673 0
11.27674167018833 9.592030916914872 0
17.03514150891669 18.58571828670904 0
10.3590063817836 17.52506886383731 0
23.67804996048955 10.967855902849 0
10.30837896912811 7.852742156515752 0
16.86324693401639 17.29865390568346 0
21.54540994632834 19.00556273101606 0
23.28727506938541 5.35272744802444 0
23.00672855776586 9.29713937037378 0
21.65582842605425 9.860556533894334 0
21.82743924716724 4.408903626350358 0
10.17829714532645 14.34240425971257 0
21.45624125213563 16.16543966714621 0
10.58676059948451 4.652059464850734 0
10.20038128624754 17.19439090270044 0
11.74819477327773 3.066505334179564 0
22.89245014791847 2.82555192557397 0
21.93087591543151 20.16710505526022 0
19.56077738281817 20.46175279471868 0
11.17092525315204 18.15835104069961 0
21.0548147374767 12.08125872187243 0
22.21289024750883 8.577351833230153 0
11.67190291441745 16.76685370529899 0
16.49256108917709 13.94196118180973 0
11.77562399114801 19.33065884153287 0
11.2643883797306 9.927045950859405 0
25.03149740864366 3.043329709437206 0
23.98893635656455 17.40264196734336 0
22.03153511341235 13.21703816486311 0
19.6077173749496 18.8732418467863 0
11.51413134147175 23.4882901010791 0
22.74703570210686 12.81308131508325 0
12.9549382560278 13.42419760761405 0
20.7378564759411 17.03730549354291 0
12.76989773700114 22.80543370280138 0
17.47418584437971 20.56708364565587 0
21.72935550592471 18.41815534660326 0
22.56914741579959 18.69923167411993 0
16.42602266351602 20.38639118814693 0
11.09735440890795 12.54844850384281 0
10.29210484087589 24.02922711111953 0
22.3379127273767 20.59996791981621 0
17.98006384517337 12.97713982583745 0
12.54757204876029 19.2221511705458 0
10.21826153729614 11.06579260972775 0
13.96273794257746 19.25659529727689 0
13.59102199309428 22.57890208331523 0
12.98151166086389 12.56390530270266 0
23.20849042724671 15.55594036079979 0
22.71094518767118 15.06387000638889 0
12.2123018673188 4.201212474340496 0
20.15967819313861 7.333939866249858 0
20.03472266037467 4.816302784296706 0
11.43844901763256 10.9710323875401 0
23.35171049473383 14.7952294202579 0
22.58367231695255 15.75030569385206 0
23.23820347049557 5.968059241939445 0
24.73102658624179 10.89028133539175 0
14.45307273836741 7.429067668298789 0
10.33537322815746 19.97521385762331 0
11.38554418887836 4.076971058620513 0
22.58691331378535 9.733122449190303 0
24.80554422571409 19.0809028691104 0
16.42158965572625 22.4497168952679 0
10.83075850933098 4.357996945848934 0
13.09431845190138 10.13924328179879 0
20.92875285829903 4.414452295198224 0
14.07117647673946 4.414289527236527 0
13.8012275962246 11.6851581252345 0
15.26342562026203 22.45500732464689 0
14.80693520552538 22.15867808691774 0
18.34684734363695 12.73903449149991 0
22.02895030392324 3.790139558206469 0
23.66980705086212 10.56174171295219 0
21.18669911340362 11.77714291935069 0
12.03269973259141 14.81162096823109 0
11.73444157127802 5.375948495282773 0
14.15381301540256 3.270128645068729 0
17.64748752908265 19.86742307260301 0
23.00901677699606 19.45249641378793 0
24.85514211735226 6.795778442962007 0
10.72844360499957 21.87033055605817 0
23.94991995743693 7.904276396187097 0
21.65748658696406 16.5152218470411 0
22.26702948826246 12.88541131749154 0
14.55322560733509 12.0317856759208 0
13.19038877480733 20.85375519056938 0
11.77176322126162 18.46028383910914 0
20.34314811414694 9.128782238078182 0
18.94952490873417 21.73493840979249 0
22.31043490796234 9.141627252816189 0
18.93506389816928 21.41973630891422 0
13.58572081866181 19.47161742918512 0
14.20723893849077 21.80393528980844 0
24.61637648490413 14.55411676529015 0
16.27478278303158 12.81004183820464 0
21.05455531131298 8.826563491532964 0
21.79988926907597 3.224498998942374 0
21.53903394094341 8.742714105728743 0
24.66638288772352 10.27848804601253 0
24.91043710288953 6.065041932476054 0
10.33780444485558 9.186759918306791 0
20.47581640379979 7.352062904760015 0
15.01065824835879 3.038814337401046 0
14.98379432543764 2.757110163002142 0
14.6970388862878 2.718141699277325 0
10.17076911509893 8.505520415258918 0
22.82868727460007 7.555273564379424 0
21.10117994644334 16.10713481638275 0
19.96514544172333 19.73800858156628 0
21.41710103690643 18.53952481547321 0
20.82519455542825 10.8530929378762 0
10.33064816607424 23.72603797990229 0
17.32312608997121 12.73448902289616 0
11.6954771858379 12.06513591036389 0
22.45031385529695 15.43041949247445 0
24.15297911273288 18.33884037039711 0
11.61702849540989 22.75649517947087 0
23.46630700905713 3.810980883308068 0
20.77194104070645 20.37256544140073 0
22.05132633884429 4.151054790844766 0
12.68583445111473 22.25154694628955 0
11.53122107570276 3.814957346153912 0
24.92360634640943 9.594894210315301 0
13.90190721598553 20.44772373049013 0
24.4492615467977 2.818454596501969 0
13.41426277713754 14.08149634061826 0
22.95797834833165 5.666163933379725 0
22.1615255547935 8.889829564408016 0
12.99028546790027 3.827017987643835 0
15.90962953517805 17.64874129134425 0
22.05436572777192 16.01444019673713 0
10.38387083634718 22.99048886203808 0
20.54956600139828 11.76155074433396 0
23.9268751944535 13.52750488248786 0
13.41222696098249 23.15872752309773 0
24.75061883873363 2.978343214375626 0
13.00317804394715 8.700380655413323 0
11.13941281681241 4.260668403900765 0
22.71430335105916 10.00657947196356 0
20.53799910680615 20.63378695387331 0
21.25451583016779 8.605184226444818 0
19.0297199605339 13.41777213485711 0
10.67038075748027 16.7903010056762 0
11.30902692978005 14.79262849077308 0
10.82305017396186 10.61371295645992 0
12.85198629583572 18.62392154498866 0
21.59260541643279 15.31425600867114 0
22.89359297197577 11.10958499877978 0
15.69918592288743 16.45719031340916 0
23.80925728580799 18.58891238116744 0
12.63503543187044 3.605574491085357 0
12.10607028477977 15.53055710626223 0
20.18113307943126 20.09313322664158 0
10.12320944284254 5.187624573511881 0
22.05786866380929 20.51094493371426 0
14.48633026029153 3.90913801822117 0
10.10768064377751 7.003699500188025 0
21.90999079287949 16.80477912468044 0
17.2019611146112 21.18251614005223 0
15.42502758366176 21.41449052158697 0
22.98155355440602 16.21822873428475 0
22.79262465359287 11.92261489816142 0
15.455932603584 14.2069845720778 0
10.77608057111117 20.78957648777724 0
22.32131233155193 8.02347828550128 0
24.74911332565274 6.455167902249852 0
16.06026717348912 20.77159863508282 0
12.71960940126453 9.463625086730735 0
15.57288198660816 19.86373359978154 0
15.80964366688727 21.02227856634692 0
23.33446567579397 14.03643667272656 0
24.34082884187156 17.17803963188417 0
22.71415545537369 11.58661677132961 0
10.8333647878632 17.33271912897786 0
21.80487468385026 11.88968687455229 0
10.89835865035874 5.269961861524982 0
15.96646914545291 21.73361782390893 0
10.37662239186987 16.71180570762731 0
23.00146159714632 14.74855586482467 0
24.77263518555901 14.84279045499623 0
12.1886883099625 15.21443028975305 0
23.95244886713834 11.45911564472137 0
12.47907926928133 9.625421637678006 0
10.88255534773576 4.075561884858928 0
14.35997278034245 14.09608785838256 0
20.69879823386896 13.4783909708257 0
23.29330976879207 16.38810520965052 0
10.8918652081695 16.13272816641128 0
24.7666546857705 5.737880282872838 0
13.41092302749603 8.119582732840037 0
13.1849722190727 12.00223292052358 0
22.54729829712078 6.904935509754207 0
17.84310109856253 21.34719594647535 0
22.01122221259493 18.51478712944559 0
10.23407083757383 19.37187866942291 0
24.17209273978485 5.217744968497957 0
13.42757734949511 8.594785043514397 0
18.61423402275165 16.80323135370405 0
13.45693728304115 9.474755677021287 0
10.65210118073871 18.91205635796291 0
14.036959156309 6.300532870230783 0
12.84706453491216 7.536694684773491 0
24.86967152422059 3.384697691253819 0
20.27143029407625 11.9478723427955 0
21.0389362533462 9.142433320480254 0
15.5052662960762 20.25937141773352 0
24.47064424354993 18.43872098919163 0
11.22480375665286 23.62926618513029 0
21.08252858820785 12.99228788441014 0
20.31148849107718 8.273162998790125 0
21.54284374898497 8.352590580957699 0
24.12808687679203 14.11260939300304 0
24.81528759200352 10.55292599973765 0
17.66450905754507 12.80368039366989 0
20.88999162887066 5.246557864473086 0
18.28536198495983 21.41057901473624 0
12.1015283756281 3.77519419402125 0
12.8098018352756 10.05261640019711 0
12.37027415728597 6.762383873731255 0
15.55218045964445 22.88805182934192 0
12.71282264494468 11.60111530233638 0
24.86463091024761 7.404564401504177 0
23.48629750710921 8.815743926001302 0
22.14590621720339 10.41806137017528 0
22.68881500362879 9.137317373586768 0
13.80313898532019 8.072148679182439 0
13.39213679074972 21.38412465241068 0
23.89861200766299 11.13893049002542 0
20.14358346683433 6.592909631712482 0
23.67811576531777 12.63417598829845 0
13.9964936246052 7.744605979395994 0
14.22083736706585 22.58919443936574 0
22.30559439340875 14.76415277356336 0
21.30296172416531 9.707792845125756 0
21.78714181668933 8.120035854100479 0
14.10468005104656 10.70496811601467 0
18.81423089837114 19.72308060621638 0
13.96199417981363 12.66702597728352 0
16.69423912271093 18.91223442487984 0
24.14538819636848 19.86074264101564 0
21.6976937687182 14.05317044836266 0
15.04787459011462 17.76388884897539 0
20.76953783058032 3.603205885782662 0
13.31739463375538 7.193009032575702 0
13.28384927658557 22.53127500360631 0
12.73525733262883 10.93394569928967 0
20.80531487900869 4.014792849138901 0
12.490531345159 9.912866569900627 0
15.13350515314706 13.95520350553789 0
20.60925145298348 10.93786820415491 0
15.19831499501783 22.84829883157781 0
24.51856052230941 11.45251243128155 0
22.57210746673333 20.00114496852968 0
24.20866532037675 6.103846665946897 0
11.2692238911455 12.89784280621489 0
17.28895733942309 17.30539926285714 0
21.32909777831481 20.86582684705675 0
12.87637296020301 10.3483513477346 0
14.70860245541828 10.82225622370064 0
18.7814631886968 21.05196060690027 0
13.49622717875658 4.87769420744042 0
20.24111630702675 7.920620620842197 0
11.56462618182293 10.32239590872738 0
24.20014934266506 8.312743289059156 0
21.72443526512328 12.11094364033687 0
11.9711638667418 11.6239161156145 0
10.22522885496764 17.88889420167998 0
17.69382229905974 21.70462352975753 0
10.24764954454076 15.9327386171665 0
18.68666519532577 21.84761808770089 0
19.97386046371714 20.49207795939365 0
15.86935450219876 22.72169992088735 0
10.23154003066508 18.64583681380672 0
23.62019633276682 14.16390949492869 0
21.76848976880267 12.41566529488045 0
21.3396956219116 20.57540290535331 0
13.22776544894085 6.577238964055339 0
24.37083990784145 10.26143330689642 0
24.40229962157631 13.77566866937129 0
20.81177020923903 10.3873182262662 0
17.84349646585327 19.18126479766012 0
13.43448575709294 10.93507339702676 0
15.15024951918518 22.20550013639834 0
23.16564316677117 18.51935972405558 0
10.24518912068097 21.49758639806884 0
14.97865050898133 20.91444110351164 0
22.25010337529352 7.702756034470815 0
23.1397933479747 10.6264793284017 0
21.17478675488095 11.1486158000398 0
11.30272468461306 4.880653231977724 0
12.19781736928992 8.592291967727649 0
14.74565295021518 10.18534242756524 0
23.56058614444291 8.296416895654314 0
24.85703627591058 4.505667253703315 0
21.37913270606776 6.046497376773252 0
21.03207537687497 5.556123376975899 0
24.51431967765525 10.03720449162714 0
12.51623160461366 7.703797037527402 0
14.57229716913637 16.90872213660548 0
13.85124593074866 18.86403902332681 0
22.29160975706077 2.884948818447485 0
12.44695873627082 10.89258060420543 0
23.86187323959522 2.777763097809327 0
13.31718938932696 5.495756126089439 0
22.25633656416489 11.1039313702967 0
13.0424650194417 5.818046193488358 0
24.31708128649997 19.2088828146146 0
12.18863073610716 10.99249730017974 0
13.86222440617101 9.151217933892667 0
24.37794914361918 8.842312880124757 0
10.68565170241387 3.836562964643476 0
14.75616814287644 9.453762641495926 0
14.84015874841881 6.939474240505106 0
13.49107240844967 9.162000718458962 0
10.13869174839096 4.507229005347376 0
13.07622166900903 22.19549962219595 0
20.24230829006825 18.23648680218669 0
10.14458130207484 9.529461129713965 0
11.43272606974172 19.44618710157543 0
24.14679847787354 15.90218059667608 0
11.12804051555872 19.32552902786603 0
23.46629221129884 4.9363761914083 0
11.70831116431751 21.2131561100953 0
14.73536931784204 8.361076711591453 0
24.75060731968771 13.21206848802933 0
16.20486074072257 22.66924519439804 0
22.97578986305216 10.09456465720872 0
21.71283991994825 5.955094294136487 0
11.68948398813455 12.45785558416824 0
11.01069671330466 5.560419395272016 0
17.39855650472799 19.58088622953338 0
23.00030396172308 9.013463762102374 0
11.24867519818125 7.212175501973015 0
14.40604630723522 21.53300454902512 0
18.05789874816396 21.08164820700633 0
21.12297240857152 3.370411159101141 0
13.87702193096565 3.370412618465061 0
12.32914491594918 12.58129585333042 0
20.14247331373589 4.052531067829448 0
10.42547277931443 3.942754155662161 0
13.88041398001045 11.47765154408103 0
20.16826688975195 4.48760838001425 0
12.1832231202051 13.41745095944605 0
10.54616944219678 5.120865452000962 0
12.93899334000834 20.13927860956269 0
24.74199236386591 16.19629085434873 0
11.68652567514304 9.108204964954638 0
21.08965617436969 12.35555033675865 0
14.61232173736326 19.94065748810904 0
21.59866733956175 12.63046066122567 0
21.63283097667918 20.87371305795613 0
10.49304246014913 10.43752681683646 0
19.69336068765937 19.82785839599146 0
11.15557850484648 23.990461829758 0
14.83531734607241 5.138402465612333 0
14.29074393131134 6.076836670599109 0
18.52676929126962 20.78517808382881 0
20.16772406828303 5.147649849204232 0
21.76475735757067 20.40814330194172 0
15.97889629355899 14.11384425720096 0
14.84911503211603 10.53071448354375 0
21.9409621305509 18.20684793649425 0
24.00555886354621 19.63485235649801 0
12.6295172427822 13.73483123104075 0
13.85603725420015 16.77988016459644 0
10.13842134980813 16.17922032519077 0
12.74926520513372 3.226873310764381 0
10.89786075658775 8.17845577297669 0
24.46012773993225 5.040842845341453 0
14.30606264197801 20.90225547358804 0
21.11765050094215 6.141620797676127 0
19.04715445751249 17.90244931190548 0
22.7884305463468 9.507051666443706 0
23.77261787720531 6.832190003817811 0
20.80592666703654 12.24989032997943 0
20.34564879373358 15.88955815377791 0
20.16915035333555 8.524461528709802 0
11.99456285206999 14.27886656341218 0
23.70719585597729 17.07222596447725 0
10.48626489994766 11.03992054975127 0
20.75353540946035 16.24542691376962 0
23.17713310690922 11.98067270802252 0
20.64109760475118 2.875307540909763 0
24.11127026840011 16.25202683845327 0
14.35890242139478 2.87530792391955 0
13.74011730031678 3.065380244872959 0
18.99871760839849 13.8211844200931 0
18.63409281089317 15.87602126145804 0
14.16381026757099 9.592696742861893 0
16.42771185317348 13.47643849410236 0
17.64786867086696 17.9591709148142 0
20.23807731409938 5.711673418874282 0
23.75305390407465 16.78334354973054 0
18.00492018441207 16.47117390487733 0
19.82142856787083 12.70908998313477 0
13.35709473707703 20.08661305106591 0
19.11696512066813 12.78227244108257 0
23.53338221935909 6.629657540767155 0
18.75169086521105 14.0596511401029 0
24.78323316966823 9.900163543608784 0
22.04945294850468 14.98450699062653 0
23.41695918351381 13.08611174752829 0
20.49493876631391 12.79504446091637 0
19.60273433569442 13.2289628977933 0
24.94120607326622 5.489921370897457 0
12.17989520282419 9.525356947231389 0
10.81289437953554 23.02986122200321 0
16.5736871698248 21.64618859042253 0
12.61274938939248 6.374499798742293 0
23.46824072330061 7.297708844181098 0
14.31404286493184 7.771756925051147 0
24.08651603206161 13.16305385301514 0
17.65606228187403 15.87963513586875 0
16.26559249969142 19.18119329515157 0
13.19199895580119 4.727304527900957 0
11.69320092073544 8.532296271730647 0
15.08987895490531 15.89775657581621 0
17.6052198642534 17.14476642380555 0
12.2020881883058 17.50234685891489 0
16.70518624362053 20.87802470204781 0
18.15570778617473 17.9085165635097 0
23.10987900300722 16.85668049774378 0
17.40965226286101 20.90691980437329 0
12.15333785369632 20.6991930520064 0
11.09116036893779 13.58039364964775 0
14.36930805218923 12.2238203430117 0
17.0688720926462 19.43425551541643 0
10.68544336834028 7.326051487411859 0
22.38314213429337 4.209972234423957 0
13.49729079149354 23.50027612163568 0
22.39128727349608 16.03912205696656 0
11.33117186803265 21.80888818985606 0
13.5489611027981 6.659228974478268 0
21.15649646365106 14.46126333707914 0
24.71867870223038 17.24053432766543 0
15.88400074106102 18.56325685773209 0
20.54736546489831 9.829157398289546 0
23.58251272701582 5.933671102540504 0
17.12893064666231 18.05269330484532 0
18.00277915035387 18.64300328592524 0
19.30287508622194 21.5152090900248 0
10.34661119596391 22.54435961425121 0
20.45603548716202 19.42794258377329 0
12.42966302819139 11.48079532951567 0
14.69384722455125 12.32016562820324 0
22.60277908002019 18.3975620256794 0
16.74705877545525 21.92471035472634 0
20.01620567440655 2.757110163986713 0
13.14968874454046 3.229235471282871 0
13.25941478345085 3.534416250436486 0
21.40682995964867 3.625712189891907 0
23.69946160414837 20.11945219184847 0
23.0887395792911 20.32958546029595 0
11.76811866023055 2.734169882309304 0
24.12909269350316 12.17379381953618 0
10.62144446843915 9.04081953893385 0
24.32204010758922 12.90794595518512 0
22.92969007183902 7.891992747307097 0
12.0651036166961 16.74777362987997 0
10.01583878709023 7.75979263653743 0
20.30443267727231 18.69243947593185 0
14.10274440075548 12.97518424885999 0
24.54344696511497 7.377617454603015 0
21.2598826960511 3.065380244946539 0
13.17654236795674 21.17603791386803 0
10.44616085077532 7.561526886381353 0
23.69778234820797 11.6418964438789 0
10.71594762241403 19.79243847585662 0
17.94943377893511 16.94552985284648 0
12.92141331919469 20.41040032479559 0
23.89210303740072 5.334415696364736 0
22.6784252743478 6.146190768963572 0
12.17948526801743 18.26316430079338 0
13.09417239267237 9.861533906345127 0
10.0650442760522 6.013424330530631 0
12.73273202313416 9.18007899340082 0
13.09106094294 16.62892235732849 0
11.46041956249681 11.53577102040875 0
10.83619916376986 13.64928499430082 0
16.04192564434866 13.69663088790319 0
21.62313743417881 9.134276578837015 0
17.60430048796353 22.24471970079107 0
11.92775108247616 5.578300617214184 0
18.93376277280179 20.35633753852927 0
15.29017735961566 17.18729487247109 0
10.72638914197041 5.497103988142396 0
20.41255761206687 16.9135088968611 0
11.00984908799559 21.24412519906221 0
22.34626010737881 13.48015121856764 0
13.95679095029252 18.12769006454814 0
20.37297752865063 14.709282700261 0
24.3223801224728 18.91015122298898 0
10.12202295078408 4.081346247742139 0
14.3856082356217 11.83285035939836 0
13.71098007022354 10.9647960205842 0
22.04717767781425 10.04062518632747 0
22.55351523640449 12.18238851490855 0
12.72888662276923 18.9857674420744 0
12.79629719281169 17.79710108175953 0
20.86223930168946 17.28153430311519 0
22.30596194962931 12.00315182808566 0
11.11787944686002 20.4835553657025 0
12.21957804018886 22.90071760104755 0
10.1722263187057 16.47805718417824 0
13.40197594120042 7.713966726545221 0
13.67805265924027 19.83236178727535 0
13.97396828092764 21.17229508387951 0
23.61672702307694 4.071979331778666 0
12.49806914422113 8.022098819144306 0
13.64876421965658 7.150120652457682 0
20.27470103999459 13.52286000074521 0
23.89458477832416 19.36555116418743 0
24.42787119721316 4.600927065829431 0
12.78137398997342 6.030846189537593 0
20.50992311012957 15.55874833690625 0
14.39098412179554 10.63828016552944 0
24.34548025090972 15.22232408487393 0
11.29281245003459 16.66539687522273 0
22.29344056627541 9.780512093494233 0
14.13117510710045 12.41659562895707 0
12.17363880040263 12.20585904554685 0
24.11431604314754 6.417290063594153 0
18.03571428190872 12.69818993561667 0
24.07463429342279 9.294953984841312 0
23.39849350247714 3.422463495687154 0
16.86493682337562 19.1888973219833 0
23.56776462713366 18.71578466583593 0
24.75494040385026 8.361904784483853 0
14.96598910070381 17.38344763483653 0
24.30822571703474 6.906456342031655 0
14.1229855559398 5.59550510973654 0
13.01543520570219 17.37320729308725 0
17.92664397041921 13.71789313612001 0
21.17179064364232 17.8451164704564 0
14.75257823468972 12.70954101011965 0
13.94754897258316 9.412307103817584 0
13.65093392372511 9.955703774145954 0
21.81774408872238 9.450482347249654 0
20.30296118132295 2.7181407884411 0
20.80083697854266 12.88960317666338 0
22.085249603152 5.750192747773577 0
22.81326648273158 16.85106027794064 0
18.58303005334564 21.29354477058468 0
11.09940995061179 11.85545175156544 0
24.91495802773235 11.79533763612189 0
24.42562212295386 19.93969251425412 0
11.81532214912923 4.415139075621327 0
14.1304153717916 8.469500744033468 0
14.68181860516017 21.45526103452229 0
13.58689957771157 21.92377740046078 0
11.52791139630883 17.59180068428949 0
19.7876804516495 17.50301868137639 0
13.35491773487854 19.18474803939267 0
15.42462332910343 16.83101262562018 0
13.17076114406743 4.402549568907557 0
10.98081201374259 9.426949541169218 0
21.56093587721023 10.51326748909641 0
10.43368783617565 24.53586951227479 0
12.71373029731814 11.25300571006603 0
22.27338359641062 18.2606992572477 0
13.81626401075245 4.723711378421886 0
10.29999999998266 2.698520473466655 0
20.11492284043075 6.957370066809883 0
14.43312957725805 5.04636759493029 0
10.89016783867515 6.832652257935399 0
12.52705488248075 23.88288449941692 0
10.10092054905866 11.82492465878254 0
20.56458576003615 5.050409426915805 0
21.35398316543203 5.69843359728981 0
19.72185580398103 18.57021274091132 0
23.46742831211896 7.618422280938351 0
24.26746443772345 14.43833366561426 0
23.12618763983128 4.37218429763049 0
23.74272509462882 7.150199041414432 0
10.09886084376032 8.100270189907016 0
17.02472951684879 13.18061332193845 0
24.91720723931143 10.2935958393548 0
21.3918718082659 4.009037487483246 0
11.84615212653421 21.81112210749851 0
12.74877365530597 16.50563639104021 0
13.60815691196529 4.008268793719568 0
16.89863809295166 20.08194890013492 0
11.645646328656 13.25004200158088 0
13.88871065641759 8.641356670323855 0
11.26975329736872 11.26652029998987 0
21.31274929958803 7.037868337470776 0
11.3996916770338 13.68970545289874 0
11.12617813865961 10.56443013124369 0
22.5768172561023 2.77698401904417 0
23.68920010632971 5.603512319251167 0
21.55271357729603 6.333622497924796 0
18.48172252742325 19.99185275302247 0
22.08889825261799 13.9803002403969 0
24.89909747873676 9.336642560707233 0
10.71116740016234 9.909419798317602 0
10.74614697262739 8.471343832805857 0
24.6715061055756 17.83299696698607 0
13.9091207434614 10.13688682970873 0
14.40032142078637 11.23983779394968 0
23.40850921445134 19.10982546095569 0
24.82075569185761 12.11792893943471 0
10.55004605520728 2.819164707957129 0
22.35608768962625 19.80223764067933 0
24.02356124472992 8.938368399351289 0
20.85177210017786 13.19242087435407 0
20.2761044543183 10.5223104182832 0
23.05559105662786 6.209692456604857 0
16.21889560240541 21.48310635102066 0
14.25832132334257 17.83966809708073 0
21.80130458634066 16.1638815266746 0
10.77757906411185 22.17234669871334 0
18.29227483760144 13.4282846813149 0
17.43923978922654 13.44883119253906 0
12.21853124002664 9.215552487156103 0
13.12246287530832 6.982089977700214 0
19.92913023244114 16.42710057049097 0
22.03640792737431 6.05661822230958 0
24.69999998993719 2.698082531752509 0
21.89561960837997 11.02752036953432 0
22.15808932223105 9.440449795697347 0
14.96290787172193 4.815783015358948 0
10.1176371769666 14.67921804915996 0
12.61369420585877 4.209795511507471 0
23.69797118946383 17.71927592365237 0
22.60847192007892 10.94628035255731 0
13.65160801443089 11.4893767418471 0
19.12130604258761 17.17571303922488 0
24.98933304298204 2.75638058344288 0
13.02986805650534 18.11132686212592 0
14.62926790997099 13.39249663050323 0
20.92805476843916 14.11301944123714 0
20.9613655015006 19.61695438516818 0
12.96098240789562 2.757354495300973 0
21.4014661679827 17.23928235283696 0
19.13113396824976 16.42184717615547 0
22.78550466006073 4.187204083703461 0
11.17221737858539 6.92628059048101 0
24.27857441725224 11.93147263341676 0
23.19451665053834 4.682763530567591 0
10.18753374861157 12.13783965051757 0
12.44347753575695 19.54730636728105 0
22.90434894610685 19.05198809165945 0
13.79064729934574 17.23913415595651 0
24.77587907478617 18.07914440277318 0
24.82448091806362 11.46539606413516 0
13.28487027724825 5.123665397029109 0
23.23150946893184 2.734009173508662 0
11.16689743968725 19.01620646128725 0
20.82715786081539 8.206551167895425 0
10.6146564223786 13.16899968588019 0
11.04518511208399 6.138019349090502 0
11.25907381423913 23.33785080275382 0
10.48945386080412 8.560464805709316 0
11.32925895903417 21.05329020852035 0
18.12343122341609 19.38743883465776 0
21.29027825442137 9.29787363953896 0
15.69034201520875 17.22890746109688 0
21.1653506550518 19.29477695280929 0
10.30090929263332 23.3754013622421 0
10.17639374775931 16.90974866959677 0
17.31593918303524 22.29408563506957 0
12.46241883104575 13.03319846624124 0
18.14358486931601 13.19740389025794 0
21.87830656457474 6.97240312386635 0
21.62772452709837 19.70147090400905 0
10.6265859896474 7.918094846047566 0
18.39800348906162 18.23055750875038 0
23.74612125314233 14.67014085990636 0
23.71320883050002 3.519913751830456 0
11.4396561349899 18.72299592334009 0
14.82208001523207 9.81947307369532 0
23.84651403133628 4.300566844918891 0
13.4638020254359 8.900719922668214 0
14.90598992427001 5.973918943286625 0
22.73543772826864 8.121523785484959 0
11.60106072846192 3.442987527594781 0
20.99475983498386 18.55760767451434 0
10.89525642368049 11.35133664567735 0
14.07878930585756 11.69543332535439 0
12.84946165582909 23.07096738176576 0
18.14585772102555 20.32172385812563 0
12.2640670436065 22.28830533415477 0
22.28738855111328 16.67951774841958 0
10.09894934416693 12.46862378629669 0
11.63763431915623 21.61415840737871 0
23.91100744953279 10.43329398880879 0
23.59602588505245 18.08219440438797 0
24.86983365912129 12.88603580136311 0
12.25205651808951 23.51828432925646 0
11.27332670602864 3.520697766409241 0
23.90710000535067 15.53553116714866 0
11.24173761566388 16.2484869661005 0
10.23431772659784 18.31209511954675 0
23.71434804511384 7.753049727088203 0
13.66662377630032 6.015012448158416 0
22.10031618552751 18.83627404515905 0
15.53395526943874 12.71237289951029 0
22.22957265692537 7.087115743327503 0
20.71669279843029 7.10695736195404 0
24.99509598928795 3.749695884350329 0
11.29352892918276 14.14946805249303 0
15.03415937194949 21.90851167406733 0
17.46651406038482 19.17925587713347 0
20.10183993919223 5.962649361104956 0
13.9547643922246 19.99519315280457 0
24.27918107763059 7.19630467996979 0
23.04105267966084 13.74813800890981 0
14.21176435877455 7.22157730407814 0
20.09160393898467 19.43594118550129 0
14.78054535425962 18.38712139822029 0
10.70861725492978 9.612157400323099 0
23.34869419869019 4.185157975095184 0
13.32955802496747 6.137612943997588 0
13.47771732363046 12.96370629173908 0
14.29620498379211 19.3836022840192 0
10.47960676995441 6.349262107299014 0
20.34216704088121 14.25596008831524 0
12.2056252801456 8.122393187174943 0
22.71305221931416 14.3336828224572 0
10.0783664202466 13.17854630135855 0
12.77481421323622 7.143800566402629 0
14.20481276585587 6.920415301380602 0
9.967073209908182 3.042109775893389 0
20.25414084917604 12.24145535236707 0
14.81212432140759 7.3489316562537 0
21.07646807110532 4.097530147419121 0
10.61853538857809 15.45141446794539 0
10.74175140480599 6.086351966514203 0
10.91909901015164 9.103657085730918 0
24.40865964563175 13.15550855034896 0
24.27259289843142 16.81240770538562 0
16.29851158968589 16.55298593404735 0
16.7370120934969 20.49070207112244 0
23.6315024484016 16.47318986398168 0
24.2909184663007 17.87060085231956 0
21.09558922907818 12.69122220706796 0
14.82507531753838 16.57495586243433 0
11.71328414000163 20.54600912756246 0
20.82485666915902 11.91469087266737 0
11.58035484424473 9.430218415554922 0
13.3837466438247 15.93130319634667 0
20.9810054808527 6.634730864673973 0
12.11961168417521 3.165254018077538 0
20.87429059631925 19.02623277544057 0
22.75608563173272 6.693928494604365 0
13.25473975858683 2.858033652827173 0
18.00419860679458 19.66268554232205 0
20.78301923004563 9.642186254412426 0
14.69813266128587 11.68524199122996 0
13.15515882183325 21.88199438841221 0
20.20980423614164 8.783209460419744 0
14.62785485055243 20.31102957024586 0
20.07727801281046 7.673626071331679 0
10.75970900372687 24.44170265874494 0
21.46855874309246 10.2281079701095 0
10.91996164505719 6.576302298704606 0
12.49419643783366 20.64923566473383 0
23.63014729230996 15.85390104075241 0
11.69494241582521 7.569268252989617 0
10.16773303484153 15.00781788508159 0
22.24914107432148 3.232208037462391 0
17.02761358153716 22.38351628418111 0
10.57231813189433 16.03271313375614 0
11.50260545615884 18.21065663177152 0
22.47297246037507 6.484001129708371 0
14.9359970563571 13.59134916631803 0
15.1767462815495 18.55672495078393 0
24.16312965728919 8.057642926246196 0
12.69062962966105 12.39984681859784 0
12.94483690756446 11.39721584799455 0
14.84492457873037 7.965407601732794 0
13.86613845616552 10.4524616671288 0
20.44863860959103 6.378538112970345 0
12.73858483241551 8.513102397061822 0
11.88342606775196 20.89793936700171 0
20.73799796363551 16.6600201213815 0
11.40411630751678 12.54409988323406 0
15.51910249081887 18.3493999378635 0
15.06486460279984 13.21073459096998 0
13.7944282475188 11.97083950951345 0
24.04847861777583 10.14901430063705 0
10.05009972565042 5.496573344088534 0
21.84764496815973 17.11272525174288 0
21.67295786757665 17.32960333968533 0
14.4677916621123 22.06220353931589 0
23.99385679601422 7.323841974789031 0
16.22215530590806 19.48702934345103 0
14.40391209571219 8.303480357600511 0
14.52143531144293 6.765382698495165 0
10.65330783898648 7.007663150400938 0
21.83217899505152 8.474293966656123 0
20.6018273783754 11.42755389840949 0
21.34630468680105 6.714225367278186 0
24.0469370403763 6.724595992979076 0
23.19498572929684 7.046461836221573 0
13.37739078186401 10.07116486334677 0
14.97464253079513 19.73015390246615 0
17.37158494842734 18.71466700883113 0
14.47605123587813 6.386672147859976 0
22.87877870399521 3.164829103038489 0
14.41628237487993 9.413564484985265 0
10.58364791216001 23.9084501379188 0
11.48487713744778 10.08319162364246 0
22.37224994271372 11.48037583828202 0
20.76018501068563 17.93801879091428 0
13.43106638886505 17.50730656116833 0
15.37193293409089 21.96046938153258 0
24.32102818157289 9.417434542484793 0
11.55911771252164 15.59240128525783 0
10.44660608291427 10.0858771944249 0
14.4063828197836 10.26741949686133 0
20.46231559021508 6.791270924837517 0
13.02149363537284 8.086591649734594 0
13.19158612733197 23.65281570395521 0
10.0790784916945 8.869763210772906 0
12.66827244666731 14.12927751837903 0
21.53475241314686 7.262550334277446 0
22.57769380042507 5.848867028928542 0
16.88587441775002 21.14738542397525 0
21.92667347113441 19.42553143790254 0
24.77091264930769 15.75921869871422 0
16.11726099351267 22.10858139441514 0
20.78054153428364 20.68270532758896 0
20.76977881580495 5.493989903244318 0
15.44765742147205 20.58860912131234 0
17.5269955302037 21.1548692300558 0
15.89285714571177 12.69834246013258 0
23.4398439291723 19.83100383419941 0
10.89426033678518 18.43078170597681 0
23.87108924917531 14.96306226948928 0
23.27232400330913 8.100980281320808 0
21.15086247972889 5.031871294148953 0
13.84080642864597 5.015676821536083 0
17.65122614525241 16.28812725214409 0
13.29598221204839 12.29318578972016 0
14.9004935304218 5.478055638487941 0
11.00259766019274 10.34008994142233 0
19.61656254062892 14.11748717718734 0
20.51805010450942 8.846915190845678 0
24.46281190260427 6.340079423478616 0
12.54083307401082 7.03264958623478 0
19.36372793119575 18.57142968067455 0
12.57033823242305 10.56401484832083 0
11.12245825870087 8.873234710551085 0
22.95700750557436 15.82371358189411 0
23.41560037418493 10.38049564861854 0
13.66262747294833 9.662738779171274 0
19.19155739448099 18.90437056163852 0
23.19158366437144 3.686361413125185 0
10.93668362502033 20.27099090547277 0
12.76578107639552 13.11210184842268 0
24.06493882869636 17.7166318998515 0
23.42092113768535 11.1970952054585 0
23.00525758927355 12.51077467728548 0
11.6287637407475 14.92975227378908 0
14.26306085935788 20.54658112152141 0
24.38851599298737 9.756530327943596 0
11.36942123596133 20.68591628752587 0
12.00143864588487 10.74071401912551 0
22.45125392163458 10.47629980977868 0
24.37323803737748 16.16891244122069 0
14.90605830016623 23.06069224351426 0
22.53054095285862 7.558853241128086 0
14.40272823345197 22.80187259168876 0
15.57231204499148 19.21326722936546 0
17.55857406172216 17.55582706525096 0
12.19923878185558 19.24777016078154 0
11.16936797205365 12.20706596246812 0
22.61578673336226 16.6851604977617 0
23.7886292741386 12.98550102517389 0
20.22582247662143 11.25118928189202 0
10.55451968951761 12.76275364590901 0
19.35330950266497 17.43269143658377 0
14.12588235497405 21.46620118646654 0
14.39984929154809 8.901724756242587 0
10.19872275929495 22.24734771225582 0
22.44274342784605 14.47135739718297 0
10.51308659633855 17.81820437790176 0
23.51945037739609 16.16956348545172 0
16.30966866462828 18.41873361358211 0
15.96221395284811 19.68505112640672 0
11.96662120554326 12.71768596287843 0
20.8461869830362 3.2701286407697 0
10.57280168536442 12.03517625283842 0
14.69900746043974 18.00195872071681 0
10.20948014786998 20.74250747913578 0
10.18071964469161 19.7167981153796 0
16.60714285717842 12.74198719714168 0
20.06198450505543 13.19888131466758 0
10.9950250034558 10.0613863990126 0
22.02763789737091 12.90151881540005 0
12.05527417085401 18.64192168933663 0
24.79347798568307 13.54709549089126 0
12.36802123618512 17.03600137666035 0
23.03045971940161 15.299961624509 0
10.10059269924038 11.33840573676685 0
21.82967056186886 17.87001413823646 0
12.26797085249738 7.148100963967979 0
12.91817895315445 6.493168544558221 0
20.59603727724167 8.332629328935193 0
11.98850999639154 9.08438428693089 0
10.92721969143976 7.835280650468142 0
12.25332799191716 7.518997227934479 0
19.98933927653048 3.038808683885767 0
13.98388140435941 13.59188166947614 0
18.76766155598565 18.84030710656114 0
10.52385505880114 3.573846972923921 0
11.1726301166028 6.404546127630526 0
11.59736780005677 20.06555495896986 0
21.21877891653245 7.813025903200252 0
10.82740312023754 15.75325594713421 0
10.12655367215565 20.49900137871081 0
22.82079698853166 7.186626238363741 0
10.90392144614748 14.18401163568202 0
11.46003965847022 7.781670626354073 0
24.10362202956854 5.548655786014085 0
11.13751515820458 2.778020558855934 0
14.28974490332133 19.7799817907522 0
12.00109293040904 6.649707517249438 0
24.45011063558375 8.458032216872871 0
12.88921258175246 15.85972508564019 0
17.62719652757652 13.16531412460333 0
11.71506728975089 23.68032844944226 0
21.86417735311454 14.69902289994938 0
23.1612230388657 18.17897284333708 0
16.93357556474561 15.890865551683 0
16.28991642160896 13.15281703685415 0
21.86321394601752 20.74079782168638 0
11.19935764516825 7.693773554940987 0
20.55780769291262 10.35266187376669 0
24.07037360995426 4.574402191288383 0
11.92763953161938 8.573265339260756 0
19.18056275795626 14.1335674511151 0
24.76814863662762 17.56300981722503 0
21.47506558780417 20.36179667434887 0
20.19358827942153 17.62636529176736 0
13.76205846579547 22.25556523438308 0
12.48240265643229 8.611329616451975 0
13.36877694627881 4.188323585740513 0
24.55448334409101 6.808961201217236 0
23.07793333465833 19.99539981311984 0
14.93003206161222 21.62918764223616 0
13.83928571559296 15.79494812451214 0
14.54133863247129 3.536413285626418 0
24.48254529313427 3.565783866682931 0
19.13638382494419 20.59466593132595 0
10.79410529086173 19.45578863338588 0
9.997359571144134 3.757061067921695 0
13.96666665651275 2.721656729481296 0
21.03333333349664 2.721656727362471 0
13.08974710119305 19.84038183298045 0
19.63114406992967 13.77959677349387 0
24.08031059184244 12.52655991166754 0
18.21672477433439 21.99331221738961 0
11.02611209165955 13.07718401997858 0
11.2310105849265 8.249922636448145 0
22.32895304445335 3.63947284370723 0
13.69052764644684 6.893214617871198 0
24.82904238413782 15.09208937219453 0
22.77956015001966 8.438430538360027 0
20.00155836215486 3.74121587652455 0
19.37310837620132 16.81396229459698 0
10.00074801759945 4.854553144528692 0
23.02233421555709 8.64101846203451 0
24.45743256863587 10.94462904843475 0
11.60005854951438 5.074951054337115 0
22.80546550981679 13.23424907555443 0
11.38918709764314 6.721093322032016 0
12.487823080507 9.085552410508024 0
13.66305496506174 12.70295214631754 0
11.02305402934565 4.657075946226521 0
24.99203504964811 4.862619316633919 0
21.63217757523382 4.190093015354933 0
21.0964094625839 10.1560360357848 0
12.37135454632744 20.34624710606698 0
12.66147136763775 5.767676593163492 0
10.39764677084767 6.907361803690465 0
11.73977013982498 7.023681708861906 0
17.70758698745386 18.4254289416257 0
10.20935715786476 21.99475998877737 0
20.93816888416705 10.62572335157882 0
15.98214286211781 15.80399855958422 0
10.66589373680496 22.40718052096452 0
10.89224227222026 12.74100635983801 0
11.71432856195695 18.94150091395382 0
21.05455886682611 7.583890403636536 0
24.85665694271365 14.00465999392624 0
22.00938487309784 7.529826313673019 0
22.83669814819215 20.43165958410581 0
24.04280981486567 18.76891967765278 0
10.00981197401995 2.755858967554181 0
13.67411097833334 21.25679895405134 0
10.45553799961897 9.47990291713508 0
12.72823117224954 3.91632856433433 0
13.19903400046655 7.510053191768765 0
20.54941627219104 19.06562260010046 0
21.01230912428094 11.44084545784544 0
12.40946789452803 11.88462959478896 0
10.6411863783698 18.29324271087284 0
14.82215405588679 14.17456902851432 0
13.59222725662298 10.53517241495568 0
10.75507354275694 15.14153143449064 0
11.04061362759795 5.015282076305212 0
21.24141968271937 18.23454829890266 0
11.82391205885623 6.446925887323806 0
24.5018489723773 15.68022398061818 0
24.10410230157998 9.857394619081035 0
22.15938495632932 12.3410734169838 0
11.40687428807843 8.459314055575096 0
13.73439907336546 20.97692983673216 0
24.93501873114917 7.737925072762818 0
23.15009550816997 10.95599338450364 0
14.80577017757316 11.97161048837341 0
25.00176579124359 6.309340121315966 0
20.45857603237548 3.536425892466013 0
11.70775604354036 24.16149869675524 0
10.50455604421853 11.69645799841077 0
11.6459170747787 4.196372793242329 0
22.14197624839305 19.15591721343424 0
10.54308093288189 19.24202080808666 0
16.30081185951963 21.78310542357576 0
22.67026462622103 13.83563630139156 0
22.246840346596 7.383281059975284 0
14.92298103270899 7.673632572112524 0
14.8702066844077 9.109503428841332 0
21.39638915898736 12.17447541131154 0
18.65813894038504 13.26306364413978 0
23.97944637817573 20.07215668140688 0
15.27656170676688 19.89676099149398 0
19.82306956222422 19.13505577154637 0
18.74999998662868 12.70836442437949 0
16.4043753359234 20.96611326133334 0
12.77640973178069 19.36250664937389 0
22.52556172209257 8.594964731373755 0
10.83693927035756 24.10859815850396 0
21.55618975153788 11.36584714430958 0
12.4724108689825 23.33213187580662 0
18.73268843322375 18.42158750576081 0
13.54347279664373 13.73652550458177 0
12.76093842537529 8.20946268623384 0
22.03831159386384 2.757384458143638 0
22.97126451385837 11.43371835885586 0
13.85857913774204 23.50755563737382 0
21.41879040245905 10.76547810299357 0
11.0304689839931 17.8741473351374 0
10.03085736883642 9.20702405280257 0
22.61308774399989 10.66711300567943 0
22.08385727673181 11.31714552329289 0
11.80634260144924 3.693833123604797 0
20.69468555217365 14.90173090700957 0
23.78307132187473 9.483674005794043 0
12.62521484091914 20.10421730817579 0
15.46828593158387 22.25792395213062 0
15.80898747844748 13.20268448761706 0
24.88266204422061 11.13487880441672 0
15.66235655466213 19.53862491058421 0
20.52038692986996 17.28156266282647 0
19.90624887216619 17.13625940239638 0
11.33891287729446 16.92245950727753 0
13.98719399442132 16.40986016537384 0
24.57214207232933 3.906302748835357 0
24.92313041153492 8.590393941098913 0
14.56829842531914 17.24600428242411 0
22.04459876608988 8.022527130914428 0
22.79467010205905 18.15410931821856 0
10.56934439136292 16.41525954474805 0
16.79782932774998 16.79641787495806 0
10.2482212046526 24.31261150172562 0
19.65351214946072 21.57053219900953 0
22.27081463183945 3.9332828484058 0
11.69741745756641 19.69140070932359 0
14.2067104292178 17.44352514113296 0
22.12483269774547 13.65028883064725 0
POLYGONS 4266 17064
3 27 1289 1592
3 962 360 1328
3 407 1457 1550
3 1134 433 1551
3 268 913 1099
3 543 1952 2123
3 861 376 1727
3 1201 441 1080
3 243 244 899
3 1296 338 965
3 391 439 1525
3 272 1772 1968
3 583 591 1472
3 354 784 1462
3 67 68 1120
3 1262 322 1972
3 784 363 1462
3 1216 698 1388
3 1279 583 1472
3 816 702 1321
3 1126 409 1293
3 1164 380 1426
3 474 1182 391
3 783 1245 1298
3 7 231 898
3 583 1279 2010
3 1023 461 2049
3 979 753 886
3 1182 590 391
3 664 1453 2094
3 1032 54 1974
3 761 1262 1972
3 286 20 915
3 372 1119 1156
3 40 1199 2126
3 1528 588 1523
3 230 7 898
3 987 1023 2049
3 1623 496 747
3 329 979 886
3 940 76 1371
3 1245 466 1298
3 1328 360 1543
3 243 899 1117
3 821 678 1821
3 1242 565 2105
3 1404 334 1411
3 853 697 1502
3 1430 1407 1549
3 448 920 2034
3 1199 40 1273
3 314 315 1181
3 267 268 1099
3 730 853 1502
3 390 1065 1379
3 309 310 1237
3 148 149 832
3 308 737 1121
3 877 306 1121
3 1379 481 1889
3 455 1237 1604
3 1425 413 752
3 630 1061 1985
3 700 1404 1411
3 359 583 2010
3 596 579 936
3 390 1379 1889
3 537 2007 1805
3 517 1216 1388
3 1071 1385 1921
3 678 821 1959
3 1142 1227 1558
3 556 1420 995
3 457 946 1331
3 789 1203 1731
3 151 152 1302
3 859 634 1094
3 424 1278 1227
3 43 44 661
3 782 495 1232
3 665 844 1695
3 1065 390 1235
3 685 648 1416
3 426 1205 942
3 590 1229 1890
3 1727 1148 1583
3 415 784 2057
3 571 1468 1035
3 1453 1122 2094
3 946 525 1331
3 380 1385 1071
3 784 354 2057
3 844 665 1342
3 1066 958 2053
3 25 303 815
3 789 435 1203
3 1401 398 1636
3 634 859 1463
3 1227 561 1558
3 826 503 2089
3 958 584 2053
3 597 1407 1430
3 1018 329 1739
3 936 566 1784
3 565 1242 349
3 13 1341 2032
3 640 374 760
3 503 826 2015
3 270 271 745
3 457 799 1130
3 533 1022 1232
3 598 639 2216
3 129 1659 2227
3 403 886 919
3 842 654 1661
3 619 640 760
3 1359 532 858
3 654 769 1875
3 710 508 1297
3 1258 66 802
3 52 53 1483
3 299 300 682
3 276 1147 1761
3 380 976 1426
3 569 1359 858
3 1237 455 1015
3 356 1727 1583
3 30 31 1326
3 1468 344 1035
3 2060 655 1502
3 777 384 1141
3 1088 1401 1636
3 722 1315 2029
3 639 392 2216
3 942 1205 1745
3 784 415 2073
3 479 382 2022
3 813 1010 1195
3 935 361 2112
3 382 988 2022
3 608 277 1837
3 361 935 2192
3 1191 1126 1293
3 1447 687 1263
3 834 1051 2190
3 534 877 1826
3 737 455 1827
3 1433 496 1623
3 1207 1078 529
3 806 766 1748
3 1385 541 465
3 365 1280 1940
3 1281 339 928
3 1164 435 1882
3 1229 590 669
3 346 990 1396
3 881 722 1867
3 1420 929 995
3 513 784 2073
3 1157 734 1366
3 53 1032 1483
3 1051 9 2190
3 868 1257 2081
3 352 1557 1089
3 877 534 1613
3 947 445 1292
3 508 710 1171
3 1112 543 2123
3 682 300 1602
3 596 936 1784
3 563 868 2081
3 834 1623 747
3 578 585 1246
3 1229 498 1890
3 792 1077 1778
3 329 1018 938
3 1151 254 1277
3 589 1746 1713
3 1287 655 2060
3 47 48 1216
3 321 1018 1739
3 1081 1079 1782
3 349 347 1185
3 455 1053 1790
3 276 10 1147
3 920 480 1231
3 91 1182 1816
3 668 1966 2070
3 455 737 1015
3 13 278 1341
3 990 1681 1396
3 1242 318 349
3 925 827 1174
3 972 539 1295
3 347 1423 1185
3 500 898 1760
3 1307 402 903
3 1550 1457 2097
3 1454 500 1760
3 1134 1551 1291
3 688 1528 1523
3 1281 385 1775
3 522 1280 831
3 979 181 1339
3 774 1280 1079
3 363 784 1125
3 915 20 1194
3 1281 637 792
3 1059 617 1946
3 1226 441 1824
3 391 1525 2121
3 113 114 882
3 1985 1061 2238
3 560 1447 1263
3 378 659 1000
3 32 1346 1873
3 392 639 1028
3 570 1078 1207
3 385 792 1778
3 784 513 1125
3 505 1385 465
3 654 842 900
3 309 1237 1015
3 847 647 908
3 435 1164 1786
3 935 1146 2192
3 1079 522 1782
3 1280 522 1079
3 1218 351 1789
3 385 1281 792
3 1244 457 1130
3 280 1334 1643
3 702 816 1785
3 860 616 1138
3 618 635 820
3 406 920 1231
3 1878 748 2031
3 665 1235 1342
3 453 741 814
3 585 578 2253
3 1966 914 2070
3 1102 684 1158
3 476 925 1174
3 1485 533 1232
3 282 1530 1335
3 1235 665 2005
3 448 2034 2233
3 653 1031 675
3 1792 365 1940
3 339 1795 928
3 1772 610 1968
3 541 1164 1882
3 361 1433 2112
3 1557 823 1089
3 399 1241 1593
3 507 860 1138
3 666 1055 1087
3 470 1307 903
3 787 1211 1571
3 537 336 2007
3 1053 455 1604
3 1411 691 1351
3 539 1149 1295
3 769 654 900
3 1280 365 831
3 339 1281 1775
3 579 596 1101
3 951 371 1193
3 1659 1299 2227
3 1133 1581 1365
3 613 1059 1946
3 623 451 1632
3 639 884 1028
3 1060 1884 1862
3 857 1102 1158
3 549 740 983
3 720 504 1111
3 700 1411 1351
3 842 353 900
3 1975 950 2171
3 351 1218 1880
3 1221 869 1804
3 392 951 2216
3 931 1222 1546
3 277 11 1837
3 480 920 1817
3 234 235 930
3 364 1221 1804
3 611 1062 1249
3 1060 484 1884
3 635 618 1612
3 306 877 1613
3 504 720 1597
3 740 549 1599
3 65 66 1258
3 944 512 871
3 2112 1433 2055
3 1324 693 1220
3 737 308 1015
3 1195 1010 2120
3 508 1226 1297
3 706 615 1765
3 335 2025 1730
3 615 706 1978
3 849 533 982
3 434 1159 1496
3 331 1033 2258
3 1234 1288 2240
3 1241 651 1593
3 1226 508 1322
3 1520 998 1927
3 659 378 1236
3 743 738 1783
3 24 1157 1366
3 384 777 1533
3 1534 473 1972
3 556 1184 2039
3 921 342 1374
3 647 847 1945
3 461 1023 2184
3 366 842 1622
3 2034 358 2233
3 342 921 2156
3 2029 1315 2260
3 550 1520 1927
3 925 715 1956
3 841 404 1375
3 1201 1080 1329
3 1067 438 671
3 721 682 1602
3 860 507 1677
3 40 41 1273
3 1288 326 2240
3 379 782 1232
3 822 1302 373
3 616 860 1007
3 1088 841 1375
3 545 442 1405
3 77 78 1176
3 1222 931 1162
3 959 850 1187
3 576 1324 1220
3 932 543 1112
3 1211 787 1698
3 1746 1100 1713
3 1159 851 1496
3 920 448 1817
3 498 1229 1957
3 1346 33 1656
3 1031 866 675
3 583 359 2215
3 1905 1534 1972
3 375 587 1579
3 1641 1917 1545
3 588 1411 1798
3 32 33 1346
3 265 266 993
3 993 266 1780
3 60 980 1934
3 1018 321 2014
3 603 1433 1623
3 1133 804 1581
3 644 395 2036
3 376 861 807
3 981 448 1204
3 657 950 1975
3 444 1581 1663
3 1415 502 759
3 691 436 975
3 436 422 1688
3 1369 480 1255
3 1017 641 2092
3 441 1201 1345
3 608 817 2153
3 1975 515 1311
3 562 1067 1590
3 412 436 1688
3 1341 1019 2032
3 1287 460 1217
3 1411 334 1798
3 682 721 1608
3 762 981 2155
3 540 1444 1616
3 1215 664 1653
3 353 842 1373
3 683 1199 984
3 441 1226 486
3 655 1287 1217
3 658 940 1371
3 919 886 2159
3 1444 540 1123
3 738 743 1167
3 591 583 1092
3 1110 1100 2020
3 320 931 1546
3 1963 1299 1708
3 1299 1963 2227
3 216 1308 891
3 1227 1278 2185
3 1154 944 871
3 981 409 2155
3 512 944 2129
3 721 876 1608
3 594 1110 2020
3 1278 424 1398
3 832 149 819
3 806 1748 2019
3 884 639 1225
3 954 801 1068
3 663 535 1930
3 634 430 1094
3 840 428 1725
3 744 406 580
3 1768 1206 1951
3 279 738 1167
3 1945 847 1386
3 555 1345 1645
3 254 255 1277
3 952 474 1042
3 1834 497 1733
3 920 406 1879
3 823 27 1592
3 1641 417 1917
3 957 1346 1621
3 994 1084 1306
3 738 279 1755
3 1380 194 1294
3 489 932 1112
3 1810 881 1867
3 420 1506 2025
3 395 1391 2036
3 1199 683 2100
3 923 1002 2176
3 497 1275 1733
3 1055 666 1451
3 380 1164 1488
3 652 744 1872
3 129 3 1659
3 1182 474 1816
3 15 280 1643
3 1156 1119 1389
3 1380 571 1314
3 637 1281 909
3 1280 774 1461
3 1289 572 1592
3 1590 518 1595
3 370 967 1815
3 722 881 1670
3 1346 333 1621
3 598 1032 1974
3 753 979 1339
3 1008 378 1105
3 753 1350 1417
3 1061 630 1625
3 1302 822 953
3 451 623 726
3 447 889 1455
3 397 1334 2187
3 538 999 1459
3 517 1017 2092
3 438 867 671
3 528 1183 1762
3 588 1528 1887
3 752 327 1168
3 841 555 1645
3 516 1415 1909
3 612 752 1168
3 998 1520 1518
3 1415 729 1909
3 1302 584 373
3 318 1455 1054
3 144 145 350
3 575 744 580
3 347 349 1054
3 1181 315 1340
3 626 1023 1994
3 399 1945 1386
3 562 1590 1595
3 441 1345 1824
3 67 1120 802
3 970 910 1196
3 25 815 1729
3 381 881 1810
3 307 308 1121
3 306 307 1121
3 419 1616 1071
3 461 863 1261
3 1336 606 2232
3 456 868 1687
3 624 1055 1451
3 777 1535 1533
3 1557 1797 1039
3 319 673 724
3 948 630 2002
3 430 634 1993
3 474 952 1816
3 535 663 1970
3 843 840 1725
3 1164 541 1488
3 790 1768 1951
3 1469 2169 2198
3 1184 660 2039
3 951 392 1358
3 1033 1771 2258
3 438 923 2176
3 899 1038 1117
3 1158 684 1349
3 704 1288 1953
3 2045 1104 1672
3 970 1404 1719
3 346 967 1852
3 1308 216 1394
3 1350 753 1339
3 967 370 1852
3 349 318 1054
3 1104 1889 1672
3 1023 987 1994
3 465 541 1268
3 1005 420 2025
3 999 708 1459
3 454 739 1439
3 924 1126 1726
3 466 1048 1703
3 799 457 1331
3 971 568 1660
3 33 34 1656
3 1199 728 984
3 561 1227 2185
3 1301 706 1687
3 643 756 1110
3 799 458 1717
3 524 1485 1367
3 1223 325 1752
3 1929 699 2132
3 964 1197 1466
3 864 514 1505
3 1952 1638 1989
3 2007 715 1805
3 734 1157 628
3 1001 1444 1106
3 1285 1256 1737
3 1199 2100 2126
3 338 1296 1982
3 439 1336 1274
3 958 413 1355
3 1979 629 1686
3 699 1563 2132
3 510 742 1726
3 346 964 1466
3 1306 1084 1767
3 944 848 2129
3 965 702 1785
3 931 374 1162
3 448 1029 1204
3 590 1182 2131
3 966 1328 1543
3 458 799 1331
3 1330 548 2204
3 749 1290 845
3 533 849 955
3 332 1505 1932
3 823 1557 1578
3 1417 186 1914
3 1157 638 628
3 584 1302 2053
3 979 329 1517
3 1290 653 845
3 53 54 1032
3 336 1878 2031
3 502 1415 2013
3 1094 732 1694
3 374 931 2265
3 1520 274 1518
3 1435 442 545
3 352 1797 1557
3 706 1301 1978
3 849 1655 955
3 653 1051 1031
3 569 1258 802
3 1364 1330 2204
3 1505 1154 1932
3 869 1536 1129
3 1067 25 1590
3 123 124 1506
3 464 1315 1670
3 148 832 1820
3 1907 46 1481
3 1402 371 1906
3 663 1930 1942
3 1315 722 1670
3 832 463 2144
3 330 1307 1548
3 285 19 1009
3 158 159 1443
3 1313 631 1492
3 188 189 1508
3 902 856 1072
3 731 545 1405
3 764 843 1845
3 151 1302 953
3 1045 1465 1283
3 466 1242 1298
3 967 346 1466
3 1614 204 1791
3 199 1742 1007
3 1536 973 1129
3 729 1415 759
3 856 680 1072
3 791 1115 1311
3 1960 798 1663
3 409 1126 2042
3 990 1001 1106
3 1301 2106 2199
3 879 2098 2231
3 889 604 1455
3 1332 403 1722
3 543 1638 1952
3 715 925 1585
3 577 1332 1926
3 538 1158 1349
3 815 303 1705
3 403 807 1886
3 482 990 1106
3 470 401 1441
3 1184 342 1500
3 1450 335 1730
3 1557 328 1578
3 574 1476 1160
3 1581 797 1663
3 1120 68 1047
3 764 319 2264
3 1369 238 2142
3 1288 704 2211
3 1048 709 1703
3 1380 1314 2228
3 275 9 1051
3 1444 1123 1106
3 1249 1062 1200
3 794 798 1960
3 791 873 1115
3 842 366 2033
3 1476 667 1160
3 996 1975 1311
3 1616 1444 2084
3 544 1469 1797
3 314 1181 1399
3 1073 1215 1653
3 286 915 2139
3 789 462 1905
3 338 785 786
3 914 746 1500
3 463 832 1651
3 607 1124 2201
3 532 1359 1802
3 1827 492 1747
3 1655 677 955
3 1090 1675 2210
3 260 1076 2076
3 1404 685 1719
3 533 899 982
3 579 1101 1586
3 998 1518 942
3 2280 805 1977
3 786 785 1818
3 1469 414 1797
3 881 381 2058
3 480 977 1255
3 86 1042 2162
3 198 199 1007
3 411 786 1818
3 1518 426 942
3 1850 670 904
3 270 745 1098
3 316 585 1340
3 525 949 954
3 86 87 1042
3 1026 1016 1589
3 1497 723 1284
3 661 44 1487
3 1616 1030 1071
3 887 293 1631
3 859 1094 1694
3 931 725 2265
3 1635 388 1881
3 1485 495 1367
3 1245 540 1161
3 863 614 1261
3 980 959 1934
3 685 1416 2209
3 60 61 980
3 827 1606 1174
3 466 1245 2181
3 612 1501 2278
3 220 1560 2035
3 899 533 1190
3 557 1151 1277
3 1398 439 1352
3 755 969 1356
3 1123 646 1596
3 83 84 1529
3 445 947 1895
3 1501 1379 2278
3 1606 833 1174
3 413 1425 1355
3 697 2060 1502
3 319 764 1648
3 525 946 949
3 1361 673 1145
3 540 1245 2068
3 719 1402 1906
3 660 1184 1500
3 1455 604 1054
3 1315 464 2207
3 1095 388 1635
3 436 1690 975
3 258 259 1465
3 817 608 1343
3 1153 553 1717
3 510 1364 2204
3 400 1361 1145
3 2106 563 2199
3 1402 2280 1977
3 194 1380 2228
3 2169 573 2198
3 185 186 1417
3 392 895 1358
3 121 122 1526
3 665 1695 1312
3 57 58 536
3 828 1077 792
3 1403 571 1035
3 1326 31 1873
3 559 1026 1589
3 1081 1556 1079
3 1033 331 2195
3 1391 395 793
3 1536 869 1221
3 627 1403 1035
3 416 1420 746
3 1153 458 1896
3 1346 957 1873
3 557 1277 2036
3 802 1120 1566
3 1402 719 2280
3 713 382 1524
3 1253 1469 2198
3 508 1171 1990
3 728 1199 1273
3 1148 992 1583
3 1755 13 2032
3 1787 281 1850
3 737 1827 1747
3 872 1024 1748
3 891 607 2201
3 1208 629 1979
3 673 319 1145
3 1506 124 1575
3 1171 1247 1990
3 276 1761 1264
3 637 828 792
3 1762 1183 1798
3 1556 774 1079
3 293 887 1188
3 1722 403 1886
3 171 172 1597
3 100 101 1599
3 277 608 1769
3 854 472 621
3 959 2086 1864
3 167 168 1111
3 951 1193 2216
3 104 105 983
3 371 951 2023
3 957 854 621
3 439 1274 1352
3 897 1185 1950
3 413 662 2124
3 1022 533 955
3 527 1536 1853
3 432 1605 1653
3 551 925 1956
3 1126 510 1726
3 436 412 1382
3 587 375 1513
3 495 1485 1232
3 801 1011 1068
3 861 1727 2145
3 325 1223 1448
3 113 882 1150
3 1425 752 1449
3 701 661 1487
3 1302 152 1965
3 470 1441 2206
3 43 661 1409
3 755 1003 2245
3 821 686 1959
3 90 91 1816
3 679 1264 1431
3 1037 578 1928
3 422 436 1413
3 755 1356 2241
3 100 1599 2163
3 1597 172 2164
3 1501 481 1379
3 402 1307 1999
3 965 1785 1908
3 533 1485 1190
3 746 1420 2039
3 1003 1285 2245
3 572 895 1915
3 1364 855 1189
3 1529 84 1707
3 2013 1415 1570
3 382 479 1524
3 374 640 1162
3 936 579 1766
3 1364 510 1741
3 1086 365 431
3 741 453 1610
3 640 711 1162
3 477 537 1208
3 992 627 1583
3 1225 639 1836
3 1489 2240 1479
3 1334 397 1286
3 1124 389 2107
3 355 911 1893
3 1489 897 2240
3 742 510 2204
3 181 182 1339
3 218 219 939
3 378 1008 2273
3 436 691 1528
3 1308 607 891
3 729 1491 1927
3 1152 1104 2045
3 203 204 1614
3 898 500 835
3 465 1268 1393
3 1062 611 1947
3 874 907 1118
3 947 624 1806
3 12 1536 1221
3 624 947 1961
3 164 165 1556
3 1003 1256 1285
3 107 108 828
3 1453 664 1215
3 544 1797 1801
3 212 213 1539
3 1334 280 1224
3 825 874 1118
3 825 1205 1778
3 785 338 1478
3 843 764 1931
3 577 1850 904
3 17 282 1335
3 2098 1114 2231
3 1429 833 1782
3 1137 514 1561
3 1307 330 1999
3 795 695 1464
3 875 1391 793
3 561 1390 1558
3 403 1332 1883
3 1307 470 2088
3 906 1137 1561
3 1010 813 1654
3 1508 189 2186
3 1176 78 800
3 1557 564 1876
3 328 1557 1876
3 1336 439 1904
3 118 119 1538
3 631 1313 1427
3 574 662 1863
3 1182 91 2131
3 750 399 1607
3 334 948 1762
3 419 1071 1921
3 656 1359 1566
3 647 750 1598
3 1184 556 1384
3 1675 620 2210
3 358 652 1220
3 397 1792 1665
3 1795 817 340
3 339 1475 1629
3 569 802 1566
3 745 271 1968
3 1216 48 1228
3 181 979 1517
3 824 756 468
3 554 1496 2215
3 1787 527 1853
3 1359 569 1566
3 537 676 1208
3 363 1125 1097
3 833 1429 2038
3 1622 842 1661
3 1146 1052 1547
3 1205 385 1778
3 743 1086 1167
3 681 809 628
3 301 302 867
3 522 1429 1782
3 458 1153 1717
3 1326 1873 621
3 1404 700 2027
3 539 972 1499
3 472 854 1422
3 1453 377 1628
3 515 1975 2171
3 662 413 1863
3 854 957 1621
3 1274 1336 2232
3 1943 906 1770
3 30 1326 1254
3 607 1308 1786
3 555 1372 1297
3 25 1067 671
3 1538 119 838
3 988 1614 2071
3 210 211 696
3 580 531 1333
3 1008 719 1732
3 371 809 1906
3 1044 572 1915
3 1491 550 1927
3 906 1214 1770
3 441 486 1361
3 2025 1178 1730
3 931 411 725
3 1264 606 1431
3 396 1223 1752
3 293 294 1631
3 1872 744 1846
3 886 753 2159
3 1669 370 2167
3 1061 1625 1272
3 1444 1001 2167
3 421 1444 2167
3 685 1404 2027
3 948 334 1440
3 1581 444 1365
3 234 930 1666
3 1263 645 1329
3 1952 985 2123
3 605 1344 1083
3 1125 459 1097
3 474 391 2121
3 536 850 600
3 693 358 1220
3 750 647 1945
3 806 567 2150
3 635 821 1821
3 1055 624 1195
3 631 989 1492
3 750 473 1598
3 661 701 1414
3 372 978 1833
3 1244 423 1422
3 947 1292 1961
3 668 1563 1966
3 1313 1614 1791
3 521 478 2256
3 121 1526 2239
3 756 824 1360
3 37 38 896
3 1321 702 1672
3 711 640 1541
3 1277 1091 2036
3 1245 783 674
3 1433 361 2133
3 2086 573 1864
3 673 486 724
3 1496 583 2215
3 640 697 1541
3 386 1416 1512
3 206 1271 1427
3 205 206 1427
3 1404 970 1440
3 409 981 1293
3 1438 437 1710
3 1712 824 2247
3 430 1911 2041
3 1070 1191 1856
3 887 375 1188
3 962 324 2212
3 1332 577 2063
3 552 773 1267
3 1761 606 1264
3 370 692 2167
3 2071 1614 1511
3 1237 310 1574
3 1185 1423 1950
3 1359 656 2051
3 389 1539 2107
3 781 1438 1710
3 487 1146 1547
3 924 1726 1577
3 109 110 1569
3 959 1187 1934
3 399 750 1945
3 553 1153 1248
3 1420 556 2039
3 1258 452 2110
3 606 1336 2263
3 1390 561 2217
3 1465 1045 1434
3 162 163 1572
3 83 1529 2177
3 1009 19 1971
3 501 1430 1549
3 926 532 1802
3 1141 384 2123
3 1465 723 1283
3 1037 771 1676
3 347 1054 1036
3 1067 562 1830
3 413 958 1863
3 194 195 1294
3 1236 681 628
3 480 1369 1231
3 1769 608 2153
3 483 1037 1676
3 494 1010 1654
3 1205 825 1745
3 410 1196 1922
3 1797 352 1801
3 279 13 1755
3 780 430 2041
3 126 127 758
3 1080 560 1329
3 951 405 2023
3 734 2023 1366
3 958 1066 2114
3 1023 626 1734
3 27 317 1289
3 486 518 724
3 698 1216 1228
3 188 1508 937
3 1560 601 2035
3 1873 957 621
3 981 762 1467
3 756 643 468
3 642 1417 1914
3 1086 14 1167
3 1149 539 1702
3 577 1787 1850
3 504 1597 2097
3 1599 549 1291
3 318 1242 2287
3 1460 591 1092
3 333 1346 1656
3 2117 386 1512
3 238 1369 1255
3 1008 698 1357
3 882 114 1527
3 426 1475 2047
3 584 958 1310
3 497 1439 1587
3 319 724 2264
3 75 76 940
3 568 1070 1856
3 1086 743 2046
3 973 1886 2145
3 1344 934 1083
3 496 1433 2133
3 1597 836 2097
3 625 1599 1291
3 857 1096 1446
3 899 244 982
3 1439 1222 1587
3 913 542 1099
3 575 580 1333
3 771 1037 1928
3 830 1870 1448
3 1030 1348 1071
3 389 976 1348
3 851 1460 1092
3 1122 1453 1628
3 1238 563 2081
3 1153 708 1248
3 1196 892 1922
3 662 574 1160
3 649 2061 1750
3 1603 420 1005
3 641 1907 1481
3 1410 627 2130
3 1096 857 1158
3 878 402 1999
3 680 1558 1700
3 787 1895 1806
3 649 1603 1005
3 858 532 1892
3 47 1216 1481
3 1558 1390 1700
3 611 1634 1947
3 486 673 1361
3 1884 484 1978
3 1141 728 1682
3 585 316 2030
3 545 731 1983
3 1014 478 1596
3 698 1008 1388
3 478 482 1596
3 448 981 1817
3 1390 749 1544
3 1076 1192 2076
3 20 289 1050
3 895 392 1028
3 1792 407 1665
3 433 1795 340
3 342 1184 1374
3 1325 795 1464
3 884 536 600
3 1485 524 1190
3 482 1123 1596
3 1178 1506 1575
3 1152 320 2178
3 751 617 2140
3 402 1096 2151
3 879 488 2098
3 167 1111 2175
3 983 105 1140
3 824 1084 2247
3 1020 864 2152
3 973 527 1886
3 1104 1152 2178
3 1457 504 2097
3 651 1241 1838
3 789 1905 1132
3 806 2150 2271
3 549 1134 1291
3 609 545 1983
3 285 1009 1300
3 294 295 933
3 1687 868 2106
3 1038 899 1190
3 648 685 2027
3 425 1519 997
3 1660 568 1251
3 473 750 1948
3 828 637 1179
3 1844 526 1993
3 1518 274 1860
3 774 1556 1553
3 1844 1993 1980
3 651 1050 1593
3 809 734 628
3 357 1172 1378
3 910 970 1719
3 452 1107 2110
3 888 1149 1702
3 1042 485 2162
3 867 302 671
3 816 2127 2009
3 1050 398 1593
3 1455 318 1807
3 646 1123 2068
3 848 944 2170
3 708 1153 1335
3 1192 878 776
3 357 1702 1172
3 1762 948 2002
3 1242 1703 2287
3 962 2212 1735
3 528 1538 838
3 334 1404 1440
3 365 1224 431
3 292 293 1188
3 850 959 1864
3 1508 1148 1727
3 990 346 1852
3 560 1263 1329
3 1732 681 1236
3 739 454 2248
3 1142 1529 1227
3 630 948 1625
3 1096 402 1446
3 777 1141 1682
3 107 828 1179
3 1556 165 1553
3 1411 588 1887
3 288 1372 1897
3 1400 347 1036
3 1054 604 1036
3 485 1042 2121
3 27 823 2030
3 382 713 1074
3 72 73 1320
3 472 1568 2249
3 1443 159 1006
3 1429 743 1510
3 23 288 1897
3 1605 432 2080
3 1895 947 1806
3 28 273 0
3 1368 1142 1558
3 1529 424 1227
3 1119 372 2262
3 1216 517 2092
3 719 1008 1357
3 627 1410 1583
3 652 358 2034
3 1223 396 1710
3 84 85 1707
3 746 660 1500
3 1091 644 2036
3 1042 474 2121
3 1732 719 1906
3 352 1044 1801
3 759 502 1936
3 1334 1224 2187
3 1223 383 1448
3 639 598 1974
3 1504 558 1147
3 878 723 776
3 680 1368 1558
3 308 309 1015
3 1119 394 1715
3 1496 554 1709
3 1505 514 2146
3 230 898 835
3 1077 1569 1778
3 1572 1081 1782
3 1530 708 1335
3 1664 444 1663
3 515 837 1311
3 1438 781 2074
3 350 145 2085
3 1126 924 2042
3 855 1364 1741
3 1410 356 1583
3 896 539 1499
3 778 1119 1715
3 798 1551 340
3 1550 791 1665
3 1160 530 2200
3 274 8 1860
3 490 1380 2154
3 284 18 1537
3 212 1539 1902
3 781 853 2074
3 1599 625 2163
3 836 1597 2164
3 81 82 1368
3 629 1755 2032
3 478 521 2067
3 344 1468 820
3 851 1159 1984
3 603 1491 1829
3 1055 2120 2062
3 405 951 2069
3 1569 825 1778
3 132 1309 2041
3 833 1572 1782
3 787 846 1698
3 1236 628 1673
3 1203 829 1731
3 589 945 1746
3 752 413 2124
3 930 235 1667
3 273 28 1772
3 406 744 1879
3 1497 1284 1916
3 1301 1884 1978
3 1875 769 1696
3 272 273 1772
3 1769 339 1629
3 572 1044 1592
3 1043 531 1471
3 905 706 1633
3 241 1043 1471
3 1360 456 1843
3 450 923 1701
3 578 863 1928
3 77 1176 1371
3 1568 745 2249
3 508 1595 1322
3 1148 1508 2186
3 1526 826 2239
3 305 306 1613
3 1640 626 1708
3 1348 380 1071
3 164 1556 1266
3 828 108 1835
3 617 751 726
3 285 1300 1679
3 1127 388 1095
3 1128 1330 1949
3 1838 1241 2066
3 1135 787 1571
3 10 275 1290
3 1428 137 1737
3 1509 476 1783
3 756 1360 1843
3 944 1154 1630
3 662 1160 2200
3 355 1893 1555
3 835 500 1521
3 1391 875 1822
3 238 239 2142
3 1029 568 1856
3 241 242 1043
3 201 382 1074
3 1090 1923 2244
3 1946 519 1363
3 1754 559 1950
3 1605 1073 1653
3 620 1210 1891
3 1332 1722 1926
3 382 201 1808
3 934 1136 1219
3 535 1176 1930
3 1603 649 1750
3 1184 875 1374
3 1078 570 1981
3 1763 330 1548
3 1626 389 1348
3 1416 1175 2209
3 1324 1891 2218
3 696 694 692
3 1159 442 1984
3 491 999 1349
3 424 1529 1707
3 1210 547 1891
3 859 1574 1377
3 370 696 692
3 764 1705 1931
3 949 520 954
3 814 741 1338
3 424 1525 1398
3 862 1078 1981
3 989 631 1173
3 1165 463 1962
3 1438 425 997
3 126 758 1473
3 358 693 1910
3 753 1417 2159
3 460 989 1173
3 988 382 1808
3 558 1504 2185
3 523 1754 1819
3 555 1297 1824
3 1424 154 1476
3 696 211 1902
3 500 1726 1521
3 1536 527 973
3 463 1651 1962
3 965 338 1507
3 449 1127 1095
3 959 980 2086
3 749 1504 2180
3 1330 387 1949
3 246 247 1655
3 691 1411 1887
3 541 1385 1488
3 365 1086 831
3 1475 339 1775
3 601 1534 2220
3 1242 466 1703
3 525 954 1068
3 1385 380 1488
3 134 135 1057
3 154 155 1476
3 706 905 1687
3 744 652 1879
3 911 1963 1708
3 3 1144 1749
3 1392 698 1874
3 972 36 1499
3 377 1453 1740
3 158 1443 1777
3 1075 1029 1910
3 932 489 1855
3 1064 552 1267
3 990 482 1681
3 1136 934 736
3 1726 742 1521
3 758 429 1473
3 1491 367 1829
3 215 216 891
3 350 2085 2006
3 1529 1142 2177
3 2240 326 1479
3 1180 1282 1994
3 1176 535 2191
3 1884 1301 2199
3 706 1000 1633
3 1534 462 2220
3 1185 897 1564
3 999 538 1349
3 1417 642 2159
3 1034 530 1913
3 376 1508 1727
3 1001 990 1669
3 704 2006 2211
3 1010 494 1881
3 2006 795 2211
3 493 602 1103
3 867 438 1849
3 1695 345 1312
3 931 320 1437
3 1179 637 1370
3 513 926 1477
3 748 1168 2031
3 774 1553 1040
3 389 1124 1493
3 62 63 1854
3 411 931 1437
3 929 1420 1383
3 749 1390 2217
3 1732 1236 2273
3 926 595 1477
3 1268 1213 1166
3 223 224 1649
3 454 1439 1304
3 622 1721 1584
3 581 1632 1683
3 1156 326 1288
3 1435 2212 1658
3 437 1223 1710
3 563 1238 2199
3 905 456 1687
3 874 825 2050
3 593 1034 1913
3 669 590 2131
3 1197 964 2179
3 1416 386 1935
3 427 932 1855
3 739 2178 1546
3 329 938 1517
3 863 461 1928
3 442 1159 1180
3 1175 1416 1935
3 333 946 1621
3 696 370 1815
3 1026 559 1617
3 1214 459 1239
3 1526 420 2015
3 788 1214 1239
3 286 2139 2279
3 919 376 807
3 299 682 1627
3 294 933 1631
3 1400 523 1819
3 716 972 1295
3 336 537 1878
3 908 647 1560
3 1102 857 1076
3 766 806 1714
3 1423 1754 1950
3 1508 376 937
3 1582 381 1810
3 1008 1105 1388
3 438 1067 1830
3 227 228 890
3 323 1268 1166
3 536 58 1187
3 987 1180 1994
3 1474 1305 1757
3 1245 1161 2181
3 978 707 1833
3 703 993 1780
3 1151 654 1976
3 2212 324 1658
3 344 820 1652
3 950 657 2014
3 875 883 1822
3 689 599 1749
3 883 366 1822
3 945 368 1746
3 1026 4 1938
3 1891 547 2218
3 1804 344 1652
3 791 837 1665
3 1664 798 340
3 2120 337 2062
3 964 460 1173
3 946 333 949
3 1542 1755 1831
3 701 1907 2213
3 1111 772 2175
3 582 983 1140
3 216 217 1394
3 1721 586 1584
3 2003 812 1936
3 298 751 2140
3 109 1569 1835
3 1380 490 2054
3 321 950 2014
3 187 188 937
3 897 1489 1564
3 1705 26 1931
3 537 477 1878
3 50 1718 1874
3 695 795 2006
3 892 759 1936
3 603 1623 2113
3 1152 2045 1507
3 36 972 2194
3 1385 505 1921
3 571 1380 2054
3 258 1465 1434
3 1135 501 1549
3 519 1136 736
3 829 939 1731
3 144 350 1418
3 1572 163 1266
3 505 1058 2236
3 1433 603 2055
3 864 1020 2183
3 503 1183 2089
3 761 1375 2059
3 1284 878 1999
3 709 1058 1807
3 460 964 1442
3 1420 416 2243
3 1634 611 2033
3 964 346 1396
3 511 1169 2116
3 1047 69 1532
3 751 298 1627
3 1204 1029 1856
3 956 1854 2098
3 57 536 1225
3 1539 694 1902
3 3 130 1144
3 1119 778 1389
3 565 1489 735
3 989 460 1900
3 1715 1711 2222
3 274 1520 2190
3 351 1320 1789
3 568 971 1498
3 1058 709 2236
3 1147 558 1761
3 1705 764 2264
3 939 462 1731
3 302 25 671
3 853 781 1353
3 2085 695 2006
3 4 1026 852
3 356 1410 1129
3 429 355 1212
3 1011 283 1896
3 896 38 2100
3 207 208 1859
3 867 721 1602
3 804 1133 1957
3 417 1453 1215
3 850 536 1187
3 1177 581 1683
3 843 1400 1036
3 149 150 819
3 970 1196 1445
3 501 1135 1571
3 383 1223 1969
3 240 241 1471
3 1076 857 2078
3 284 1537 1989
3 853 730 2261
3 1078 862 2079
3 558 2185 1352
3 1429 522 2046
3 385 1205 2047
3 1560 647 2075
3 1457 407 1461
3 433 1134 909
3 602 377 1103
3 1133 498 1957
3 670 950 904
3 132 133 1309
3 1711 783 2222
3 136 137 1428
3 2116 1169 2143
3 1299 1640 1708
3 821 393 2009
3 925 551 1987
3 1489 565 1564
3 2139 971 2279
3 1772 28 2282
3 1475 1775 2047
3 895 572 1358
3 28 29 2282
3 1320 73 1789
3 1223 437 1969
3 972 716 2194
3 766 872 1748
3 1058 447 1807
3 686 821 2009
3 1930 902 1942
3 19 284 1638
3 2178 320 1546
3 1288 1234 1953
3 712 1135 1549
3 463 1494 2144
3 831 1086 2046
3 827 925 1987
3 1085 1156 1288
3 1403 627 1619
3 761 1401 1375
3 237 977 2203
3 190 191 992
3 1029 448 2233
3 825 1569 2050
3 638 945 2108
3 106 107 1179
3 165 166 1553
3 611 1373 2033
3 923 450 2272
3 846 787 1806
3 870 1964 1764
3 1124 607 1493
3 905 589 1713
3 641 1017 2213
3 1556 1081 1266
3 785 2134 1524
3 1077 828 1835
3 694 696 1902
3 1572 833 592
3 1000 706 1765
3 2057 1460 1516
3 697 853 1541
3 812 1922 1936
3 1031 1051 747
3 1633 659 2108
3 1574 311 1377
3 567 936 2150
3 744 575 1846
3 911 758 1963
3 1727 356 2145
3 734 809 2023
3 680 856 1996
3 825 1118 1745
3 876 721 1412
3 562 1595 1990
3 889 447 2138
3 478 1014 2256
3 591 1460 2057
3 1157 733 1794
3 1150 882 2013
3 530 1160 1316
3 1544 1072 1700
3 969 755 1611
3 981 1204 1293
3 555 841 1897
3 1993 634 1980
3 263 264 1644
3 504 1457 2229
3 1134 549 2158
3 381 1137 2058
3 1748 1024 2218
3 565 349 1185
3 447 1455 1807
3 894 852 2103
3 250 251 865
3 543 932 2189
3 94 95 1012
3 327 1034 2031
3 419 1161 1616
3 1415 516 1570
3 833 1606 592
3 177 178 1230
3 943 934 1219
3 1504 1147 2180
3 523 1400 1725
3 320 1152 1437
3 654 1151 1661
3 434 1496 1709
3 1519 808 2018
3 862 1116 2079
3 146 147 885
3 1880 1218 1680
3 499 1072 1544
3 818 799 1717
3 210 696 1815
3 331 795 1325
3 1044 352 1089
3 875 1184 1384
3 2127 686 2009
3 236 237 2203
3 678 1979 1686
3 214 1124 2107
3 1884 916 1862
3 864 1505 2152
3 1232 1022 2160
3 1151 557 1661
3 329 886 1883
3 1870 325 1448
3 701 1487 1907
3 1625 410 1272
3 855 1901 1189
3 738 1755 1542
3 758 127 1963
3 2023 405 1366
3 437 1438 796
3 254 1151 1976
3 442 1435 1984
3 510 1126 1814
3 728 1273 1682
3 366 1622 1822
3 283 17 1896
3 458 1011 1896
3 391 590 1904
3 439 391 1904
3 1368 680 1996
3 1964 401 1764
3 840 26 2052
3 1133 679 1431
3 816 1321 2127
3 826 1526 2015
3 1056 1827 1790
3 1273 471 1682
3 652 1872 1220
3 566 936 1531
3 2122 866 2182
3 1126 1191 1814
3 1340 585 2253
3 173 174 873
3 98 99 794
3 1090 880 1675
3 773 552 1202
3 514 864 2115
3 886 403 1883
3 1527 115 1939
3 119 120 838
3 375 887 1951
3 1160 667 1316
3 489 1238 2081
3 1141 985 1716
3 787 1135 1895
3 2031 1034 1800
3 808 1519 1839
3 582 1179 1370
3 514 1137 1630
3 1136 519 1946
3 1519 425 1839
3 1553 772 1040
3 1296 965 1908
3 553 818 1717
3 936 567 1531
3 229 230 835
3 449 922 1841
3 821 635 1612
3 660 746 2039
3 425 1438 2074
3 196 197 1436
3 440 1823 2286
3 627 992 1619
3 638 1157 1794
3 1137 906 2058
3 838 826 2089
3 887 790 1951
3 1444 421 2084
3 818 542 1130
3 432 943 1219
3 903 402 2151
3 926 513 1064
3 843 1036 1845
3 281 15 1850
3 627 1035 2130
3 1752 844 1834
3 945 589 2108
3 394 1119 2018
3 1002 923 2272
3 1569 1077 1835
3 1489 778 2222
3 762 977 1467
3 698 1392 1357
3 1183 503 1523
3 1070 510 1814
3 1827 455 1790
3 901 813 1495
3 348 1801 1915
3 795 331 1503
3 588 1183 1523
3 872 22 2111
3 1081 1572 1266
3 315 316 1340
3 1125 513 1477
3 683 896 2100
3 547 1210 2019
3 301 867 1602
3 459 1125 2017
3 1854 1114 2098
3 1462 363 1397
3 11 276 1264
3 1763 622 1113
3 435 789 2044
3 568 1029 1251
3 1191 1070 1814
3 342 1763 1113
3 1491 603 2113
3 511 1880 1680
3 613 1946 1363
3 1474 677 1305
3 351 1582 1810
3 1403 192 1314
3 1923 650 2244
3 111 874 2050
3 2013 882 2003
3 1087 1055 2062
3 313 1399 2214
3 423 1244 2137
3 1681 770 1396
3 287 1576 2111
3 978 372 2250
3 778 1489 1479
3 399 1593 1607
3 10 1290 2180
3 977 480 1467
3 379 1232 2160
3 1892 532 1799
3 1436 197 2225
3 2277 440 2286
3 837 397 1665
3 817 1664 340
3 1579 446 2274
3 607 976 1493
3 863 578 1246
3 872 766 1848
3 923 438 1830
3 246 1655 2283
3 1205 426 2047
3 536 884 1225
3 1854 63 1781
3 799 818 1130
3 743 1429 2046
3 832 819 1651
3 1124 214 2201
3 1718 1392 1874
3 1368 82 2177
3 1506 420 1885
3 154 1424 1591
3 976 380 1348
3 1157 24 2135
3 1144 526 1749
3 1872 576 1220
3 1110 594 1704
3 1590 25 1729
3 457 1244 1866
3 907 874 1888
3 841 1088 2083
3 865 251 1696
3 614 863 2065
3 1650 605 2094
3 153 154 1591
3 278 12 1221
3 502 2013 2003
3 397 837 1286
3 1257 1712 2247
3 870 2151 1260
3 845 653 675
3 1016 1026 1938
3 123 1506 1885
3 664 943 1653
3 1030 1626 1348
3 837 515 1286
3 1641 991 1103
3 1324 576 1891
3 1149 520 1295
3 1459 708 1530
3 1443 1987 2026
3 528 838 2089
3 223 1649 633
3 404 841 1645
3 1919 668 1338
3 697 640 2060
3 655 2067 2226
3 498 1133 1431
3 1136 1946 2281
3 1664 817 1343
3 1475 426 1860
3 564 1552 1876
3 1230 1018 2014
3 874 111 1888
3 125 126 1473
3 1504 749 2217
3 595 926 1802
3 78 79 800
3 1019 1341 1270
3 847 1649 1386
3 1048 419 1921
3 896 683 1172
3 444 1664 1343
3 894 2103 1618
3 420 1526 1885
3 1029 1075 1251
3 723 878 1284
3 1917 417 2012
3 1229 1012 1957
3 640 619 2060
3 1666 930 2042
3 1123 540 2068
3 870 1459 1530
3 1551 433 340
3 407 1550 1665
3 1257 868 1712
3 749 845 1544
3 923 562 1701
3 532 926 1267
3 539 896 1172
3 1453 417 1740
3 1946 617 2281
3 907 1150 2013
3 420 1603 2015
3 950 321 904
3 702 965 2045
3 1051 653 1697
3 1050 289 1636
3 890 228 1276
3 1309 780 2041
3 1162 711 1587
3 1576 1024 2111
3 721 867 1849
3 1891 576 1958
3 446 733 1955
3 1305 636 1757
3 1070 855 1741
3 604 889 1648
3 416 1563 2011
3 401 470 1764
3 650 1087 2244
3 1987 551 2026
3 1210 1675 1531
3 1135 712 1170
3 396 1752 1834
3 452 858 1892
3 811 1047 1532
3 901 1917 2012
3 1526 122 1885
3 1137 381 2223
3 1659 599 1640
3 355 434 1212
3 398 1050 1636
3 1312 1425 2005
3 9 274 2190
3 73 74 1789
3 363 1620 1397
3 1801 1044 1915
3 1579 587 1857
3 1069 1952 1989
3 118 1538 1985
3 1468 571 2054
3 1355 1425 1312
3 345 1695 1870
3 583 1496 1092
3 1552 564 2096
3 1695 325 1870
3 1159 434 1840
3 446 779 2274
3 808 1362 2256
3 605 1083 2094
3 1465 259 2076
3 371 1402 2125
3 1576 287 1774
3 218 939 2173
3 1509 1783 1542
3 1399 763 2214
3 1110 756 1843
3 368 1579 1857
3 1027 757 918
3 449 1095 1177
3 1256 1428 1737
3 868 563 2106
3 1838 915 1194
3 1538 630 1985
3 1030 1616 2084
3 868 456 1360
3 1210 567 2019
3 2134 713 1524
3 303 26 1705
3 531 580 1490
3 16 401 1964
3 743 1783 1510
3 741 1919 1338
3 146 885 2085
3 645 1262 2059
3 520 1646 954
3 1017 517 2259
3 1459 870 1260
3 1003 755 2241
3 419 1048 2181
3 1766 579 2087
3 779 446 1955
3 617 1059 2140
3 344 1804 2130
3 1165 830 1448
3 723 1497 1283
3 462 1534 1905
3 1345 1201 1645
3 1423 347 1819
3 1496 851 1092
3 985 1141 2123
3 913 268 2230
3 244 245 982
3 813 901 1654
3 447 1058 2091
3 377 1641 1103
3 1051 834 747
3 1127 449 1841
3 1108 2082 1758
3 68 69 1047
3 546 1406 2127
3 1634 775 1947
3 376 919 2275
3 1400 843 1725
3 976 389 1493
3 1142 1368 2177
3 1100 1110 1843
3 1141 1716 2064
3 907 2013 1570
3 1115 996 1311
3 797 1960 1663
3 367 1491 1647
3 1969 1033 2188
3 846 1451 754
3 1222 1162 1587
3 1439 497 1304
3 589 1633 2108
3 1579 368 446
3 296 297 1059
3 812 1939 1272
3 1069 1537 1868
3 1786 1164 1426
3 1537 888 1868
3 1406 477 1979
3 1282 1893 1994
3 550 1623 1728
3 1083 934 943
3 42 43 1409
3 1050 651 1194
3 840 843 1931
3 620 1891 1958
3 664 1083 943
3 2103 428 1618
3 1070 568 1498
3 418 1241 1386
3 80 856 1689
3 1065 1235 2005
3 494 1605 1635
3 1451 666 754
3 752 612 1449
3 14 279 1167
3 423 913 2230
3 683 984 1378
3 1169 511 1642
3 945 638 1794
3 1478 338 1982
3 1144 430 1993
3 520 1149 1646
3 564 1557 1039
3 1893 626 1994
3 313 314 1399
3 1406 686 2127
3 1563 699 2011
3 1491 729 1647
3 92 93 669
3 852 894 1609
3 1095 581 1177
3 42 1409 2101
3 261 262 1102
3 526 689 1749
3 1123 482 1106
3 428 840 2166
3 723 1465 776
3 1021 1932 871
3 2130 1804 1685
3 684 1644 1349
3 927 1021 871
3 481 1501 2077
3 656 1566 2024
3 104 983 1317
3 1111 168 2118
3 881 1943 1670
3 1623 834 1728
3 179 180 938
3 1943 464 1670
3 567 806 2019
3 1566 1120 2024
3 645 2059 1269
3 956 1155 2086
3 1582 351 1880
3 705 1169 1642
3 1043 242 1117
3 1939 1061 1272
3 1241 399 1386
3 192 1403 1619
3 1087 1243 2244
3 773 1202 1692
3 699 1207 529
3 1258 569 1594
3 999 491 1894
3 450 1701 2271
3 1245 674 2068
3 1482 769 900
3 856 80 1996
3 475 2122 2182
3 2189 932 2266
3 976 607 1426
3 714 1009 1971
3 655 1217 2067
3 1058 505 1933
3 1869 624 1961
3 983 740 1317
3 720 1111 2118
3 1454 232 2242
3 476 1174 1510
3 1320 722 2029
3 810 890 1276
3 1525 424 1554
3 651 1838 1194
3 1188 375 2274
3 1626 421 1671
3 932 427 2266
3 885 147 1820
3 72 1320 2029
3 1649 847 633
3 152 153 1965
3 141 142 1209
3 445 1249 1200
3 114 115 1527
3 2164 873 1678
3 794 2163 1600
3 1009 453 1300
3 1193 371 2125
3 29 30 1254
3 159 160 1006
3 1344 605 960
3 398 1401 1948
3 421 1626 2084
3 939 829 2173
3 322 1262 1166
3 618 820 1736
3 1655 849 2283
3 271 272 1968
3 676 537 1805
3 939 219 2035
3 879 452 1892
3 559 1754 1617
3 1998 872 1848
3 207 1859 2269
3 1539 389 1944
3 758 911 1813
3 1210 620 1675
3 733 1157 2135
3 1372 710 1297
3 702 2045 1672
3 20 1050 1194
3 941 1514 672
3 694 1539 1944
3 161 1606 1918
3 1520 550 1728
3 275 1051 1697
3 580 2149 1490
3 26 304 2052
3 1789 74 1674
3 1690 436 1382
3 1595 508 1990
3 665 1312 2005
3 1456 469 2099
3 402 878 1446
3 1606 161 592
3 1597 720 1753
3 740 1599 1319
3 1486 1045 644
3 594 1823 1704
3 725 411 1818
3 1235 454 1342
3 22 872 1998
3 76 77 1371
3 654 1875 1976
3 1626 1030 2084
3 790 887 1631
3 643 1110 1704
3 1605 581 1635
3 819 150 953
3 477 1406 1912
3 531 1043 2037
3 470 903 1764
3 1407 597 1482
3 1450 429 1212
3 820 1468 1736
3 898 231 1760
3 866 1109 2182
3 715 1509 1805
3 812 1527 1939
3 337 1101 2056
3 1610 1559 2165
3 1605 494 2193
3 473 1534 1598
3 1913 2026 912
3 209 210 1815
3 878 1192 2078
3 14 1086 431
3 1330 1364 1189
3 1913 917 2026
3 1073 1605 2193
3 510 1070 1741
3 870 1530 1964
3 278 1221 1341
3 1108 966 2082
3 147 148 1820
3 327 752 2124
3 822 819 953
3 619 760 1995
3 847 908 633
3 221 222 908
3 1777 1443 2026
3 993 703 1131
3 889 2138 1145
3 885 695 2085
3 1038 1043 1117
3 1101 596 2056
3 353 1482 900
3 1501 612 2202
3 452 1258 1594
3 2086 1155 2198
3 328 1246 1578
3 727 885 1820
3 453 1559 1610
3 1241 418 2066
3 401 16 1441
3 924 1454 2242
3 1783 738 1542
3 462 789 1731
3 1062 1947 1796
3 1563 416 1966
3 1439 739 1546
3 1878 477 1912
3 992 1148 2186
3 481 1321 1672
3 519 1768 1363
3 1506 1178 2025
3 856 902 1689
3 46 47 1481
3 1473 1178 1575
3 1821 678 1686
3 235 236 1667
3 1375 404 2059
3 1509 715 1585
3 430 780 2268
3 1032 690 1483
3 860 1436 2225
3 143 144 1418
3 769 865 1696
3 826 838 2239
3 256 257 1486
3 1209 894 1618
3 962 509 1480
3 324 962 1480
3 1105 517 1388
3 717 1344 960
3 940 658 1680
3 714 2189 2266
3 550 1491 2113
3 355 429 1813
3 1246 585 1578
3 1901 855 2139
3 156 157 1265
3 449 1177 1412
3 983 582 2158
3 476 1509 1585
3 772 1111 2229
3 890 810 1706
3 353 1407 1482
3 855 1070 1498
3 599 1734 1640
3 1435 545 2212
3 880 1090 2244
3 517 1105 2259
3 574 1424 1476
3 24 290 2135
3 26 840 1931
3 937 642 1914
3 2138 400 1145
3 911 355 1813
3 462 939 2220
3 1947 493 1796
3 368 945 1691
3 1595 518 1322
3 1261 731 2049
3 341 1872 1846
3 924 1666 2042
3 1221 364 1341
3 323 1263 1393
3 1806 624 1451
3 645 1263 2109
3 1550 836 1678
3 625 1551 1600
3 1019 1821 1686
3 429 758 1813
3 1710 396 1733
3 192 193 1314
3 783 1298 735
3 548 890 1706
3 549 983 2158
3 1111 504 2229
3 1161 540 1616
3 434 355 1555
3 997 1519 1833
3 316 27 2030
3 1920 507 2000
3 1256 1003 1877
3 1062 991 1200
3 1053 1057 1790
3 1060 506 1414
3 915 1901 2139
3 636 961 1430
3 1406 546 1912
3 190 992 2186
3 1742 616 1007
3 65 1258 2110
3 1534 601 2075
3 1655 247 1303
3 534 1826 2241
3 393 821 1612
3 638 2108 1673
3 453 814 1300
3 1244 1422 1866
3 37 896 1499
3 791 1550 1678
3 1551 798 1600
3 642 937 2275
3 1098 745 1568
3 1057 135 1327
3 265 993 2028
3 134 1057 2102
3 942 516 1909
3 290 291 1955
3 765 1920 2000
3 1049 879 1892
3 1613 1601 2147
3 496 1031 747
3 112 113 1150
3 499 845 675
3 94 1012 1668
3 1230 178 1861
3 1748 547 2019
3 1059 613 2196
3 809 681 1906
3 2253 1037 2119
3 310 311 1574
3 1218 1789 1674
3 1356 534 2241
3 1372 555 1897
3 263 1644 2257
3 770 478 2067
3 381 1582 2170
3 708 999 1248
3 571 1403 1314
3 1538 528 2002
3 1746 368 2020
3 562 923 1830
3 1701 562 1990
3 171 1597 1753
3 1599 101 1319
3 260 261 1076
3 1702 357 1868
3 1807 318 2287
3 1601 963 2147
3 858 452 1594
3 807 861 1886
3 701 1060 1414
3 748 1878 1912
3 865 769 1482
3 1229 669 1668
3 173 873 2164
3 794 99 2163
3 22 287 2111
3 838 120 2239
3 1380 1294 2154
3 1091 1486 644
3 938 1018 1861
3 1060 701 2043
3 991 1062 1796
3 630 1538 2002
3 1000 659 1633
3 357 984 1716
3 1582 848 2170
3 1186 941 672
3 929 1383 2095
3 1012 1229 1668
3 1606 827 1918
3 259 260 2076
3 1018 1230 1861
3 623 1219 2281
3 1178 1473 1730
3 333 1656 2197
3 232 1454 1760
3 1219 1136 2281
3 542 913 2137
3 1525 439 1398
3 609 1552 1735
3 1161 419 2181
3 1024 872 2111
3 913 423 2137
3 1537 1069 1989
3 287 21 1774
3 44 45 1487
3 1175 1935 1829
3 721 922 1412
3 998 942 1909
3 1826 1003 2241
3 1882 1213 1268
3 1805 1509 1542
3 1409 471 2101
3 888 1702 1868
3 541 1882 1268
3 174 175 1115
3 97 98 1960
3 1177 876 1412
3 408 1920 1744
3 597 865 1482
3 1811 1128 1949
3 586 814 1338
3 1367 1027 918
3 1821 1019 1270
3 1042 87 1937
3 599 1659 1749
3 726 751 2048
3 1367 495 1323
3 836 2164 1678
3 2163 625 1600
3 1263 687 1393
3 4 143 1938
3 1711 646 674
3 1292 718 1961
3 951 1358 2069
3 418 1811 1949
3 1027 1367 1323
3 337 2120 2252
3 1539 213 2107
3 506 1060 1862
3 836 1550 2097
3 1551 625 1291
3 442 1180 1405
3 1510 1174 2038
3 1563 668 2132
3 985 1952 2072
3 810 835 1521
3 875 793 1374
3 684 1102 2257
3 220 221 1560
3 296 1059 2196
3 1105 615 2259
3 2150 450 2271
3 1087 650 1093
3 1569 110 2050
3 614 1552 1983
3 1644 684 2257
3 335 1450 1986
3 725 1818 1738
3 219 220 2035
3 2154 408 1744
3 1450 554 1986
3 1552 614 1876
3 2009 393 1624
3 666 1087 1093
3 227 890 1163
3 1935 603 1829
3 884 600 2128
3 952 1042 1937
3 676 1805 1542
3 447 1447 2138
3 389 1626 1944
3 1401 761 2093
3 1387 808 2256
3 403 919 807
3 783 1711 674
3 569 858 1594
3 1256 492 2136
3 1265 157 1777
3 852 523 2103
3 66 67 802
3 634 1463 1980
3 1771 1033 1969
3 1144 130 1911
3 1907 641 2213
3 1105 378 1765
3 925 476 1585
3 378 1000 1765
3 1552 609 1983
3 506 1535 2161
3 1043 1038 2037
3 461 1261 2049
3 427 1084 2165
3 922 721 1849
3 225 226 1858
3 288 22 1997
3 579 1127 2087
3 1155 488 2082
3 326 1156 1389
3 1589 1016 1953
3 1535 777 2161
3 1675 566 1531
3 785 1478 2134
3 1552 360 1735
3 482 478 1681
3 676 1542 1831
3 922 449 1412
3 1474 501 1571
3 554 1450 1212
3 883 875 1384
3 226 227 1163
3 888 1537 1899
3 732 780 2141
3 269 270 1098
3 264 265 2028
3 1995 760 2221
3 1401 1088 1375
3 658 1642 1680
3 451 726 2048
3 1046 1097 1954
3 1263 323 2109
3 1695 844 1752
3 45 46 1907
3 518 486 1322
3 500 1454 1577
3 509 962 1328
3 1632 581 2080
3 58 59 1187
3 1628 343 1116
3 950 670 2171
3 516 942 1745
3 368 1857 2020
3 1944 1626 1671
3 1613 534 1601
3 1859 967 1466
3 1084 994 2165
3 1644 491 1349
3 1833 1519 2262
3 1238 916 2199
3 1176 800 1930
3 1253 1155 2082
3 252 253 1875
3 973 356 1129
3 36 37 1499
3 961 597 1430
3 1383 1420 2243
3 233 234 1666
3 1048 466 2181
3 366 1634 2033
3 1454 924 1577
3 958 1355 1310
3 162 1572 592
3 191 192 1619
3 518 1590 1729
3 249 961 1484
3 1447 447 2091
3 1045 1486 1434
3 122 123 1885
3 1011 801 1793
3 478 770 1681
3 176 177 1803
3 95 96 986
3 1211 1474 1571
3 1536 12 1853
3 1365 444 2208
3 936 1766 2150
3 372 1833 2262
3 1646 801 954
3 557 1622 1661
3 444 1343 2208
3 125 1473 1575
3 456 905 1713
3 1048 1921 2236
3 484 1060 2043
3 79 80 1689
3 1811 225 1858
3 1214 906 1954
3 675 866 2122
3 1025 850 1864
3 602 493 1013
3 687 465 1393
3 1113 622 1584
3 334 1762 1798
3 1416 648 1512
3 360 1552 2096
3 1085 1288 2211
3 1066 1424 2114
3 1620 363 1097
3 984 357 1378
3 140 141 1611
3 297 298 2140
3 1046 1620 1097
3 1180 987 1405
3 1147 10 2180
3 1621 946 1082
3 1910 1029 2233
3 491 993 1131
3 526 1844 689
3 1991 1253 2082
3 467 839 1522
3 1596 646 1376
3 91 92 2131
3 984 728 2064
3 914 1584 2070
3 1424 574 2114
3 1537 18 1899
3 369 1929 2132
3 1494 463 2188
3 180 181 1517
3 1099 542 1903
3 969 1209 1618
3 366 883 2246
3 505 465 1933
3 759 892 2172
3 578 1037 2253
3 1286 515 2171
3 679 1133 1365
3 729 759 1647
3 80 81 1996
3 1823 803 1704
3 1002 1766 2087
3 110 111 2050
3 426 1518 1860
3 800 902 1930
3 1014 1596 1376
3 966 1991 2082
3 698 1228 1874
3 412 1462 1397
3 929 602 1013
3 406 1231 1573
3 1196 410 1445
3 267 1099 1780
3 873 174 1115
3 98 794 1960
3 1097 459 1954
3 1033 1494 2188
3 902 800 1689
3 848 1582 2116
3 781 1710 1733
3 1156 1085 2250
3 160 161 1918
3 1239 595 2104
3 917 1265 1777
3 322 1905 1972
3 1191 1293 1856
3 1122 1628 1116
3 974 1306 1767
3 669 93 1668
3 1774 1075 1408
3 283 1011 1793
3 1202 509 1692
3 143 1418 1938
3 185 1417 1240
3 64 1107 1781
3 360 962 1735
3 140 1611 2245
3 624 1869 1195
3 839 552 1522
3 383 1969 2188
3 1113 914 1500
3 179 938 1861
3 161 162 592
3 372 1156 2250
3 1701 1247 2271
3 1293 1204 1856
3 69 70 1532
3 469 1924 2099
3 465 687 1933
3 977 237 1255
3 102 2 1318
3 5 170 1662
3 261 1102 1076
3 941 1186 1207
3 150 151 953
3 581 1095 1635
3 657 1230 2014
3 1102 262 2257
3 819 822 1651
3 1012 804 1957
3 724 815 2264
3 1192 1076 2078
3 1341 364 1270
3 846 1806 1451
3 2212 609 1735
3 1649 418 1386
3 1702 539 1172
3 1355 345 1310
3 1417 1350 1240
3 1469 1253 1991
3 1084 427 2247
3 492 1256 1877
3 1096 1158 1260
3 552 1064 2073
3 169 5 1662
3 2 103 1318
3 111 112 1888
3 1917 718 1545
3 914 1113 1584
3 1183 588 1798
3 722 1320 1867
3 298 299 1627
3 48 49 1228
3 597 961 2168
3 1320 351 1867
3 1150 907 1888
3 213 214 2107
3 96 1063 986
3 201 202 1808
3 1149 888 1646
3 491 1644 2028
3 780 732 2268
3 1407 353 2040
3 1515 176 1803
3 1893 1282 1555
3 914 1966 746
3 956 980 1898
3 961 249 2168
3 268 269 2230
3 1183 528 2089
3 1486 257 1434
3 115 116 1939
3 1629 1475 1860
3 677 1474 1198
3 1522 552 2073
3 1286 2171 2284
3 1576 1774 1408
3 282 16 1964
3 1351 1020 1988
3 232 233 2242
3 2042 930 2155
3 1284 330 1916
3 906 1561 1954
3 63 64 1781
3 1771 437 796
3 56 57 1225
3 522 831 2046
3 757 575 918
3 224 225 2148
3 200 201 1074
3 1262 761 2059
3 1138 1296 1004
3 1775 385 2047
3 707 1771 796
3 768 1078 2079
3 709 1048 2236
3 1153 1896 1335
3 1186 570 1207
3 2149 406 1573
3 2061 688 1750
3 2096 414 1543
3 1031 496 2219
3 589 905 1633
3 175 176 2255
3 253 254 1976
3 507 1138 1004
3 96 97 1847
3 890 548 1421
3 4 852 1609
3 248 249 1484
3 487 1109 2192
3 1995 443 1492
3 375 1579 2274
3 2108 659 1673
3 908 222 633
3 1127 579 1586
3 1463 763 1980
3 1462 412 1432
3 1473 429 1730
3 989 1995 1492
3 81 1368 1996
3 602 929 2095
3 354 1462 1432
3 49 50 1874
3 581 1605 2080
3 1406 1979 1959
3 1024 1576 1250
3 409 2042 2155
3 2120 1010 2252
3 1109 361 2192
3 1273 41 2101
3 388 1127 1586
3 8 1629 1860
3 1057 1053 2102
3 946 457 1082
3 1659 3 1749
3 485 1707 2162
3 2185 1278 1352
3 767 963 1356
3 1869 813 1195
3 615 1105 1765
3 1109 487 2182
3 1056 1057 1327
3 1277 255 1540
3 712 1407 2040
3 991 1641 1545
3 1763 342 2156
3 1844 483 689
3 361 1109 2133
3 1 89 2205
3 693 1324 1250
3 1707 85 2162
3 681 1732 1906
3 1190 524 1354
3 974 468 1514
3 225 1811 2148
3 2082 488 1758
3 1158 538 1260
3 1574 859 1694
3 1078 768 529
3 1648 764 1845
3 595 2051 2104
3 1768 519 1871
3 88 1 2205
3 1449 1065 2005
3 325 1695 1752
3 1262 645 2109
3 1541 853 1353
3 1425 1449 2005
3 183 6 1842
3 290 1955 2135
3 1924 570 1186
3 460 1287 1900
3 1644 264 2028
3 6 184 1842
3 347 1400 1819
3 879 1049 1758
3 532 1267 1799
3 418 1649 2148
3 2043 1017 1233
3 1109 866 2219
3 626 1893 1708
3 1896 17 1335
3 524 1333 1354
3 1474 1211 1198
3 348 600 1693
3 345 1355 1312
3 396 1834 1733
3 607 1786 1426
3 423 1098 1568
3 418 1949 2066
3 2095 1383 2270
3 820 635 1652
3 127 128 1963
3 106 1179 1140
3 1553 166 2175
3 22 1998 1997
3 516 1118 1570
3 471 1273 2101
3 422 2010 1688
3 1230 657 1803
3 1656 34 2090
3 1209 142 1609
3 266 267 1780
3 209 1815 1759
3 2010 1279 1688
3 1883 1332 1739
3 329 1883 1739
3 1822 1622 2235
3 590 1890 1904
3 1754 1423 1819
3 804 1012 986
3 35 36 2194
3 865 597 2168
3 1921 505 2236
3 1463 312 2214
3 1905 322 1132
3 803 1823 2099
3 176 1515 2255
3 1063 96 1847
3 414 1469 1991
3 1815 967 1759
3 790 933 1363
3 1656 716 2197
3 1063 797 1581
3 894 1209 1609
3 996 1515 1975
3 1324 1024 1250
3 1443 1006 1987
3 29 1254 2282
3 31 32 1873
3 1267 773 1799
3 804 1063 1581
3 1072 499 1942
3 2059 404 1269
3 814 893 1300
3 1515 657 1975
3 732 1604 1694
3 206 207 2269
3 1952 1069 2072
3 54 55 1974
3 1623 550 2113
3 477 1208 1979
3 1622 557 2235
3 2054 490 1736
3 247 248 1303
3 1009 714 1684
3 484 2043 1233
3 646 1711 1376
3 933 613 1363
3 364 1804 1652
3 1179 582 1140
3 394 1387 1376
3 772 1553 2175
3 417 1641 1740
3 1890 1336 1904
3 686 1406 1959
3 458 1331 1068
3 1166 1262 2109
3 1711 394 1376
3 1121 737 1747
3 803 1924 1186
3 117 118 1985
3 1297 1226 1824
3 1528 691 1887
3 488 879 1758
3 1387 1014 1376
3 1308 1394 1203
3 1857 594 2020
3 1965 153 1591
3 603 1935 2055
3 203 1614 1337
3 1614 988 1337
3 249 250 2168
3 430 1144 1911
3 1942 499 1865
3 917 1777 2026
3 811 1925 1809
3 741 1610 1720
3 1394 829 1203
3 1236 378 2273
3 1379 1065 2278
3 1118 907 1570
3 1407 712 1549
3 221 908 1560
3 866 1031 2219
3 711 1275 1587
3 993 491 2028
3 237 238 1255
3 1326 621 2016
3 572 1289 2069
3 187 937 1914
3 1325 727 2195
3 616 1742 2134
3 1298 1242 2105
3 468 643 1514
3 1742 713 2134
3 1098 423 2230
3 1890 498 2263
3 459 1214 1954
3 906 1943 2058
3 1725 428 2103
3 1271 631 1427
3 1436 860 1677
3 1872 341 1958
3 1445 948 1440
3 483 1844 1143
3 980 61 1898
3 1939 116 2238
3 354 1472 2057
3 1268 323 1393
3 621 472 2016
3 489 1112 2285
3 463 1165 2188
3 1909 729 1927
3 960 469 1456
3 1519 2018 2262
3 601 1560 2075
3 1336 1890 2263
3 1739 1332 2063
3 452 879 2231
3 827 1006 1918
3 1472 591 2057
3 1344 717 1871
3 353 1373 2040
3 1460 851 1773
3 453 1009 1684
3 1634 366 2246
3 970 1445 1440
3 2024 811 1809
3 1209 969 1611
3 1321 481 2077
3 576 1872 1958
3 2123 384 2285
3 1165 383 2188
3 1561 1046 1954
3 1373 842 2033
3 2176 922 1849
3 1114 1854 1781
3 1100 1746 2020
3 1768 790 1363
3 703 1099 1903
3 1603 503 2015
3 1028 884 2128
3 1742 199 2276
3 735 1489 2222
3 321 1739 2063
3 1112 2123 2285
3 360 2096 1543
3 1468 2054 1736
3 1707 485 1554
3 362 1690 1382
3 256 1486 1540
3 1823 440 2099
3 1532 70 2260
3 727 1494 2195
3 573 1025 1864
3 377 602 2001
3 156 1265 1967
3 1667 236 2203
3 252 1875 1696
3 1238 489 2285
3 775 995 1252
3 1649 224 2148
3 830 373 1419
3 1138 616 1982
3 558 1274 2232
3 1315 1532 2260
3 305 1613 2147
3 1084 824 1767
3 893 814 2224
3 1275 711 1353
3 716 1656 2090
3 916 1238 1533
3 1289 405 2069
3 546 1321 2077
3 141 1209 1611
3 1399 1181 1143
3 1331 525 1068
3 1632 451 1683
3 1301 1687 2106
3 1001 1669 2167
3 471 1409 2234
3 1187 59 1934
3 1118 516 1745
3 438 2176 1849
3 998 1909 1927
3 51 52 1580
3 1061 1939 2238
3 542 818 1903
3 1638 284 1989
3 199 200 2276
3 1012 95 986
3 177 1230 1803
3 1006 827 1987
3 1265 667 1967
3 937 376 2275
3 1243 1087 2062
3 1107 64 2110
3 1638 543 2189
3 1011 458 1068
3 1917 901 1495
3 1913 530 1316
3 16 285 1679
3 917 1913 1316
3 623 1632 1470
3 2067 521 2226
3 19 1638 1971
3 1091 1277 1540
3 1438 997 796
3 470 1721 2088
3 1025 573 2169
3 1052 1169 1547
3 1116 343 2079
3 675 2122 1865
3 2129 1052 1973
3 1333 524 918
3 1206 1743 2277
3 811 1532 2207
3 432 1219 1470
3 1532 1315 2207
3 616 1478 1982
3 1024 1324 2218
3 1025 544 1639
3 1321 546 2127
3 472 1422 1568
3 1108 1049 1692
3 300 301 1602
3 509 1108 1692
3 992 191 1619
3 814 586 2224
3 1299 1659 1640
3 850 1025 1693
3 217 218 2173
3 1447 560 1615
3 1122 1650 2094
3 980 956 2086
3 1908 968 1004
3 1901 915 1838
3 717 960 1456
3 1275 497 1587
3 575 1333 918
3 1278 1398 1352
3 486 1226 1322
3 1721 622 2088
3 775 1634 2246
3 570 1924 1981
3 1020 1690 2183
3 934 1344 736
3 837 791 1311
3 798 1664 1663
3 1690 362 2183
3 1447 1615 2138
3 1666 924 2242
3 424 1707 1554
3 255 256 1540
3 1463 859 1377
3 809 371 2023
3 386 2112 2055
3 565 735 2105
3 1486 1091 1540
3 712 1249 1170
3 1347 350 2006
3 405 1289 1395
3 491 1131 1894
3 379 1698 754
3 1127 1841 2087
3 71 72 2029
3 1356 963 1601
3 1854 956 1898
3 64 65 2110
3 1722 527 1926
3 1333 2037 1354
3 1886 861 2145
3 1053 1604 2141
3 312 1463 1377
3 818 553 2251
3 1718 805 2280
3 2125 690 1941
3 440 1456 2099
3 704 1347 2006
3 394 2018 1387
3 34 35 2090
3 2018 808 1387
3 763 1463 2214
3 523 1725 2103
3 1487 45 1907
3 547 1748 2218
3 1505 332 2152
3 1099 703 1780
3 323 1166 2109
3 1641 377 1740
3 445 1895 1170
3 666 782 754
3 580 406 2149
3 528 1762 2002
3 728 1141 2064
3 1471 531 1490
3 864 2183 1828
3 1083 664 2094
3 593 1956 2007
3 1963 128 2227
3 863 1246 2065
3 888 1899 1646
3 977 762 2203
3 257 258 1434
3 75 940 1674
3 544 1025 2169
3 1218 940 1680
3 1155 956 2098
3 1773 1435 1658
3 800 79 1689
3 689 483 1676
3 1271 206 2269
3 1219 623 1470
3 312 313 2214
3 157 158 1777
3 1820 832 2144
3 1895 1135 1170
3 1726 500 1577
3 560 1080 1615
3 1868 357 2072
3 940 1218 1674
3 1275 781 1733
3 240 1471 1565
3 933 790 1631
3 920 1879 2034
3 373 584 1419
3 782 666 1093
3 56 1225 1836
3 1863 958 2114
3 1899 801 1646
3 1414 506 2234
3 815 1705 2264
3 677 1655 1305
3 1069 1868 2072
3 566 880 1784
3 195 196 1041
3 1431 606 2263
3 1143 1181 2119
3 1690 1020 975
3 1698 846 754
3 880 1243 1784
3 2161 471 2234
3 415 2057 1516
3 1290 749 2180
3 239 240 1565
3 492 1826 1747
3 1761 558 2232
3 542 2137 1130
3 1193 2125 1941
3 1382 412 1397
3 117 1985 2238
3 1924 469 1981
3 816 2009 1624
3 202 203 1337
3 823 1592 1089
3 990 1852 1669
3 617 726 2281
3 1333 531 2037
3 1247 1171 1714
3 699 1929 1207
3 1611 755 2245
3 480 1817 1467
3 961 636 1484
3 1372 288 1997
3 594 1857 2286
3 577 904 2063
3 1604 1237 1694
3 1785 968 1908
3 730 1839 2261
3 50 51 1718
3 1859 1197 2269
3 653 1290 1697
3 687 1447 2091
3 1614 1313 1511
3 582 1370 2158
3 335 1005 2025
3 1040 772 2229
3 1290 275 1697
3 485 2121 1554
3 1817 981 1467
3 1249 445 1170
3 1513 1206 2277
3 231 232 1760
3 604 1648 1845
3 1108 509 1328
3 717 1456 1743
3 1811 418 2148
3 317 24 1395
3 600 850 1693
3 567 1210 1531
3 851 1984 1773
3 1592 1044 1089
3 356 973 2145
3 527 1787 1926
3 145 146 2085
3 949 333 2197
3 1947 775 1252
3 1107 452 2231
3 1047 811 2024
3 1120 1047 2024
3 393 1788 1624
3 1036 604 1845
3 1827 1056 2136
3 1154 1505 2146
3 1783 476 1510
3 61 62 1898
3 1988 1020 2152
3 1844 763 1143
3 663 1942 1865
3 1279 1432 1688
3 1471 1139 1565
3 1373 611 1637
3 557 2036 2235
3 1247 1701 1990
3 1716 985 2072
3 700 1351 1988
3 994 1610 2165
3 394 1711 1715
3 1261 614 1983
3 427 1559 2266
3 1249 712 1637
3 2121 1525 1554
3 1879 652 2034
3 1264 679 1837
3 1234 1589 1953
3 1929 941 1207
3 1370 1134 2158
3 873 791 1678
3 798 794 1600
3 1432 412 1688
3 38 39 2100
3 1457 1040 2229
3 593 2007 1800
3 966 1108 1328
3 1055 1195 2120
3 779 1188 2274
3 1114 1107 2231
3 943 432 1653
3 765 1788 1588
3 1428 1256 2136
3 1274 558 1352
3 1650 1122 1116
3 1362 521 2256
3 1974 55 1836
3 713 1742 2276
3 845 499 1544
3 436 1528 1413
3 1392 1718 2280
3 2065 328 1876
3 2137 1244 1130
3 8 277 1629
3 41 42 2101
3 2183 362 1828
3 289 23 1756
3 862 1650 1116
3 661 1414 2234
3 18 283 1793
3 1246 328 2065
3 468 974 1767
3 824 468 1767
3 1418 1016 1938
3 469 960 1992
3 467 1773 1658
3 1721 470 2206
3 71 2029 2260
3 1857 587 2286
3 408 1436 1677
3 773 1692 1799
3 369 1306 1259
3 535 2004 2191
3 524 1367 918
3 544 1801 1639
3 450 1766 2272
3 1292 445 1200
3 1469 544 2169
3 1163 890 1421
3 2036 1391 2235
3 138 139 1285
3 1168 327 2031
3 495 782 1567
3 387 1330 1189
3 780 1309 2141
3 280 14 431
3 1610 994 1720
3 778 1715 2222
3 520 949 1825
3 1292 991 1545
3 1642 658 2004
3 1101 337 2252
3 135 136 1327
3 902 1072 1942
3 731 1261 1983
3 782 379 754
3 52 1483 1580
3 619 1287 2060
3 1080 400 1615
3 443 2071 1511
3 631 1271 2179
3 1049 1108 1758
3 1271 1197 2179
3 1593 398 1607
3 548 1330 1421
3 97 1960 1847
3 1422 854 1866
3 1692 1049 1799
3 1818 479 1738
3 330 1284 1999
3 384 1533 2285
3 214 215 2201
3 1115 175 2255
3 705 1642 2004
3 1330 1128 1421
3 11 1264 1837
3 242 243 1117
3 133 134 2102
3 670 1850 1643
3 765 2000 1788
3 1604 732 2141
3 600 348 2128
3 695 885 1464
3 885 727 1464
3 92 669 2131
3 489 2081 1855
3 960 605 1992
3 910 2209 1458
3 730 1362 1839
3 632 2265 1738
3 667 1265 1316
3 2265 725 1738
3 1196 910 1724
3 982 245 2283
3 710 1372 1997
3 892 1196 1724
3 387 1901 1838
3 1955 733 2135
3 1057 1056 1790
3 1384 556 1381
3 883 1381 2246
3 613 933 2196
3 1294 195 1041
3 1306 974 1259
3 909 1281 928
3 1035 344 2130
3 781 1275 1353
3 938 180 1517
3 1265 917 1316
3 1280 1461 1940
3 1979 678 1959
3 1052 1146 1973
3 718 1292 1545
3 1016 1347 1953
3 1059 297 2140
3 339 1769 2153
3 250 865 2168
3 650 1323 1567
3 196 1436 1041
3 995 1013 1252
3 1801 348 1639
3 1222 1439 1546
3 1734 626 1640
3 1766 450 2150
3 632 2022 2071
3 1080 441 1361
3 1768 1871 1699
3 1337 988 1808
3 692 421 2167
3 311 312 1377
3 330 1763 2156
3 692 694 1671
3 2151 1096 1260
3 1533 1238 2285
3 464 1943 1770
3 2193 901 2012
3 1139 1471 1490
3 1107 1114 1781
3 1362 730 2226
3 991 1292 1200
3 707 997 1833
3 639 1974 1836
3 1461 774 1040
3 1436 408 1041
3 108 109 1835
3 637 909 1370
3 163 164 1266
3 1094 430 2268
3 1046 1561 2115
3 277 1769 1629
3 610 1254 2016
3 1561 514 2115
3 883 1384 1381
3 1181 2253 2119
3 1648 889 1145
3 1208 676 1831
3 1224 365 2187
3 512 2129 1973
3 862 1981 1992
3 1063 804 986
3 421 692 1671
3 2151 870 1764
3 1951 1206 1513
3 968 2000 1004
3 1254 1326 2016
3 1381 775 2246
3 526 1144 1993
3 1850 15 1643
3 85 86 2162
3 99 100 2163
3 172 173 2164
3 12 281 1853
3 1457 1461 1040
3 565 1185 1564
3 1171 766 1714
3 909 1134 1370
3 657 1515 1803
3 561 2185 2217
3 1514 643 672
3 1734 599 1452
3 586 1721 2224
3 903 2151 1764
3 2016 472 2249
3 538 1459 1260
3 1038 1190 1354
3 304 305 2147
3 1559 427 2165
3 1766 1002 2272
3 714 1559 1684
3 1424 1066 1591
3 197 198 2225
3 130 131 1911
3 629 1208 1831
3 211 212 1902
3 186 187 1914
3 502 2003 1936
3 995 929 1013
3 1073 2193 2012
3 527 1722 1886
3 2100 39 2126
3 1214 788 1770
3 1006 160 1918
3 830 1165 1962
3 1391 1822 2235
3 1224 280 431
3 1559 453 1684
3 1085 978 2250
3 62 1854 1898
3 1559 714 2266
3 849 982 2283
3 351 1810 1867
3 1956 715 2007
3 2081 1257 1855
3 1981 469 1992
3 1287 619 1900
3 1562 1234 2240
3 1304 844 1342
3 1072 680 1700
3 1131 703 2251
3 295 296 2196
3 105 106 1140
3 166 167 2175
3 1217 460 1442
3 788 1925 1770
3 82 83 2177
3 1925 464 1770
3 933 295 2196
3 1169 705 1547
3 552 839 1202
3 1786 1308 1203
3 1166 1213 1132
3 492 1827 2136
3 189 190 2186
3 507 1920 1677
3 1535 506 1862
3 331 1325 2195
3 1920 408 1677
3 1003 1826 1877
3 503 1603 1750
3 2185 1504 2217
3 400 1080 1361
3 1826 877 1747
3 1008 1732 2273
3 530 1034 2200
3 839 467 1658
3 375 1951 1513
3 322 1166 1132
3 291 292 2157
3 494 1635 1881
3 862 1992 1650
3 711 1541 1353
3 437 1771 1969
3 822 373 1962
3 2139 855 1498
3 74 75 1674
3 554 1212 1709
3 454 1304 1342
3 1639 348 1693
3 435 1786 1203
3 635 1821 1270
3 373 830 1962
3 1282 1180 1840
3 793 921 1374
3 1180 1159 1840
3 1034 327 2200
3 2045 965 1507
3 398 1948 1607
3 1755 629 1831
3 251 252 1696
3 717 1743 1699
3 716 2090 2194
3 365 1792 2187
3 709 1807 2287
3 643 1704 672
3 1795 339 2153
3 1598 1534 2075
3 124 125 1575
3 1206 1768 1699
3 610 1772 2282
3 1859 208 1759
3 731 1405 2049
3 1754 523 1617
3 997 707 796
3 1093 650 1567
3 332 1723 2254
3 128 129 2227
3 1478 616 2134
3 1021 2117 1512
3 193 194 2228
3 343 1628 2001
3 606 1761 2232
3 1584 586 2070
3 545 609 2212
3 967 1859 1759
3 1174 833 2038
3 120 121 2239
3 727 1820 2144
3 116 117 2238
3 632 760 2265
3 732 1094 2268
3 155 156 1967
3 760 374 2265
3 978 331 2258
3 1289 317 1395
3 170 171 1753
3 101 102 1319
3 204 205 1791
3 2010 422 1751
3 383 1165 1448
3 971 2139 1498
3 89 90 1776
3 1188 779 2157
3 70 71 2260
3 1642 511 1680
3 21 286 2279
3 839 324 1480
3 182 183 1832
3 611 1249 1637
3 228 229 1276
3 1787 577 1926
3 184 185 1240
3 87 88 1937
3 1075 1660 1251
3 2007 336 1800
3 408 1294 1041
3 501 1474 1757
3 707 978 2258
3 222 223 633
3 23 1897 2083
3 1869 718 1495
3 1901 387 1189
3 168 169 2118
3 103 104 1317
3 1925 788 1809
3 281 1787 1853
3 208 209 1759
3 59 60 1934
3 93 94 1668
3 178 179 1861
3 262 263 2257
3 324 839 1658
3 793 395 2021
3 1231 1369 1573
3 995 775 1381
3 1527 812 2003
3 882 1527 2003
3 358 1910 2233
3 1704 803 672
3 1724 910 1458
3 556 995 1381
3 1992 605 1650
3 142 4 1609
3 55 56 1836
3 331 978 1503
3 1582 1880 2116
3 574 1863 2114
3 464 1925 2207
3 1852 370 1669
3 2159 642 2275
3 1302 1965 2053
3 1683 451 1608
3 1948 750 1607
3 1795 433 928
3 779 1955 2157
3 407 1792 1940
3 319 1648 1145
3 848 2116 2143
3 1818 785 1524
3 136 1428 1327
3 978 1085 1503
3 39 40 2126
3 1965 1066 2053
3 1897 841 2083
3 575 757 1846
3 1788 393 1588
3 479 1818 1524
3 1441 16 1679
3 895 2128 1915
3 1792 397 2187
3 245 246 2283
3 1285 139 2245
3 1418 350 1347
3 1422 423 1568
3 139 140 2245
3 1064 513 2073
3 367 1724 1458
3 1217 770 2067
3 1771 707 2258
3 817 1795 2153
3 674 646 2068
3 2237 546 2077
3 919 2159 2275
3 620 1958 2210
3 138 1285 1737
3 1309 133 2102
3 1259 974 1514
3 1826 492 1877
3 1294 408 2154
3 880 566 1675
3 1943 881 2058
3 1103 991 1796
3 429 1450 1730
3 415 1522 2073
3 726 623 2281
3 1655 1303 1305
3 622 1763 1548
3 921 793 2021
3 1929 369 1259
3 1530 282 1964
3 1339 182 1832
3 1016 1418 1347
3 1358 572 2069
3 668 2070 1338
3 90 1816 1776
3 422 2061 1751
3 1501 2237 2077
3 1816 952 1776
3 1350 1339 1832
3 735 1298 2105
3 292 1188 2157
3 521 1362 2226
3 2000 968 1788
3 1101 388 1586
3 1880 511 2116
3 1005 335 1812
3 718 1917 1495
3 649 1005 1812
3 1797 414 1039
3 131 132 2041
3 137 138 1737
3 805 1483 1977
3 1002 1841 2176
3 955 677 1198
3 229 835 1276
3 1296 1138 1982
3 1899 18 1793
3 941 1259 1514
3 2209 1175 1458
3 226 1163 1858
3 1128 1811 1858
3 338 786 1507
3 930 1667 2155
3 786 1152 1507
3 1620 362 1397
3 1911 131 2041
3 636 1430 1757
3 467 1460 1773
3 587 2277 2286
3 1323 650 1923
3 659 1236 1673
3 1841 922 2176
3 1628 377 2001
3 788 1239 2104
3 1958 341 2210
3 835 810 1276
3 612 1168 2202
3 1924 803 2099
3 1955 291 2157
3 1625 948 1445
3 628 638 1673
3 404 1645 1269
3 1394 217 2173
3 1446 878 2078
3 2117 1021 927
3 1667 762 2155
3 1310 345 1419
3 1021 1512 1723
3 1215 1073 2012
3 1034 593 1800
3 757 1027 1657
3 969 767 1356
3 2211 795 1503
3 760 632 2221
3 1168 748 2202
3 410 1625 1445
3 1405 987 2049
3 112 1150 1888
3 496 2133 2219
3 198 1007 2225
3 1049 1892 1799
3 632 2071 2221
3 1239 459 2017
3 488 1155 2098
3 387 1838 2066
3 390 1889 2174
3 1483 690 1977
3 1988 332 2254
3 1212 434 1709
3 935 2117 927
3 1085 2211 1503
3 1460 467 1516
3 690 2125 1977
3 1922 812 1272
3 1841 1002 2087
3 2128 348 1915
3 1022 955 1198
3 941 1929 1259
3 414 1991 1543
3 2026 551 912
3 1804 869 1685
3 1441 893 2206
3 876 1683 1608
3 1889 1104 2174
3 1972 473 2093
3 357 1716 2072
3 700 1988 2254
3 345 1870 1419
3 215 891 2201
3 493 1103 1796
3 433 909 928
3 1461 407 1940
3 926 1064 1267
3 2182 487 1851
3 473 1948 2093
3 1314 193 2228
3 935 2112 2117
3 1660 1075 1774
3 2112 386 2117
3 1984 1435 1773
3 1651 822 1962
3 797 1063 1847
3 895 1028 2128
3 599 1676 1452
3 736 1344 1871
3 761 1972 2093
3 840 2052 2166
3 443 1995 2221
3 854 1621 1082
3 1620 1046 1828
3 1515 996 2255
3 342 1113 1500
3 1476 155 1967
3 21 1660 1774
3 341 757 1657
3 1882 435 2044
3 1197 1859 1466
3 767 969 1618
3 417 1215 2012
3 2022 988 2071
3 1032 598 1941
3 428 767 1618
3 1146 935 1973
3 1812 359 1751
3 789 1132 2044
3 456 1713 1843
3 1169 1052 2143
3 1948 1401 2093
3 667 1476 1967
3 499 675 1865
3 1296 1908 1004
3 1932 1021 1723
3 1020 1351 975
3 2184 1023 1452
3 599 689 1676
3 763 1399 1143
3 1213 1882 2044
3 964 1173 2179
3 668 1919 2132
3 803 1186 672
3 1645 1201 1269
3 1171 710 1848
3 2125 1402 1977
3 1132 1213 2044
3 1181 1340 2253
3 852 1026 1617
3 2051 595 1802
3 1007 860 2225
3 944 1630 2223
3 1383 768 2270
3 1870 830 1419
3 1657 1027 1923
3 916 1884 2199
3 768 1383 2243
3 690 1032 1941
3 1146 487 2192
3 1056 1428 2136
3 2027 700 2254
3 1812 335 1986
3 649 1812 1751
3 1279 1472 1432
3 454 1235 2248
3 359 1812 1986
3 770 1217 1442
3 1528 688 1413
3 1152 786 1437
3 766 1171 1848
3 1369 2142 1573
3 786 411 1437
3 788 2104 1809
3 1823 594 2286
3 1920 765 1744
3 1309 1053 2141
3 269 1098 2230
3 963 2052 2147
3 1472 354 1432
3 1409 661 2234
3 410 1922 1272
3 1630 1137 2223
3 2142 1139 1573
3 446 368 1691
3 1345 555 1824
3 1562 559 1589
3 1243 880 2244
3 498 1431 2263
3 910 1719 2209
3 2122 475 1970
3 1074 713 2276
3 2040 1373 1637
3 1172 683 1378
3 332 1988 2152
3 1139 2149 1573
3 663 2122 1970
3 724 518 1729
3 716 1295 1825
3 1497 1916 2021
3 727 1325 1464
3 1652 635 1270
3 656 2024 1809
3 381 2170 2223
3 2142 239 1565
3 1234 1562 1589
3 712 2040 1637
3 1960 797 1847
3 388 1101 2252
3 512 927 871
3 1919 741 1720
3 2170 944 2223
3 1357 1392 2280
3 1237 1574 1694
3 733 446 1691
3 467 1522 1516
3 996 1115 2255
3 1228 49 1874
3 1522 415 1516
3 1295 520 1825
3 1834 844 1304
3 801 1899 1793
3 233 1666 2242
3 771 2184 1452
3 595 1239 2017
3 1966 416 746
3 1428 1056 1327
3 658 1371 2191
3 1928 461 2184
3 1916 921 2021
3 341 1657 2210
3 1632 2080 1470
3 393 1612 1588
3 1053 1309 2102
3 644 1045 2267
3 1371 1176 2191
3 1889 481 1672
3 1129 1410 1685
3 1306 369 1720
3 768 2011 529
3 1027 1323 1923
3 1612 618 1588
3 1535 916 1533
3 1494 1033 2195
3 718 1869 1961
3 2011 699 529
3 1088 1636 1756
3 1932 1154 871
3 1366 405 1395
3 2051 656 2104
3 24 1366 1395
3 1723 648 2254
3 523 852 1617
3 1912 546 2237
3 2095 343 2001
3 815 724 1729
3 1512 648 1723
3 23 2083 1756
3 598 2216 1941
3 2004 535 1779
3 904 321 2063
3 783 735 2222
3 497 1834 1304
3 705 2004 1779
3 869 1129 1685
3 1254 610 2282
3 584 1310 1419
3 1037 483 2119
3 1090 1657 1923
3 1300 893 1679
3 1630 1154 2146
3 327 2124 2200
3 1023 1734 1452
3 1925 811 2207
3 362 1620 1828
3 2018 1119 2262
3 1066 1965 1591
3 1875 253 1976
3 1163 1128 1858
3 514 1630 2146
3 813 1869 1495
3 1922 892 1936
3 1155 1253 2198
3 1893 911 1708
3 364 1652 1270
3 1075 1910 1408
3 748 1912 2237
3 1494 727 2144
3 1303 636 1305
3 1128 1163 1421
3 927 512 1973
3 359 2010 1751
3 390 2174 2248
3 1235 390 2248
3 636 1303 1484
3 719 1357 2280
3 2174 739 2248
3 1197 1271 2269
3 1351 691 975
3 1173 631 2179
3 771 1928 2184
3 1935 386 2055
3 1329 645 1269
3 935 927 1973
3 475 2182 1851
3 805 1718 1580
3 1010 1881 2252
3 1456 440 1743
3 751 1627 2048
3 369 1919 1720
3 767 428 2166
3 1211 1698 2160
3 336 2031 1800
3 553 1131 2251
3 763 1844 1980
3 688 2061 1413
3 857 1446 2078
3 2061 422 1413
3 332 1932 1723
3 868 1360 1712
3 1978 484 1233
3 2030 823 1578
3 362 1382 1397
3 1881 388 2252
3 1045 1283 2267
3 916 1535 1862
3 876 1177 1683
3 1430 501 1757
3 1360 824 1712
3 585 2030 1578
3 1636 289 1756
3 2004 658 2191
3 1871 717 1699
3 647 1598 2075
3 1303 248 1484
3 2216 1193 1941
3 593 1913 912
3 619 1995 1900
3 1839 425 2261
3 1698 379 2160
3 487 1547 1851
3 939 2035 2220
3 615 1978 1233
3 551 1956 912
3 1396 770 1442
3 1202 839 1480
3 694 1944 1671
3 1919 369 2132
3 343 2095 2270
3 1956 593 912
3 971 1660 2279
3 739 2174 2178
3 2115 864 1828
3 1046 2115 1828
3 765 1588 2008
3 2267 1497 2021
3 745 1968 2249
3 1389 778 1479
3 1968 610 2249
3 2174 1104 2178
3 2104 656 1809
3 2070 586 1338
3 1483 805 1580
3 1201 1329 1269
3 1588 618 2008
3 506 2161 2234
3 2052 304 2147
3 2071 443 2221
3 762 1667 2203
3 1660 21 2279
3 2043 701 2213
3 1615 400 2138
3 1713 1100 1843
3 877 1121 1747
3 1743 440 2277
3 1175 1829 1458
3 757 341 1846
3 730 1502 2226
3 1991 966 1543
3 1131 553 1894
3 205 1427 1791
3 963 767 2166
3 416 2011 2243
3 1829 367 1458
3 1949 387 2066
3 359 1986 2215
3 395 2267 2021
3 2061 649 1751
3 1065 1449 2278
3 2011 768 2243
3 1971 1638 2189
3 1866 854 1082
3 1465 2076 776
3 1686 629 2032
3 1019 1686 2032
3 1477 595 2017
3 1449 612 2278
3 1716 984 2064
3 519 736 1871
3 742 2204 1706
3 493 1947 1252
3 2204 548 1706
3 1481 1216 2092
3 1654 901 2193
3 427 1855 2247
3 2076 1192 776
3 829 1394 2173
3 457 1866 1082
3 1017 2043 2213
3 641 1481 2092
3 1323 495 1567
3 1359 2051 1802
3 1025 1639 1693
3 765 2008 1744
3 2080 432 1470
3 2090 35 2194
3 2022 632 1738
3 2035 601 2220
3 2052 963 2166
3 892 1724 2172
3 1794 733 1691
3 1682 471 2161
3 1995 989 1900
3 2000 507 1004
3 494 1654 2193
3 893 1441 1679
3 1427 1313 1791
3 945 1794 1691
3 1910 693 1408
3 1855 1257 2247
3 553 1248 1894
3 1248 999 1894
3 202 1337 1808
3 1014 1387 2256
3 1719 685 2209
3 1501 2202 2237
3 479 2022 1738
3 806 2271 1714
3 559 1562 1950
3 994 1306 1720
3 964 1396 1442
3 1390 1544 1700
3 2037 1038 1354
3 1562 897 1950
3 2202 748 2237
3 1343 608 2208
3 648 2027 2254
3 200 1074 2276
3 768 2079 2270
3 1547 705 1851
3 1998 710 1997
3 1840 434 1555
3 2083 1088 1756
3 777 1682 2161
3 1523 503 1750
3 2124 662 2200
3 1647 759 2172
3 688 1523 1750
3 1362 808 1839
3 703 1903 2251
3 1718 51 1580
3 2271 1247 1714
3 367 1647 2172
3 897 1562 2240
3 1334 1286 2284
3 1282 1840 1555
3 326 1389 1479
3 1933 687 2091
3 1657 1090 2210
3 2074 853 2261
3 1903 818 2251
3 1058 1933 2091
3 1429 1510 2038
3 1125 1477 2017
3 1837 679 2208
3 614 2065 1876
3 710 1998 1848
3 395 644 2267
3 705 1779 1851
3 414 2096 1039
3 608 1837 2208
3 573 2086 2198
3 714 1971 2189
3 2133 1109 2219
3 610 2016 2249
3 1013 493 1252
3 2205 89 1776
3 952 2205 1776
3 1788 968 1624
3 2156 921 1916
3 1627 682 2048
3 693 1250 1408
3 1250 1576 1408
3 183 1842 1832
3 88 2205 1937
3 490 2008 1736
3 1842 1350 1832
3 587 1513 2277
3 1842 184 1240
3 1492 443 1511
3 1313 1492 1511
3 1318 740 1319
3 720 1662 1753
3 1703 709 2287
3 1410 2130 1685
3 1743 1206 1699
3 2205 952 1937
3 968 1785 1624
3 1350 1842 1240
3 102 1318 1319
3 1662 170 1753
3 330 2156 1916
3 1986 554 2215
3 670 1643 2284
3 1676 771 1452
3 1785 816 1624
3 1643 1334 2284
3 2206 893 2224
3 602 2095 2001
3 1502 655 2226
3 2079 343 2270
3 1721 2206 2224
3 1283 1497 2267
3 1017 2259 1233
3 1307 2088 1548
3 1724 367 2172
3 1022 1198 2160
3 1318 103 1317
3 169 1662 2118
3 1347 704 1953
3 810 1521 1706
3 782 1093 1567
3 1779 475 1851
3 2129 848 2143
3 490 2154 1744
3 2096 564 1039
3 1779 535 1970
3 2197 716 1825
3 509 1202 1480
3 483 1143 2119
3 1521 742 1706
3 1198 1211 2160
3 1052 2129 2143
3 2149 1139 1490
3 425 2074 2261
3 2088 622 1548
3 475 1779 1970
3 740 1318 1317
3 1662 720 2118
3 534 1356 1601
3 2008 490 1744
3 2171 670 2284
3 949 2197 1825
3 2259 615 1233
3 1139 2142 1565
3 2062 337 2056
3 679 1365 2208
3 834 2190 1728
3 2008 618 1736
3 2122 663 1865
3 2190 1520 1728
3 1784 1243 2056
3 1243 2062 2056
3 596 1784 2056
3 1608 451 2048
3 682 1608 2048
CELL_DATA 4266
SCALARS Von_Mises float 1
LOOKUP_TABLE default
34263833.779993206 33073127.519102257 4013648.149525748 3929576.9517692784 10957155.26341203 39371210.89515091 11089580.387596859 4154826.9814961143 47293602.75134099 30560329.035859577 5005362.485130684 694329.4236532103 31490391.902950738 31269242.082350656 29388410.915067878 6092720.851302958 31082269.729276247 2578646.102381812 31518551.94326305 34963793.66229175 11173092.810470913 23159533.388812624 1848502.2881579197 30391372.90079912 629227.5795632526 31493237.72311233 37565989.114735976 1868019.8967185514 4171777.161831949 23159415.539500948 19643481.959052127 3734695.2090941453 43579335.31757777 30162505.22490212 13114368.520609582 31500045.952510133 1212322.1749392585 35792063.977222934 48330368.82694129 4157309.4004087965 23548314.904512923 28331283.28888622 32392183.497724734 40899316.32083911 42669421.78474802 33243179.753220662 32508098.93879241 28894385.661143966 33711685.804874696 9648553.847421609 15549979.191127196 26467558.428164575 15791379.793693528 28480697.68685987 33828526.4120655 6387747.255351261 35995667.96415804 10040537.359785674 8880679.106244337 34530306.072519295 14009765.966426866 32215534.22073111 28289462.208192438 32750650.159998387 31400996.738476586 36015991.75437289 33488266.83568379 36358778.453785464 8537427.759397859 22625004.872133154 43749196.75517959 13167962.438964918 24118183.5101451 1774566.8284193845 25251882.388753753 32385603.050655704 9072340.445091007 11368442.5156427 13791853.795135433 28327211.46185476 31161263.343517497 32774648.034376536 35828097.315035224 24447015.8153996 7702530.471484963 12931173.86468962 31325330.51547739 19886036.74129853 24966932.725170385 3229144.8291812977 23609733.62830277 31390529.417192034 31198997.39089732 31106545.061248686 1056940.1226686558 21141203.154247556 13139033.34137843 10356724.554694433 12435322.371860377 30949296.264365494 31124782.982968006 33505353.335907385 7717815.422439741 34092566.22800942 37130406.72980511 55446765.02454178 29716517.425086837 31593121.849892084 3001525.5646959655 7891182.498020461 34961529.01256698 19056944.40801946 31755690.706466634 4967666.971993445 28670544.659541648 29804536.26446338 29584984.549069412 30552717.105178814 17985117.3949471 29179770.27911343 19209644.86640264 30010196.758253526 3264208.424074674 27228351.04452461 29429269.35465786 7430836.762902969 12343364.94236998 2255683.5789046646 22312046.21978593 29259819.085418973 24823681.056720868 23909926.874735937 28615671.73680637 16115299.93458631 18821119.50071371 31254568.220734145 29942212.359126717 29702694.8358796 38365903.42851094 29955901.248627357 28907370.93482863 37460790.49849854 17986213.484470755 10062503.926498147 52439608.54433128 23124121.02170371 14971540.904441303 43473957.02475915 26077060.714396797 19070080.62945246 19238228.8600603 10784263.286786664 10660065.193113383 22343380.665381595 8313867.813682257 30464115.94536933 28475006.5938379 24064749.103466466 31031349.101508692 14416494.378851159 15870223.789757907 58467476.390876606 34033482.991443545 33508816.091930605 14061552.009255283 27204332.8786332 30009808.282564502 39639919.52269468 34575697.85989579 31297785.465326898 33456710.82016328 49789477.28645605 46359035.17156678 7342682.3578983275 13157424.9411344 8327928.622398199 25897471.623535737 29243484.246152136 29205257.10185573 1958605.3467895114 7408943.30504688 13118113.149005996 45051170.076195754 22073979.53622378 13151425.566840727 14176059.762168227 2484669.795367193 28820946.995875217 10765782.619934605 64949511.01521383 30690945.200377367 34168761.7682796 21520842.407411996 13030827.03570764 50435468.67864488 463200.1165907474 18969732.157781135 3150974.7253902927 1894991.373962626 3137025.530786592 31611332.132018972 12478931.698792128 12597486.024711832 2458157.048971294 11597364.482901366 31016170.746835835 20058069.62381311 11609152.102517977 19391180.85971794 9329427.2439038 5837867.73058189 19777753.849174365 28179425.63416382 6088925.527990553 19542464.038858753 5076090.861573605 19078399.23307918 27561672.67980331 12735731.171240041 30763496.962937526 16833458.509306625 30770368.655396134 9283472.202050451 22710851.51893079 22683454.833394572 36018977.88147756 12706439.324378567 13686466.084873559 26894330.99347324 13521662.605106968 7146156.719237802 28970374.75434464 34580043.83231118 28064343.372732937 30522362.858307924 15788530.514949827 37145688.3647267 31608007.09731672 36780956.400426425 40061742.68664829 25397481.46091458 5047472.310850925 23200715.726061657 30620745.452935215 26335857.476184614 32053904.11015143 12112766.764225407 40829634.03594973 9467606.235698435 9106359.668213628 1113705.0312393801 19662178.727287363 40254131.645028204 40481490.796143495 18796203.27494317 28306699.319357444 26693019.17253548 20965070.570226382 33028725.714899544 35677426.66945037 13420509.266714381 32369190.78018805 12324551.694241172 32442521.52971674 15614178.392998422 15373948.816072633 39221866.50860308 8982946.52775418 30142816.47015026 18918562.053249814 18941983.944449272 26160628.605469625 21185945.612835087 22125280.686584707 9946678.598803874 1725958.0321508544 1727889.6714580182 32774619.593342405 28209522.629020832 18521716.568218086 27837073.57171353 22675843.068229295 17684453.31582948 30497355.32455768 28847894.82601496 10696408.400992839 2722163.0927917864 37974818.227206245 27961051.89730462 19854953.236070406 34729665.95031882 8199355.953608806 2111215.2594563337 2101881.3077383563 29231758.256136496 33081254.924569167 41353358.94875136 6636820.786496271 10065780.594969638 29068886.856423814 18165932.108571127 18475032.393080343 32139175.28991356 20679243.842379227 41751690.121704705 32103487.654682375 30270476.70529848 37064568.713153034 10903486.701406786 21583394.722442392 38366949.27268855 15629297.653541785 27012310.029465917 38190997.15851087 27594295.35194677 8635743.242033891 24961137.55143951 22378849.442305773 23112516.72787923 37220404.88898617 28361660.41641466 8334875.240271815 22539704.57995784 28477578.71255983 46383230.12148053 27922909.43014602 21618893.80010742 7356524.861485565 86699409.66976976 39943664.140379876 26485380.648165967 13923220.425275436 33593905.73159606 30565555.850764092 32318484.772455744 27162550.546066295 33980028.38083973 34800355.77542724 18943921.351342622 30062093.141018458 25392171.762057513 11076537.292905036 42864380.7840542 29398619.806908954 30262482.645042636 32231581.65718272 13068184.47199858 14311712.599633487 8219843.30060288 35354929.97227535 31645692.710354194 14218230.874834312 24299713.088940717 25210137.819753647 31864669.52447264 8128925.515166506 20654122.982076246 14075620.765095118 26081915.590208713 14370705.287853362 45071251.28526465 15609350.80180832 23792942.23271398 10686276.38446607 15317677.321466858 15619103.670776783 15568639.277200764 27754523.75144436 31965703.67443265 31496333.25249576 20234960.95963772 9006143.10235504 10255341.063684858 1180360.9772433124 15233956.48737261 75270215.8257724 31582902.24810942 51982436.52748884 29651818.02159814 31649146.46398288 32430484.997833237 9186435.804345649 27716890.92347305 23737417.57920704 30548404.737307493 15263980.218487391 12503302.813054979 29753346.736108225 23932304.673374616 5881568.246395408 28171467.544421755 38408863.68252807 31758296.922312185 30141205.27762516 30709982.99104358 31068634.914956193 32101932.335171934 34146169.63034212 11425464.409557436 33016113.08578901 8843107.876873713 32391963.601657096 33607481.98552454 29588354.24150462 10859996.275191534 33891635.41882126 23233477.701630354 20655294.33164381 6466379.053712269 24472346.41706435 10966808.929579254 93792944.06582074 18442859.060368814 21247624.333339162 41766974.87891755 18587942.67016148 13317654.958436072 28771194.280892465 1706158.4815065034 29812497.33887385 12258711.491292706 58700915.072992526 25976296.254045695 4374427.6759701 36769490.200209655 55846415.71630656 21137443.547511112 38825792.85549586 29044079.14917403 32010082.965306453 23258576.164969053 15049330.843031952 56222188.607725404 29760539.272278357 30477669.362256642 24660634.25837888 12572019.295514988 37528960.60457624 3680956.2119508875 28656260.867265135 29752463.49312496 19736380.42390412 10061510.661763078 10148470.872938704 27840687.803100195 34246153.49490127 33390691.216651022 29037656.9486822 6607305.753864693 19270211.89061702 3649660.5817519114 10565384.855166662 1698009.324068481 29221934.64641167 31959290.856049925 23322650.725627128 24790644.932678033 1073908.2682736495 2561840.2249298827 11459517.715520658 77556249.59751152 30941274.965781827 31888174.770357516 33415210.741769563 18070020.75762393 26118610.310266856 34050425.1977674 37612295.090647124 31420746.072193485 31553460.319004387 31448824.505230036 48524542.47753909 19855981.733227056 42107777.885470755 31053945.559949163 34153820.66336947 21733910.086980913 68658046.72256161 9691334.186072882 29237684.4052525 32661508.760064323 49667524.33478627 29305114.693627782 10188122.431469763 10188122.431469763 26607687.623012245 40484021.61251772 992857.5155214304 30726232.551161133 27912627.74856669 24210845.77002288 34244415.9620578 9051093.916805463 30270263.77844324 15321058.049388941 1217322.0290797967 25522039.173898697 70182613.4082748 20258758.532903716 20392197.730478186 27230656.425116193 22782948.403532904 14195575.807519061 29297518.54436777 73304517.83468443 41264082.498915896 4818319.89492586 33665386.18390304 33186026.216825232 33416517.756920617 31721211.39510125 33949196.82562183 1219365.0754633504 33028973.240976937 37425246.20421302 33585706.56544247 34364753.630990036 14404729.056836654 32144194.893529143 4630157.345474952 31196583.684335604 6542959.558231482 27828334.1173621 5171850.5576888 40068321.83325751 10881412.64254652 18026818.11552378 14501327.514655774 24598652.00712532 31503715.134258173 16422859.22875117 30487506.703794956 30098944.986760642 29940879.930577308 32451464.76733189 32348793.82977331 49215957.88583353 33419926.77655351 14496251.004553331 28919890.41853655 52759321.220781796 13708924.100301897 30249271.479316786 5260204.633510719 31262279.221847046 47035860.50137421 27649812.258362204 7391370.188554146 31468783.390644334 35454931.27298054 32015306.16080342 32685074.948186055 29986567.423668243 19989542.387840163 3438114.9092865027 31917629.576131396 10529718.758293742 7601662.65763369 24508211.945729636 35699439.589449756 33391951.567600623 46101739.98054259 4313906.828060909 28479482.86482755 31238830.119131994 3422654.915149084 37285799.54439186 22618920.29139765 35585217.7530748 26472548.141585853 10415793.445012994 29976046.564706337 50263567.78705583 34552680.735625684 31487809.86630072 24144011.564921346 41903215.13405585 42845782.135578886 29188670.90675886 8375889.133087156 33340959.49663886 21465678.35734416 161444644.65386605 33325625.76894389 29012960.80940044 35449460.246184826 8686165.646412127 2428149.8299690606 22940546.98433238 28601977.5057803 33303589.1123726 22203616.19537405 62246371.11285993 19604513.07793973 31431304.42946348 7944939.5837274045 18205929.130933244 36180465.03346564 48601351.31688652 32761256.510922898 20160810.17907779 31611474.30948276 33079478.46844731 31678006.163383488 27459226.385370668 14159872.273218881 30090502.629923042 15698693.719772363 8679484.309508802 8580680.128426611 8940230.521842945 30650260.19948192 27029674.43353706 28643156.61992878 27491054.99478761 5325003.572714867 45917248.57504431 28701928.283031885 1350150.5716273042 5933845.523554897 18295030.648724157 8810527.79932347 29438558.40446827 22489734.989153963 23808315.482792865 31754132.102373634 46658087.551198274 29568080.33135869 12190114.799806364 29190589.243480068 33256128.93276049 26776471.248920437 32035727.304049313 24348453.473911185 17725856.765842404 60703489.33125545 29655222.200313486 26103271.196253113 11490283.850906178 11529204.402955253 26081944.73336127 28122727.009419475 11728309.346077522 28817940.30259547 27775062.836336557 25271718.556367017 25772246.04566471 31602972.78057237 18302430.014581736 30054214.25186393 23184700.26843786 33007603.444294415 33274057.331234947 29821318.31506513 20829090.40188535 36777591.61781361 24185859.946784906 8228740.420485478 33654548.81605566 39690782.27852945 35281107.660319686 35171292.37160745 6425580.292849044 30073932.65669512 30331414.235545393 29884162.145003438 11778317.71037338 4368155.877605552 27240879.61398086 30217738.54974366 24624485.0755674 26932311.102764003 4084247.67985789 42675266.67780208 8432651.64421673 2097029.401826018 48518446.40666091 19526221.68139166 12719075.521218313 25334661.358391564 19479488.644704197 9307623.214598885 30106562.186929982 30883268.260977313 27037356.081148352 27228654.628852613 39963264.113376446 26370238.71684179 35372354.03939725 26599681.67155271 19008624.288286984 28606743.67414893 34546557.978004605 30890880.934554525 35861418.0939507 29076822.827770505 8482170.200542744 57415104.421169005 29337072.63411977 7978926.429276452 28764676.472193874 35042954.04573265 16321379.226755392 31622285.07851335 28888303.042513188 31419592.738564637 7634803.359483772 9607261.904869976 28740520.19554127 2977485.6571339755 23650774.245340362 34713337.86032582 29071170.449153807 37283218.931014866 32013702.307370596 15724327.620098855 12581732.546661267 23271506.26640967 12997350.750905208 9239032.67358834 30097947.843113836 7340153.658129325 17365661.417204347 27499947.526188478 2070944.0758488039 20029292.814822253 32387633.69957258 31336653.782922596 24970517.276941705 11337675.86950486 18831916.76440581 3248176.39080188 57353166.83215957 11294283.236124614 30115855.90723328 23154943.02561351 19698967.591238797 16129031.874085924 25790497.436709404 34233797.71199759 5851511.451765386 23990429.556588784 29281288.911188062 2067002.6202167342 29461320.539387893 28585239.888978776 28363861.89508533 15776394.125029547 11261022.491786854 58438356.460318 31408538.40708418 14935067.46253309 3289702.4187034 34679178.35591473 48068762.085987486 16139686.564705836 33004992.638637435 38794190.00327749 29930059.930695623 10322755.146860981 31146600.72555533 10326393.09987915 19648652.16413814 9905624.974812293 2597650.9079431524 2605331.637627328 23813342.210646957 1095574.8220243137 26365372.042337753 2076161.4905864398 13493544.350577815 2093800.4339467837 11462624.345287353 2262778.610279072 9280986.78014739 47886261.56317724 31645211.730954543 36117327.72582451 15211475.47288258 25716756.814922437 26176607.749932684 12402156.939045193 31617866.804868918 24284482.804663405 31772620.717985507 10200689.555396192 11278132.52293243 30215658.305255413 20356089.164635852 32476911.907647535 14050623.43404371 31282353.060851984 22194698.07135184 14995217.376011593 52698265.816036575 40002647.30732205 3049533.411414501 27230007.327417955 40092756.21730482 31579532.63771411 40144972.46191127 5372722.083840399 5369693.401929477 35084614.039693296 21719382.944520276 32203775.854638714 35655103.9232372 23492075.72590409 62023659.612125084 22109840.0442194 11766910.864673033 8147571.070952135 23048991.248255856 29497954.52703714 29654037.994296767 42531480.63289083 13016337.595070664 16051758.382999916 39132587.65991055 29658116.965741158 43349055.580951564 14932678.026301548 22651690.168376204 35270990.97383253 12940536.346033627 33782868.69650991 31487038.66117209 39201899.70923565 8435895.702954406 3007071.2615374266 38188516.35447063 10376685.027209925 31809825.844234083 31473027.861550126 38906437.55199976 32145363.053076282 31637707.502477445 1220188.8924838162 13486772.512953786 25515371.635899328 18994521.842388473 29421107.738982927 32445054.749138154 26437364.209454738 8049885.168538951 43706739.797973566 8138408.742291967 24531962.57576484 26491251.216798633 38718820.021700025 23455242.21463153 16886298.733056936 14270094.377315992 29777568.944214612 64240760.022311576 17686182.327159915 23961662.325285606 28668371.469626904 14122427.74606944 31221931.512308143 20101694.236693434 33927541.38076185 23827159.562453534 15294078.373052536 3135023.835198697 20331480.82642739 30646820.526772633 27350925.010477617 9865507.364960894 19396998.173134144 38304462.4173752 41789609.779339276 3201406.232152318 29998293.18017105 31538933.728659716 30608044.116929412 6767819.632374326 20228927.26008109 30913684.928477667 23576779.41671399 29435468.234188244 17524583.88318327 23876241.316683486 19549533.535559498 8532953.49352435 3781240.2617432685 3567771.6221971083 14275355.024444684 29256833.973755103 1939207.0016750193 255031.11380769746 6750401.554937953 33237313.62834654 31552201.256749023 5732503.985261915 29355757.964748915 41784547.26798309 30742864.345349927 18490685.408820674 25807202.76985821 32656585.434361175 15221253.960895201 18202210.941999696 6365952.521376967 54289907.64989209 15623208.081123484 16242838.72316128 2761588.8182944963 33637922.85722002 11872239.444826778 3132034.944566756 23641616.24049619 14017663.962718753 30600793.337200742 3315027.1949775065 2985974.695489886 29733698.371847104 1378882.2140460636 30847822.43991981 12257546.138465194 131734342.69225994 30339946.967514608 30501916.322859105 37800391.75951086 25177177.158572696 4566742.637582498 3899733.9758362896 21744693.990667365 40093780.17233704 30072054.020457316 6234216.21927044 32038556.283360798 30171539.65182778 17996633.442550953 30070361.519614346 18385691.8192964 17633858.877980813 3176931.116083819 31059394.678039975 28246782.666558515 30088637.385040663 30720098.817006987 34167182.53672632 31726825.27780751 14236817.686000563 3129973.0793352444 1484251.3463003251 34800744.63279577 22918289.037547767 30654283.430717137 3211296.855660998 23964688.73158211 8778574.280299405 21356660.551782385 30547696.34189229 40252770.936909765 28796881.141341083 31027292.657741137 13835474.620327948 14969422.431416327 28368120.53023655 5655209.002712992 27974960.08095562 26850540.744597394 31294864.169653706 29113071.31466083 31546999.47296516 33313973.28814059 11227541.980107501 34763472.094995566 29264364.59424775 25255431.929308098 29188525.8196361 40597186.24300067 26222718.012943823 10450156.027036475 31576724.98396008 29110523.235603873 36946757.473298475 32502159.29102904 33299236.306303445 32248864.139279813 15675747.706538348 28924527.559393197 36008304.804550596 22554436.81253761 21519654.16420609 21327120.17653734 33518912.679904833 5172834.141134895 30724120.88088062 5045351.047801127 32844476.909087546 30772436.196062505 5841511.732476819 50688961.49261954 29542578.323699664 35232680.593754284 28723775.730792034 33714379.022968255 7427948.889096182 10363323.760257978 25267972.63096724 16182009.562396802 18126653.833201285 24957807.497764766 29090911.82276762 4948207.22907934 16637253.34081805 16745597.764502786 10278949.366063017 9848809.412746008 58981986.3307931 32240610.504231367 29925295.699783348 28316661.875247702 17339705.828788985 38431199.24073838 45566982.29060148 91221389.31096552 31082544.790838294 19159659.57546241 11662675.085158842 13982682.052709434 2193030.478443443 34748021.70268736 30563304.845592093 19823986.56556555 29815285.27889901 29901981.74513329 61004263.850057304 16853917.591439392 34586763.92869327 5296744.053494659 6653827.7275371635 11671695.41087482 30300488.90407604 33954205.53322553 8383944.087466568 20571622.313596774 3925323.6430572034 8077151.917393371 31640289.481204037 3131720.8505013483 12028092.83624016 32216433.012999926 3514276.277988253 33609390.64698132 14142515.311146406 6921521.626204031 1590405.4689563145 1595273.720657617 31423735.958671637 31790925.85431106 8251086.425159271 37066605.326742925 17851308.505850133 839601.9167741367 22739019.223473694 21893273.559583534 31047412.177280705 30322624.092530504 22155273.74598883 23504340.391021583 27152071.505273927 22294750.23466398 12938188.915521607 21647501.68479505 44320144.127363354 3700879.630797555 3701241.9080375466 15564956.63308718 42189982.03146664 30245118.43802115 13639343.934720872 24026465.50463097 37789026.453588404 30723134.160699654 27059529.939467415 28722141.931220986 32048826.298249025 23984152.81261641 32076085.13363231 13566305.16195331 30869514.573023774 29217999.6495171 31566775.64030035 31575494.9708016 8968964.355586808 17335513.929468334 12375933.138736738 18716902.542229515 14535631.494010033 29714840.450786334 31702034.67251551 29528928.077831693 6049391.634551927 16449762.441659326 27952289.90524021 10573920.612504141 22489413.66162509 19846579.7932011 42253694.016641974 36433392.004828885 28710244.339083035 7377046.352594963 29209774.66735351 11121691.67227825 20030320.2741457 12056674.406745996 29655106.990263592 17691983.477411747 3928761.941297427 3719541.268572094 21903686.25325469 31743287.986042496 21879829.899137028 29535891.118887667 28667431.53351425 32765217.377129294 31367523.511383735 20409885.80422545 18095402.95712171 29039640.841722954 4380545.855311997 4400089.65747168 36158367.987130806 32635747.42660356 14400869.500551345 32054726.82894345 3547580.0520021426 12695656.48876207 15264030.460624836 39115431.85326872 3507433.337971563 36483928.39454712 57448140.84835145 17926586.8133703 29177038.88216103 35905930.60306531 34460919.7218454 27984716.295551736 40869179.19538164 12453586.148835652 8632249.56971373 26890255.808084287 38664151.00807789 8584487.624662187 18856622.734422557 21676518.61144971 14302758.913185086 15866351.429071872 33592364.3910574 28738189.180661958 13904279.590832233 3577673.2569112857 76261450.89250264 36577061.55628438 11136716.653821845 28446350.51779789 28030744.38691792 30796622.487114802 33108170.27328489 16832931.7796456 16486017.19834357 30734826.619302448 28194542.824702833 34169041.38976387 30402878.072902232 32000528.24681767 4949291.22381301 20215497.505544905 24996471.235001627 10991849.535657942 31915804.599739905 4071978.0054196473 9451045.22891539 31985223.677060336 10929556.165289247 29484742.149232186 17641890.705813043 23517223.894204836 8154235.561921881 8113965.48945266 31920756.86037085 19867807.872696374 52497350.70729504 39313173.8432303 4621853.665826991 73698456.71694215 29414718.98824645 27572785.36825677 3737252.5814215587 20284869.494846314 20553074.45435438 40968341.13431145 26609216.219992228 28234896.30435154 52241.68599075938 11382429.373933595 10016101.440110225 28618622.436276026 7524848.718242339 2903064.542559876 13756434.24917849 10932031.306294724 29414236.000614017 6515303.526467959 25440956.97937489 21293328.8052856 3503637.846639889 3892594.821710032 25555430.82126506 27768254.50934307 2710913.2386484616 30412603.13360676 18115344.57259088 11555168.388422523 16478883.784949733 14871443.193708148 8257021.280880412 29039239.190297473 31842079.168137595 32241598.08377541 40448.92642474295 11636226.320961537 11582613.468928909 8525507.757572917 8575676.580696149 9067668.356519435 28693501.34106514 38860049.91069486 10433455.479211943 16884088.161526356 14869149.04951628 12596110.142384848 30686855.884019863 2948026.8164216187 2932468.5006846725 29250751.05064004 63466680.55267644 23154223.434599575 60486306.05947819 36099770.00776843 28639564.448289953 2938070.176950294 2929776.8342001974 10020215.060347978 51367154.91061312 28932365.278434496 25408876.617965136 32718901.27031833 38893172.83084101 28123840.38149449 13379709.662798699 15434805.390998192 23662752.883294806 15172570.525183525 31391062.49466803 18290112.884205803 25107429.053342067 29915582.588651575 31886791.032945305 6814572.7740263855 36759.61039876779 14991350.783146793 20425202.550261673 23074137.021368876 34827903.071263894 260286.50071521968 6814334.930200233 23956642.54500314 33799511.890778095 25579959.941698268 35709477.34534556 31767686.508515142 50693307.37072074 41202793.72610322 21918453.10312201 3200692.893788166 21896227.160816506 9419600.286546897 31757740.38174719 697583.6235909675 31968991.247509804 25073231.01978416 10013198.791808497 10094882.315628674 22423982.016572632 52445299.50905047 34617784.30383796 8118975.893317948 9898433.944718042 30605581.52223855 60643622.598376766 47414940.849513724 30273146.431159854 32109509.579817507 32072448.08651144 30720878.414408144 31617350.297095694 3835130.884434696 24299487.701081477 26799637.63643219 30037287.555748258 42981858.30603206 29232655.406810626 23474003.01237888 19047443.148960017 56857833.84534896 24282744.62172535 18866209.147583902 3373506.3641959834 30154313.24585883 21381199.690262057 22020504.78771991 31409098.23466253 24395087.010397866 25406182.54387782 20690910.978172295 29564011.501262262 36713770.633366026 12579765.753155615 34208831.338185884 33333626.252114866 4096409.5334617943 8461269.942274723 17002982.405236926 4324121.25002199 32642104.409144033 67523396.14768605 12889696.11537492 35865007.798628576 7765540.0977663975 25861991.222368367 31031804.871689893 32005742.251635045 28574452.561296824 32938939.372602325 7711788.159937552 3544464.6533360993 30785243.846041895 29917146.549461443 15688889.763786007 67489704.56713654 12311571.750278343 28912996.19145531 35972601.08887439 3266656.19615978 13895666.896698873 32004627.39020933 31307300.374608666 42308810.135934584 26196350.467148636 17656128.285228003 8135967.585068183 47187620.442979984 31995568.060876794 18180990.726686783 12137166.626853349 11427121.226806698 26112148.537451435 28219097.96502349 9099041.657588223 22713449.37568353 32390765.716960724 28712510.358132146 26999759.59234603 14299512.534546396 31261507.67355176 24932106.843048118 2115125.4771280396 12320580.362123871 25696155.84697215 22749803.44344826 21782238.279505983 41205241.03424173 30817238.527450897 29880433.6714927 21171525.036517702 7942432.695601847 32976541.82651531 38609119.86306643 38631183.02082217 39274188.62425125 9426594.661689846 35043226.08899337 32866261.577524137 23786261.99538926 26389214.7344571 22385101.504816417 19974579.03951034 42217990.24238637 4387166.715169821 4528163.889886104 29085135.859497808 9973680.200901229 30316109.780288387 31393892.793865502 29520859.536562666 32276954.822626222 23927542.73975492 60138121.15527712 31183164.453170337 30613430.213222016 8263274.614937737 30447587.979771692 35333057.89064564 8276121.1851328965 30953593.753785074 28012120.655512325 30487520.948476393 25554678.658207957 15661459.811864316 9025060.674274128 30246836.92960312 9118215.143479817 23385742.12450107 31091540.105444167 23320206.18821664 29527871.811019894 31982043.633404974 33613980.261679545 29306745.14141461 30317783.92782838 28549957.462297887 16553453.873388005 30234237.001953598 8716553.041363187 31932273.109657522 38270531.43641948 40703858.69821296 31359035.35373977 8716704.714100156 39803462.83907116 33339745.26536541 37618578.58072325 6199767.957869369 35155798.34750258 62820726.02771917 30074621.19538406 31778485.07502035 29988500.17263674 71468804.53211878 7602332.426232471 27801389.73081564 18442082.558434546 63473423.871849306 11646657.846904594 38382035.26071178 30096494.06798747 9745994.763117949 28950285.47863239 57371279.06974498 8380103.070842121 29232236.535614893 8412930.337229116 94798586.91601591 3587904.264561525 10387911.350751717 24681769.84262759 34217597.077453025 36732717.325684346 26759930.852822438 29122739.325379252 15052130.50407439 27686938.53274905 33601435.88527894 27418702.743258614 17776304.644965492 23953926.78109876 34051971.270744756 25359967.830381546 28923297.4758766 74994650.4785653 11929848.259004744 27684790.256012455 3879955.5015878356 3645003.0685595297 32340883.340619955 31059397.564584326 8306922.123685976 49730260.90352293 13371636.434714582 3714910.1788833467 3722128.9698663726 38722491.55243443 26945663.064080656 25631191.82505113 22652869.23712463 10748895.845998164 22690294.78543482 12371556.231321715 6518774.32180882 39694142.136403024 118704911.14075074 39196658.45379434 6564394.281219028 33596344.91329679 30444204.563127913 42341618.8624761 31920658.892120663 11886635.579412354 21394791.375415433 19874668.410425797 16677469.58592046 33608371.321084 20110950.612220276 29673478.189538553 38890642.77231828 10684769.846211005 21140994.86306336 41095531.88009399 32248439.41402849 31292563.533016343 16027767.9922724 20061402.144711472 23970901.20996824 30408443.576241843 25189372.465998948 25704299.119994707 31566054.77297762 29431272.578431442 29058274.62643867 22463096.42876185 20448969.875433423 27762520.87111822 23330968.65132321 35424382.35738122 31148701.724807605 30729263.812463053 35963971.02369245 30191130.179561738 30450383.07166352 62780563.75641796 27520596.240493193 41944020.583728276 20679450.61347702 13382675.004878134 56013916.12737096 24229929.487932187 80855974.29457654 28894450.931338176 34500374.94162209 68296140.08882624 14908372.94707712 31675522.55099165 37352421.93224499 12920094.717733169 35347858.98848205 39712391.08267926 17794744.5074294 25113144.160987534 24129460.79159594 30275798.5019024 56848792.450639375 34821936.357949205 31694703.290939145 30625323.732415095 29704203.305543765 39401936.07658851 11234145.168022657 43602760.72020555 28696483.17456831 24940849.705515508 12423534.636465756 15796379.779888082 16674414.894845597 22334865.333294146 7249636.391266271 7153858.988743503 25978506.945474386 12306434.37083744 17942643.907073457 27481881.16851546 30452021.830886606 45157301.1442775 29685060.002602823 31314766.322211865 37655473.278214596 25446335.594234277 37852541.16849401 42418434.04815004 317353.61807009624 14845925.837816145 16657385.999702046 324312.3000604049 27090418.02887562 29528405.806744613 11866041.264804123 14931033.073288325 20517099.886052955 38526530.8401545 21065839.516866907 65032116.62915607 31293480.613777637 34241609.09749244 29413512.71903401 32201838.759745594 14531271.870390892 21536283.370110508 31617570.184000723 16079848.511479478 10103906.697053723 11949180.24510608 10077457.976287087 15715284.50432275 12741683.853626186 27696125.58353999 6514286.057271235 6444965.078732739 28102177.98997798 61831253.459160276 28700018.26797034 10399500.028475855 30752940.7747322 28837813.120449096 13007396.117945291 9604342.366373489 29422362.481760573 9657755.983017877 35277097.11358721 12539453.39543135 21723909.33447675 31779330.35822773 29068077.990681008 28260148.913869634 51931540.61555761 24574415.73513477 2611757.431135698 39255421.160569124 18109639.13460666 32956309.152034916 14563345.4291803 1928753.639452365 15837382.08487575 18911663.39080507 42924806.31570757 42029547.22141317 18616351.526279632 28457806.003406484 31753445.19918935 30317559.469738502 20629984.116568226 29135179.777819794 17562655.057346154 56444500.45550852 14456267.19133416 23066833.826543305 17810666.452927653 13870015.774554947 3342804.0797816417 3315358.0156768034 30065276.947995644 6771192.78277996 40070595.38593212 23680491.69412406 81291647.4998912 39509861.74261456 46025247.4613812 23633917.324538708 32971788.41812793 25427625.806690358 26489345.287115324 16206885.144469328 23732319.902487956 22218161.884284552 21571260.027332727 66482975.05191075 31118280.02510093 30069587.493983082 31737897.433602434 28131848.742246363 24895389.065304898 40445916.16512554 26752458.12908207 22255938.874339502 13078030.717616195 35011120.03981331 31663080.62643667 29499243.22122956 22663793.745184977 39068660.43613849 14334659.880608052 48568817.24423738 35747186.13435884 24327186.606510345 32478676.209354788 30811833.970744804 25930593.44411645 1678027.1972547448 30799253.297964156 11650566.01265866 29361782.22843625 14493779.56236091 41777477.25236802 32801656.76046073 8585579.862185152 28791729.042097405 30363975.027217433 33532112.243890237 12111240.202087408 19152609.924178086 25268890.367984876 30638477.8549641 11937417.465207387 1696262.4167229326 4654625.369335329 12233856.798140276 20102322.31634601 140049292.1810888 17958762.42525394 36907682.89883 31393769.80570445 22640373.245209467 16755827.137095222 12531685.062162973 29669574.655832533 33064606.71145982 16385368.70925626 38107126.380142964 12285055.544692414 12276358.344444234 23758718.494610164 31351604.09270073 31734395.54188411 4716212.984271216 24720780.1322946 31006307.13900006 21042418.686986465 27832909.54739861 36011017.89167476 24445177.950426772 30101291.204033744 32929234.298186455 28317491.47634638 5998275.252765764 31454153.527921755 20538718.95960437 28391557.378978997 5988087.738243262 31245535.990190946 15817841.821281824 29623370.252736103 3251560.1602282147 49383642.23980352 35924052.58522488 24597159.217016317 28242930.257271428 23917225.39165105 26633763.59213784 12170649.988122597 32039213.97518248 30383794.694906387 31278413.67128558 20432718.668133065 28345962.340733364 10216284.684416333 23690383.846286394 20215087.072678283 30673696.101457957 50663547.480842575 25650803.401142236 18440723.90332082 30526502.042652663 28047851.15494054 29532473.789356846 57739179.8704897 12102622.67823723 33247725.011689655 8473382.191189786 878233.3926021532 31217467.33751024 18366777.823604055 18547262.219461124 26975489.600184225 22857358.072496597 30310831.19974067 31550054.044077974 526734.481552263 12038173.320152558 32410854.85162274 30682687.174415044 12731458.715266192 23283768.736777265 49957498.37334334 30372860.20583818 28385251.212465424 31331708.543762017 24141642.834969044 21690180.740227427 21151647.9441911 31595957.26894763 23311786.079188205 23778496.7022709 42794818.362010315 27814579.806881182 19431187.496819545 36268133.89556597 28958993.208754882 16190667.930386445 27326194.03657421 13588243.610905223 23951389.98271732 31085979.228391893 16091368.030116532 8467036.751561606 29726796.25047735 30819978.70840856 29552416.463830583 33355897.505119644 13451658.740512505 37940263.52264981 13263088.620174676 32362839.790851526 29911440.710988306 25693936.060723025 25248728.372722194 3724244.6339434655 3685097.3779276446 24836207.600720383 31240134.83952433 42454291.20728742 17415422.942539915 76818101.09113893 42938540.86406264 16226716.385726089 23518644.266780425 28244493.658243652 12689450.884985484 16549838.218098084 34120093.591785856 36045486.46130579 6894070.214880809 10567186.0506686 32535816.206947464 30293573.420680564 27093662.10770016 44394069.25189534 31713650.8167546 11770867.490943246 29651602.81274414 87280458.60967535 5144805.091755069 16753720.523356603 40662847.48768614 35068982.21228355 42467899.079638965 23819310.077005297 30059041.5297598 59400546.3579159 23689663.309943788 4989800.820182161 35882306.61856035 15699848.931469504 29826495.85343414 44998207.09496345 32429238.126908608 24161256.820508618 28000834.713589795 14084253.59118245 26047032.414845634 10291269.21733933 13321473.446010819 5625040.915143434 23368356.617052037 30669942.889467515 24935146.820494577 27090525.80797303 32091130.873182386 29363586.506626427 29236095.618246976 17171529.880447183 19787174.703790225 4905081.589820816 17167072.21661197 37735597.722495474 12913085.392737709 16380713.73310583 34148861.100641854 18154086.86610981 30057918.853499778 15966999.0047159 52732720.63635115 21709758.944577113 23961127.567556404 13986829.505588885 13502219.328395482 61130646.077614844 32068310.821963623 24525313.878944967 19030464.92593294 26169887.1949408 12909820.88196302 29366246.13500426 6094481.3012623135 28242824.327945836 9509393.131008245 3682582.010908271 3753169.9151536627 34856196.023934 23473750.621215172 59548331.05953525 30272035.339728523 13241148.785230158 24318869.797219872 20661947.270986237 20671951.599692315 31764318.62631621 17314072.90581742 32924645.371007837 49888695.01185471 25586198.05997926 364906.6131056645 23352309.7535393 29604042.96651757 7062313.684246553 58718509.52600742 16168280.079120718 27657154.669818453 38067743.496478215 18964371.49195518 29754024.855811473 25963264.206432663 15033185.576500742 26197080.22855325 23605228.689395864 24416829.69453233 31411739.15021584 29933878.113063462 29401402.467786808 29093120.200039707 25595343.147933815 32214965.407303356 30875772.201561365 32493774.485907573 31918568.390710663 14617813.038738972 31898672.15613649 56489887.8276268 26581321.43603167 31190409.526229635 24502969.880375754 27055823.815844793 37043726.26469382 28885739.34417879 21691514.78116621 31683152.06283758 31033309.24989814 31755664.246649917 36768465.06326934 30635200.21524072 32405096.861151733 25485492.527403716 28690249.062972244 22732348.39440409 11337321.217342826 7101283.652683707 16157057.580586368 33427059.664830215 31326986.246039912 17097304.64531361 31294872.286793087 27336395.226376466 22035707.233565826 34531541.01234779 42452708.30428693 30244295.118330628 12082985.020028409 29537441.57778769 28022420.810528368 31531557.096307036 23032307.182863172 29091610.643198334 44984557.1035969 27479458.109185144 9801191.463921405 26436683.876841705 31896173.478172045 38530341.49302291 9054445.23681057 12346578.621472266 12079098.81709342 12594390.223805206 51882904.5174859 25251316.063542634 43378267.95938976 25950901.287666112 20070094.004279435 22891934.948241822 31130264.41147579 19759530.70431709 17460162.559691746 8542376.202193294 56194143.37666491 31857360.936510116 30231885.7891835 10019962.823440507 47921917.54630294 28980171.047720037 18249930.46041915 24000004.683632273 50301970.37763841 41260856.83424422 29837830.283128075 29309961.417106614 39726696.989548326 24747689.3136679 8550494.890975848 66843630.09643568 31171629.863277983 11785447.07634872 30836332.681438975 24031436.561145987 22439983.74845396 13823335.768784748 14416558.113017688 35922248.47067599 30479207.88894269 29956264.837757956 30137558.70423777 30427084.359334882 26731355.678120118 28162889.643548828 18895350.32071776 26587989.880113017 31301262.614330932 27155764.856855378 17451511.257281687 43361432.48137167 32541310.57823219 49179762.73226179 22831090.921553396 14570216.963097343 6658108.314489261 77489019.95415115 16249058.577455474 22883253.318538375 78346695.05055456 32225230.09577033 15896800.586384283 15831069.72763275 32809368.403321337 28629080.85496276 27161245.318078194 33552449.988575492 60323912.040366255 9048871.363642292 17117539.37306318 28075658.092679907 29729089.952165876 29372734.23824768 19633833.86687249 13387865.934514517 37642308.51792802 32479310.984998286 18847799.97187974 38995858.09587125 28139146.909943886 34912791.104841694 12551812.022287231 66252485.93032572 35574980.03822761 15335999.802777193 1657350.41275074 30186460.788650192 29460191.277150024 73539763.78135945 16780240.74534448 34368898.73436405 20230760.165086225 2667649.620123491 34586340.15932201 36318816.13007762 29327096.262339875 1480560.474952798 1477388.5594620078 29158600.3206947 48591627.77925147 12551675.95786836 29267389.611132924 27309156.70175755 29245577.96157658 5019427.932336049 27223903.053438623 28087797.044902615 28939314.657890704 41016995.60249754 27668566.37776158 15215395.29957016 12886301.402697138 29715923.160360035 30935954.00444386 28330599.032109436 29236521.719275773 5740669.910577662 47410137.84946745 28048496.553192787 31450070.542109363 13070901.174513219 30547792.595420744 47844293.47967846 27420777.0719498 52132574.25503489 29117863.77198226 17450289.937517468 29653364.616181456 2412745.0544274915 2410919.0977624534 2328188.472129205 23659973.010531638 27977386.359326765 1695640.4948384238 8700922.10683586 7977714.095577611 22662588.226316467 29986009.08016669 44579814.57567229 36366122.4396753 28128766.873236448 21744282.403884657 31415922.719445217 107212885.567694 27447945.894310564 22536550.054000255 8819988.384991653 8809545.352443522 46182029.5958534 11377942.872728072 500636.7635910947 16561813.791462729 22659622.58645857 5422733.85738197 30256623.533544034 30417578.17605078 6593827.348480817 29513949.81377566 42449463.15662782 801594.8485366947 40123013.30147584 31274483.43837851 29268177.00332405 68026438.05112906 17633611.93905867 33691559.445237935 31819585.7513063 31793442.644811414 22323974.306740522 35761899.6057509 21061992.125179425 33393231.210827466 4811450.840162202 30305282.36484462 33938925.81368952 16244150.576345412 47045305.15667797 62017188.19594366 22044217.959003136 50687168.805725545 25911099.595135763 31721652.881404992 39306634.841588125 31853878.88814213 24867601.963968433 18566138.65142956 13286518.382919427 2096471.4114848662 2103628.656336416 19960790.535089754 28479776.17166249 30168742.690675363 31741193.07671298 10427238.443161601 21205194.439761374 32924499.844886802 28413377.855621103 19152556.15995637 30271727.363201875 31494745.678593177 33153809.98655382 40555604.60667372 30180574.92841236 21043279.976042405 35262762.23752209 31799307.905270178 25497786.52532438 388080.833176449 34851685.19404372 32445858.271222863 25105774.898007937 34888743.15958143 40457468.177829206 28240514.93645551 18586259.212913524 27523974.221642833 37197134.8125656 14365741.005077386 8504369.796091272 10984446.527823586 25358480.73031188 28512679.79270868 15860301.293217953 11184243.866094323 53264945.40925647 30580071.690650195 38097632.247478835 32691937.651315294 33356155.37412407 29836705.581979223 27797609.538391463 36002550.78722599 22421366.336362764 13821322.843371473 18862089.102309708 37678264.28660737 36373945.93215614 32866537.411794506 33344910.094932795 35528249.033190474 29095204.304801263 27832453.61088184 47783673.9150197 36388763.27700975 41567342.67952299 10421909.775824882 19764652.202320676 1356247.8978760997 39242411.83526683 22081563.967093628 27771810.14714555 27266215.43245647 31180321.112437256 40746639.65869071 11845938.151922794 35288885.256391406 20193951.757972147 32586814.005487792 15676075.899465961 5579343.400669988 32917698.616797674 45571737.42950224 7200723.052297312 15166454.117585445 30826928.88364602 16649016.839346817 16467487.451823901 25336626.02881853 54442410.454698645 35457832.69177951 30957811.118394487 22971165.027153056 69791201.24816331 32583255.596907385 32776009.391770855 8284416.800494274 22229300.7015749 25609515.20710212 47501587.406667836 44684509.044864066 32101013.49608087 46482056.50014941 17446720.701665085 24963549.087699227 41642098.75843586 4480113.764836401 27686987.415485695 4480507.518408528 2434993.416256849 30564480.64969997 22251129.994740874 32587939.882816546 34473416.24601786 27481742.197173696 13024341.449771954 29568995.69974864 29691688.20599548 146441547.63955513 6337650.197835609 15056144.685090678 32045923.841091275 27259451.647449836 24403908.85044672 30988528.91304745 30410050.21721951 37729663.905150086 16407783.332801675 3936155.4162628003 40156123.2444904 9235371.964533057 28260041.73927359 1411299.7598614295 5091261.973128312 5088171.604924442 50077381.87853185 31920744.94274763 29438792.787729662 13443175.990938758 30770323.212986086 4868464.241828924 4086928.6118960315 4106157.2755765584 28122482.82874981 31549816.82043129 28622927.451273132 51458543.270593554 28125732.103230443 43701813.3485528 28094901.9378861 21360334.726731714 18765745.36189908 20131160.46656159 38014406.73394796 39676251.474396735 10593031.339038895 27984508.99756774 28903679.452555414 21504131.085113134 41664623.83097666 29807424.814519428 35111973.894431174 26909031.095936745 43638102.34428826 5210962.114474391 12422043.931776319 5212083.227027716 5186278.333790718 5937533.795214035 5543654.907748813 33213426.669045698 12323112.01913759 26959508.465221617 28315481.906914286 23997422.856004603 29273151.95979737 29526895.393528648 15619873.777182136 45475601.213518105 16742434.088435212 28769528.52436459 15020336.181060277 15042862.271076199 15898278.927120382 18276623.454364356 6468115.023829329 36201190.83076878 3070390.0120764654 26461777.414411142 37756928.20046214 16531377.132840741 6002405.756530558 29103643.993731074 30134231.275152363 13837030.497204335 16185587.735466491 30343519.197981123 29944867.568489887 71632531.13955769 52082576.2760808 1301339.9381798457 1307170.7227673533 6344497.963141253 16665115.090917565 27380820.106503114 37135092.32208188 29117901.834609594 10608679.87223099 16430386.155362763 37561339.33968393 34958836.68019203 12812020.282147743 7001647.654855469 6997957.873381508 27636428.50769317 31333888.037540574 21077166.086555548 22461381.220262777 12829437.186075136 16325307.35219619 24820424.109880444 29438099.576315694 21906437.78649253 20748608.119877297 30537974.153691843 29379252.510233104 23972028.349833094 15847493.159402078 16315423.298990963 11822978.52688701 15873374.579384532 21467208.546394397 32721351.152098805 8730098.553734263 626604.6716255283 21952325.04887594 9356364.158550816 8660071.749148691 36028057.035348244 27104596.347592793 17123419.612182993 9586780.162704496 35213447.50309369 36755001.0936816 11945395.81533004 37868545.67637643 43990964.22264534 29798421.907280374 35507648.907036684 15632946.786478894 36208778.67649045 15461875.609872643 18092179.99338189 16748635.084197247 18495329.223313324 18498407.325595964 35217741.38551185 26609301.764599387 34227841.3333796 7393055.837189275 30712326.225801263 26525044.848965835 44847389.60282516 1484636.4304307702 34451495.30584368 22550409.42996852 28563432.684869584 4207259.830131128 4210933.723075942 7504624.35999457 50800216.67585405 28350092.96480404 28098810.23648139 18270187.729981944 11110989.39846182 24087270.465063304 30860446.55033322 35125578.848529704 19121633.69854269 1655972.775705409 1679146.2606973262 34461170.515003614 18148745.92496067 29673424.852080513 30052761.215585846 1865621.6907948675 22141841.908230975 4117687.7189575816 38531269.17980748 18686735.1606948 13355786.351026895 41889411.17442204 27365395.99769259 13547941.053699033 38376582.988014504 6309627.268828924 31821660.257906657 29917041.14502199 39720920.719823085 24195589.730468813 31593398.82220861 39544472.54410505 34543438.4853798 29461642.720480453 2962295.154296649 40586292.796939224 22837420.89884364 2376697.1610306785 40163226.47946768 17274425.940343276 31855791.598518293 9744376.562940584 28161610.83200564 8683322.766392373 30188709.025743112 29246087.20844053 30737367.135132074 24377701.29374114 70021620.83906868 29379540.945903625 13259094.681246758 29622529.8088322 20461060.04782971 9632707.530167013 15287649.440418784 25955449.254394792 16270893.537219672 36449405.0978185 20002056.54068851 35903367.84094307 37914912.016962335 39240808.60961042 47787873.65234896 5761376.122976511 38075807.572809525 43406881.92001902 28992124.631919153 32425418.442389898 38709747.667062685 23497295.485469867 26695150.532948803 29379209.89080083 35075973.919271156 29116802.95682943 42350618.42780719 41118924.2843258 34895447.273847066 31656793.40501397 25213207.01573097 1251341.948764754 18755783.62594168 18466764.304373186 6548168.418382919 19412986.233708486 30182843.80242413 23448244.706464894 26085268.38994187 25939001.443170942 30900780.490839988 4399453.5433351025 30627002.531038057 9202818.985531315 19288125.606910672 1885254.324065414 31984086.23570607 28101190.05655197 25357114.784917876 24702414.54402361 22821550.99153237 23591909.76196072 28834701.32907913 31862813.816644408 19560437.27060141 33240756.610307336 38497587.73978471 5713956.312819908 28159399.630952697 28783784.873924684 20395640.983013652 28942834.33898186 34747312.43167616 16726942.874611823 11698791.919134222 37136815.05287406 23788115.58360803 2850245.857046046 25333198.3056547 28172834.95766759 4504842.666277583 31391709.89270805 13556366.063944593 11610042.013330061 39000087.78919307 40223073.84832219 12606014.963610845 21195437.389539573 32939312.35491367 4261276.045637323 29943377.946919292 26093285.774910953 25954369.306019194 31639053.07396177 8207701.126500437 22588379.7872779 38091550.288161635 29072750.696420882 14134023.528163372 28288982.465707455 13525164.439434301 33173823.91202101 29672974.98174787 23153286.66538694 18116409.691024214 13128094.908429286 7153811.095524513 30181295.82150776 32898599.542049933 25405993.15064567 26137896.78907058 12875202.598581066 24448386.903709006 31496874.591924045 35793350.8945626 34767855.216962196 30136472.833402608 30526516.531872164 31142749.525404967 17089771.12038225 98260203.99505922 20622913.9836445 30977712.41982355 34473032.62069158 13996717.731245758 2226948.8543339907 13479191.162257997 8982296.156352883 28658251.224188734 29413254.43849325 31890569.183649316 28137640.883383144 6600177.263733084 18328678.857924234 26594015.94778106 29772113.25676794 24890149.229316328 29868125.92506317 32073028.188606206 6565837.59638435 11590539.6570096 59790800.18002982 24969187.926123966 19071332.8460631 30701003.163391195 38715083.65650735 15064461.411952896 22570646.63418225 34223546.26241453 11423347.115120849 28204996.53296881 52218498.36082069 11863157.009460619 36069701.14288816 19468217.208214138 29225035.61903857 30287920.45311732 1643069.320429747 31342238.55861287 23627538.02111529 15125267.400720127 31109835.09184002 13896911.06918619 10744283.055330433 10718229.784206549 30507221.408180792 30702448.226527113 17659216.22921694 29493923.985809624 29230251.026769366 29270977.108975798 13535609.870110556 29952292.37033487 25011835.335720517 5012921.586987479 18366038.670736678 24155439.30052274 33836561.54021042 13447639.867409354 22219538.600018166 9411331.105716394 31381390.33275296 36249174.51217224 1474399.3329638566 28478687.112170793 33494822.36538916 71183446.31410004 27160885.160020787 31773384.541437827 30181010.570462894 25035777.84160703 13467087.505745582 11607052.699473182 28992122.43517755 41430344.58990962 21442498.44450113 29086178.21288633 25820079.96261773 13581283.404694244 19395247.856025435 264597.5909929871 264716.89669633104 3693031.0084536076 28731676.76292701 33631715.98268196 29659237.923620354 15749445.247603968 4877025.203568501 32614384.340010248 15790509.120686347 3513815.281116007 13756779.578447334 41749639.11309948 28470221.8177634 34968834.12493893 15210875.361724183 13569035.053057078 31208142.30146218 2370467.39796584 28841637.01558307 39128161.763194226 33329819.9220191 14164639.143013664 31027625.33362768 236130.63150412295 236444.62959763635 13516020.614658915 27737955.21909237 23422858.545905475 31290000.582066398 28500386.670037333 25187946.24806743 2980495.495140583 38060776.63576769 28008602.59905257 18304921.800040685 38990036.92721475 19176593.763395764 30013732.43965393 14803850.732326418 7742653.390480021 13382047.871874599 32677355.50670841 19232861.101101186 32373867.647576287 26307919.953014106 26933571.911377374 39184750.546853274 11450664.013401877 30922700.51014713 18150326.07534526 25047143.817154612 20656424.245338116 34602476.60187991 31322582.832834054 22975142.382115856 12108495.412372192 16761769.440403791 32784567.607828017 3202590.50119748 5818288.017185869 21096161.214139875 30677549.875089068 28605833.263890218 28970771.49803126 24998377.456514947 16454083.523971152 23450825.74111643 13786793.034721367 29466070.798129026 2338833.5802912624 29627771.43608236 16088868.575984964 28641362.26397145 25344908.62332348 23698468.94039436 21864141.738818392 27250360.27784695 21259415.041915867 31498447.81736875 32325632.554740027 41946999.41457043 27246622.144587703 24339069.061076373 31996065.716546968 28270257.890445493 24311670.49924046 4734705.682714306 87311982.93087494 44889393.63479967 36681200.638596326 30568779.00118879 24769918.371527094 22114205.739602234 26970632.378016654 39459807.32746144 14165651.090758717 31441764.364850912 32091381.10171014 30559938.51357265 13057794.882767713 25206051.840991065 31295217.55272673 7634135.907976345 25716910.80356533 42566388.80053196 5506572.916002705 10587074.836961666 30816552.09552429 36949673.70858741 15200137.539972955 42004123.90143294 13973280.75468721 27479866.70001737 2172273.597460429 33280043.791991755 6428508.681352713 13915203.633587558 53682808.190522455 28731895.02715693 16396890.546080995 34245662.55669156 30013493.80298164 24424070.23721941 30267812.58912467 25551658.558164522 20711731.497888606 29960148.302349765 40241005.750390045 253775.41498519236 5457084.887225757 5330515.866863129 4603821.46181985 32610826.726054866 32745271.423291303 13868408.623676432 29662624.502703663 8831722.334106939 5110609.5065497905 26422917.756069254 41666106.24268949 29730141.54501047 20056599.751086675 227942.61828848763 32750149.56278565 30612516.014852114 2060336.4412955504 28808641.521508135 32571760.634832103 253729.89807130193 28453491.802852497 27106645.044218548 30205566.642522573 11177899.147184493 228307.03959875106 55474160.88480986 29666814.317928504 30163565.634801578 17385704.017250497 15458003.142272986 37341406.51464864 31612368.826065943 55409396.74023886 27427834.35843566 34889858.35581899 23759410.84669683 31410092.31736301 29893906.47905355 27060813.695453007 5502712.8689389955 9424631.153643867 25604343.422293536 32858854.82583169 35168153.56621811 5294596.2543547135 5266108.141627566 16666984.201508356 21773177.078910057 16238470.990841744 31538837.79901251 18374183.37617233 11069173.293774392 79550829.44211954 20419904.401515033 35043349.60924234 31394709.464923248 2680569.0218288186 3959055.31791811 26709016.06608017 3725960.203720626 58460210.43119501 18330700.519783456 12579751.376112193 38299408.497607395 19652453.84613061 7758088.620079779 13163433.82138723 27114233.15951595 18609780.192170598 18558621.935576484 30080626.79785498 35025564.49002462 19030824.48967791 11168411.784146914 16917477.939432092 78338670.73803511 17046959.552940816 4313774.231538304 20078427.936304018 537364.7103960292 5092861.930208255 30542245.69374374 15951116.880361566 21474912.120944113 16231138.54659737 37512248.47316797 16024330.43653687 12718212.274515526 34356378.30793233 35251277.340705454 24464851.691177193 44260533.57093191 43721407.14442065 24370378.593890112 24457043.688857958 46642652.30659374 48957309.85083847 17675449.49650096 29532547.803995114 18585765.882110547 31043393.216607146 6627049.952482207 29193163.289869137 6601724.289552946 24492925.774699155 2709786.0272159986 42167578.99446077 3434127.6600213456 659627.0236070206 28632839.342875477 11300106.101625223 27613471.293048006 28770729.628406886 12767884.083802812 31989572.890775602 29144349.179433227 28362450.74494328 31608974.915504374 28641054.578736678 30651924.072073534 40136033.58203523 30753241.52959047 30908177.714848127 42223036.69485855 16553354.884192605 25207578.231814645 25637019.309637662 29312508.0818593 35172235.24897568 29517020.639469914 13877904.953650216 33749024.997794196 20653404.802483816 31859700.940021478 28916164.761252962 40844649.108918235 29767907.672189504 13307810.703252276 21265477.683384478 1057405.3746177698 21856764.78847629 5245715.146643664 32063762.65752793 28449722.286657006 32278424.041213293 31934206.75812988 28872350.119037647 8072929.457395543 8810685.655397119 30410486.363482065 29882470.969249085 70388084.27148896 32550838.55248675 26698219.601235352 17597238.656522572 30988018.42816178 29898163.68493776 27148991.22178438 26953393.929324903 31363800.62924372 7747320.343901182 2282481.394164937 38447953.82408993 31056381.731817584 32754658.041965805 23975173.602853287 28769353.23319922 27370774.429438036 3224680.506265957 3285718.6884294595 28968135.10250097 18194735.470868673 31618349.734902825 22199214.054305464 28167293.203173324 32337509.99950411 48168443.00251755 24345970.47015578 31867103.301591374 29259897.988733657 77513103.05392912 35756424.43583727 14242281.42953464 33329567.325847488 31046081.407406293 30836053.45486428 27547717.130805947 58621644.99309052 28047501.197124917 29530713.1135908 19483330.3091208 13812144.33285618 31322113.11359779 19791970.712178256 28511122.62130733 32537852.19707031 9086418.132287273 34392096.90749937 34042793.68744879 24091637.4242451 6088065.453784517 31784956.34333978 21552195.91122293 26193780.91264441 28714597.070507634 32147512.42047369 26180366.57166898 23349457.849359516 26779407.451224174 10468844.743929995 32819357.16952375 32982639.399788987 23825388.353493065 15913914.299725942 31203079.355438806 28490215.864754 11066467.802639034 28889344.497035343 10148800.760236083 36273632.79733582 34642159.76628568 29238736.101427794 9939540.930627424 27905006.0940622 10760285.100097883 37205350.52222839 73529688.16312641 24226804.305464763 4351205.602732306 26665413.68759412 28161564.129414394 31389694.863897108 16797416.321355596 25596905.91938703 20843564.895119675 57839614.50221357 37321067.41339682 17493661.72745053 26471372.618845757 14506628.5949381 65204163.79827645 28308371.951493718 18034196.447802335 18066210.643289197 21212188.462569993 26371168.78421002 7331519.800516572 26635601.630086344 28929339.29486044 53751468.82716681 12151180.775457462 28080677.53160541 28435467.71751683 60896719.719587184 27164673.572617345 23524316.50030022 28766062.06776575 56846925.7071185 24472618.55048808 28203539.176109534 24127145.951504905 25808543.525729027 31469119.585382268 24554517.83812649 29647170.460584313 32662743.129078306 28064561.082568716 23092103.93084461 29098063.02351267 23025462.23050646 28836109.542586114 29291853.28368262 3015098.863581175 24942276.09981232 37354099.840852715 3245740.6941242926 30528399.4738085 39666237.23506066 30841284.818489358 13235565.66293392 31541652.588867757 32746491.024956092 24482799.638085753 40164857.75570012 10018845.342993656 22839982.69968269 27321058.43722214 31483739.459225655 15940855.817418981 23261058.435699593 29750426.053500414 23124150.395695753 10817320.599597706 13401782.179234888 22562880.261462044 26407415.66646718 26456479.398914807 32262021.044430204 22043325.055991355 9177551.985826919 9316545.901217606 31845201.941359792 10584947.564929228 4568595.258176833 7506216.849858623 26905534.954695676 6166602.4227765 2969091.520265697 38959154.37693147 35363630.091177344 23604185.3928513 27873284.90382884 33871948.61006806 10670956.489537021 11794659.971641738 30979836.028858233 49274294.98064151 28272547.673919253 30324299.61697879 27789859.81117287 28980489.07701292 11356452.722165754 30660951.58422619 13379477.444966307 18615446.8122329 9047334.728184115 13527149.186547207 9329530.134100996 14047852.689834852 25147834.58099305 35157333.907869525 28341373.15791507 12695018.354783673 28879267.160491195 16652797.84883874 80287276.85143021 11349015.108385779 12188929.473413806 33167879.11825587 14023124.461355109 5892345.514644187 25917645.522617612 28248402.96910556 29819334.379142955 21158087.984759282 30456081.9694148 21865797.017323595 27145745.28019314 31935044.532817163 23982412.7991125 30300321.78254117 32842483.462917823 43924391.94971155 14680091.491918908 12631630.348856842 19842466.2338114 25452841.31016721 26623234.55632027 26296043.517479792 28232413.306831654 33198862.048118893 16958543.41177231 34624541.12945536 33556943.95779282 24639111.41424252 11576250.407745922 22338627.891778547 34762123.61787811 29274360.535601526 5333774.451792244 5788204.5487416005 22870188.074513905 25262118.35309408 29124944.686792884 31913800.000918705 18786635.05829252 13352290.114918755 31457808.235995606 26850454.20664984 22525395.93489727 30865817.42713534 12238888.553010097 16774574.397811903 23438491.300330203 40319889.85787693 23602194.340365313 27881311.615024045 21390289.479684748 8319181.57951611 31968502.874197796 32180162.523568273 27849304.519756787 30397992.120776005 17179082.97144483 31692002.335748658 24079858.707853887 34453208.137383 25600027.877923585 6745243.015565837 11849856.233176328 10847375.005977385 31622406.310431153 27568864.884533245 25405040.568822242 36232709.0259487 30971116.23968757 29477842.448277984 31183678.88764872 20666445.95815268 28900322.19113895 31859095.46323404 27954595.144583393 73591449.81704298 11381600.225058295 39072262.862864316 38905779.6338546 27839393.97917791 8705573.267963357 7849365.7940462995 31760353.022351537 28264279.05080515 12745595.68917494 33849206.708200976 38500340.193299375 13160550.400916124 31382029.347321816 5592559.255558985 31708931.556931697 5620535.698142117 51180342.27712513 6514305.007452503 10138979.614247663 29320793.857400715 23496198.822148785 2667418.08557746 34314679.08471599 31590702.122081317 23177503.543422736 10947058.4075886 2751659.4610603964 22864077.503194056 30337326.71525204 32813240.03561274 29672404.691904955 12320807.144879945 6803391.403081292 44352909.92572084 8997090.417091435 26619438.37789945 28889100.858371403 29154777.975601844 29258911.601437528 33973451.183355294 43667187.748415254 29146929.990409367 32440826.535628 23501774.697096232 27372237.398008633 32805014.601683393 22318240.43133308 24746947.39063535 31469362.305377625 31896822.42541078 28432500.971462794 26636439.243673082 39747288.22804868 28624782.84168454 32947631.645681158 38191632.92382953 29773339.27738263 38948559.56032026 42591635.77716103 30324293.757500507 6086836.987654227 9955256.338260368 27728136.029928014 39305203.770815566 29559212.89761535 5957107.162438691 5964769.263954117 5940510.909491885 31387855.755660288 11241715.602578515 5989997.036892788 32841698.89614745 30923155.688396633 30659831.002996158 22815967.701648578 28597807.991844743 23907806.780041672 31473808.389227815 37554197.359013885 9598697.233353898 24482372.24885681 28276665.457873978 21912828.592028465 28281982.264918867 22117456.079461724 31696481.997198347 4445400.271463701 44829126.12734097 7776867.652606282 14500440.191491185 14259165.908597536 31822464.461518798 54319989.13314888 23894271.042898122 16453818.739606814 7852946.040820987 43720089.66278488 33649001.777594894 33949384.59547836 42336984.0193632 23805383.34445407 32545272.098554395 20726809.58527596 28531915.918913096 26272701.423955318 25134209.05593568 30633710.30090095 32103185.60856901 25384445.83941075 25235152.60268879 26454805.39579354 54572345.74392691 28058428.965683643 27598890.033026513 2753468.5195949865 24173205.704511337 68182758.45278797 34104227.41623051 28584742.459303536 8432236.752154514 18371025.24931155 16720826.668398425 37645299.370414004 30429025.25876896 10187139.158871112 27742881.32978811 26529861.07442482 32610373.16766254 37873390.28516111 19793668.116166964 37650503.73973177 27670971.45261647 13787063.619638352 29710553.014240164 9296137.354304029 30427760.388857063 31747927.673791204 30016580.908796646 32623347.396406643 16145997.01877261 5818708.132729671 16159592.958496962 2204315.4785878696 30300067.891989168 29934722.551437214 20729252.77468499 28834509.707119767 39886257.09853701 16162652.138666308 26985075.49111615 6425641.952492876 52643571.12357455 47027937.136579484 29468944.556724466 27723019.687201317 29711167.2380755 12624697.747958822 20921638.614822436 35076201.26929898 33832796.63151961 8767907.75160143 36427366.37894602 23670434.2661188 35491241.53569538 28492634.637104392 30033561.346734554 27434354.12727883 30015693.348701004 33064998.829559248 44496194.16804255 22974430.031636085 31486840.930484768 9191051.424733447 28492291.85085561 27941770.965116497 24344877.121632244 25600538.56631868 18452912.210286126 22626666.828514382 33619611.92823033 11922539.815612527 20107054.264339898 29335858.01357391 8766672.251129188 26040357.641124748 12047521.675063811 43485700.295779645 34239772.83665154 25232876.187069587 37456586.83759352 20044801.31436039 5965308.872508701 36776560.85957288 27762284.338828076 23470052.685714405 25659310.54641168 23994477.455583062 30564117.454981163 32911210.82313981 42157609.000161864 30150871.087719727 8179653.824538327 21561309.234011456 30467634.1348169 30419276.806860898 2361988.961597797 22614517.462618973 32148968.257506527 16591782.380293487 32058184.868171256 29497503.46152022 27119540.619751453 26725120.018837016 28643738.417128902 28390291.54494381 25265973.55206581 28031997.181833275 21674087.617054332 8719226.011464447 24372956.281334423 8841361.678411467 8700641.914260462 8744361.57388647 15909115.49205925 31271852.888627864 2969628.8212234746 509378.1654839408 31547323.03191032 24239811.313630108 32645555.987640426 22964042.407272283 48360241.85690866 5605973.041838343 33693213.90993646 24327629.717290983 17939607.784722116 32131612.322476935 19596378.188115504 22067256.29758259 30102515.617455374 1802645.9048850038 24493316.03958049 20075901.772757366 52560757.90448267 4077298.369618475 6930920.454308951 6928508.502094134 15891783.530325225 6897303.519475408 40188771.460339464 26139297.65746334 6824957.694442795 17996678.061238 14007859.524274314 30846968.009251755 36026747.73932764 25890144.069901302 17893309.724571235 1507517.4285459672 10417928.35482325 33083885.527042516 16343705.008934809 42607359.416304246 47978677.59202256 46137889.3727406 29806592.979157545 25773810.74841845 30051469.302730326 47198562.041218236 39097639.04564331 4117972.1900544576 27293981.57521843 24204481.965104904 26310194.75875813 8837821.737511843 13296189.72679421 29707535.90897176 17413506.241943717 31099205.799220953 24552566.982430566 3675374.63592685 45778639.99645361 29882869.092662334 27484572.12556364 47071058.618866175 41610181.46235696 28193953.43081487 31592460.10227033 37119620.13761455 24938435.207359992 29717570.797825035 38776618.447801225 31040705.591107376 18659744.176342703 12004640.898463447 18086694.533290025 4257616.642987972 4208333.286208956 30395795.594857518 29588434.07100413 8543996.635790668 29358543.44963693 18029150.47052795 29657510.345420256 31540657.615499493 27075163.0001582 13363796.124940667 24390563.735992357 8545583.834473709 27633753.017694466 22505863.99024315 31530891.725652784 25932960.379143868 36837246.80991778 31535082.47079606 13978476.845858768 6648583.198400677 16079063.705437534 7752840.837972962 31049382.37854068 32550774.209540404 22152173.956372786 7288431.645126649 21380030.165188435 32805771.39986999 24508214.109272376 29268131.850874685 29235662.6130962 31678475.133660994 31232510.40937977 25084847.667170346 31751109.666558724 31098969.453049388 23558816.676513046 26883384.17989704 41419646.0861039 31770384.393306967 32803729.928461608 23260180.65405351 32829464.47356924 31379818.510889936 31618717.876922823 14163849.187050795 52658509.53917496 37924265.81681729 22464041.83339381 11949471.127677793 11165297.575315684 25485527.523327176 30140826.63301959 10786351.654940149 18104851.989041314 33962354.966162644 21150214.17603269 329730.84493566235 34762247.89655339 36238199.06638183 68947226.90466195 28827719.532861948 26182516.729404684 34193216.967190646 37222893.12011943 28796833.361646287 36001932.46166779 16552374.902065989 23917291.331357453 4168222.7003833796 26004572.375083897 35128874.834909216 34240072.72377959 19245613.9194368 31865260.454235993 33714763.041966476 26982227.767356142 29937503.082851905 12542723.925623275 27100533.67745485 29955729.438624594 29036261.738643575 7148100.746364186 722447.7504637752 724362.7581195539 32663463.870266683 31426270.781886514 30408664.53377703 32256066.072237108 674459.5283081644 23058555.042269684 28793920.179508578 27515141.491972335 55782723.056313924 32493857.36766376 657261.5873254727 26718626.82047584 5586655.18227008 6411946.535649271 560128.9903001675 571691.2466872038 37359127.02089839 33334701.105049655 22337196.18930817 33421511.140073452 28749682.17322792 31955081.885562558 51332851.44064035 28537816.826533094 12161042.429513846 545600.8114467846 548921.9109957933 29406646.49635173 3637833.760978968 36582009.20269844 25939702.009179268 19337779.28782098 19393733.881381273 7817340.419258866 32709372.677891843 22355391.709480066 20614035.1985081 25720491.237731032 25740443.939494967 22794374.518654928 13237629.174557198 28937644.88913034 34233287.4653025 24069149.964631043 23248263.376647018 124709092.86144137 25030056.03114415 30208361.774224162 29327762.042042192 30173427.570951898 29248028.60324071 32199156.823436886 6355690.092794886 31929595.015250962 29629218.981333364 10284491.519239223 8015800.9509563865 23010828.210556492 8233243.753107173 24514385.81573793 30611310.835501958 29667844.225899376 35877727.60806637 29239646.84750344 12484713.150879052 30643781.00286541 35431304.87823568 19587398.85271997 31990754.47137989 29883312.08402806 42363796.42350114 18991109.463833056 1686792.1624204419 49335889.70407359 62521916.526721545 40043396.97373079 6388141.385276141 85532479.1880714 30787265.97122519 35281183.53204697 29878404.83040956 29249337.464006383 1551149.906391935 29251482.861665525 37498130.62190267 5949115.701329128 20514296.055522934 52041385.00037955 25583290.414392002 31819691.5242086 26379051.595134195 24217348.49725359 27702365.432171006 29586677.307655886 25725291.460619975 32160809.483348418 31488097.94465025 22714534.463815946 41746391.33288083 23185852.094212662 21543392.196129266 31880937.559713766 3941203.5597860483 1128578.000557165 34942120.59482758 20888685.10138071 28181483.59201006 1151441.4700479514 31534401.133801483 36612016.37967606 1927388.1193039117 1896879.8753193468 33824989.52695403 20654318.136252988 28847674.517833617 31643546.562402133 37374563.22624922 28153143.263482682 31821163.386107884 25392455.184401065 31478738.022550333 30967610.86234895 28553473.677953035 55328580.42935602 10991236.363699855 61689443.73597874 37489947.16457802 1129841.558696439 29533227.92572673 3439024.314349921 31135865.263117842 35912482.0342193 5773085.436584783 9516482.037906744 30749012.89451969 5947154.396464053 31049004.395680364 31519097.252624232 21913258.8829022 35606060.88674467 32425347.384468257 25714626.849369623 24400220.46538561 20187154.098750968 48505096.33046892 25465339.777171213 29713322.25904628 17441058.212102618 386862.83873701934 34934010.88003025 26731038.896620657 23562191.40063655 30670426.964372754 20216567.894030973 12437321.38282316 34382093.47684373 16116595.364986805 35851801.37314682 8559385.845032318 31216704.721883196 35367311.82219821 25600111.778097514 31093962.307179175 23680175.822556518 44274113.93519437 30437753.525041606 30050967.469682105 36409698.50785807 29714895.5205425 35982560.50770791 17635523.932896566 41396197.698978014 26152632.43879672 29926890.933151715 30141980.319334775 30275248.076506726 28407297.623461172 9346650.650086315 33229706.340962317 11067202.058971092 33641517.126077764 31618554.632853393 35793194.567480676 30900000.7862698 31948900.826863825 11094244.05895997 27801364.314710546 46117060.1867316 22896931.103738427 34335360.56794899 30083139.664347604 31797441.106897555 25943201.28432002 24878881.699804228 31500948.886032898 30774453.06047995 33070376.72063814 6830456.894708934 21528151.91784107 33596296.66372197 30981842.834273268 35671354.47900596 26618583.66231319 8270723.063040555 8444983.018188234 30372490.69396485 33239314.032775287 4185051.724329272 17165494.8579545 37647995.39955924 23771889.349727385 37840081.60376791 33151032.29134737 32696817.36041326 16634826.486819176 21220698.18392373 35304117.37921191 20643354.84665862 628913.013352628 86102035.62472458 30144226.311387643 2010806.8657512227 31427140.945413053 16638959.953997051 22340173.364761665 27387793.331955705 53407362.59581436 19579540.004872188 18004918.866580334 32676180.136859015 63416068.982014135 24982405.297389932 30292062.85414175 17677435.569690567 54868503.26652204 34742836.52532677 31430735.13927195 15967058.277896259 30447271.794705316 31045564.580488477 5243092.528287473 28532685.716316376 25914200.359465607 30096991.930603556 34647147.09297224 32433708.6056669 37322450.09188885 35187333.35397553 25123410.544333298 17255333.019686926 31065759.31372615 29359338.569173105 28544621.673721667 13582584.792887615 24019201.82954499 7363305.005159949 14191507.265307184 36834378.792995006 78473620.3628978 29867895.4422441 26973878.841897428 31705343.98817461 24082450.554403417 31237846.574612238 22141878.70001594 25305821.48838054 25974329.688892752 13486988.916305616 34965443.210304536 29680167.331905887 33791898.64562917 31534108.711432297 31609729.40451032 31412426.908428214 31969576.763501327 31627983.42389505 29714495.458671328 31570896.069132064 30929359.120987896 25635555.84924949 19445807.37808808 30358951.919095013 29613897.536483765 27423005.735524107 27133405.774867237 20793509.30472118 6931807.7959864335 32843531.581154257 31442849.309589174 14956140.583175553 29282231.256778877 31064587.08768855 25706245.03347335 27942807.331229474 12859520.715256823 49235623.77291645 25539009.910694696 8813804.156281566 34232546.02878444 29875383.17878252 28976915.001911294 29890117.330088895 15228193.481746063 33203235.546210825 20509150.685695734 26886719.674365338 24983057.05381254 12146185.025363049 21022954.177539695 33881556.96282118 35090998.1573539 29375326.51192389 30453526.66236751 31773764.29738808 42371957.72276123 29037772.078312967 14562125.564737607 34216673.382296324 34219960.94733777 35010745.34203058 31271312.122881487 3891034.659995813 6632841.609064339 29724253.296088275 31959625.7300521 14512503.915715735 2358104.82478851 31596663.168069925 12243141.25177309 30437124.847075325 13276630.657100148 965241.472973618 37091975.10788095 30038487.756561395 24798619.94120951 36832518.423496164 24449365.86472372 39502267.7247975 21552384.03728548 21522981.603679355 26488320.634832144 34480395.86177928 24017362.283929914 21930217.300142325 21317744.78668183 34285411.38007049 18340554.923453 34279934.17178602 26668063.301168792 26292525.24086712 31576553.89249521 26588502.156143855 31545340.572987188 26165130.0689739 26482169.580232203 37385018.89826442 33275362.914149966 8018505.080389058 29640743.81851686 2460278.343525275 34624931.09922463 80910404.24427117 38278358.04578821 24659218.75240163 40561219.91015617 35349069.71854051 38341394.25380717 14684608.510300945 25550146.83764386 8873253.48907445 31935141.03793733 30458255.394115 27987219.47552559 17453024.878688443 1003372.9553920592 31152564.593677472 35308834.61482513 25103747.96290087 47497203.99833936 32413766.122217327 32018891.360234533 35033769.853141904 29106981.826015 31486039.84902549 28741617.82272121 30944685.88049767 30376583.40844251 4409125.256901406 32048882.250458617 27126304.111298382 28588054.621393703 27768537.036242194 31531369.618067123 39491631.624313466 12534730.590399064 38251240.980350524 33648449.82248153 39099551.98667398 5745737.533006669 33996879.62737598 31555369.399491657 32681376.952718236 32536343.315608498 41736766.657569185 2448219.395128999 32074870.86409026 32629861.16804035 32318140.71140448 31782254.698884666 38378763.564393185 39071306.85991285 8054251.1424796395 35703436.89274791 30664739.16056214 10061229.128651768 31439412.456842903 24128501.551856622 25595342.1652706 32075315.649149965 72187367.28617 33163350.12366281 34913272.97792819 16291175.345806595 24023877.88609671 31599315.054738373 15126704.576161003 31459795.509512167 34194828.296773925 33787229.75595551 18697450.799375117 57248969.266335845 31531556.54590359 34255732.84117374 18713184.775346976 23301503.70329706 34978518.5931161 36446431.00754059 33849083.093627274 56508771.4535631 67133439.07090907 24672411.808857646 21321824.85373084 23295711.376520857 40671938.517244846 15790252.175814744 27779351.831522807 30097116.99478656 28244209.11625547 29101824.875899225 31567227.165446453 31141368.94174442 17666061.919778857 27327347.273732487 30496220.764439516 32124599.700722292 32214393.144975808 32033164.869163353 24415397.536085013 29442527.413724575 64872719.049511 32061814.02200577 31843445.69229797 31358949.99726038 29047955.623341184 20955341.045377176 2917370.4126447 32937453.13993331 1428396.912261021 32135069.503750097 29464499.11156835 30247552.988757975 12850972.164808076 4607931.945113501 30913853.41184815 19426646.512193274 43656959.58204411 30489741.73774288 7537963.797697188 42263034.99339642 13237081.71805741 12329278.30673827 30455518.128678143 11692498.959046567 24493734.30303382 37855544.6235585 20284830.371724393 28804413.651399232 30927034.2630117 10372428.924871312 32159142.24347659 51698359.88288931 26330632.478572045 36243579.445517674 8932501.57624688 31491993.186130002 22019990.18619777 31414640.430293012 33569413.301695265 25087678.168867413 52007925.517976925 2146603.663660452 16868589.319398653 53227014.100988306 49985384.11699118 30264270.648401406 33942934.50702957 20534366.547667056 21147502.94762521 8314063.284710316 25722633.894736964 5555071.701140739 4308593.573029188 27547040.77541414 39109763.51214193 12436204.545357494 33673882.82056167 732009.3572828136 13710465.835314477 9139766.192242775 25510377.83430902 29717760.732226 24846079.20824335 28498025.255953267 25813250.798774574 11536320.82314832 29970044.3758991 25625239.721700713 76093951.18594144 32639340.294036705 31165941.610773146 19549484.404176086 30332162.636051405 29784350.328544438 27751617.391162552 32538321.32407854 32098737.101225466 28888789.900781784 9952745.040059146 37029192.64602237 13921300.82049176 8350969.733800889 30513522.595031567 28952075.008331973 34951669.5948608 36561814.23821751 29884286.284520388 28221102.014773946 53362063.287546895 35005792.31650552 30449669.476086214 17247897.480822958 31177654.768718667 46302598.072605215 36538764.367632106 15578538.769600369 34499749.55712014 28778590.65718447 25519836.30525828 30768580.058442913 36324887.206906594 32260248.228362653 53829376.19098573 20214928.61625546 31442422.4431342 30807881.323472675 33128414.688496 31401278.492046595 28203968.426952153 13891273.790014155 10529651.779507108 36798006.721032746 34596881.91808883 40863948.36974941 15402356.80408726 32310676.345802948 32183838.90112771 14867412.24695594 20865022.991085384 28332206.98475252 12760931.44756131 16597609.042071344 16951039.29380651 30396263.24193701 37712945.30850929 41399163.81257418 23949595.207412638 20812413.9114969 28545591.366915874 33814241.747604005 24767479.000562098 26788517.501924653 54387480.75587779 40133027.516148664 1980834.2192817756 24086620.151127312 741555.0902677737 727696.3375879669 32124939.944175027 21771362.61970795 25255658.241563596 4421807.064730238 6806662.886562252 725117.8753838716 787326.6676153748 26970807.382719688 721737.7932980781 23897678.894219022 781129.1671206196 30795061.65358343 30967485.074965186 734391.9075931115 734574.7227929571 27310829.623741347 18521825.450202916 22645668.034624204 594769.426618481 33370969.215426024 593521.4230395393 647028.821746211 643076.6522124972 20989614.765618905 31611206.280772336 38050518.20714731 36785414.05675538 33820625.26902227 24790085.395203386 28294908.515664697 24722172.18343817 28736090.12119321 24993117.863957766 28182458.134109914 20625950.53759389 14330842.16108004 20981986.68115182 33270419.239493776 34696759.00994593 716642.993172191 714681.8975254748 32892966.288973555 4500185.779883893 29002104.505485658 29877980.999894574 31003889.24426483 25601080.139382247 34967797.93674493 27226931.07312467 10118850.837984549 31719195.08987364 29285458.50393362 4444962.416480654 31800933.377066415 32223226.008756656 26664103.240724068 28513503.733720187 21893596.86431784 27461914.479821052 624945.804245385 622426.24077992 34047978.89509472 26029933.73947849 22587427.64847417 11261751.728628421 16349472.054052815 26614291.13369652 29665522.80882953 22123498.457993392 56700257.245149896 27896614.394692652 27121087.789536983 52738582.66177813 28146113.012589782 31989474.605863746 34547538.57344452 26168127.46808814 30642270.76126835