# vtk DataFile Version 2.0
Really cool data
ASCII
DATASET POLYDATA
POINTS 2207 float
0.0625 0.14 0
0.1025 0.14 0
0.105 0.12 0
0.1025 0.1 0
0.0625 0.1 0
0.08 0.085 0
0.1 0.085 0
0.12 0.105 0
0.1849999999999999 0.10703125 0
0.28 0.11 0
0.295 0.095 0
0.315 0.095 0
0.33 0.11 0
0.33 0.13 0
0.315 0.145 0
0.295 0.145 0
0.28 0.13 0
0.1849999999999999 0.13296875 0
0.12 0.135 0
0.1 0.155 0
0.08 0.155 0
0.32 0.12 0
0.305 0.135 0
0.29 0.12 0
0.305 0.105 0
0.06460526315769857 0.14 0
0.0667105263283434 0.14 0
0.06881578948821751 0.14 0
0.07092105265058816 0.14 0
0.07302631580664619 0.14 0
0.07513157895204049 0.14 0
0.07723684210066246 0.14 0
0.07934210526289043 0.14 0
0.0814473684277576 0.14 0
0.0835526315793932 0.14 0
0.08565789473275853 0.14 0
0.08776315788858471 0.14 0
0.08986842102957446 0.14 0
0.09197368417487961 0.14 0
0.09407894733179357 0.14 0
0.09618421048592571 0.14 0
0.09828947364658444 0.14 0
0.1003947368213307 0.14 0
0.1027500000023422 0.1379999999812621 0
0.1030000000064015 0.1359999999487881 0
0.1032500000104274 0.1339999999165811 0
0.1035000000100872 0.131999999919302 0
0.1037500000139943 0.1299999998880457 0
0.1040000000104641 0.1279999999162871 0
0.104250000013044 0.1259999998956476 0
0.1045000000122317 0.1239999999021466 0
0.1047500000051606 0.1219999999587148 0
0.1047499999967682 0.117999999974146 0
0.104499999993941 0.1159999999515278 0
0.104249999988275 0.1139999999061998 0
0.1039999999866674 0.1119999998933395 0
0.1037499999872815 0.1099999998982518 0
0.1034999999873638 0.1079999998989107 0
0.1032499999861264 0.1059999998890111 0
0.1029999999898351 0.1039999999186807 0
0.1027499999950283 0.1019999999602265 0
0.1003947368296405 0.1 0
0.09828947366530832 0.1 0
0.09618421049049075 0.1 0
0.09407894733559186 0.1 0
0.09197368415820642 0.1 0
0.08986842099487286 0.1 0
0.0877631578296669 0.1 0
0.08565789465541995 0.1 0
0.08355263149590247 0.1 0
0.08144736833502973 0.1 0
0.07934210519206061 0.1 0
0.0772368420354676 0.09999999999999999 0
0.07513157887240152 0.1 0
0.07302631571254523 0.09999999999999999 0
0.07092105256321891 0.1 0
0.06881578941536372 0.1 0
0.066710526273946 0.09999999999999998 0
0.06460526314505549 0.09999999999999999 0
0.06409090909410009 0.09863636363362849 0
0.06568181819492716 0.09727272726149098 0
0.06727272729776829 0.0959090908876272 0
0.06886363640233427 0.09454545451228491 0
0.07045454549150328 0.09318181815014008 0
0.07204545457286471 0.0918181817946874 0
0.07363636365534225 0.09045454543827808 0
0.07522727274056942 0.08909090907951193 0
0.07681818182946953 0.08772727271759753 0
0.0784090909156251 0.08636363635803561 0
0.08200000000315097 0.08499999999999999 0
0.08400000000745388 0.08500000000000002 0
0.08599999998316099 0.085 0
0.08799999996401806 0.08500000000000002 0
0.08999999995273558 0.08500000000000002 0
0.09199999995121091 0.085 0
0.093999999934914 0.085 0
0.09599999993196633 0.085 0
0.09799999995619146 0.08499999999999999 0
0.1015384615440715 0.0865384615440715 0
0.1030769230707984 0.08807692307079838 0
0.1046153846014542 0.08961538460145416 0
0.1061538461355046 0.09115384613550462 0
0.1076923076739466 0.09269230767394662 0
0.1092307692141739 0.09423076921417387 0
0.1107692307468821 0.09576923074688212 0
0.1123076922736741 0.09730769227367413 0
0.1138461537886207 0.09884615378862073 0
0.1153846153245868 0.1003846153245868 0
0.1169230768683846 0.1019230768683846 0
0.1184615384317815 0.1034615384317815 0
0.1221666666682225 0.1050677083333819 0
0.1243333333369366 0.1051354166667793 0
0.1265000000040562 0.1052031250001268 0
0.1286666666814812 0.1052708333337963 0
0.1308333333140446 0.1053385416660639 0
0.1329999999726141 0.1054062499991442 0
0.1351666666401568 0.1054739583325049 0
0.1373333332945467 0.1055416666654546 0
0.1394999999698329 0.1056093749990573 0
0.1416666666405056 0.1056770833325158 0
0.143833333281017 0.1057447916650318 0
0.1459999999598918 0.1058124999987466 0
0.1481666666337889 0.1058802083323059 0
0.1503333333216364 0.1059479166663012 0
0.1524999999927106 0.1060156249997722 0
0.1546666666555291 0.1060833333329853 0
0.1568333333214746 0.1061510416662961 0
0.1589999999673389 0.1062187499989793 0
0.1611666666313629 0.1062864583322301 0
0.1633333332787741 0.1063541666649617 0
0.1654999999187792 0.1064218749974619 0
0.1676666665876265 0.1064895833308633 0
0.1698333332481752 0.1065572916640055 0
0.1719999999019854 0.1066249999969371 0
0.1741666665715005 0.1066927083303594 0
0.1763333332500076 0.1067604166640627 0
0.1784999999387337 0.1068281249980854 0
0.1806666666271161 0.1068958333320974 0
0.1828333333127392 0.1069635416660231 0
0.1872093023096954 0.107100290697178 0
0.1894186046338807 0.1071693313948088 0
0.1916279069489322 0.1072383720921542 0
0.1938372092840433 0.1073074127901264 0
0.196046511614402 0.1073764534879501 0
0.1982558139457181 0.1074454941858037 0
0.2004651162771758 0.1075145348836617 0
0.2026744185947609 0.1075835755810863 0
0.2048837209118753 0.1076526162784961 0
0.2070930232334091 0.107721656976044 0
0.2093023255484747 0.1077906976733898 0
0.2115116278660402 0.1078597383708138 0
0.2137209301915501 0.1079287790684859 0
0.2159302325213148 0.1079978197662911 0
0.218139534844279 0.1080668604638837 0
0.2203488371816253 0.1081359011619258 0
0.2225581395117248 0.1082049418597414 0
0.2247674418340712 0.1082739825573147 0
0.2269767441564144 0.108343023254888 0
0.2291860464995544 0.1084120639531111 0
0.231395348841608 0.1084811046513003 0
0.2336046511545954 0.1085501453485811 0
0.23581395347782 0.1086191860461819 0
0.2380232558159418 0.1086882267442482 0
0.2402325581352532 0.1087572674417267 0
0.2424418604598425 0.1088263081393701 0
0.2446511627618241 0.108895348836307 0
0.2468604650813229 0.1089643895337914 0
0.2490697673871397 0.1090334302308481 0
0.2512790696940232 0.1091024709279382 0
0.253488371991813 0.1091715116247441 0
0.2556976743178871 0.109240552322434 0
0.2579069766388387 0.1093095930199637 0
0.2601162789615189 0.1093786337175475 0
0.2623255812805295 0.1094476744150165 0
0.2645348836169695 0.1095167151130303 0
0.2667441859454595 0.1095857558107956 0
0.2689534882563138 0.1096547965080098 0
0.2711627906046883 0.1097238372063965 0
0.2733720929681701 0.1097928779052553 0
0.275581395321844 0.1098619186038076 0
0.2777906976466865 0.109930959301459 0
0.2815000000053744 0.1084999999946256 0
0.2829999999854226 0.1070000000145774 0
0.2844999999510034 0.1055000000489966 0
0.2859999999473654 0.1040000000526346 0
0.2874999999299716 0.1025000000700285 0
0.2889999999075633 0.1010000000924367 0
0.2904999998900509 0.09950000010994914 0
0.2919999999015493 0.09800000009845065 0
0.2934999999339102 0.09650000006608975 0
0.2969999999888869 0.09499999999999999 0
0.2989999999509398 0.095 0
0.3009999998509222 0.095 0
0.3029999998570208 0.095 0
0.304999999834998 0.09500000000000001 0
0.3069999997763833 0.09499999999999997 0
0.3089999997820754 0.095 0
0.3109999997982706 0.095 0
0.3129999998537682 0.095 0
0.3164999999896196 0.09649999998961961 0
0.3179999999876417 0.09799999998764178 0
0.3194999999544931 0.09949999995449316 0
0.3209999999280954 0.1009999999280954 0
0.3224999999086686 0.1024999999086687 0
0.3239999999074616 0.1039999999074616 0
0.3254999998556276 0.1054999998556275 0
0.3269999998556994 0.1069999998556994 0
0.3284999999182233 0.1084999999182232 0
0.3300000000000001 0.1120000000092327 0
0.33 0.114000000011418 0
0.33 0.116000000010283 0
0.33 0.1180000000050822 0
0.33 0.1200000000058446 0
0.33 0.1219999999961714 0
0.33 0.1239999999598676 0
0.3300000000000001 0.1259999999371502 0
0.3300000000000001 0.1279999999316106 0
0.3285000000000424 0.1314999999999577 0
0.3269999999852616 0.1330000000147384 0
0.3255000000065137 0.1344999999934863 0
0.3239999999714211 0.1360000000285789 0
0.3224999999562507 0.1375000000437493 0
0.320999999981433 0.139000000018567 0
0.3194999999689393 0.1405000000310607 0
0.3179999999718277 0.1420000000281723 0
0.3164999999664491 0.143500000033551 0
0.3130000000024225 0.145 0
0.3109999999822801 0.145 0
0.3089999999004059 0.145 0
0.3069999998641698 0.145 0
0.304999999832711 0.145 0
0.3029999998062666 0.145 0
0.3009999997901222 0.145 0
0.2989999998023703 0.145 0
0.2969999999079275 0.145 0
0.2935000000021515 0.1435000000021514 0
0.2919999999638825 0.1419999999638825 0
0.2904999999183968 0.1404999999183968 0
0.288999999888937 0.138999999888937 0
0.2874999998926809 0.1374999998926809 0
0.2859999999005245 0.1359999999005244 0
0.2844999998693197 0.1344999998693197 0
0.2829999998882086 0.1329999998882086 0
0.2814999999457052 0.1314999999457052 0
0.2777906976498036 0.1300690406984436 0
0.2755813953215621 0.1301380813962012 0
0.2733720929769349 0.1302071220944708 0
0.2711627906318858 0.1302761627927536 0
0.2689534882872001 0.130345203491025 0
0.26674418594479 0.1304142441892253 0
0.2645348835950163 0.1304832848876558 0
0.2623255812615548 0.1305523255855764 0
0.2601162789356718 0.1306213662832603 0
0.2579069765960078 0.1306904069813748 0
0.2556976742362425 0.1307594476801174 0
0.2534883718871307 0.1308284883785272 0
0.2512790695541983 0.1308975290764313 0
0.2490697672478762 0.1309665697735038 0
0.246860464920314 0.1310356104712402 0
0.2446511625831126 0.1311046511692777 0
0.2424418602563976 0.1311736918669876 0
0.2402325579141242 0.1312427325651836 0
0.2380232555832297 0.1313117732630241 0
0.2358139532575748 0.1313808139607008 0
0.2336046509194773 0.1314498546587663 0
0.2313953485923022 0.1315188953564906 0
0.2291860462699865 0.1315879360540629 0
0.226976743952555 0.1316569767514826 0
0.2247674416379955 0.1317260174488126 0
0.2225581393210129 0.1317950581462183 0
0.2203488370073458 0.1318640988435204 0
0.2181395346798961 0.1319331395412532 0
0.2159302323541027 0.1320021802389343 0
0.2137209300204342 0.1320712209368614 0
0.2115116276947406 0.1321402616345393 0
0.209302325374721 0.13220930233204 0
0.2070930230498524 0.1322783430296921 0
0.2048837207540163 0.132347383726437 0
0.2026744184516839 0.1324164244233848 0
0.2004651161349346 0.1324854651207833 0
0.1982558138230241 0.1325545058180305 0
0.1960465115254116 0.1326235465148309 0
0.1938372092256093 0.1326925872116997 0
0.1916279068998603 0.1327616279093793 0
0.1894186046008517 0.1328306686062234 0
0.1872093022940179 0.132899709303312 0
0.1828333333197326 0.1330364583337584 0
0.1806666666588533 0.1331041666669108 0
0.1784999999806451 0.1331718750006049 0
0.1763333333253141 0.133239583333584 0
0.1741666666524256 0.1333072916671117 0
0.1719999999714214 0.1333750000008931 0
0.1698333332770126 0.1334427083350933 0
0.1676666665926179 0.1335104166689807 0
0.1654999999323584 0.1335781250021138 0
0.1633333332804841 0.1336458333349849 0
0.1611666666187107 0.1337135416681653 0
0.1589999999417365 0.1337812500018207 0
0.1568333332535275 0.1338489583358273 0
0.1546666665804924 0.1339166666693596 0
0.1524999999043363 0.1339843750029895 0
0.1503333332400059 0.1340520833362498 0
0.148166666592718 0.1341197916689776 0
0.145999999925337 0.1341875000023332 0
0.143833333259243 0.1342552083356487 0
0.1416666665788726 0.1343229166694102 0
0.1394999999022081 0.134390625003056 0
0.1373333332440338 0.1344583333361239 0
0.1351666665820142 0.134526041669312 0
0.1329999999399997 0.134593750001875 0
0.130833333280463 0.1346614583349855 0
0.1286666666306295 0.1347291666677928 0
0.1264999999629255 0.1347968750011586 0
0.124333333305479 0.1348645833342038 0
0.1221666666612996 0.1349322916668344 0
0.1184615384595186 0.1365384615404814 0
0.1169230769061363 0.1380769230938637 0
0.1153846153621364 0.1396153846378636 0
0.1138461538141099 0.1411538461858901 0
0.1123076922739543 0.1426923077260457 0
0.1107692307406402 0.1442307692593598 0
0.109230769203182 0.145769230796818 0
0.1076923076534224 0.1473076923465776 0
0.1061538461196391 0.1488461538803609 0
0.1046153845977794 0.1503846154022206 0
0.1030769230735349 0.1519230769264651 0
0.1015384615365199 0.1534615384634801 0
0.09799999999525663 0.155 0
0.09599999998041661 0.155 0
0.09399999998244947 0.155 0
0.09199999997540215 0.155 0
0.08999999997763833 0.155 0
0.0879999999619174 0.155 0
0.08599999994402804 0.155 0
0.08399999994457015 0.155 0
0.08199999996401802 0.155 0
0.07840909091301118 0.1536363636397239 0
0.07681818181125444 0.1522727272667895 0
0.07522727267161151 0.1509090908613813 0
0.07363636356459648 0.1495454544839399 0
0.07204545447408184 0.1481818181206416 0
0.07045454539131388 0.1468181817639833 0
0.06886363630776464 0.1454545454066554 0
0.06727272720456462 0.1440909090324839 0
0.06568181812724899 0.1427272726804992 0
0.06409090907647476 0.1413636363512641 0
0.3198473216291935 0.1221347225672863 0
0.3193923946067398 0.1242259883440311 0
0.3186444799281862 0.1262312251996957 0
0.3176188029828981 0.1281096122767245 0
0.3163362436076937 0.1298229110179734 0
0.3148229110036669 0.1313362436200903 0
0.3131096122494401 0.1326188030004327 0
0.3112312251447978 0.1336444799532573 0
0.3092259883171604 0.1343923946146298 0
0.3071347225655773 0.1348473216294393 0
0.3028652774363383 0.1348473216297147 0
0.3007740116790737 0.134392394613524 0
0.2987687748198058 0.1336444799370923 0
0.296890387712458 0.1326188029759461 0
0.2951770889623169 0.1313362435906152 0
0.2936637563630341 0.1298229109841915 0
0.2923811969955766 0.1281096122432306 0
0.291355520059853 0.1262312251735054 0
0.2906076053880507 0.1242259883262894 0
0.290152678370326 0.1221347225639449 0
0.2901526783705488 0.1178652774345058 0
0.29060760539224 0.1157740116594433 0
0.2913555200665754 0.1137687748117746 0
0.2923811970093305 0.1118903877353679 0
0.2936637563925111 0.1101770889817902 0
0.2951770889882285 0.1086637563869322 0
0.2968903877468132 0.107381197001975 0
0.2987687748495209 0.1063555200493373 0
0.3007740116718402 0.1056076053885999 0
0.3028652774284654 0.1051526783714173 0
0.3071347225711135 0.1051526783713567 0
0.3092259883591455 0.1056076053976982 0
0.3112312252328278 0.1063555200869447 0
0.3131096122881988 0.107381197024476 0
0.3148229110488268 0.1086637564190409 0
0.3163362436424218 0.1101770890221049 0
0.3176188030077505 0.1118903877619465 0
0.3186444799430793 0.1137687748329156 0
0.3193923946042863 0.1157740116476129 0
0.3198473216287887 0.1178652774298977 0
0.1403212940749438 0.121103563919016 0
0.140415038427838 0.1093395606190018 0
0.1163304736958729 0.1184978043023698 0
0.1999309994459328 0.1179538979922965 0
0.08378438045167262 0.08887879510435155 0
0.08378438048319017 0.1511212048970848 0
0.1084945802760472 0.1152435339223791 0
0.2883559016164474 0.106303718654226 0
0.1404103104739285 0.130664873810227 0
0.3000945193837308 0.1437168353855655 0
0.3000945194805914 0.09628316457401517 0
0.3287168354344227 0.1249054803717046 0
0.1272307853944112 0.1162782486577244 0
0.1454276307187766 0.1229258465817899 0
0.1262218494062723 0.1179585799701843 0
0.2883559015624715 0.1336962813208974 0
0.2084080298103918 0.1164038187198742 0
0.1708638106313013 0.1234584675408492 0
0.160646784363887 0.124508243328816 0
0.2248761528789439 0.1183660304992648 0
0.2791490783245958 0.1164757691766429 0
0.09602219796941716 0.1459110946185423 0
0.09602219795618895 0.09408890537248332 0
0.2698323011558193 0.1139435169840197 0
0.1709087745303162 0.107905875666695 0
0.1709357494920535 0.1320461053693039 0
0.2098284437156601 0.1199586173712534 0
0.1031155955444249 0.09390659972521917 0
0.1031155955371192 0.1460934002619815 0
0.22711146024951 0.124440294758691 0
0.1174808187518329 0.1175842917569326 0
0.2888672010892295 0.1292184456346709 0
0.2888839677132289 0.1107591788454066 0
0.2791105838518861 0.118607497387216 0
0.2631187854224952 0.1270727125362336 0
0.2605189865384323 0.1267056149250836 0
0.1621877025924128 0.1271393944297735 0
0.3194246607133098 0.1387765111636937 0
0.3194246606655153 0.1012234887936863 0
0.3236999545359161 0.1055483471347147 0
0.3236999546433524 0.134451652776935 0
0.1992215623368104 0.1194159624595313 0
0.1520338901842609 0.1229412591372665 0
0.1092437301581135 0.1123196719734009 0
0.1288180253655592 0.1266190905536272 0
0.2975385692291377 0.1436044839052196 0
0.3286077556766396 0.1274606324146494 0
0.2975385693051141 0.09639551610338704 0
0.1262672767746124 0.1313598549360595 0
0.1263997547707391 0.1086893254192666 0
0.1612507525700138 0.112305736614655 0
0.1866782046909918 0.1199930527702449 0
0.1842305889823362 0.1215780182244355 0
0.2170381976579427 0.1094586699775883 0
0.2169429044130148 0.1305697843167719 0
0.314991626379815 0.1070651251207828 0
0.3149916264387785 0.1329348748560855 0
0.07506135365288763 0.148819389569865 0
0.07506135368765753 0.09118061041600246 0
0.3236192318351427 0.1204091357642817 0
0.3045908641647035 0.1386192318676215 0
0.3045908641028965 0.1013807681536546 0
0.1105514968447401 0.1093863489001647 0
0.08656435147073165 0.1535544841761232 0
0.0865643514459596 0.08644551583107458 0
0.2019529033036589 0.1178135857448922 0
0.08900066081462359 0.1486806557085528 0
0.08900066081670947 0.0913193442495469 0
0.2756513484081338 0.1147998806640882 0
0.1173595850785366 0.1128562750269513 0
0.2559337211314582 0.116529644841939 0
0.1306158426963178 0.1148706372974992 0
0.1439870655568181 0.1133214064982332 0
0.2004296346769773 0.1132355927886532 0
0.1298153300700149 0.1119035754478512 0
0.262273816343483 0.1158853156304354 0
0.1274372050079331 0.1133280628589522 0
0.091456917044042 0.08887639647810845 0
0.0914569170812741 0.1511236035238057 0
0.1193927585800324 0.1155903586603538 0
0.1607605083811539 0.1154300126515705 0
0.1534176016530571 0.128216132954896 0
0.2259641933337275 0.1231239211525878 0
0.0992918336195865 0.1534293113545899 0
0.09929183359142255 0.08657068863831807 0
0.2359591135248822 0.1141158742832313 0
0.2357017179733599 0.1255740763983149 0
0.2037352016661858 0.1310017210885357 0
0.2037347836801262 0.1089954924292076 0
0.1092081498972431 0.1278898539627218 0
0.2152012368180829 0.1157108846079082 0
0.2460405942149121 0.1200412760743886 0
0.1720403280554343 0.1109419427915682 0
0.1719512466126228 0.1289610419177237 0
0.2270357079113451 0.1182970220349639 0
0.08426723191594657 0.09623873277841993 0
0.08426723190298735 0.1437612672276394 0
0.2743063729948439 0.1210970591809105 0
0.1294537274134503 0.1183542992648904 0
0.1958793726381136 0.1233756804741795 0
0.09153125524273072 0.148027595696083 0
0.09153125520445606 0.09197240430983679 0
0.2640132633276594 0.1185831444042523 0
0.08017682880178893 0.08943259091627154 0
0.08017682880960306 0.1505674090937536 0
0.1390199519576484 0.1141802631580532 0
0.2708104711269921 0.1231458259257555 0
0.1387654333673474 0.1256715310939547 0
0.2179919875491195 0.1278661079078229 0
0.2035614103096551 0.1278406925311928 0
0.2378259850381712 0.1211140546113443 0
0.2255419469598341 0.1302453447447789 0
0.225694206335152 0.1096773568821702 0
0.1039308445995053 0.09916510270123727 0
0.1039308446402122 0.1408348972676294 0
0.1419498564799062 0.1183815022380633 0
0.1779103548660468 0.1183554046173415 0
0.28179612432568 0.1296745194963822 0
0.2907569157908441 0.1114798644880741 0
0.2907558930515051 0.1285188478948588 0
0.1132216637157381 0.1363387002921468 0
0.1132217477769151 0.1036611075906751 0
0.1812034008838997 0.1221945950383902 0
0.1088256320141056 0.1045955848355969 0
0.151411024536339 0.1216763681635175 0
0.1578490060377289 0.1163045844683747 0
0.1088218073757658 0.1354071836347984 0
0.1979948164875431 0.1283601706912009 0
0.1156252290685468 0.1029225701995022 0
0.1156252291137734 0.1370774297650439 0
0.2293221553927127 0.1221197931020374 0
0.188978744721721 0.1177395363646958 0
0.09099999997651997 0.1538584626357902 0
0.09099999995197332 0.08614153735259432 0
0.129674603802326 0.1088357546658162 0
0.1296768692562177 0.1311633770850605 0
0.2102629856419556 0.1091555154154005 0
0.2837949026442545 0.1269698435822963 0
0.3031027346455251 0.1013115669324168 0
0.3236884330576719 0.1218972652202545 0
0.3031027346442579 0.1386884330654 0
0.2807711983876688 0.1137761726554769 0
0.1838783217993218 0.1317755686294818 0
0.1838783217958768 0.108224431368789 0
0.1162018499466603 0.1248863238396296 0
0.3060281988692317 0.1362214970785568 0
0.321221497026712 0.1189718010885642 0
0.3060281987846035 0.1037785029094527 0
0.2159787644819164 0.1276259390810591 0
0.2175404540522669 0.122039105414613 0
0.289742660774216 0.1049278224387972 0
0.2897426607118716 0.1350721775301775 0
0.1585566246139759 0.1183815503334218 0
0.08541287599998253 0.141559788262652 0
0.08541287599178382 0.0984402117396694 0
0.08994603102440674 0.1458718004285443 0
0.08994603099207484 0.09412819956165105 0
0.2396340514915379 0.1211077452341994 0
0.2451333209485799 0.1295150492486764 0
0.2451333211012799 0.110484950725227 0
0.1362051227723035 0.1181973527857375 0
0.1105510734701765 0.1306971389554928 0
0.1215169912479396 0.1199293811589215 0
0.1701895361804585 0.1108175661524425 0
0.170189536178853 0.1291824338545432 0
0.1321653436296799 0.1302934858332534 0
0.1321653436335155 0.1097065141698407 0
0.2904858424817884 0.131795969018521 0
0.2904858424814114 0.1082040309925707 0
0.09746333708997515 0.1517124796828575 0
0.09746333701459543 0.08828752029901919 0
0.1141612301092586 0.114049242933481 0
0.3043151048044002 0.09849708540276571 0
0.3173225066243835 0.10255564472024 0
0.2068592718607493 0.1190424333297429 0
0.3265029146065286 0.1206848950246855 0
0.3028970595210561 0.09894698741080998 0
0.304315104850698 0.1415029145883864 0
0.3260530125528898 0.1221029403218845 0
0.09393704933425617 0.1438153563752833 0
0.09393704933828713 0.09618464362794123 0
0.2444879395824329 0.1214120484563214 0
0.183979056168155 0.1166919334646407 0
0.2376656112058336 0.1186338599000001 0
0.1634377663827814 0.1236811212666055 0
0.3200160705135221 0.1089422640112072 0
0.3200162080145884 0.1310577343830212 0
0.2936918138824172 0.1081953375931456 0
0.2936918138526127 0.1318046623481552 0
0.1704763208188849 0.1215088968665711 0
0.2937703500696638 0.1048438932051176 0
0.2937703499947636 0.1351561067358992 0
0.1369414474395813 0.1211397290005385 0
0.07049205368026437 0.1415140710989104 0
0.07049205364713836 0.09848592889815777 0
0.2994718734613376 0.1381458920865767 0
0.3231474137505854 0.1255327473202789 0
0.2994718735366478 0.1018541078804575 0
0.2579856151603757 0.1196525869298618 0
0.1394006346308355 0.1275396015288761 0
0.1393983151376965 0.112397069228352 0
0.1904577863275763 0.128096973912505 0
0.1904782366063346 0.1119295407093064 0
0.1555851166012158 0.1122834256736496 0
0.1738226214334236 0.1199255386033011 0
0.147944550009424 0.1139099233280993 0
0.2915971255185997 0.1330368922257769 0
0.2915971255876937 0.1069631077140677 0
0.1313916021998587 0.1226882283005225 0
0.2855340528319572 0.1233238981716732 0
0.1389281442752598 0.1176681637412404 0
0.2454029287069434 0.1137356419189204 0
0.2453725604403064 0.1262932788607218 0
0.1468020122916222 0.1278729105203712 0
0.1481341076192032 0.126597350047337 0
0.1567112585799318 0.1135353816096235 0
0.1475162901442968 0.1250422276877584 0
0.2412580820212186 0.1100632109331115 0
0.2412424839327671 0.1299028889288392 0
0.2078038990336317 0.1239825868302932 0
0.06946061376665368 0.09591125901418909 0
0.06946061370231627 0.1440887409398356 0
0.1107327573263426 0.1255771102484237 0
0.212888396438398 0.1178378711578193 0
0.1850236120444144 0.1288001095232919 0
0.1850236120419526 0.1111998904757091 0
0.2786727637887446 0.1211832733613454 0
0.1550362724335039 0.1094313842997485 0
0.2281955794295448 0.1125558956718362 0
0.1971135199919435 0.1313445272068899 0
0.1971140978739721 0.108652517547898 0
0.1787217519532463 0.1170479384660309 0
0.1289202701506849 0.1296964920051731 0
0.1289484954080805 0.1102984991044893 0
0.158104011315169 0.123682257623438 0
0.2746325140457567 0.1288742878881387 0
0.2420806003484865 0.1272019888239047 0
0.2420776616891466 0.1127941723772974 0
0.1566397874174321 0.1263535790526227 0
0.2200507189707671 0.1189473516402524 0
0.1106441835547022 0.1425865396427664 0
0.1106441835586009 0.09741346033540052 0
0.3123693488144902 0.102299970800879 0
0.3226991846651278 0.112629395512715 0
0.3123693489712834 0.1377000291069728 0
0.1400465748496219 0.124310761915684 0
0.09499999993343994 0.08607763328470688 0
0.09499999998143323 0.1539223667158623 0
0.1450423956508948 0.114602832493315 0
0.1980700387389838 0.1115180148913931 0
0.196407335201224 0.1185669901222878 0
0.1971249452713987 0.1170962727487512 0
0.2240695332521754 0.1237703006329849 0
0.3158082144169959 0.1047323400132873 0
0.3158082144924678 0.1352676599062377 0
0.131576979726604 0.1283104285272474 0
0.1341103496256412 0.1200111504247683 0
0.2764588355681141 0.1167720052680899 0
0.3089270907682544 0.1419516137440975 0
0.3269516137725631 0.116072909158573 0
0.308927090658496 0.09804838622082904 0
0.124492794855222 0.1121227320029716 0
0.1056938606397791 0.1231336075093166 0
0.2308443345561095 0.1284926029813245 0
0.2309653405286714 0.1114972241329486 0
0.08202766628053741 0.1535251666723731 0
0.0820276662366308 0.086474833331125 0
0.1450254241208268 0.1184354840067981 0
0.2029180133816927 0.1157693907204808 0
0.1093578472464049 0.1399528203651788 0
0.1093578478370693 0.10004718101253 0
0.1831841386943183 0.1287809432266984 0
0.1832054238004403 0.1112099318574357 0
0.08128532874762244 0.09397747076013059 0
0.08128532872743335 0.1460225292496864 0
0.2157099845396436 0.112175685342416 0
0.112407051731297 0.1129940187691964 0
0.1185424040130625 0.1205440750119805 0
0.1428179132864827 0.1164451921738885 0
0.2181688384435876 0.1112729376483698 0
0.1226066788923648 0.1223080065676838 0
0.2102508156887851 0.130826369166793 0
0.1834477293458368 0.1185847587576104 0
0.2401021275314721 0.1272406101009197 0
0.2401106585926104 0.1127347695909342 0
0.2651678724073427 0.1238765052993741 0
0.2109971801667186 0.1256152296282356 0
0.2750613772678676 0.1113448974618214 0
0.1078685801814648 0.09497088954788814 0
0.1078685801946709 0.145029110453637 0
0.2036223816590514 0.1121989561335942 0
0.261103046330956 0.114675665495087 0
0.1141003031803122 0.120081489221732 0
0.1039760795784501 0.1028687427536271 0
0.1039551844034915 0.1371352078469173 0
0.1593373413723792 0.1146732231169832 0
0.1487526863841691 0.1326832849139727 0
0.1486818860148834 0.107345172240249 0
0.1627451236601397 0.1129027603684205 0
0.1123552663423048 0.1273280513345588 0
0.3270248355436606 0.1178658107228833 0
0.3071341891698929 0.1420248355236305 0
0.3071341890994428 0.09797516445303597 0
0.1959877507597403 0.1286306745661016 0
0.1959877507568258 0.1113693254139773 0
0.2482712794812485 0.1255959945514471 0
0.3028970595450225 0.1410530125048735 0
0.1446473016787632 0.1119494253026146 0
0.2684682122625002 0.1191281306989795 0
0.1188527399339223 0.1256048709190633 0
0.1592742936634399 0.1251701492368305 0
0.0863156835218988 0.09298597212157356 0
0.08631568350765517 0.1470140278692207 0
0.09755984382064291 0.1413080986319882 0
0.09755984382586139 0.09869190137743074 0
0.1105013206964461 0.1041468306304125 0
0.1105005306268118 0.1358537791568126 0
0.13394425690581 0.1333469596548283 0
0.1339442569085265 0.1066530403570997 0
0.1305025185567679 0.1215661845206687 0
0.08039754261371178 0.1411712053570296 0
0.08039754255372858 0.09882879465077236 0
0.1242201277052223 0.120227569926349 0
0.1133913290920235 0.1297697594103687 0
0.1500042728195269 0.1210194393172379 0
0.2174508847817481 0.117580546277083 0
0.1874052211947239 0.1127764387115536 0
0.3224960657007988 0.1076324299890127 0
0.3224961395263876 0.1323672631403348 0
0.3173225067349819 0.1374443551702041 0
0.1659329470906036 0.1128092283052163 0
0.1674201865543881 0.1123498129358607 0
0.1658839286477556 0.1271291278949308 0
0.1674199422643985 0.1276077458023381 0
0.2348889425103163 0.1158093551844196 0
0.321605711203284 0.1087523071532768 0
0.1514791477085995 0.1202099055708375 0
0.2850000000000005 0.1200716322213546 0
0.1153274885834996 0.1324246517372954 0
0.3080224628924355 0.09641134607009468 0
0.1357798043781337 0.1198742558235414 0
0.1777374114376272 0.1200984805021087 0
0.1969877009544013 0.1152922499744556 0
0.12 0.12 0
0.2283163942445087 0.1199193790446067 0
0.0825082694367898 0.09597304334910037 0
0.2100265146181691 0.1243236099400231 0
0.1710421281271043 0.1148309688205882 0
0.1904629409121489 0.1196224509837739 0
0.1173633909644753 0.1110330463211346 0
0.09299999994306248 0.09250177747021804 0
0.1577829777230479 0.1147354413962062 0
0.0993421052474745 0.0936426528305915 0
0.1844131395087325 0.1144359028544927 0
0.2630915954532934 0.1199270199582356 0
0.107579020257605 0.1177880457309615 0
0.1278179338881751 0.1252372184971749 0
0.3009087966564485 0.09829178476879856 0
0.1643973450759857 0.1134507686701381 0
0.1728302508521857 0.1086909528714977 0
0.2685374581444531 0.1158231381182959 0
0.2348004309531643 0.1240283707912496 0
0.2081181682049592 0.120000000004609 0
0.2792666566369417 0.1146111164052492 0
0.1570381685534334 0.1223041357015211 0
0.3056447735228147 0.1422710452500303 0
0.1434966291662965 0.1251953992534148 0
0.2166750849619181 0.1197909336016988 0
0.1536670280819096 0.1239477364338308 0
0.2630712510669094 0.1145581856548675 0
0.2464889172002568 0.1242694697258835 0
0.164617748790111 0.1199997228152066 0
0.219969247368837 0.1278093121561462 0
0.2409780160539282 0.1200459823299186 0
0.1501792362513279 0.1270041505501032 0
0.1280142685213699 0.1147444360640098 0
0.3162476928647336 0.1366057112038019 0
0.3080213060304315 0.1406494686366755 0
0.1752103676182802 0.1233587732989178 0
0.2871398778813912 0.1295909165238277 0
0.296954521453191 0.1421245389383472 0
0.1578748025038444 0.1253721011274474 0
0.2033585611705858 0.1197134001922135 0
0.1137936229785755 0.1277746872036473 0
0.0966415879949001 0.08965906766547731 0
0.1904432481734887 0.1265310289959042 0
0.2980743806603338 0.1007079016436798 0
0.3242363546347811 0.1129354718900592 0
0.2575729014195393 0.123920825533538 0
0.1710804433824023 0.1254979715755555 0
0.2576520015794898 0.115933868611108 0
0.2835550358518679 0.1113017399743623 0
0.1320659700214862 0.116087810449289 0
0.1125000000000001 0.1201195790812761 0
0.2187219763326317 0.1233321868283869 0
0.3198913372558883 0.1049939834125825 0
0.1640452937341378 0.1268726099963708 0
0.1969877009586843 0.1247077500119989 0
0.1433878579801871 0.1148864270511551 0
0.2035619197219635 0.1263064582193239 0
0.1876470812732942 0.1164113651401692 0
0.2259321837994225 0.1169969434347168 0
0.1223003228850998 0.1312448842528757 0
0.1104701566164625 0.106113105315246 0
0.2607546462205443 0.1225490053771268 0
0.1104701565083425 0.1338868944802021 0
0.252049360065259 0.1200098743665066 0
0.2405095465856572 0.1141510742134048 0
0.0791374721941067 0.09396850039915425 0
0.215827175045421 0.1140274241519478 0
0.1734143480147174 0.1181059702127641 0
0.2901245962813719 0.1333306811787469 0
0.271817181925268 0.1215536106986595 0
0.2871398778839485 0.110409083479069 0
0.2800000000000004 0.12 0
0.2854030535191021 0.1270184077474035 0
0.08561471286527289 0.08869185974172931 0
0.274859730112441 0.1162083989292978 0
0.2980743805519032 0.1392920983212663 0
0.2461953200007388 0.1157048624326345 0
0.2405095465565628 0.1258489257861114 0
0.1118164442876358 0.1374440532205803 0
0.09292688188580378 0.1532408465699435 0
0.1210875913333468 0.1277600428495889 0
0.2224723943716426 0.115533840844061 0
0.1174119793863528 0.1290643679130164 0
0.2522014756826437 0.12575640954627 0
0.1139022010203082 0.112355448718717 0
0.1096579417208788 0.1244470392596019 0
0.1591485700848533 0.1199999999990027 0
0.2841536417951079 0.115 0
0.1941458119597827 0.111636872206711 0
0.1777829531345359 0.1267229290193271 0
0.09934210523395788 0.1463573471268301 0
0.3056447734621748 0.09772895472930708 0
0.1696895176098267 0.1195115432923503 0
0.08881578941226967 0.09772853798186351 0
0.1459134461867825 0.12928665526011 0
0.2802486963064368 0.1259813250595109 0
0.1941458119545573 0.1283631277888823 0
0.1955370124594943 0.1202187298785847 0
0.276498058584951 0.1243557513675285 0
0.2834022744595739 0.1285536596473203 0
0.1083099579488903 0.1387057887031382 0
0.2901245963516981 0.1066693188123385 0
0.1668461252114322 0.1160299618758584 0
0.2665756156603891 0.124629033613401 0
0.1349300249092507 0.1273435489015095 0
0.2761119900559206 0.1131940768540895 0
0.1210841727785139 0.112172910965804 0
0.1822175658688338 0.1309297597198465 0
0.2619543210763393 0.1257995700604764 0
0.08192385255577007 0.1505792973147914 0
0.1038915571467655 0.09535142051329933 0
0.135043993704861 0.1128570347816549 0
0.2223730983383428 0.1244446102596704 0
0.107161452270135 0.1428236538821923 0
0.1069795245322469 0.1320631229534319 0
0.149971262730843 0.1130038223168258 0
0.2276964226414857 0.1229851839799049 0
0.2283499485745156 0.130036288996545 0
0.1407215780054666 0.117227070587628 0
0.2486197371103974 0.11288581399261 0
0.2344607490112703 0.128963717283337 0
0.07059925754965632 0.1450442301145764 0
0.1253630093471238 0.1298558849356598 0
0.1776892552147123 0.1133893611914719 0
0.09299999997892562 0.1474982225292472 0
0.1930149154284878 0.1260233941981066 0
0.1385967854262349 0.1240594190128993 0
0.2842576246669969 0.1249885698410966 0
0.09299999997892557 0.1513157621357635 0
0.2757823306239375 0.1203377602937191 0
0.08484360028191441 0.09248537187953129 0
0.1413713922133683 0.119998211747719 0
0.2597678610665218 0.1130468145636517 0
0.1083099579142823 0.101294211184001 0
0.07913747216171724 0.1460314995909611 0
0.1304002294283853 0.1199425749996395 0
0.3222128284532838 0.1061441717222908 0
0.3038509356316975 0.1000607674332578 0
0.3153548387096956 0.1001224911989211 0
0.1247243045948143 0.1188207395954006 0
0.08899999996977798 0.1502569257491884 0
0.1216199556436006 0.1162971507631609 0
0.1306150594152599 0.1102359723446543 0
0.1253036205351691 0.106987570471217 0
0.1006975061067861 0.1433159511299083 0
0.08484360023639449 0.1475146281170879 0
0.1626261776494924 0.1146686412757896 0
0.1550635834977054 0.1199250474950448 0
0.0889124675525218 0.09527003017469822 0
0.09299999994306246 0.08868423786552027 0
0.2320815744801228 0.1272351897252289 0
0.1840421728008405 0.1250128596011228 0
0.3270084234741668 0.1144397813210122 0
0.1905006964242135 0.1135305766277609 0
0.2036388015153938 0.1137664563485665 0
0.1466543156675672 0.1193233269809123 0
0.088912467553216 0.1447299698380938 0
0.1999502991130261 0.1282628285761076 0
0.192055869762028 0.1118647102947674 0
0.1091566310178715 0.1296764809641448 0
0.2100265146277952 0.1156763900734436 0
0.1281217097428 0.1119005817066377 0
0.1146562232768137 0.1356449968003218 0
0.1980788098589968 0.1182178411948543 0
0.3162476927370911 0.103394288688692 0
0.1209794327848705 0.1069821434757539 0
0.1002415277432009 0.09026421766093948 0
0.1474629568041776 0.1233585362705895 0
0.2442202738598823 0.1149796778045098 0
0.1133208052559323 0.1393057524550763 0
0.2281497160817168 0.1258395316336521 0
0.1093264054452981 0.09841664976702505 0
0.1068107922388107 0.1353600303355943 0
0.2244267449194912 0.1281538680641759 0
0.1153292466109978 0.1075718439515698 0
0.1254574751173846 0.1104503611023505 0
0.09664158803822331 0.1503409323297259 0
0.2324243474421934 0.1195503405674815 0
0.2663280586541061 0.1131141980054481 0
0.1967477399145417 0.1127567046396677 0
0.09569914548204328 0.1440723445435115 0
0.2612779262469462 0.1282496347884645 0
0.1468661755194516 0.1152786813406189 0
0.09569914548915709 0.09592765544616982 0
0.1161024459847593 0.116815472468271 0
0.2308712757689486 0.1230920345076889 0
0.1813177665337009 0.1286159203144412 0
0.0714392849852981 0.1433769215658322 0
0.2543515728687643 0.122848549280692 0
0.1388014309013999 0.1159920311583428 0
0.1070853692861565 0.1079465217063188 0
0.2076460786296211 0.1280273789432945 0
0.2544417821415924 0.1149579055999642 0
0.07143928501378471 0.09662307843803332 0
0.2906660639144361 0.1363934333618222 0
0.1684297727624345 0.110984075635586 0
0.1546413518547147 0.1109797207553328 0
0.2590164594916881 0.1273963949170772 0
0.1449783969529842 0.1082442907665618 0
0.1863481742175077 0.1218360094316101 0
0.2061184307671392 0.1232000141902793 0
0.1097139397653845 0.1157023840997808 0
0.1804640570058132 0.1166413620771403 0
0.1813177665254353 0.1113840796909243 0
0.1254662756320629 0.1162707692572182 0
0.07471527089601687 0.1444958816426393 0
0.2742932956219373 0.1230119162185392 0
0.08250826941718734 0.1440269566614139 0
0.3213226462045015 0.1119674576108454 0
0.1875092507643203 0.1248556595518869 0
0.2819359428290523 0.1226826218297045 0
0.07471527091483446 0.09550411832670568 0
0.2570215149196701 0.1258786371729056 0
0.15691657850761 0.1284279972117043 0
0.2039451407055964 0.1173368883523151 0
0.3060413149390157 0.102134902951524 0
0.2856146831756508 0.1108031246618145 0
0.3120645281138977 0.1392363546298756 0
0.08206558894963129 0.1417126703316378 0
0.1400831537086416 0.1290702819972136 0
0.1190941286144654 0.1318629498270112 0
0.1242903599240611 0.1267709141872357 0
0.3242920983840612 0.1269256192497645 0
0.1183019163149779 0.1142330035539992 0
0.293905324846415 0.1367315019036984 0
0.1121206106585391 0.1093245461755808 0
0.2939053249282984 0.1032684980269374 0
0.1799314378864104 0.1238329656854012 0
0.2488069960260501 0.1271730308476351 0
0.221696457487502 0.1135575521763551 0
0.3120645279478744 0.100763645315147 0
0.09621036344531828 0.1419580097263108 0
0.1534318040511024 0.1163250230336317 0
0.1400831537123527 0.1109297180012881 0
0.1428218281019769 0.1090588794411336 0
0.310560218496789 0.09799157651151408 0
0.2135602497268133 0.1229199287472412 0
0.3216057112419163 0.1312476928177208 0
0.1365381765740619 0.1092499190428111 0
0.1596068201419162 0.123300140303574 0
0.1190941286070731 0.1081370501800952 0
0.3186132528595405 0.1318583241651579 0
0.2158271750317105 0.1259725758560729 0
0.2189046448981295 0.1168459419321533 0
0.2814868325353083 0.1279770553683824 0
0.2197394345836895 0.112275941880379 0
0.1898033168639885 0.1231143880838899 0
0.2324601369584738 0.112587937197597 0
0.2281497160778448 0.1141604683436831 0
0.1512836773692275 0.1305056538870885 0
0.1482702583727606 0.1286067053632387 0
0.2593075149136613 0.117198792790355 0
0.2001887530559227 0.1247520406406678 0
0.1107603579073343 0.1291661127873135 0
0.1721627347349962 0.1221632893273188 0
0.1365381765747746 0.1307500809519327 0
0.199921615276709 0.1115460186443307 0
0.1227894709350925 0.1207602204036317 0
0.2869705496137703 0.1228997538782676 0
0.09642031704595827 0.1472931089017422 0
0.1071575761149015 0.1233165719437069 0
0.2120093957751957 0.1193677470149127 0
0.1140556117738305 0.1023408262752474 0
0.1910150547562428 0.1173163303079298 0
0.2875468472569942 0.114000978295177 0
0.2878936693015416 0.1355775701015626 0
0.2310628545355167 0.1162401103944962 0
0.1326440518401759 0.1191293649582073 0
0.1852439177191273 0.1181335903267872 0
0.2441387113240202 0.1273074048269953 0
0.1175144236856861 0.1259738734878838 0
0.1841047109061847 0.1302382231988993 0
0.1869483789357597 0.128609154810076 0
0.1146562231550693 0.1043550031794443 0
0.2692904698002963 0.1237952645139082 0
0.182728701579267 0.1204731334392238 0
0.1626982138813031 0.1253417489154979 0
0.3249392325482736 0.1211490642145085 0
0.2612084699256528 0.1113734201188372 0
0.1056053038001114 0.1292163710846286 0
0.185876147094299 0.1309293000661438 0
0.2247946035575744 0.1215155248407186 0
0.1002415277830233 0.1497357822923805 0
0.303850935648194 0.1399392325553082 0
0.3080213059662897 0.09935053132098554 0
0.1333298100261351 0.1085718368426608 0
0.3013195325548247 0.1019977018988557 0
0.09532259042434015 0.1524880623899977 0
0.1333298100259732 0.1314281631582517 0
0.2522014757765399 0.1142435904643394 0
0.325649468674442 0.1169786938608728 0
0.2523032780791437 0.1282888441987621 0
0.287893669361326 0.1044224298636764 0
0.2756903217398896 0.1182430792948164 0
0.1006975060890194 0.0966840488551498 0
0.2902903504138131 0.1303522853049344 0
0.3105602186510827 0.1420084234602089 0
0.2364783771900348 0.1272383503548896 0
0.1092146188776144 0.1104112322356765 0
0.08727675353473108 0.1483249004859845 0
0.1673624677807259 0.1258132557750822 0
0.23639831577892 0.1122639153330913 0
0.1125338354313158 0.1256888597830832 0
0.1730696795911581 0.1156165411012326 0
0.2969465094694815 0.1036534988181097 0
0.3198913373575928 0.1350060165245949 0
0.2441387113945319 0.1126925951576307 0
0.2444463169547101 0.1194354315104028 0
0.1094232418488162 0.1370996343507031 0
0.324877508682917 0.1096451611373877 0
0.1163263696717535 0.123160461865613 0
0.1306311089728832 0.1297607559427083 0
0.2247622489424362 0.1120502000279875 0
0.1773471672234395 0.1100863557732311 0
0.2847094372647873 0.1311459746538488 0
0.1107747669126202 0.1201769383676267 0
0.10942336713585 0.1029006466017653 0
0.2946451611043726 0.1001224913530338 0
0.1282156056269362 0.1314829703903619 0
0.3075524501400414 0.1030723550432598 0
0.3130325424021175 0.1363226461977939 0
0.1087720154561981 0.1208037742621676 0
0.1133286351645008 0.1059687037745772 0
0.2969465093887946 0.1363465011328064 0
0.2894440200184155 0.1255723502273294 0
0.177366486691572 0.1299130476715538 0
0.08899999995837703 0.08974307421747668 0
0.1745667852703479 0.1261016686718829 0
0.2498458269885803 0.1169220382590748 0
0.1120867531786848 0.1306575937053197 0
0.08561471287514898 0.1513081402478824 0
0.1280483598130043 0.1177753289484322 0
0.2212827740751022 0.120000000002903 0
0.1358808068494881 0.1229581279665461 0
0.3186132528277608 0.1081416758126304 0
0.167354290685451 0.1139771338946028 0
0.09012319290929398 0.1474861276136653 0
0.2079357075752898 0.1178835372624702 0
0.2554515086800384 0.1270840723735584 0
0.2557686688586496 0.1129492633004245 0
0.2410139586949334 0.1220609362733207 0
0.1886981958232374 0.1212625094463752 0
0.2870528076232791 0.1326791456012167 0
0.2906660639844516 0.1036065666142698 0
0.3164242363911068 0.1337306233970947 0
0.2848203642186539 0.1090093342288155 0
0.293086361196602 0.1334986577872522 0
0.3164242363463649 0.1062693765319324 0
0.2902903504182148 0.1096477146809972 0
0.3099538069582992 0.09644521308635084 0
0.1925345689131391 0.1094835249591822 0
0.264790629783684 0.1272896206001687 0
0.1038915571650114 0.1446485794812628 0
0.3226597223435279 0.1157806888550688 0
0.2593737406634572 0.1150940988683162 0
0.09061540405085107 0.1524825781655773 0
0.1071614522413272 0.0971763460741783 0
0.130650154292794 0.1133557652201439 0
0.1745773785574316 0.1146971784620128 0
0.1082866733410476 0.1063670766517214 0
0.2812554267742005 0.1120907531258233 0
0.154641351859288 0.1290202792472676 0
0.2371685633009748 0.1247334305195852 0
0.1377800837474833 0.1189128682485767 0
0.2365648002767296 0.1199999999947906 0
0.1068128101816748 0.1046432899672765 0
0.1459427287723348 0.1108625021361728 0
0.2783503890417738 0.1251667278610482 0
0.2633523794055857 0.1119734921452158 0
0.1428218281071321 0.1309411205522628 0
0.22935672897211 0.128589547423735 0
0.2500990977661099 0.1110734438640844 0
0.2748008461152404 0.1271338820659771 0
0.1244174487096718 0.1136931742061045 0
0.1376104370997891 0.1128471600690115 0
0.1364761177398293 0.1287705015282928 0
0.123450137280304 0.1235990699737173 0
0.268817698203945 0.1269930887545136 0
0.2463901531510265 0.1118312610632216 0
0.300908796595688 0.1417082151829679 0
0.08192385255520986 0.08942070269690601 0
0.2463382274678116 0.1282735100265085 0
0.1331979660858962 0.1289974480307526 0
0.08173262263440065 0.1474852111382171 0
0.07880745066665172 0.1493954911841397 0
0.07268944340633263 0.09430449725714271 0
0.07757057110267365 0.1432498894387993 0
0.2778154759665526 0.1175814271281784 0
0.2269253067835534 0.1109177482800939 0
0.2285128312509888 0.117296084929354 0
0.105574974157987 0.10660388715895 0
0.1684297727597288 0.1290159243662803 0
0.1530200680353329 0.1265034094403015 0
0.1329186333125285 0.1233048046952356 0
0.1129148630577197 0.123489030864884 0
0.1605344855831615 0.1107197205164644 0
0.1015790696868034 0.09446846344712338 0
0.1574837254145453 0.1306418473809715 0
0.1606785901095267 0.1287214846467248 0
0.1299995002240875 0.1231145672471173 0
0.3119640769053889 0.09678027658326963 0
0.2779456127423002 0.1273163004181169 0
0.131112398329324 0.1264186613947352 0
0.2868531435071723 0.1172795176042137 0
0.2477726087894186 0.1199763171625662 0
0.1802066471688345 0.1262983231093441 0
0.1501127361679823 0.1167472785551055 0
0.1739062275749648 0.128733758827849 0
0.234272776688834 0.1212346928812887 0
0.174004320843981 0.1109136839789459 0
0.08777106288953962 0.08779147669993069 0
0.2825309247639103 0.117877236959724 0
0.1711068650181296 0.130563661642305 0
0.1156418947874246 0.1199828057233498 0
0.1753671468251349 0.1127955082285628 0
0.3092193111414966 0.1376597223256007 0
0.1333569238297415 0.125572432017325 0
0.07880745066917404 0.09060450882169684 0
0.1108697431323851 0.1271772233616704 0
0.08777106290185233 0.1522085232826547 0
0.1054701718780456 0.09990433130590481 0
0.3272710452734275 0.119355226366354 0
0.09225463180988912 0.09650844496740622 0
0.09642031701347265 0.09270689108573213 0
0.1661859225664516 0.1290001938008202 0
0.1889092409006457 0.1281404555701345 0
0.272668010818238 0.1261721079436346 0
0.1548887132498614 0.1137959957982105 0
0.183086642844986 0.1227417528978202 0
0.1572602866777969 0.1119556643395562 0
0.1104086871774843 0.1183452380232334 0
0.1672007262117265 0.1234011292847302 0
0.1700574145549187 0.117172963926817 0
0.09061540403438437 0.08751742181979875 0
0.2596502097371353 0.119008330511963 0
0.1618643790060317 0.1167846476859766 0
0.3119640770596566 0.1432197233982893 0
0.1617590602649347 0.123322645540449 0
0.09375068814951949 0.09462691950137593 0
0.3138755382624626 0.138325226736092 0
0.3080224629904316 0.1435886539080399 0
0.3188777867225589 0.1027011782249296 0
0.1775979269271143 0.1282630604825987 0
0.1671680972272023 0.1195250943866457 0
0.1868518260398055 0.111189051845264 0
0.2661045870229462 0.1223103780128479 0
0.1133270221397934 0.1340276080549332 0
0.1771252097159348 0.1168591424896844 0
0.2520520749063546 0.1177118716893213 0
0.1692329529841248 0.1228355139727895 0
0.2930863612663503 0.1065013421465422 0
0.2675598664812904 0.1204616253560606 0
0.1904568782949433 0.1104280347213417 0
0.1147497941450608 0.1100831100432886 0
0.2733331662189377 0.1197323686273713 0
0.2076460787413462 0.1119726210601291 0
0.197668506909598 0.1200687202320404 0
0.0787934177153752 0.151522384091175 0
0.2638574312415499 0.1230508661392868 0
0.244761963740183 0.123128736798376 0
0.1931250201458353 0.1206133028612305 0
0.2651168970724371 0.1173953232175775 0
0.117771097352551 0.1192932501158603 0
0.2119647579367569 0.1277599735344714 0
0.2096900762823228 0.1180122394304966 0
0.2098685298822785 0.1131580312537143 0
0.1850031736987549 0.1201447868676126 0
0.2121233381028824 0.1120253661606601 0
0.1168481964324756 0.1213070803318844 0
0.2061741548321143 0.125621776735547 0
0.1412005513465734 0.1228604010504295 0
0.1650809002353154 0.1250008500838423 0
0.1665055530670048 0.1311985156109524 0
0.0944270197981959 0.0906728076638183 0
0.1753073830412177 0.1207325058424906 0
0.1309649998865857 0.1078173114246707 0
0.09532259038388405 0.0875119376089852 0
0.1994095278746916 0.1212551414644927 0
0.2695377845580567 0.1219881115127492 0
0.2870528076740826 0.1073208543735857 0
0.1270208451058366 0.1218191882489394 0
0.326708215222437 0.1240912032127008 0
0.08699183390513687 0.1451205646306722 0
0.2234850116340633 0.1135677821142185 0
0.2561988684598665 0.120000000001928 0
0.07757057113003629 0.09675011055216598 0
0.2542951330299357 0.1171239843149519 0
0.1118164443322835 0.1025559466415055 0
0.1529776433012773 0.1127017331782423 0
0.117521595643967 0.1340163600773288 0
0.1483841195516752 0.1201559827868099 0
0.08316137451972955 0.1525814482833728 0
0.2345033921035419 0.1109399102474679 0
0.1729523079834569 0.1241324709058835 0
0.1530734584522939 0.1213725007983335 0
0.1925345688787419 0.1305164750402941 0
0.1058076973502116 0.1107792390393222 0
0.2007536895822586 0.1161950746685917 0
0.1568370146052326 0.1179222067668 0
0.0786446375659216 0.1418533962871524 0
0.1931068846053169 0.1233035374276351 0
0.1954625904234087 0.1169351069465604 0
0.1931566693302215 0.1166856541895055 0
0.1788688236383801 0.1116041813689992 0
0.1106994689637867 0.1224481606316205 0
0.07268944334343007 0.1456955026771071 0
0.1795109597485889 0.1091680932535105 0
0.3222128285367812 0.1338558282157318 0
0.1136173807688182 0.1317675690805423 0
0.2885972315510634 0.1085436215165649 0
0.09774922866985614 0.09506615691573138 0
0.2716626937741519 0.1137206182080029 0
0.2190599846153929 0.1208211274316344 0
0.1572815294910445 0.109211529228966 0
0.1995327042660086 0.1147177867115919 0
0.2805705255858153 0.1174757011640694 0
0.2063658049680708 0.1166469782185231 0
0.1390080231819024 0.1083050277767057 0
0.1692297689394912 0.13129173779002 0
0.2219834329681258 0.1267188768307786 0
0.08389555465696555 0.09047948086466553 0
0.1754347170931976 0.1309521536749619 0
0.2209544386800298 0.1176022423351782 0
0.1930815533233074 0.1139918368183739 0
0.07406933628141374 0.09237129338844789 0
0.08316137449769498 0.08741855169688223 0
0.2875468472585048 0.1259990217079173 0
0.146687769431057 0.126308709004461 0
0.2715338063802381 0.1180818996031272 0
0.137599673651118 0.1271595794690742 0
0.1199479619355742 0.1242402411107673 0
0.1730048988069567 0.1131744426803389 0
0.3195793345725082 0.1105490232130999 0
0.1223003228882052 0.108755115746678 0
0.2653811436843301 0.1197236621298993 0
0.1711060966380117 0.1126186727011591 0
0.1410348083258736 0.1075313393547118 0
0.1882742485542468 0.1194484884931479 0
0.1550301659976352 0.1256503287303034 0
0.1513440870599077 0.1095116193222732 0
0.1405538914742604 0.1260225081992075 0
0.1785820109876667 0.1153120597027563 0
0.1505544250149709 0.1229891124411666 0
0.2427032830426706 0.1164878122991176 0
0.1528611106301821 0.1187625829842769 0
0.1717855470292795 0.1168545035245423 0
0.2429142461586748 0.1231874031315686 0
0.1802348023879916 0.1138688199546981 0
0.2776820695977641 0.1197244983312484 0
0.1282156206311016 0.1085168096988006 0
0.08594796312608781 0.1433476734401209 0
0.1076669861998063 0.1266110527996855 0
0.09225463179694654 0.1434915550342331 0
0.0912378728445432 0.149537633597595 0
0.2840074762689601 0.1224359457421999 0
0.1858992081962417 0.1163134474561364 0
0.09428816415785966 0.1423316886859881 0
0.3013195325137755 0.1380022980916869 0
0.3016211622694804 0.1039194487710554 0
0.210640962276511 0.1216251059258058 0
0.3001339263691882 0.1003460477998464 0
0.2157084122744233 0.1172836224817803 0
0.327566983270686 0.1220141075405821 0
0.3016211622582353 0.1360805512239547 0
0.3230022981112099 0.1236804673531778 0
0.1406007352227208 0.1136442351922693 0
0.1161893684959763 0.1272152746227445 0
0.1904568782641176 0.1295719652739284 0
0.2325508532720688 0.1147226601192954 0
0.1192038641908612 0.1173745650191245 0
0.1608420868007422 0.1138232673044171 0
0.1711068650110124 0.1094363383650251 0
0.1210101700473812 0.1218273413048228 0
0.205061295433493 0.1278781620736419 0
0.08594796314188258 0.09665232657700619 0
0.1230657826078516 0.1109598439756584 0
0.2923557018894669 0.1012554376025107 0
0.3248775087167526 0.1303548388067186 0
0.0779496401262517 0.09253993338988897 0
0.3133356498469208 0.09794971917538503 0
0.2884577967231588 0.1238742610091434 0
0.1272486487869804 0.1103983007631759 0
0.3153548388563031 0.1398775086655877 0
0.1952494586916362 0.1305753543619879 0
0.2923557017986785 0.1387445623157606 0
0.2946451610074545 0.139877508553049 0
0.2969545215612468 0.09787546103866943 0
0.2499637862029747 0.1252253502840526 0
0.2499349699931586 0.122989267805736 0
0.2018250709326679 0.1213481247997647 0
0.102446379577038 0.09015721262396674 0
0.1643451801977538 0.1097997626134013 0
0.1055497904649987 0.1088254862375942 0
0.1557195765508603 0.1156167191569489 0
0.1643743556815526 0.1320162493341691 0
0.1628431842508024 0.1286372843341149 0
0.1643451802030119 0.1302002373888796 0
0.1621952603870236 0.131216525644615 0
0.2577624966679264 0.111816005110089 0
0.1434278026431518 0.1233725864909646 0
0.09818931373097015 0.1484276705093505 0
0.2207644670787016 0.1227436898002419 0
0.1161410091167206 0.1144875176824726 0
0.1989373507099966 0.1095012072805938 0
0.3228650970209958 0.1189586849278119 0
0.3092193109984169 0.1023402776459081 0
0.1241279729154017 0.1172237707960233 0
0.1433878579812675 0.1178633882798294 0
0.2188685146261986 0.1298949067775281 0
0.1618679643089294 0.1194243102647782 0
0.1205812607014866 0.1144558753120748 0
0.07601415017953528 0.1474512103136749 0
0.2136943941069632 0.1164306530383324 0
0.2372635375408014 0.1153010614327676 0
0.09860185859545559 0.1505780429447346 0
0.1129139628597208 0.1168144931989468 0
0.1143471683762875 0.125441666764612 0
0.1055535646290328 0.1334018441157519 0
0.1710556153988418 0.127429646603584 0
0.1442599514088619 0.1216860372621276 0
0.1048725480614843 0.09311060531407196 0
0.113320805224465 0.1006942474871418 0
0.2725979152896123 0.1158908333844234 0
0.1353609988700186 0.116680600335473 0
0.1571015167728596 0.1202110493212065 0
0.1228416518750839 0.1187537542546497 0
0.1280368563389994 0.1196629579224754 0
0.2179607012150167 0.1260195931350048 0
0.1822823607970347 0.1266408610861067 0
0.1351811899582163 0.1323239815607379 0
0.2545498004475545 0.1252072883996887 0
0.2672807021161276 0.1181079144106917 0
0.2520876469719809 0.1223235880899322 0
0.1692297689266536 0.1087082622152614 0
0.1171026714994386 0.1311551215805973 0
0.1795137196952222 0.1308318215279495 0
0.08050148055061919 0.1428317054693377 0
0.1177882158438062 0.1159791050466837 0
0.2460387391416939 0.1217559070553978 0
0.1075562277328132 0.113705476522359 0
0.1054737155707989 0.1027047945741026 0
0.2823802910629177 0.1262034352131215 0
0.3212508605485018 0.1256602445091048 0
0.1987389495582962 0.1261239334986541 0
0.3109714161100418 0.1039462833316156 0
0.2993398900921825 0.1037490621794212 0
0.2962457302276186 0.1383336690124336 0
0.1636613034688426 0.1179708723515941 0
0.3130325422887996 0.1036773537213619 0
0.1622953680668199 0.108708407901382 0
0.3138755381319552 0.1016747731673738 0
0.321346328435851 0.1280541794992965 0
0.2944207445032512 0.1018189753970982 0
0.1362884505866605 0.12515830938992 0
0.2854030535176956 0.112981592246013 0
0.3210374962188445 0.1140044675765094 0
0.1027828157024069 0.09230476948144259 0
0.257046569748104 0.1286027149679354 0
0.1024463796116074 0.1498427873648164 0
0.1027828157509859 0.1476952305106665 0
0.1293682406263102 0.1069480487854293 0
0.0981893136866614 0.09157232948430977 0
0.2988742753477061 0.1427105983144458 0
0.1007606695539359 0.09219757833564388 0
0.2053129293620894 0.1186792978683131 0
0.2026506150085735 0.1230422259392297 0
0.1859148914536333 0.1264716530340327 0
0.2597299428856757 0.1250172800780116 0
0.09089867835348364 0.1418570717083512 0
0.2060358681054449 0.1206567892487709 0
0.2346354236382007 0.1184782290180221 0
0.1126879757792194 0.1151736767813899 0
0.0760141501964654 0.0925487896763385 0
0.07689512578400066 0.1453528943377052 0
0.07794964009977443 0.1474600666088267 0
0.1194712515467313 0.1296869668834844 0
0.3077927458309867 0.1388920089300558 0
0.1913583097594631 0.1244737766628157 0
0.2387758764802992 0.1174969130068618 0
0.1665055530635415 0.108801484392329 0
0.2387758764620918 0.1225030869989862 0
0.08725153040673964 0.08998595842985779 0
0.08725153040838476 0.1500140415392898 0
0.164412773993672 0.1158917508225875 0
0.1680556590506285 0.1176065222614142 0
0.0804700481438553 0.0953374664891565 0
0.3183456836828222 0.1064028238263702 0
0.09428816417872041 0.09766831131096745 0
0.1661859225674379 0.1109998062019543 0
0.2815743404410649 0.115601191992256 0
0.2228336624634776 0.1222347984584161 0
0.08173262267160546 0.09251478887836667 0
0.1607291892745925 0.1214766610199603 0
0.1110142857597382 0.1112026871319027 0
0.09711898878982789 0.153300244896461 0
0.1969459886574816 0.1268739357001224 0
0.1019215454590268 0.09832094809705344 0
0.1274379373896531 0.1069383959786811 0
0.2874954301463611 0.119716835800282 0
0.1322724145962695 0.1211447194993257 0
0.07689512581680186 0.09464710565071784 0
0.2988742754558739 0.09728940165573996 0
0.2964710805660696 0.09970155835082603 0
0.3277105983388231 0.126125724416338 0
0.3141394453660095 0.1434717475781371 0
0.327050280789814 0.1116643499769525 0
0.3267212521760876 0.1096283859426143 0
0.3285083969078827 0.1292176209524289 0
0.2537126846072705 0.1269605691769632 0
0.3133356500283003 0.1420502807831144 0
0.3284717475622043 0.1108605546178032 0
0.09040678518279607 0.09610503292216907 0
0.3141394452788366 0.09652825240943855 0
0.327124538974911 0.1280454783429428 0
0.2442996080304122 0.1249658959511081 0
0.1884867626567726 0.1306516325254742 0
0.3135848151797211 0.09974570989044901 0
0.1386802215114713 0.1208078050610663 0
0.1058253590528777 0.112723315237347 0
0.2007151272972421 0.1230084530358741 0
0.2098314453040673 0.1267758103775883 0
0.3060413150253399 0.1378650970708539 0
0.1500076675976696 0.1295654637797589 0
0.3219098039744429 0.1211929003190789 0
0.3059871518671704 0.09985227816129431 0
0.3038070996000894 0.1030901960169829 0
0.3059871519016558 0.1401477218374864 0
0.2156163895819626 0.1224126551087025 0
0.06563811706154554 0.1411684088129176 0
0.1113773039557757 0.1404353404540999 0
0.1185699784786518 0.1220996595736962 0
0.112223863826943 0.1286714349898342 0
0.2036706862946571 0.1292723138363574 0
0.2500857397000667 0.1147362438295878 0
0.2122081186448546 0.1144818236181977 0
0.2036706864385986 0.110727686163074 0
0.2057739866401734 0.1097872647267205 0
0.1067980725774824 0.1158303944234054 0
0.202030320325393 0.1279533870992588 0
0.2771556965555742 0.1153542529334345 0
0.3099538070990648 0.1435547868924155 0
0.2016546934594637 0.1302808928639524 0
0.09012319286719041 0.09251387237658927 0
0.2147053374618483 0.1295726616179314 0
0.2223243828919762 0.1290738047645475 0
0.09123787281748497 0.09046236640290688 0
0.2203152112061597 0.1251936918618115 0
0.1106738501805161 0.1129471662120271 0
0.2786930681855495 0.112312739658021 0
0.1141571618823906 0.1185090424827775 0
0.1351811899579224 0.1076760184392525 0
0.2410890364403026 0.1283855995425501 0
0.2343901803950617 0.1135240982778988 0
0.295550658243584 0.1345809212969016 0
0.2045836723235054 0.1155119079318848 0
0.2916488857573725 0.1347667330069067 0
0.2882489864630564 0.1216189535377183 0
0.1054324858760848 0.1373440869789733 0
0.1602402824550856 0.1183044055691061 0
0.2083684844168432 0.1219501041058245 0
0.1792120513553269 0.1283366540722506 0
0.1054701719034028 0.1400956685993927 0
0.107385387874618 0.1405180697628593 0
0.1763802123465857 0.1252556881806056 0
0.1152350247070963 0.1299775120725001 0
0.216824246565106 0.1289712169346967 0
0.08389555463935681 0.1495205191370531 0
0.2167396326406699 0.1110881151614156 0
0.218193959341623 0.1143637227078364 0
0.1140556118036288 0.1376591736674259 0
0.2894423403916703 0.1144231782014041 0
0.2585497443499201 0.1213872717092274 0
0.1232090962939824 0.1069990575759432 0
0.2724378492553015 0.1240853693279749 0
0.181864507387402 0.1245102237072289 0
0.2479354622657871 0.1173937906150819 0
0.1484399881667064 0.1309619441304897 0
0.2699187312153666 0.1198288840518257 0
0.1482377788404526 0.1088851493051902 0
0.1500000221026766 0.108363776298591 0
0.1313174697033232 0.1243760326864128 0
0.09859410788423383 0.1521793822664113 0
0.3249608443446196 0.1150648073122846 0
0.1004994434840588 0.08836529748506597 0
0.09859410782829665 0.08782061771225644 0
0.3099351926393519 0.139960844310349 0
0.160673230986294 0.126123844256159 0
0.1987205893581882 0.1234157573866162 0
0.08398904687496564 0.09764098190480272 0
0.177603134295156 0.1237038353682354 0
0.3029858923022566 0.1425669832376925 0
0.1492339136936742 0.1248907650768615 0
0.1175215956590478 0.1059836399281989 0
0.1253036205111978 0.1330124295252589 0
0.2664280450423849 0.1263775945088348 0
0.1429123355888436 0.1120065162054853 0
0.1244173753917997 0.1250685287638111 0
0.2993398900329421 0.1362509377935159 0
0.1439157695623931 0.1293994307198651 0
0.1427168060971035 0.1280071813239413 0
0.197084433037459 0.1101873439272323 0
0.1657904947620004 0.114449351711866 0
0.1920217779720531 0.1281444458100528 0
0.2249035802932645 0.1147758645600752 0
0.1970805167915102 0.1298063142323594 0
0.2328582337511963 0.1172420234546807 0
0.2254457197013209 0.1246360912662383 0
0.3143234635115406 0.1055032155756875 0
0.1691979996660136 0.1129788206419442 0
0.080501480566335 0.09716829454494058 0
0.1948056557280583 0.1243334058349039 0
0.2293567289906634 0.1114104525801381 0
0.1494630291073264 0.1106652320858669 0
0.2268537762958867 0.1291045505889785 0
0.1090607008009588 0.09629611421170589 0
0.2016505958823503 0.109691799603513 0
0.1586758237363484 0.1270869843300151 0
0.109326405473672 0.1415833501623464 0
0.1515262602121391 0.1148823824328366 0
0.2693660333328877 0.1177832692547368 0
0.2663228495023271 0.1153980557531859 0
0.1113773039274133 0.09956465946902741 0
0.2785463497388035 0.1229237603080302 0
0.1311811692244737 0.1179322425221525 0
0.120599921617543 0.1089508448564806 0
0.1893480545292915 0.1155673914745708 0
0.1278747781944491 0.1281595144113185 0
0.1516851039745727 0.107688237224033 0
0.1232068330502324 0.1329986777847641 0
0.2410890364623235 0.1116144004949347 0
0.1221332507959338 0.1255248997007518 0
0.2480918385074094 0.1221950872277352 0
0.2609191515812467 0.1164852032305348 0
0.1841047109020895 0.1097617768019659 0
0.1115593533027941 0.1078674384081228 0
0.2846352606374265 0.1171678376609796 0
0.1092126881292243 0.1318353716876854 0
0.146027848337258 0.113173392741771 0
0.08047004812414485 0.1446625335114758 0
0.323337129297117 0.1288260342477414 0
0.2819100084223605 0.1103652194793602 0
0.07864463755600189 0.09814660370407541 0
0.09810616025269672 0.1430153876880314 0
0.1242153683022959 0.1310091144247846 0
0.2427257772844234 0.120923536167795 0
0.09810616025517394 0.09698461230739051 0
0.2745118751680193 0.1251087738323304 0
0.1341652798129262 0.1152661364760753 0
0.09949487768657828 0.141553081558201 0
0.1726568049677196 0.1266948451767235 0
0.1491860901457444 0.1149675613684059 0
0.1858648872861587 0.1090471671829549 0
0.1189305831216497 0.1122715448031728 0
0.2689168618182223 0.1126600260751732 0
0.1657820146805286 0.1178921543744042 0
0.09269882116170741 0.09846393691146177 0
0.08838791928124833 0.09322075861404701 0
0.1870409978368712 0.1145506877749854 0
0.214339637792125 0.1185852164757031 0
0.1119710033835291 0.1045688697579486 0
0.2962457303170659 0.1016663309305448 0
0.3240146632003482 0.1326285614696909 0
0.3188777868179645 0.1372988217041755 0
0.226282564328566 0.126498188995137 0
0.1281469715611555 0.123433545610624 0
0.3233252267431348 0.1111244617333289 0
0.3176316984269142 0.1390269479161315 0
0.2240469355533643 0.1257283801006014 0
0.2633383017947014 0.1287549063301453 0
0.1113407148521696 0.1243539464181828 0
0.1227103753986767 0.1136052775107005 0
0.08727675353681508 0.09167509949557928 0
0.232619738850811 0.1248762163684432 0
0.1327522005259782 0.1272467124691415 0
0.2679221717806006 0.1137200280388991 0
0.2019690026997462 0.1246206739102137 0
0.1590308806768089 0.1128250432931697 0
0.222402677124127 0.1112475526039242 0
0.2523032782011353 0.1117111558133314 0
0.2500674050636654 0.1289094628233475 0
0.08698124387099283 0.141741985476958 0
0.07215597875952372 0.09828366465083999 0
0.1788948181356665 0.1220125703303286 0
0.2577562065824532 0.1139061323522974 0
0.1390080231778088 0.131694972218909 0
0.2765569208439465 0.121780227472568 0
0.1410348083017814 0.1324686606424536 0
0.1467127969081795 0.1172850841881514 0
0.1768492940342649 0.1219905337361095 0
0.2616630519979707 0.1131146586283922 0
0.1794953038053341 0.1186503313808539 0
0.2365458915941099 0.1173135043677379 0
0.1648596978553341 0.1225421642284424 0
0.1986882899189628 0.1164691755055979 0
0.0740693362327529 0.147628706567931 0
0.1923906352676121 0.118584936771718 0
0.1209436633821405 0.1183055898315035 0
0.2642327482108048 0.125269830901913 0
0.2957745566137769 0.1434763333006976 0
0.1394083413743891 0.1225745812693536 0
0.1074782328354247 0.1304194906224476 0
0.3029858923059586 0.09743301671669863 0
0.3015137361856136 0.1434197478039351 0
0.2229647548044562 0.118055065985039 0
0.2100225647773429 0.1290461740569118 0
0.2916488858298472 0.1052332669442719 0
0.272019374188796 0.1113551306086666 0
0.2100489948837436 0.1109180492429862 0
0.1346492499435842 0.1217937326537194 0
0.2621667173639029 0.1239108797778496 0
0.1232979738074018 0.1289341321993341 0
0.06563811713521128 0.09883159118670735 0
0.1720915964072015 0.120198265448978 0
0.1146600212762711 0.1233838705905041 0
0.1038549101364878 0.09737036983791016 0
0.1019215454714288 0.1416790518992782 0
0.1038549101877168 0.1426296301638093 0
0.2862357739562373 0.1246335981442316 0
0.1347415730258899 0.1184503334750906 0
0.270498482137395 0.1253249548089608 0
0.1802100009812727 0.1203651288505931 0
0.09292688185051558 0.08675915343143795 0
0.151792516636728 0.1284202236568182 0
0.09860185854744177 0.08942195704023916 0
0.1061416553080924 0.1450247238591977 0
0.08838791928397255 0.1467792413768654 0
0.1061416552868184 0.09497527613784575 0
0.1179160452278101 0.1242403527906497 0
0.3251477218306136 0.1190128479720361 0
0.1142469042581775 0.1216476589862721 0
0.1822171715825679 0.1090702281065258 0
0.1455099086270647 0.1247343440496486 0
0.2499835347786934 0.1189966381864543 0
0.1053230520019055 0.09662101400346675 0
0.1535774362376108 0.1083788329601273 0
0.2828070687258307 0.1135206124679922 0
0.1519461976415454 0.1320834101648619 0
0.1540626258531861 0.1315931720739346 0
0.216698249921372 0.124074035731643 0
0.2678655705801305 0.1231173363344824 0
0.2541078712685852 0.120929297917046 0
0.3261216527864053 0.1130925863478714 0
0.1092572916595209 0.1082005213066752 0
0.2267669058291552 0.1213064451105672 0
0.1500803287892677 0.131894105090815 0
0.1376194947306323 0.1226055808060462 0
0.290626996392727 0.1382042024932014 0
0.2892725574355073 0.1030609034689658 0
0.2321978789957428 0.1214454439217512 0
0.1879370917801352 0.1231633033521274 0
0.1841004876769329 0.1271602667797185 0
0.3153716140147433 0.1417212522147611 0
0.1841252948650607 0.1126031731220547 0
0.1110103068016003 0.1145884277228702 0
0.2736740005037182 0.1123597036197861 0
0.1094324606817831 0.1140632101518879 0
0.2126217000450707 0.1253009027188442 0
0.1136279288730014 0.1082114049764929 0
0.2824925661650498 0.1205547051531721 0
0.08322572950332438 0.147968631363764 0
0.08699183390845647 0.09487943537084294 0
0.0721559788129204 0.1417163353490894 0
0.1643962412039737 0.1118623977759157 0
0.2305689858870114 0.1207732915788752 0
0.06912816246429768 0.1424770985796301 0
0.2291460356485917 0.1154655590771692 0
0.06912816248380073 0.09752290140191555 0
0.3119074136393134 0.1411216527753281 0
0.2740880481961118 0.1143403200421619 0
0.2852930077026605 0.1292366919207299 0
0.1293682406191495 0.1330519512244816 0
0.303807099629047 0.1369098039913316 0
0.1643886567730251 0.1079730268882056 0
0.08881578945907945 0.1422714620279672 0
0.1144496616421619 0.1159027458886606 0
0.08762596545288066 0.09645310754667871 0
0.08698124385062021 0.09825801453341765 0
0.1053877879587525 0.1311859735092728 0
0.2302534841486968 0.1135945075407933 0
0.09442701983581457 0.1493271923364791 0
0.3217410869765799 0.1103051076819967 0
0.0948477995693259 0.1508679872979916 0
0.1760302165270225 0.1280796111672636 0
0.3159230676965524 0.1018799673629793 0
0.2892523306625102 0.1275312549197917 0
0.107570937716216 0.1115882595865525 0
0.2892524024000503 0.1124699217660921 0
0.3180078136574106 0.1303198356035847 0
0.2147004116677688 0.1103847496274865 0
0.1382922532241646 0.1295733552866767 0
0.3020062974466548 0.1398864193605603 0
0.2469129601069887 0.1138244710938561 0
0.2284459052399092 0.1098929231573693 0
0.08074501269220176 0.1526693304340668 0
0.08074501266228518 0.08733066958228386 0
0.2082699619413962 0.125654503576488 0
0.2020618796678891 0.1122290026736369 0
0.1450473015822084 0.1317682118842148 0
0.1089318056902562 0.118984379523795 0
0.1470575793288893 0.107516220145662 0
0.0948577414385989 0.1472030861413018 0
0.1970153334016718 0.1221777838912794 0
0.2269750942460414 0.1153636824906572 0
0.09711898873591687 0.08669975508851456 0
0.1550594340224817 0.1222294162548868 0
0.2482004036365581 0.115143700670753 0
0.1913233034299124 0.1218126299479977 0
0.1331312198180064 0.1111277796414249 0
0.1712430369969656 0.1184098372207076 0
0.130055136859099 0.1278751712325327 0
0.2704795030768097 0.1157005427084758 0
0.148882977135209 0.1222889415230582 0
0.07432632584904125 0.09784791607553878 0
0.07622606623888231 0.1418115205990512 0
0.07432632588407066 0.142152083904849 0
0.1558778956715227 0.1078110002437711 0
0.07325201198409458 0.09628501463684157 0
0.3210805357740176 0.1233788646185358 0
0.1291191862092226 0.1133646542771581 0
0.2208552046559181 0.1301468510496147 0
0.175151876898939 0.1089789342663702 0
0.1727924305372279 0.1311619054013377 0
0.2117107964963467 0.1235145431225442 0
0.104660509341284 0.135539352153506 0
0.208368177001464 0.1304666907266795 0
0.182322280097466 0.1172355076447951 0
0.1948892753081207 0.1222525728465576 0
0.128906867768155 0.1215090900711449 0
0.1478070376711187 0.1121793653275447 0
0.09040678519386548 0.1438949670733558 0
0.1687907850198622 0.1155074157124097 0
0.1411094023594809 0.1277403531271297 0
0.09283524750149513 0.09086116221679268 0
0.31756166341243 0.1044369849350021 0
0.2431327475789652 0.129251880170069 0
0.1111465626714017 0.1166501103229393 0
0.1309649998853128 0.1321826885768491 0
0.2813737222028971 0.1189576350786235 0
0.1324782710717162 0.1069438327289401 0
0.1597509171653079 0.1166909540008542 0
0.2008907416749096 0.1196117483803119 0
0.1514635148357912 0.124720577849484 0
0.2080502878977142 0.1146270007844356 0
0.147045528446046 0.1325006606556984 0
0.2059926531687432 0.1140764679163456 0
0.2425320522328405 0.1254255965007813 0
0.0948577414060675 0.09279691385835986 0
0.08228453573852285 0.0910638277355147 0
0.1547826178670165 0.1177103158873405 0
0.254079609678124 0.1190045110156042 0
0.1989307282164835 0.130449276068883 0
0.07622606620303768 0.09818847937669145 0
0.2946356047109379 0.1416891959225074 0
0.2627554477199994 0.1175362474541518 0
0.3062023497500903 0.09645949021570527 0
0.1260106990052616 0.1239541111658315 0
0.0876259654575492 0.1435468924499839 0
0.2923381084772688 0.1030223644140446 0
0.322634605108525 0.126873968035057 0
0.296471080461269 0.1402984416185559 0
0.2923381084036125 0.1369776355222882 0
0.2390419183904219 0.1289672014677256 0
0.2390319108124948 0.110970581767216 0
0.2329432919733389 0.1229027615467514 0
0.1092615514949639 0.1262184824195805 0
0.2173053050672382 0.1126863991009877 0
0.2445162403265612 0.1171426970576298 0
0.3195807730192705 0.1294522909752305 0
0.3180077512463874 0.1096802213891218 0
0.2057739864944277 0.1302127352760869 0
0.2083725821503565 0.1095273464956427 0
0.2051181590143243 0.1120726793490991 0
0.1090607008006802 0.1437038857759524 0
0.2971939953790303 0.1054698462429309 0
0.2803440688499209 0.1218327342015705 0
0.2955506583201121 0.1054190786497179 0
0.2918359210061366 0.1297012047196043 0
0.2971939953115666 0.1345301537002563 0
0.1215013161006919 0.1296021204135446 0
0.1451127033880736 0.1201015572752122 0
0.1015790696848172 0.1455315365446373 0
0.2391323144976935 0.1152776308738335 0
0.1884729694056758 0.1093195398499519 0
0.2427594569965993 0.1186153309779742 0
0.09152079954211118 0.09429926383690415 0
0.09375068817994035 0.1453730805147022 0
0.09152079958894548 0.1457007361706576 0
0.3126153417847252 0.1346583923507213 0
0.1904981762826392 0.1313195290783241 0
0.1628718318023374 0.1217762652181292 0
0.1847652406201209 0.123049483211399 0
0.1626217927493738 0.1109944276024579 0
0.1645485806701323 0.1284786709894462 0
0.2144831765765672 0.1246925283656656 0
0.2322183365034412 0.1295152784469329 0
0.2483957003679091 0.1240834135299519 0
0.2343595004492658 0.1262961539275355 0
0.3240146631226841 0.1073714384535167 0
0.3176316983312751 0.1009730519969348 0
0.2920650465930363 0.108463854525718 0
0.2920650465911659 0.1315361454114311 0
0.3044773054125939 0.09656414579005423 0
0.1373631538399921 0.117068706046006 0
0.2529394620041554 0.1240040907787433 0
0.2305456310530721 0.1254911461212346 0
0.1260544380911844 0.1123050398706108 0
0.1296020222623886 0.1164583919317527 0
0.146477534110627 0.1214777288356192 0
0.1004994435116807 0.1516347025011869 0
0.1263859718801735 0.1264424286647606 0
0.323119987062615 0.1309168010095739 0
0.3257535928991969 0.1081740060499414 0
0.315923067825791 0.1381200325243687 0
0.2557743503387431 0.1182520378038711 0
0.1446780559136495 0.1271394831891453 0
0.2884493268424918 0.1161022044745333 0
0.1195273452084194 0.1103262222468576 0
0.08306943031814631 0.1463837436352906 0
0.2591518087189199 0.1232185956744759 0
0.2461145225087992 0.1182271605542027 0
0.1057859318690779 0.1144518372081678 0
0.1558271193136175 0.1303504954212184 0
0.2830265378030411 0.1303741019289558 0
0.3109092398878939 0.1379271490013278 0
0.3109714161907329 0.1360537166264002 0
0.3109092396879665 0.1020728509048809 0
0.1484021594782826 0.1183133309552993 0
0.2278508438114259 0.1276106037060469 0
0.1243182955503989 0.108809322909094 0
0.2143599597639433 0.120662896486309 0
0.1260744413691627 0.1144928836526749 0
0.1259360840829812 0.1201199857153887 0
0.07059925763558032 0.09495576983108443 0
0.0839890468775063 0.1423590181068333 0
0.2562914733572625 0.1148561858843793 0
0.08206558891209467 0.09828732967661083 0
0.08462364819116797 0.1453114207021893 0
0.142832293114528 0.1072506669712392 0
0.0846236482101482 0.09468857928277044 0
0.3285886539249628 0.1169775369099139 0
0.1985574898722379 0.1131310099205366 0
0.1814092468122503 0.1188296008026032 0
0.2861184336500786 0.1154114010888114 0
0.2513936740648315 0.1159690544755001 0
0.2142224602260452 0.1146591711257639 0
0.2672393909240773 0.1284370863521132 0
0.1062286856435501 0.1173443788444509 0
0.276642074447312 0.1113489135549212 0
0.2202991759774122 0.1151152123891722 0
0.1324295186481667 0.1136855120357469 0
0.1530010917562838 0.1105224229562237 0
0.2365680721199943 0.1222689392995407 0
0.1595324567479531 0.1085075632239257 0
0.1595678806991306 0.131381423759546 0
0.104330058998128 0.1486099824568013 0
0.1089722006227726 0.1169162044144626 0
0.1048725480760569 0.146889394685264 0
0.1537087994730481 0.114664370719974 0
0.286518489792124 0.1058254606391287 0
0.1082732231297007 0.1336369052030885 0
0.1246081318239597 0.1218618752479064 0
0.2944207444321963 0.1381810245155988 0
0.1449430308607593 0.1163542548347966 0
0.2538213855002651 0.1130002582143426 0
0.2258639356909458 0.1199134458258664 0
0.1349422142156567 0.1299356206885795 0
0.2711417621783689 0.1278697680726698 0
0.256150335741976 0.1109503870697739 0
0.1476316481687876 0.1104455972820566 0
0.3143234635823687 0.1344967843463661 0
0.3126153417426169 0.1053416075580961 0
0.07879341769910783 0.08847761590767671 0
0.2040831612883832 0.1218276057900294 0
0.1663904280760012 0.1213564409211531 0
0.3075524502204304 0.1369276449467828 0
0.2168810521932379 0.1159686903597848 0
0.2863326063368822 0.131150669769411 0
0.3238920089673076 0.1172072540696471 0
0.176479428128559 0.1150077651061296 0
0.1683229349721782 0.1211877584772769 0
0.136681212286262 0.1150228369255218 0
0.1467696264126897 0.1091907519271287 0
0.2115101580793083 0.1169678681023291 0
0.1757404975379871 0.1108955058544604 0
0.1692376195673307 0.1270802271745773 0
0.291835921019951 0.1102987952437333 0
0.1690721132282425 0.1247382696220336 0
0.1888905510591531 0.1119003930386555 0
0.3099351925152061 0.1000391556312535 0
0.1334099853467627 0.1172630243287664 0
0.220831615565852 0.1099564406532529 0
0.2191089894280936 0.1099178657602941 0
0.1067152496950508 0.1216154425334014 0
0.1075807020209919 0.1096232697238116 0
0.09765606702041865 0.1465911045405134 0
0.09774922864954358 0.1449338430694829 0
0.09949481398966548 0.09536918687119732 0
0.2611232392617129 0.1184509127729871 0
0.1586594619261862 0.1217323112894646 0
0.2951590603121044 0.1365326073112501 0
0.2559582145373302 0.1239992900672575 0
0.1209658533982936 0.1330042687110568 0
0.1411037348881741 0.112226180156402 0
0.1119710031134985 0.1354311300977792 0
0.09089867832612922 0.0981429282789351 0
0.2482285721451435 0.1292716367884471 0
0.1166310255685401 0.1042155393526896 0
0.3015137362234328 0.09658025217116332 0
0.1187141341636022 0.127429139863018 0
0.2305715363741647 0.118522553004401 0
0.2387758764721956 0.11972502223061 0
0.1787085372658412 0.1252430606605829 0
0.1822954421387735 0.115373152661047 0
0.1372437477476057 0.1325149016887598 0
0.2424836693855207 0.11451120169277 0
0.1115389371177677 0.1321501356330004 0
0.1952500181967474 0.1094237396590574 0
0.1584850823624071 0.1107393485999999 0
0.2289915056674377 0.1239966439211237 0
0.257543638094581 0.1182147454963288 0
0.3206327384430507 0.1027161581201408 0
0.2829570816967359 0.1092352587383482 0
0.06726127335214574 0.09821169235840535 0
0.1513514227911276 0.1112809659718864 0
0.2409128297356496 0.1179040653500908 0
0.2736029879482237 0.1176313159678072 0
0.2407786808466432 0.123879324983454 0
0.1428322931095627 0.1327493330204212 0
0.08577034589452806 0.1490334119025248 0
0.2624712145485036 0.1217787261102829 0
0.2981582437270022 0.1376238764243156 0
0.07600257372963665 0.143449518883518 0
0.1560313149334582 0.1320691811922143 0
0.1079582883692757 0.124875943764566 0
0.1171026715117048 0.1088448784523677 0
0.08485413654186914 0.0869057870623396 0
0.08485413653956642 0.1530942129340772 0
0.2241290280923916 0.1165311618092239 0
0.3001339262912058 0.1396539521609418 0
0.3259356411447546 0.1261440197079936 0
0.09484779953001063 0.08913201270095027 0
0.3246539521991912 0.1248660735286406 0
0.2794943678467698 0.1282687443088908 0
0.3020062975091124 0.1001135805688726 0
0.2016458847184799 0.1146171609604404 0
0.1157725523523012 0.1123356629523383 0
0.136506610274694 0.1112896015750226 0
0.134929836797839 0.1102084152490777 0
0.1881654276566114 0.126569523246472 0
0.1382952602226711 0.1104315166206237 0
0.28640470675933 0.1088818511319065 0
0.1948144420210581 0.1153034297967756 0
0.1418438841793462 0.1106769585408133 0
0.1738961893893493 0.1218404679537412 0
0.09949487768733839 0.09844691843950407 0
0.1824439868855359 0.1132404429474348 0
0.2322183365500661 0.11048472161297 0
0.2543917225234083 0.1111393758936533 0
0.2543917224264364 0.1288606240937719 0
0.2802995856212314 0.123824471310516 0
0.2431327477240294 0.110748119827354 0
0.08082864405670973 0.09098622431353788 0
0.08082864403365726 0.1490137757001092 0
0.1324782710655223 0.1330561672698299 0
0.2141893159340022 0.1272175135339694 0
0.1156048423950147 0.1057157736540423 0
0.2141813765149045 0.1126450702124336 0
0.3231185700528801 0.1090773056103295 0
0.1064454007218723 0.1012694008941832 0
0.2468635684552686 0.1262580077110943 0
0.175797064853997 0.1186791936770225 0
0.2184373664044895 0.1187952929266008 0
0.2120493835956569 0.1302694170837945 0
0.2120793977611629 0.1096817452941698 0
0.3248864193813806 0.1229937023651031 0
0.1046712855316319 0.1044703032972678 0
0.2562952830311228 0.1221411499494633 0
0.2835672172751535 0.1190944042467272 0
0.2125004718046241 0.1212742365296409 0
0.1274379348655969 0.133061567371235 0
0.3219793361914594 0.1043109200399222 0
0.3206327385417021 0.1372838418135469 0
0.3219793362834228 0.1356890798941812 0
0.326881577595374 0.1303174611727513 0
0.3153716139220058 0.09827874774325812 0
0.1943167935803575 0.1186458398443265 0
0.2946356047579639 0.09831080406748997 0
0.1482559916439281 0.1165183872815162 0
0.1007606695857861 0.1478024215961801 0
0.1101747100318765 0.101353528183202 0
0.1101747035530034 0.1386464862667313 0
0.07659808876450358 0.09070467222746968 0
0.07659808875378725 0.1492953277613701 0
0.07742930488137625 0.08927517659452139 0
0.3175616635147058 0.1355630149844946 0
0.1774132291882353 0.1316674849666383 0
0.1433418399191138 0.1196852924818869 0
0.1061658538292875 0.1249689989438786 0
0.0926988211629926 0.1415360630857145 0
0.2729845719276716 0.1284009108168328 0
0.1074892746633939 0.1029364259832216 0
0.1064613037982791 0.1387228919259671 0
0.1074819205873204 0.137072602199833 0
0.2885972315247417 0.1314563784763033 0
0.1217516181227309 0.1236328952744075 0
0.0822845357067539 0.1489361722741052 0
0.3204658064685815 0.1072737158151171 0
0.3204658065428539 0.1327262841414823 0
0.2240912958880109 0.1101513420479374 0
0.2239541830199492 0.1302142783231762 0
0.2610155161649418 0.1205498826926826 0
0.1504099399019274 0.1188988323367063 0
0.06726127332785287 0.1417883076118701 0
0.09621036345116844 0.09804199028559037 0
0.3282197234030244 0.1130359229314416 0
0.2366782765963433 0.1295179999961646 0
0.2367541655977437 0.1102963640276411 0
0.1073853878236082 0.09948193015520188 0
0.1205935507149154 0.1310475143556018 0
0.1914618052302908 0.1153998363838343 0
0.1088110925958355 0.1227058694702421 0
0.3195577634718794 0.1122553200567818 0
0.1053230520564134 0.1433789859811223 0
0.1055656851981286 0.09823165745410023 0
0.2482078440991993 0.1107576677369111 0
0.2823302472911948 0.1243951428633838 0
0.1166310256401519 0.1357844606416614 0
0.1886371042088506 0.1136650975255052 0
0.2385626369213251 0.12667919086082 0
0.2383940101778357 0.1133889281566408 0
0.2529431561323067 0.116025898299096 0
0.1240646508586713 0.1152676497875497 0
0.2695521078304823 0.1286604300408026 0
0.2654958497564028 0.1114959028786738 0
0.2265921681328092 0.1130435930947115 0
0.1410837238544763 0.1151568328032136 0
0.3284197478227535 0.1234862636227247 0
0.2506618657108499 0.1129300495927906 0
0.2506685882108955 0.1270706195400135 0
0.1058595566330815 0.1271638231233361 0
0.2042818116125368 0.1242154879286649 0
0.2236283141355801 0.1200521410635208 0
0.3077927457708852 0.1011079910229354 0
0.3167344532724178 0.1318854438447197 0
0.3167344532480812 0.1081145560995814 0
0.1372437477519147 0.1074850983094136 0
0.102405653799474 0.09645563207656532 0
0.1467952869243519 0.1307238724197299 0
0.1750457946934918 0.1164645507418428 0
0.1068140295475905 0.1192881877599993 0
0.1439215256322199 0.1105445293218629 0
0.2297389126506943 0.1271157157093372 0
0.3089972306113224 0.1039577010462778 0
0.3219276449449215 0.1174475497441989 0
0.3210254743484606 0.1160407793168841 0
0.08933361677600332 0.08658915646276323 0
0.08933361679360541 0.1534108435278518 0
0.2676591260654313 0.1114961412136685 0
0.1127297300578407 0.1111006181473277 0
0.3252542900720256 0.1114151846554784 0
0.3135848153435914 0.1402542900701312 0
0.3253103368294568 0.1285304275198701 0
0.1201711346569391 0.1261407473429979 0
0.1561705211021939 0.1242147080817907 0
0.2852032760525809 0.1072050885315896 0
0.2852032760244336 0.1327949114405401 0
0.3229271490296058 0.1140907601443086 0
0.1213760087202413 0.1102919982056285 0
0.08306943034984413 0.09361625637131565 0
0.2988559800829458 0.1409356411020139 0
0.2988559802010119 0.0990643588670769 0
0.189267555711821 0.1248091875167978 0
0.2929343661927017 0.0995450589945425 0
0.2929343660890166 0.1404549409467443 0
0.139974474881957 0.1191401426656486 0
0.290626996461341 0.1017957974533218 0
0.2856793548988995 0.1185114955779616 0
0.2892725573830716 0.1369390964970938 0
0.1055656853511113 0.1417683425191497 0
0.1270681219945239 0.1297371629690567 0
0.2010732074123913 0.126336553657371 0
0.2642799350679927 0.1213421490843797 0
0.1042727549253429 0.1011633095124551 0
0.1042727549276136 0.1388366904241465 0
0.3195286290346166 0.1278082716208077 0
0.1871250883051019 0.1180711917885835 0
0.2957745566508325 0.09652366670958319 0
0.2501478401182972 0.1210966014307646 0
0.08577034591281035 0.09096658808667041 0
0.2407186017038738 0.1160501775594924 0
0.3119074134819834 0.09887834718450303 0
0.2764236638873745 0.1284914430672117 0
0.1156044984398108 0.1342834923980241 0
0.1950207255231438 0.1265471497326564 0
0.1950207255085318 0.1134528502631154 0
0.1417379139523776 0.1294203814164585 0
0.152884688769362 0.1299196695996441 0
0.2981582438132099 0.10237612353781 0
0.1423291541808417 0.1214541423266095 0
0.1295366082783501 0.1248734413684256 0
0.1551708326569609 0.1273693548344758 0
0.1345824100524895 0.1239710304699973 0
0.2871146906159118 0.127863947552471 0
0.2872152185909755 0.1120006226992612 0
0.2645011117029987 0.1134284505382316 0
0.09949481398556029 0.144630813111778 0
0.1043300589405235 0.09139001753124582 0
0.2865184897357881 0.1341745393231963 0
0.1121765384019933 0.1184062332271646 0
0.2682608109463026 0.1251621474124239 0
0.2778068528584965 0.1138680464626985 0
0.2884665512193036 0.1181823059641239 0
0.1586100304250844 0.1292222342958779 0
0.1518163102023058 0.1171011025274239 0
0.1578721358899733 0.1076098799745034 0
0.1577832508484796 0.1323445321340759 0
0.3183456838590135 0.1335971761247925 0
0.1773703847811352 0.1082927073863678 0
0.2593524166520917 0.1109848933060178 0
0.1024056537965202 0.1435443679484111 0
0.07890524690168733 0.09570492503870962 0
0.0789052468886836 0.1442950749442833 0
0.112388876339058 0.1217687769850107 0
0.07325201197857409 0.1437149852953066 0
0.1417544461089266 0.1246761308682598 0
0.1075336296310977 0.1284897714439361 0
0.2513612422438967 0.1239958820510879 0
0.0749965965734904 0.09383709420351732 0
0.286198839653821 0.1216616232525705 0
0.2590425966883335 0.1291450028266156 0
0.3062023498057694 0.1435405097654534 0
0.3284358542047633 0.1205226944328284 0
0.304477305425326 0.1434358541777538 0
0.2653294784084538 0.1290758284718617 0
0.09765606700906095 0.09340889542753077 0
0.2302452916675043 0.1100415463134307 0
0.2302452915712352 0.1299584536927861 0
0.3168259938135569 0.09924640698256074 0
0.3257535929634879 0.1318259938821366 0
0.3168259939355202 0.1407535929116731 0
0.1314604079952359 0.1118154446916798 0
0.09283524753430569 0.1491388377867968 0
0.07742930489498605 0.1507248233913383 0
0.1857394064875366 0.1128780516974362 0
0.1770341245571259 0.1117468098738634 0
0.3285547869046127 0.1150461928500755 0
0.2391590608175195 0.1247287918297913 0
0.09607211770258732 0.1487633815414457 0
0.08322572954358444 0.09203136864632422 0
0.1254171202954894 0.1281891008531287 0
0.07600257374950595 0.09655048109087308 0
0.294704051273343 0.1069953096293953 0
0.2947040512036552 0.1330046903229977 0
0.1859629767155814 0.1242401765932591 0
0.08003934352984826 0.147472632974786 0
0.08003934356487749 0.09252736703765135 0
0.1563089073930269 0.1106007853694321 0
0.1904962058510209 0.1086763526879922 0
0.1226613527903736 0.1271448602523526 0
0.2764217409232765 0.1262621464353688 0
0.2716507214349526 0.1197991907452459 0
0.2700937223183577 0.1116202672992639 0
0.07499659657852802 0.1461629057720567 0
0.09607211766304471 0.09123661845093095 0
0.2951590603924272 0.1034673926249141 0
0.3147865470152185 0.1034061429182783 0
0.3217427547263215 0.1296934846290336 0
0.314786547125841 0.1365938569867884 0
0.1191416637229895 0.1335485405543767 0
0.1193987892627479 0.106525708396012 0
0.2642300404858938 0.115748084207104 0
0.2832235419093774 0.1164115666532399 0
0.1421515090260326 0.1135180059383321 0
0.1422816585094471 0.12638516870394 0
0.3089972307023152 0.1360422989517223 0
0.3285405097859547 0.1187976500695504 0
0.08937493823801049 0.08813617635262364 0
0.08937493825703031 0.1518638236233885 0
POLYGONS 4028 16112
3 1227 1353 876
3 996 1428 864
3 152 439 1717
3 1472 440 272
3 811 1295 1937
3 796 1032 2077
3 1937 1295 999
3 754 1267 1121
3 1089 1477 9
3 1515 422 1127
3 1274 1032 796
3 1473 1248 902
3 1586 1554 786
3 1404 1363 811
3 735 1963 1845
3 1382 1674 855
3 1909 1576 840
3 131 1408 130
3 294 1201 293
3 724 1363 1218
3 1521 1963 903
3 1812 1795 1036
3 1478 1703 913
3 1359 1929 941
3 949 1363 1404
3 1845 1963 969
3 1119 1088 919
3 1838 1525 1784
3 1218 1363 949
3 969 1963 1521
3 1133 2116 1560
3 1359 941 1067
3 918 491 2064
3 843 1888 1346
3 1137 1399 1093
3 906 1399 1137
3 876 1777 1227
3 1094 1088 1119
3 1505 1451 1673
3 1346 1888 901
3 1320 1820 1378
3 1378 1820 1124
3 1326 1324 1325
3 1127 1324 1326
3 1061 1419 1330
3 1250 1711 1054
3 1136 1711 1250
3 152 1717 151
3 273 1472 272
3 1687 1283 939
3 1246 2074 118
3 306 1942 1613
3 876 1353 1733
3 1062 1674 1382
3 1673 1451 978
3 742 1838 1784
3 864 1552 996
3 1061 2070 1419
3 1127 1545 1515
3 1182 2087 954
3 288 1364 287
3 137 1235 136
3 833 1382 1258
3 1408 1701 130
3 294 1323 1201
3 1733 1353 750
3 1398 1488 929
3 748 1488 1398
3 1371 2113 348
3 841 1475 1330
3 1330 1475 780
3 2108 2178 1555
3 954 1686 1182
3 1183 1022 858
3 373 1802 1374
3 1526 1806 358
3 56 1225 55
3 729 1191 1298
3 918 2064 847
3 161 1221 160
3 264 849 263
3 920 1449 1633
3 1633 1449 1192
3 1636 1194 1184
3 1196 1194 1636
3 39 960 1285
3 1416 2042 64
3 1546 1801 842
3 1085 1543 900
3 1133 1504 1661
3 2064 491 1294
3 1655 1349 102
3 322 1885 1653
3 900 2046 1085
3 842 1491 1546
3 1155 1575 1101
3 840 1878 1736
3 1223 1273 876
3 722 1273 1223
3 288 2024 1364
3 1235 2146 136
3 851 2178 2108
3 1109 1723 1254
3 1220 1722 838
3 1041 1212 1606
3 2069 1901 929
3 1477 527 749
3 169 1607 168
3 256 1020 255
3 1661 2116 1133
3 1103 1909 840
3 1089 527 1477
3 1786 576 1634
3 1484 577 1789
3 723 1283 1687
3 1837 469 1510
3 1513 470 1512
3 1130 1096 824
3 40 960 39
3 64 2042 63
3 1029 1200 1160
3 732 1488 1288
3 1244 406 1418
3 1418 406 749
3 1101 2028 1155
3 48 1008 47
3 1298 465 870
3 1056 1711 1136
3 798 483 935
3 1895 2028 247
3 840 1576 1878
3 1466 1884 741
3 1240 409 2190
3 1541 1508 1268
3 1507 1508 1541
3 1277 612 1614
3 121 927 120
3 304 1726 303
3 1466 392 1884
3 1586 2056 1554
3 1258 1104 833
3 840 1975 1103
3 249 1874 248
3 1588 507 1051
3 1175 506 1932
3 1136 1578 1056
3 129 1378 128
3 296 1326 295
3 247 2028 246
3 300 1666 299
3 125 1663 124
3 955 576 1786
3 1789 577 953
3 1360 1549 746
3 1163 2039 1500
3 1298 1625 729
3 1613 1615 306
3 118 1265 1246
3 1190 1549 1360
3 878 1650 1205
3 1016 808 857
3 326 469 1837
3 1512 470 98
3 1084 464 808
3 1650 463 1162
3 754 2092 1267
3 753 1587 1290
3 1059 1411 1148
3 1139 1410 802
3 870 1625 1298
3 1874 2061 248
3 1051 507 1002
3 891 506 1175
3 1148 1411 869
3 1055 1410 1139
3 1277 1614 858
3 1056 1492 1711
3 1711 1492 818
3 833 1145 1382
3 839 1349 1655
3 1653 1885 1081
3 799 1979 1238
3 2032 1905 765
3 1134 1489 818
3 852 1232 1276
3 163 603 1791
3 1790 604 261
3 915 1489 1134
3 1276 1232 932
3 1036 1795 1848
3 785 2109 1604
3 928 2182 1819
3 1238 418 799
3 765 417 2032
3 760 1770 1121
3 1095 1757 1566
3 1678 2182 928
3 1170 1949 781
3 1034 2010 1591
3 1235 1232 1042
3 1054 1489 1364
3 1717 439 1496
3 1494 440 1472
3 1064 1759 831
3 1160 1915 1029
3 1733 2092 754
3 118 2074 117
3 307 1942 306
3 315 1218 18
3 7 1521 109
3 1467 2109 785
3 2190 409 1582
3 1290 1587 1341
3 1566 693 1095
3 1632 1251 810
3 1240 2190 1635
3 1183 1954 1022
3 1121 1770 754
3 1408 1417 1320
3 1325 1153 1201
3 935 1614 827
3 1146 2184 1307
3 1403 2183 1113
3 924 1417 1408
3 1201 1153 1120
3 827 1614 1551
3 1378 1881 128
3 296 1882 1326
3 174 1097 173
3 1606 1212 958
3 1551 1096 827
3 161 2045 1221
3 849 2044 263
3 1394 1901 2069
3 869 2206 1148
3 1139 2205 1055
3 1658 1197 1039
3 831 1530 1064
3 1990 2184 1146
3 1113 2183 1991
3 1747 457 761
3 1380 2113 1371
3 242 1851 1043
3 1056 1222 764
3 1500 2039 790
3 1374 1802 1033
3 1052 1806 1526
3 1667 1822 1456
3 1304 1599 835
3 2097 2177 859
3 874 1688 1846
3 1345 530 1295
3 965 1858 1456
3 1456 1858 753
3 1344 1703 1478
3 1867 2097 859
3 874 1846 1865
3 347 1371 348
3 373 1374 374
3 357 1526 358
3 764 1492 1056
3 1037 702 807
3 1216 701 1045
3 163 1791 162
3 262 1790 261
3 790 1638 1396
3 1017 1894 1358
3 1479 1976 1014
3 131 1362 1408
3 1201 1247 293
3 319 626 1458
3 1550 627 105
3 862 2018 1045
3 1037 2019 829
3 1045 2029 862
3 829 2031 1037
3 927 1866 120
3 304 1956 1726
3 345 0 25
3 78 4 79
3 1345 1295 769
3 761 457 1835
3 129 1701 1378
3 1326 1323 295
3 958 1877 974
3 1219 1836 884
3 46 1706 1346
3 912 1239 1574
3 1571 1924 909
3 827 1575 935
3 1500 584 1163
3 1561 1926 980
3 1475 1356 780
3 1138 745 1749
3 1250 1750 1136
3 935 1502 798
3 1045 2018 1216
3 807 2019 1037
3 802 450 1139
3 1148 449 1059
3 1538 1414 731
3 936 1567 1365
3 1303 1867 1689
3 1211 1865 1279
3 857 1710 1016
3 1205 1969 878
3 1091 1880 1409
3 747 1880 1091
3 731 1864 1538
3 1365 947 936
3 1217 589 1156
3 925 589 1217
3 884 1855 1219
3 22 1700 356
3 375 1454 24
3 21 1452 346
3 313 1522 312
3 112 872 111
3 758 1248 1473
3 1574 2042 912
3 909 960 1571
3 1773 1771 1245
3 1358 1942 308
3 116 2074 1479
3 983 1982 1222
3 974 1919 1606
3 1473 1748 758
3 308 1942 307
3 117 2074 116
3 254 1987 1386
3 974 1877 1497
3 1145 2130 1382
3 902 1592 1542
3 336 1722 20
3 5 1723 88
3 724 2121 1175
3 1051 1994 903
3 722 2040 1273
3 1092 578 726
3 1446 578 1092
3 1878 2169 1736
3 1175 2121 891
3 1002 1994 1051
3 1707 614 1540
3 1909 491 918
3 1061 1251 1632
3 319 1458 318
3 106 1550 105
3 1121 1651 760
3 1320 1701 1408
3 1201 1323 1325
3 1364 836 287
3 137 1659 1235
3 878 463 1650
3 808 464 857
3 1174 1263 1180
3 855 493 1382
3 1124 1881 1378
3 1326 1882 1127
3 1119 1321 57
3 1939 1953 759
3 1407 1953 1939
3 1456 1822 965
3 733 1537 1264
3 1347 1913 775
3 1273 2040 2142
3 1341 476 1290
3 895 1392 1390
3 1329 2017 1011
3 1276 1270 852
3 1309 1485 365
3 1180 1668 1174
3 1338 1376 757
3 1164 1376 1338
3 931 1270 1276
3 204 425 2009
3 2011 426 220
3 1473 2038 269
3 155 2037 1606
3 1264 1260 733
3 879 1825 849
3 849 1825 1026
3 1221 1481 976
3 1030 1481 1221
3 1406 1735 1229
3 1540 650 1707
3 2026 2068 49
3 1574 1925 1023
3 873 2134 1571
3 1606 958 974
3 818 1940 1134
3 102 1349 101
3 323 1885 322
3 1288 412 990
3 1207 1668 1180
3 1118 1938 730
3 811 1363 1493
3 1182 1963 735
3 1364 2024 1054
3 1042 2146 1235
3 834 1697 1683
3 1304 647 1599
3 942 1850 1090
3 1126 1850 942
3 283 1224 282
3 142 1079 141
3 1493 1363 724
3 903 1963 1182
3 739 2172 1586
3 869 464 2206
3 2205 463 1055
3 1938 1534 906
3 1091 472 747
3 1138 478 745
3 1750 479 1136
3 1978 586 1103
3 1258 585 1718
3 1172 1413 821
3 821 1413 1161
3 757 1902 1621
3 1621 1902 1160
3 1202 2192 1775
3 1729 2176 1708
3 9 1569 1089
3 1339 1581 835
3 769 1295 1493
3 1358 1894 984
3 967 1976 1479
3 730 516 1672
3 1089 1569 777
3 1791 603 1558
3 1480 604 1790
3 780 1241 1330
3 1330 1241 1061
3 1661 1504 1057
3 37 1702 36
3 67 822 66
3 1331 1366 913
3 1364 1489 915
3 932 1232 1235
3 1672 516 845
3 1217 1547 844
3 995 1534 1938
3 1248 1596 902
3 952 1366 1331
3 1780 1570 72
3 31 1228 1742
3 781 1762 1170
3 1591 2023 1034
3 1183 483 798
3 980 1926 1163
3 1555 2178 1838
3 1408 1362 924
3 1120 1247 1201
3 1338 1421 815
3 956 1503 1134
3 1276 1941 931
3 1633 1753 920
3 1184 1799 1636
3 1493 1295 811
3 1458 626 1546
3 900 627 1550
3 1975 1978 1103
3 1258 1718 1104
3 819 2017 1329
3 1390 1392 738
3 1161 1759 733
3 1023 1983 1574
3 1571 1577 873
3 290 1250 289
3 135 1749 134
3 1630 1936 193
3 213 2065 1291
3 231 1631 1519
3 1685 1993 1192
3 1039 1642 1658
3 2009 425 865
3 1236 426 2011
3 1140 1244 1418
3 46 1346 45
3 1511 1670 881
3 964 2119 1917
3 1514 1696 1025
3 2040 710 1219
3 1196 1995 1463
3 729 1301 1459
3 58 1119 57
3 1172 1902 757
3 1283 2054 939
3 1344 1764 1400
3 1282 464 869
3 1055 463 1474
3 943 1393 768
3 1295 530 999
3 1338 1487 1164
3 1855 2040 1219
3 146 1544 145
3 279 1470 278
3 1570 2149 1538
3 1365 2150 1228
3 975 1735 1406
3 1459 1301 1259
3 927 2079 963
3 1726 1527 823
3 1098 1527 1726
3 1095 2079 927
3 919 1088 1671
3 952 1581 1339
3 733 1274 1161
3 1160 1200 1621
3 185 1021 184
3 240 994 239
3 1254 652 90
3 334 651 1220
3 792 1661 1177
3 1177 1661 1057
3 1412 1376 1164
3 1134 1940 956
3 22 531 1700
3 1454 533 24
3 21 532 1452
3 1921 2049 989
3 1860 400 1355
3 1035 545 1107
3 1110 544 998
3 834 454 1697
3 1161 1413 1759
3 252 910 251
3 9 1477 180
3 1759 1413 831
3 300 1665 1666
3 1663 1556 124
3 757 1818 1338
3 752 1328 1660
3 922 1861 1114
3 1234 850 916
3 1164 875 1412
3 777 1664 1089
3 1245 1393 943
3 1288 1751 732
3 918 1831 1909
3 277 1798 276
3 148 1465 147
3 990 2007 1288
3 1778 1842 1213
3 787 1731 1118
3 1764 1682 1400
3 1127 422 1324
3 1322 1886 1156
3 961 1886 1322
3 1607 1100 168
3 256 1608 1020
3 1130 2188 1096
3 913 388 1478
3 1669 1778 1213
3 1788 2098 766
3 1315 2099 1431
3 2090 1968 1442
3 1290 711 753
3 1093 1880 1137
3 881 645 1511
3 1917 646 964
3 1025 644 1514
3 1412 1530 831
3 56 1321 1225
3 1001 1154 1444
3 1811 1916 1173
3 1281 1814 1815
3 1813 1167 1151
3 737 601 1605
3 1214 2149 1570
3 1228 2150 1115
3 1399 1620 1093
3 854 1531 771
3 882 887 1252
3 865 2035 781
3 1034 2036 1236
3 995 1938 1118
3 1050 2049 1921
3 757 1583 1172
3 1328 399 1660
3 1174 2110 1263
3 1192 2001 1633
3 1636 2002 1196
3 1444 1154 1296
3 1181 1916 1811
3 1412 875 744
3 1671 1088 789
3 1202 1775 736
3 853 1729 1708
3 831 1583 1412
3 1094 2004 1369
3 1486 1752 901
3 1130 1971 244
3 90 1964 1254
3 1220 1965 334
3 1114 1745 922
3 916 2152 1234
3 1342 1620 720
3 1134 1357 915
3 932 1984 1276
3 1592 1856 1542
3 723 2157 1283
3 1016 1710 905
3 770 1969 1205
3 824 1971 1130
3 336 1186 1722
3 1723 1900 88
3 341 1234 340
3 84 1114 83
3 1356 1667 780
3 847 596 918
3 979 2076 823
3 1505 2076 979
3 1010 2070 1893
3 283 1817 1224
3 1079 2186 141
3 1604 1448 1394
3 1843 1660 1256
3 752 1660 1843
3 1251 1877 810
3 781 1949 2009
3 2011 2010 1034
3 1378 1701 1320
3 1325 1323 1326
3 1586 1284 739
3 383 2050 1384
3 777 1950 1074
3 781 2009 865
3 1236 2011 1034
3 825 1531 854
3 1252 887 817
3 1771 402 1245
3 1272 1795 1812
3 1160 1908 1178
3 200 2013 199
3 218 2012 217
3 207 1435 206
3 189 2015 188
3 225 1680 224
3 236 1781 235
3 128 1881 127
3 297 1882 296
3 1995 1873 1463
3 786 1284 1586
3 1700 531 1450
3 1452 532 1333
3 944 533 1454
3 1545 624 767
3 1407 2118 1953
3 1069 1955 1409
3 1043 2094 242
3 182 2093 1074
3 1685 1822 1993
3 929 1901 1398
3 1775 2192 1152
3 988 2176 1729
3 808 518 1084
3 1162 519 1650
3 169 1986 1607
3 1020 1987 255
3 1407 1810 2118
3 1955 2175 1409
3 74 1741 73
3 30 1743 29
3 1178 1915 1160
3 1407 1620 1342
3 1679 1357 880
3 739 1984 1681
3 285 1444 284
3 140 1811 139
3 782 1005 1200
3 2015 2101 188
3 236 2102 1781
3 1137 1880 747
3 1369 2029 1094
3 901 2031 1486
3 856 2054 1283
3 1565 1888 843
3 1559 1525 950
3 1345 1031 1123
3 1074 945 777
3 1382 493 1258
3 1603 2086 1582
3 1620 569 1093
3 1587 609 1341
3 815 1487 1338
3 950 2187 1559
3 905 555 1016
3 1205 556 770
3 907 2086 1603
3 789 1588 1051
3 1175 1932 791
3 1493 709 769
3 1693 2041 27
3 76 1951 1695
3 1409 2175 1091
3 1342 1810 1407
3 1008 1706 47
3 859 697 1867
3 1865 698 874
3 813 2087 1182
3 1874 1523 1106
3 769 1031 1345
3 915 836 1364
3 1235 1659 932
3 92 2084 1139
3 1148 2085 332
3 205 1840 1826
3 1827 2166 201
3 1590 2167 219
3 223 2168 1595
3 1142 1197 1658
3 200 2166 2013
3 1435 1840 206
3 218 2167 2012
3 1680 2168 224
3 1091 2057 1026
3 1687 1803 800
3 1139 450 92
3 332 449 1148
3 1118 480 787
3 1444 1009 1001
3 1173 1580 1811
3 1203 1999 727
3 1182 1974 813
3 1867 697 1689
3 1211 698 1865
3 1355 400 1060
3 939 1803 1687
3 1222 1982 764
3 798 1207 1506
3 791 1888 1565
3 146 474 1544
3 1470 473 278
3 949 2197 1218
3 1521 2198 969
3 973 523 828
3 950 1525 1838
3 1637 578 1062
3 1396 1638 837
3 1225 1447 55
3 1074 1950 182
3 1518 1492 764
3 1106 1523 2138
3 1105 1889 1784
3 1621 1818 757
3 1518 1611 956
3 880 1395 1679
3 1858 1587 753
3 1418 1664 816
3 968 1421 1166
3 979 1451 1505
3 1681 2172 739
3 1059 449 1965
3 1964 450 802
3 1784 1889 1209
3 1218 2197 18
3 7 2198 1521
3 736 1167 1813
3 1815 1814 853
3 735 1974 1182
3 2070 405 1893
3 1097 1007 173
3 902 2038 1473
3 1606 2037 1041
3 1722 651 20
3 5 652 1723
3 1542 497 902
3 1041 498 1117
3 1222 403 983
3 748 412 1488
3 1488 412 1288
3 1221 2045 1030
3 1026 2044 849
3 1090 2129 942
3 1717 2002 151
3 273 2001 1472
3 1004 508 1649
3 1988 2054 824
3 728 1869 1243
3 1663 1879 1268
3 1731 1694 1118
3 1424 2122 783
3 728 2123 908
3 1157 508 1004
3 744 1530 1412
3 869 452 1282
3 1474 453 1055
3 824 2054 1370
3 1370 523 973
3 269 1748 1473
3 1606 1919 155
3 1221 1985 160
3 264 1823 849
3 306 1615 305
3 119 1265 118
3 1641 1737 796
3 166 2053 1107
3 1110 1934 258
3 277 473 1798
3 1465 474 147
3 771 1977 2100
3 1092 2103 1446
3 1011 2017 1387
3 1319 1392 895
3 956 1940 1518
3 1246 1978 967
3 984 1718 1613
3 914 1601 1833
3 848 1720 1107
3 1110 1998 957
3 1018 2066 1607
3 1020 2067 812
3 1250 2024 289
3 135 2146 1749
3 1387 2017 1388
3 1385 1392 1319
3 796 1737 1274
3 883 1973 1725
3 206 1840 205
3 201 2166 200
3 219 2167 218
3 224 2168 223
3 821 1908 1172
3 1386 1987 1067
3 1103 491 1909
3 1920 1919 974
3 758 1748 1337
3 1607 1892 1018
3 812 1437 1020
3 1125 1392 1385
3 1388 2017 1809
3 1605 601 1158
3 1286 1292 1700
3 1293 1746 1452
3 1454 1287 1015
3 174 2062 1097
3 1782 1926 1561
3 1282 452 1065
3 1471 453 1474
3 1565 1944 791
3 920 1724 1449
3 1194 1771 1184
3 727 1617 1203
3 1339 1599 870
3 1198 1724 920
3 1184 1771 1773
3 252 2158 910
3 727 1619 1649
3 1396 1847 790
3 775 1578 1347
3 942 2141 1126
3 1683 1697 1240
3 880 1503 1157
3 768 451 943
3 1683 1635 178
3 783 1516 1372
3 377 1373 378
3 383 1384 384
3 353 1853 354
3 1372 1516 981
3 1383 1871 816
3 963 1866 927
3 1726 1956 1098
3 1161 1737 821
3 187 2101 1305
3 1313 2102 237
3 967 2074 1246
3 1613 1942 984
3 993 1871 1383
3 842 675 1653
3 1655 674 1085
3 1346 1706 843
3 789 1563 1671
3 987 1485 1309
3 125 1744 1663
3 1666 1961 299
3 132 1362 131
3 293 1247 292
3 313 1557 1522
3 872 1501 111
3 724 1237 1493
3 1182 1686 903
3 726 546 1092
3 1277 1022 1116
3 856 1646 801
3 764 1617 1518
3 1519 2161 231
3 1291 2160 213
3 193 1830 1630
3 972 1877 1251
3 956 508 1503
3 1124 1946 1881
3 1214 1570 1780
3 1742 1228 1115
3 801 1646 1255
3 1503 508 1157
3 1280 2068 2026
3 1848 1504 1133
3 1882 2141 1127
3 1321 1922 1225
3 920 1753 1798
3 1465 1799 1184
3 1663 613 1879
3 1383 1664 777
3 1296 1531 1224
3 1079 887 1181
3 1224 1531 825
3 817 887 1079
3 823 1527 1843
3 816 1664 1383
3 1700 1292 356
3 1452 1746 346
3 375 1287 1454
3 1254 390 1109
3 838 391 1220
3 992 1624 734
3 1231 1624 992
3 1599 2060 870
3 1649 1611 727
3 858 1022 1277
3 1257 1739 1351
3 1475 1248 758
3 1836 1740 896
3 1219 1740 1836
3 1157 1819 880
3 48 2068 1008
3 769 709 1460
3 1384 2050 937
3 1107 2053 848
3 957 1934 1110
3 729 548 1301
3 1644 1577 42
3 61 1983 1425
3 1566 591 911
3 1319 1512 99
3 325 1837 1387
3 343 2041 1693
3 1695 1951 81
3 1781 1627 235
3 189 2115 2015
3 225 1433 1680
3 207 1439 1435
3 2012 1436 217
3 2013 1441 199
3 943 1483 1245
3 919 1321 1119
3 726 578 1637
3 37 1397 1702
3 822 1933 66
3 825 1312 1224
3 1079 1945 817
3 1167 408 912
3 909 407 1814
3 792 1669 1361
3 1361 1669 917
3 1192 672 1685
3 807 702 1932
3 1588 701 1216
3 1143 1260 1138
3 1087 1260 1143
3 287 836 286
3 138 1659 137
3 1879 613 925
3 766 2098 1391
3 1430 2099 1315
3 1442 1968 1432
3 1107 545 166
3 258 544 1110
3 990 412 1193
3 738 1392 1125
3 1809 2017 819
3 1757 1541 844
3 876 1733 1223
3 243 1851 242
3 1301 548 986
3 1224 1817 1296
3 1181 2186 1079
3 364 1309 365
3 1026 472 1091
3 720 471 1342
3 244 2120 1130
3 768 1393 1398
3 1107 597 1035
3 998 598 1110
3 908 1869 728
3 720 1534 1297
3 1257 1548 1739
3 1041 2063 1532
3 1775 408 1167
3 1814 407 1729
3 1459 663 729
3 366 1844 367
3 1637 2130 1122
3 942 624 1545
3 1229 1539 854
3 1252 1980 1231
3 176 2190 2086
3 886 1467 1470
3 1544 1725 985
3 902 497 2038
3 2037 498 1041
3 1470 1467 1461
3 1464 1725 1544
3 20 651 335
3 89 652 5
3 904 1310 1834
3 730 1938 1692
3 1367 1560 756
3 2206 464 1084
3 1162 463 2205
3 1641 1982 983
3 1843 2202 752
3 1528 2202 1843
3 1224 1312 282
3 142 1945 1079
3 1834 1310 890
3 1211 1785 885
3 877 1704 1689
3 315 2055 1218
3 1521 1935 109
3 2157 595 1283
3 1194 1463 889
3 1196 1463 1194
3 1218 2121 724
3 903 1994 1521
3 1198 1302 785
3 883 1800 1773
3 1470 1779 886
3 985 1332 1544
3 810 1966 1632
3 1193 1911 990
3 1759 1537 733
3 775 1913 1915
3 832 1523 1626
3 1504 1734 1057
3 1641 590 1982
3 1062 2130 1637
3 1279 1785 1211
3 1689 1704 1303
3 1669 2005 917
3 1213 2005 1669
3 1632 2070 1061
3 98 470 6
3 19 469 326
3 1243 1973 1226
3 931 1941 1754
3 1444 1817 284
3 140 2186 1811
3 849 1823 879
3 976 1985 1221
3 1429 1307 794
3 863 1403 1402
3 1009 610 1001
3 1173 611 1580
3 1090 1850 1666
3 1611 508 956
3 1463 1911 889
3 1341 1911 1463
3 1430 396 743
3 1108 395 1391
3 1210 397 1432
3 1427 2140 23
3 1154 1977 771
3 1754 1870 931
3 1649 508 1611
3 1193 402 889
3 1401 1307 1429
3 1402 1403 1340
3 1544 474 1464
3 1461 473 1470
3 1519 1631 1108
3 743 1936 1630
3 1291 2065 1210
3 1136 479 1578
3 1305 2104 187
3 237 1675 1313
3 1267 2129 1121
3 1722 490 838
3 1109 489 1723
3 929 605 1198
3 1229 1755 1539
3 1685 1751 965
3 783 1372 1424
3 992 2048 1231
3 1755 485 1539
3 771 1406 854
3 734 517 992
3 1051 1563 789
3 791 1944 1175
3 919 1922 1321
3 854 1406 1229
3 1342 471 2058
3 1233 1598 814
3 204 2009 203
3 221 2011 220
3 1191 1197 1142
3 755 1618 1097
3 1097 2133 755
3 10 2115 189
3 12 1439 207
3 235 1627 15
3 217 1436 13
3 14 1433 225
3 199 1441 11
3 879 1601 1825
3 1111 1894 1017
3 1014 1976 1736
3 2086 2190 1582
3 1626 671 832
3 1671 1922 919
3 1422 662 1476
3 905 1710 1708
3 1202 1969 770
3 1108 692 1519
3 1630 562 743
3 1210 564 1291
3 1450 446 1700
3 1333 445 1452
3 1454 447 944
3 1723 652 1254
3 1220 651 1722
3 971 1822 1667
3 1054 2024 1250
3 1749 2146 1042
3 1 1644 42
3 61 1425 3
3 1057 1734 1462
3 1798 473 1461
3 1464 474 1465
3 2087 662 1422
3 1005 570 1200
3 2063 1731 1532
3 1027 1922 1671
3 1655 1662 839
3 1081 2051 1653
3 1356 534 971
3 851 1572 1639
3 843 1629 1565
3 1544 1332 145
3 279 1779 1470
3 1833 1601 879
3 1203 1617 764
3 1123 1598 1233
3 494 534 1356
3 1902 1908 1160
3 896 1740 1520
3 1520 1740 1271
3 1713 2131 1255
3 993 2132 1715
3 910 2158 926
3 1231 1980 1230
3 913 1703 1331
3 1386 941 926
3 1230 1980 728
3 1085 1662 1655
3 1653 2051 842
3 1067 941 1386
3 1565 1629 888
3 1252 2048 882
3 833 1894 1111
3 1736 1976 840
3 720 1297 1481
3 1373 1899 378
3 353 1816 1853
3 1175 1237 724
3 1989 545 1035
3 998 544 1763
3 764 1982 1203
3 366 2140 1844
3 977 614 1707
3 903 1686 1051
3 1143 1907 1087
3 852 1907 1143
3 1327 1612 1068
3 1560 2116 1317
3 1118 1694 995
3 1105 1525 1559
3 841 1248 1475
3 1520 1770 760
3 58 2004 1119
3 1459 1656 1039
3 1843 1527 1528
3 1331 455 952
3 1050 1044 1233
3 1639 2178 851
3 783 2122 1539
3 1980 2123 728
3 1192 1993 1472
3 1717 1995 1196
3 2078 1727 1050
3 1702 1758 885
3 877 1440 822
3 1649 1870 1004
3 2058 471 1030
3 1240 1635 1683
3 1164 1487 1768
3 90 652 89
3 335 651 334
3 1449 672 1192
3 746 409 1739
3 730 480 1118
3 804 2098 1788
3 1431 2099 772
3 951 1968 2090
3 1259 1656 1459
3 734 1070 1266
3 912 2042 1416
3 1285 960 909
3 254 1386 253
3 920 1302 1198
3 1773 1800 1184
3 1757 591 1566
3 1472 2001 1192
3 1196 2002 1717
3 774 2005 1500
3 814 2049 1233
3 870 465 1339
3 1008 1629 1706
3 1610 1745 1741
3 1743 2152 1690
3 734 1624 1189
3 1769 1318 1206
3 1231 2048 1252
3 1202 1761 878
3 857 2170 1708
3 768 1318 1769
3 1973 459 1725
3 1226 1622 1243
3 1091 2175 2057
3 2058 1810 1342
3 1650 632 1205
3 1016 633 808
3 1189 1755 1229
3 1206 1516 1730
3 1150 561 1657
3 1453 558 820
3 751 563 1455
3 1648 492 1502
3 826 1755 1189
3 1180 1263 1360
3 1603 409 746
3 749 2139 1477
3 928 438 1195
3 839 413 1349
3 1885 414 1081
3 1500 2005 1213
3 1054 1171 1489
3 23 1485 1427
3 52 2078 2
3 1671 448 1027
3 363 505 1713
3 1715 504 368
3 1233 2049 1050
3 888 547 1565
3 720 1620 1399
3 1815 1758 1281
3 1151 1440 1813
3 1819 438 928
3 1614 612 1551
3 1346 1752 45
3 1021 1887 184
3 240 2136 994
3 1921 2078 1050
3 1798 1302 920
3 1184 1800 1465
3 1322 601 737
3 1360 1263 1190
3 1741 1780 73
3 30 1742 1743
3 1280 475 2154
3 1730 1516 783
3 802 390 1964
3 1965 391 1059
3 1234 1623 340
3 84 1253 1114
3 940 2179 1741
3 1743 1960 934
3 1004 438 1157
3 1881 1946 1242
3 911 634 1566
3 1522 2008 312
3 112 1426 872
3 1046 1381 1305
3 1313 1890 1314
3 1497 1794 974
3 734 1735 1070
3 878 1761 1474
3 1282 2170 857
3 1126 2141 1882
3 1964 390 1254
3 1220 391 1965
3 857 464 1282
3 1474 463 878
3 1264 478 1260
3 1260 478 1138
3 1229 1735 1189
3 1472 534 1494
3 1081 2148 1645
3 1643 2075 839
3 879 2080 1833
3 1266 517 734
3 1730 1755 826
3 196 725 195
3 229 1169 228
3 211 1868 210
3 981 1448 1604
3 826 1185 1730
3 52 1875 2078
3 1251 625 972
3 1400 1703 1344
3 341 850 1234
3 1114 1861 83
3 1296 1817 1444
3 1811 2186 1181
3 885 1654 1211
3 1689 1585 877
3 1506 1207 1180
3 839 1662 1643
3 1645 2051 1081
3 934 2191 1234
3 1114 2156 940
3 77 1951 76
3 27 2041 26
3 185 1676 1021
3 994 2106 239
3 800 1766 1687
3 193 1936 192
3 214 2065 213
3 232 1631 231
3 1653 675 322
3 102 674 1655
3 1793 475 1280
3 1272 1943 897
3 1443 1774 1275
3 1189 2014 826
3 1782 2199 1190
3 1993 1822 971
3 1106 2061 1874
3 1232 2173 1042
3 1394 1448 1318
3 854 2122 825
3 817 2123 1252
3 914 1792 1601
3 758 1356 1475
3 1687 2006 723
3 1086 2169 1878
3 1243 1622 728
3 1303 481 1867
3 1865 482 1279
3 1517 1864 731
3 936 947 1862
3 895 1512 1319
3 1387 1837 1011
3 906 1534 1399
3 745 478 1300
3 1141 479 1750
3 1599 647 1102
3 74 1610 1741
3 1743 1690 29
3 1715 1499 993
3 961 1777 1273
3 1818 570 1166
3 1605 681 737
3 926 941 1396
3 2025 653 1808
3 916 607 1693
3 1695 606 922
3 1396 941 774
3 368 1499 1715
3 748 1066 1193
3 1255 1053 1713
3 878 1969 1202
3 1708 1710 857
3 1707 650 976
3 880 1357 1503
3 1941 1984 739
3 743 396 1936
3 2065 397 1210
3 1631 395 1108
3 269 2038 268
3 156 2037 155
3 290 1750 1250
3 1749 745 134
3 1666 2125 1090
3 935 483 1614
3 1178 403 1915
3 1352 1576 1909
3 922 580 1695
3 1693 579 916
3 1713 1053 363
3 747 1792 1137
3 1268 1556 1663
3 1271 1770 1520
3 1305 2101 1046
3 1314 2102 1313
3 810 1877 958
3 1198 605 1724
3 1575 1502 935
3 2077 1032 1087
3 337 1186 336
3 88 1900 87
3 1700 526 1286
3 1452 525 1293
3 1015 524 1454
3 1223 1733 754
3 1390 1652 895
3 1011 1343 1329
3 811 1937 1404
3 1683 673 834
3 1065 486 1282
3 1474 487 1471
3 1693 607 343
3 81 606 1695
3 1702 1609 36
3 67 1705 822
3 1815 541 1758
3 1440 542 1813
3 178 673 1683
3 767 696 1545
3 1262 1857 1304
3 1186 490 1722
3 1723 489 1900
3 1695 580 76
3 27 579 1693
3 1055 453 1410
3 1411 452 869
3 1765 1992 310
3 114 1767 1204
3 1304 1857 904
3 1070 1735 975
3 965 1822 1685
3 1404 1937 809
3 1989 623 1558
3 1480 622 1763
3 1708 2176 905
3 770 2192 1202
3 753 535 1456
3 728 637 1230
3 1575 2188 1101
3 1784 1593 742
3 1209 1593 1784
3 773 1670 1511
3 946 1696 1514
3 1917 2119 959
3 1155 1502 1575
3 885 1785 1702
3 822 1704 877
3 1461 1302 1798
3 1465 1800 1464
3 1449 1724 732
3 889 1771 1194
3 778 1552 1835
3 1511 645 1019
3 1013 646 1917
3 1514 644 763
3 793 623 1943
3 1774 622 806
3 1410 453 1600
3 1028 452 1411
3 1714 429 1368
3 922 1745 1610
3 1690 2152 916
3 807 898 1458
3 1550 1350 1216
3 1578 479 1347
3 1471 487 1813
3 1815 486 1065
3 1813 487 736
3 853 486 1815
3 941 1929 774
3 1297 1534 995
3 1102 1859 2060
3 1551 1803 1988
3 723 2105 1427
3 1554 517 786
3 844 591 1757
3 1257 1954 1183
3 793 670 623
3 622 669 806
3 1427 2105 1132
3 1230 2014 1231
3 1240 1697 1351
3 1156 601 1322
3 1155 1648 1502
3 1708 2170 853
3 736 1761 1202
3 1809 2134 873
3 1023 1925 1125
3 1497 1877 972
3 1233 2151 1123
3 2060 1859 933
3 1234 2152 934
3 940 1745 1114
3 992 517 1554
3 2049 1962 989
3 819 2134 1809
3 1125 1925 738
3 824 1370 973
3 814 1962 2049
3 1191 663 1197
3 1283 595 856
3 1791 2045 162
3 262 2044 1790
3 973 1971 824
3 858 483 1183
3 1621 570 1818
3 151 2002 150
3 274 2001 273
3 1137 1677 906
3 1135 1579 1547
3 1547 1579 844
3 59 2004 58
3 2057 2175 806
3 793 1810 2058
3 1825 1601 747
3 1217 1879 925
3 1309 1646 987
3 1255 1646 1309
3 1851 1698 1043
3 828 1698 1851
3 997 437 1195
3 1862 947 34
3 69 1864 1517
3 1769 451 768
3 1428 1637 1122
3 45 1752 44
3 1132 1871 1844
3 244 1971 16
3 1844 1871 993
3 778 1918 1552
3 972 625 2000
3 978 2125 1665
3 1665 2125 1666
3 1706 1629 843
3 924 717 1417
3 1153 719 1120
3 1730 1185 1206
3 1909 1831 1352
3 790 1847 1500
3 1261 1709 937
3 1380 2195 1796
3 844 1952 1217
3 1835 398 761
3 1060 398 1835
3 1500 1847 774
3 1180 694 1506
3 1895 1648 1155
3 1915 403 775
3 1804 2193 1033
3 1052 1928 1482
3 1517 540 69
3 34 539 1862
3 1801 675 842
3 1085 674 1543
3 1381 1786 1305
3 1313 1789 1890
3 1458 2019 807
3 1216 2018 1550
3 2114 437 997
3 904 647 1304
3 802 2117 1249
3 1495 1957 1059
3 1333 2082 1906
3 2071 1048 944
3 1450 1903 1405
3 107 514 991
3 1498 515 317
3 1496 661 1717
3 1106 1648 1895
3 1111 1602 833
3 1017 551 1111
3 1736 552 1014
3 1552 1918 996
3 1494 494 1337
3 1506 1548 1257
3 900 656 2046
3 1491 655 1546
3 931 1870 1619
3 1466 1875 53
3 861 1612 1327
3 1156 1886 1217
3 827 2188 1575
3 1368 429 1684
3 1039 1197 1459
3 1096 2188 827
3 1495 391 838
3 1109 390 1249
3 1510 1343 1837
3 1512 1652 1513
3 1329 1343 905
3 770 1652 1390
3 1546 626 1801
3 1543 627 900
3 722 710 2040
3 285 1009 1444
3 1811 1580 139
3 1549 2199 2133
3 753 2000 1241
3 301 1665 300
3 124 1556 123
3 1526 1292 1286
3 1015 1287 1374
3 1371 1746 1293
3 1614 483 858
3 1155 2028 1895
3 282 1312 281
3 143 1945 142
3 1685 672 1751
3 791 512 1888
3 1044 2151 1233
3 879 649 2080
3 905 2176 1329
3 1390 2192 770
3 1362 549 924
3 1120 550 1247
3 1377 1899 1373
3 1853 1816 1049
3 1227 538 1353
3 816 1871 1564
3 1726 1772 303
3 121 1728 927
3 108 514 107
3 317 515 316
3 1692 1938 906
3 1560 1824 756
3 732 605 1488
3 1639 1572 788
3 1626 1523 1080
3 1088 509 789
3 1549 2133 907
3 1213 584 1500
3 1564 1871 1132
3 53 1849 1466
3 1273 1777 876
3 1072 1786 1634
3 1484 1789 923
3 798 2189 1183
3 188 2101 187
3 237 2102 236
3 955 1786 1381
3 1890 1789 953
3 835 2096 1304
3 1427 2157 723
3 1045 509 2029
3 1657 561 1006
3 866 558 1453
3 1455 563 1012
3 2 1921 51
3 1766 419 1244
3 1676 536 1021
3 994 537 2106
3 2031 512 1037
3 1329 2176 988
3 1152 2192 1390
3 1809 414 1388
3 1385 413 1125
3 1123 1642 1345
3 732 672 1449
3 1418 527 1664
3 1843 599 823
3 924 549 1537
3 1913 550 1120
3 823 2076 1726
3 927 1910 1095
3 1376 1583 757
3 271 1337 270
3 154 1920 153
3 1066 402 1193
3 783 485 1730
3 977 1694 1731
3 1557 1572 1522
3 872 1857 1501
3 1132 2140 1427
3 1304 2096 1262
3 1131 1509 1145
3 1147 1460 982
3 1193 412 748
3 1558 603 1989
3 1763 604 1480
3 1327 1896 171
3 1145 1509 1122
3 889 1911 1193
3 1673 1665 301
3 123 1556 1508
3 160 1985 159
3 265 1823 264
3 1794 665 974
3 1337 440 1494
3 1204 1389 114
3 310 1699 1765
3 18 1930 314
3 110 894 7
3 1779 513 886
3 357 1292 1526
3 1374 1287 374
3 347 1746 1371
3 1117 2063 1041
3 1239 1925 1574
3 1571 2134 1924
3 178 1635 177
3 779 2151 1044
3 2062 2133 1097
3 801 1698 828
3 777 945 1383
3 1128 2128 1593
3 910 1597 251
3 1159 2137 1044
3 1029 718 1200
3 1836 1808 884
3 1999 590 796
3 1203 590 1999
3 1412 1583 1376
3 145 1332 144
3 280 1779 279
3 775 403 1222
3 2013 1445 1308
3 2012 2090 1442
3 1438 2089 1680
3 1781 1788 766
3 1315 1431 2015
3 1434 2088 1435
3 760 1451 979
3 1183 2189 1257
3 1550 656 900
3 1546 655 1458
3 1351 1739 1240
3 1657 686 1150
3 820 688 1453
3 1455 687 751
3 1837 1343 1011
3 895 1652 1512
3 1773 1483 883
3 1245 1483 1773
3 950 2178 1639
3 1481 1297 976
3 1421 1818 1166
3 1425 499 3
3 1 500 1644
3 835 1581 1845
3 1281 565 1814
3 1167 566 1151
3 1395 610 1679
3 823 599 979
3 810 1212 1532
3 870 1335 1354
3 979 600 760
3 1399 1534 720
3 1226 654 451
3 168 1100 167
3 257 1608 256
3 1044 2137 779
3 785 2069 1198
3 1198 2069 929
3 897 597 805
3 756 598 1443
3 1941 568 1754
3 749 527 1418
3 1974 557 813
3 1189 1735 734
3 839 2075 1125
3 1809 2148 1081
3 1790 2044 1026
3 1030 2045 1791
3 1125 2075 1023
3 873 2148 1809
3 1429 2149 1214
3 1115 2150 1402
3 1336 653 2025
3 1957 698 1028
3 1600 697 2117
3 64 1584 1416
3 1285 2027 39
3 1140 1766 1244
3 1782 461 2199
3 1001 610 1395
3 1920 665 439
3 1331 557 1974
3 23 2140 366
3 1565 547 1944
3 382 1797 1261
3 1796 1716 349
3 1204 552 871
3 1040 551 1765
3 1765 551 1017
3 1014 552 1204
3 328 1423 327
3 97 1732 96
3 1261 571 1709
3 2195 572 1796
3 100 1319 99
3 325 1387 324
3 798 492 1207
3 50 2026 49
3 1804 576 2193
3 1928 577 1482
3 2129 467 1121
3 1482 2181 359
3 372 2180 1804
3 1000 610 1009
3 1580 611 1562
3 1391 2098 1108
3 743 2099 1430
3 1432 1968 1210
3 69 540 68
3 35 539 34
3 1739 1548 746
3 1418 2200 1140
3 173 1007 172
3 171 2147 1327
3 1542 846 267
3 157 1721 1117
3 1538 2149 1414
3 1567 2150 1365
3 816 2200 1418
3 1749 1912 1138
3 1042 1912 1749
3 1322 1777 961
3 1537 549 1264
3 1347 550 1913
3 1166 404 968
3 1411 1957 1028
3 1600 2117 1410
3 38 1397 37
3 66 1933 65
3 937 629 1384
3 1049 630 1853
3 1373 628 1377
3 1930 1557 314
3 110 1501 894
3 1026 2057 1790
3 1791 2058 1030
3 794 2149 1429
3 1402 2150 863
3 867 1445 2013
3 1306 2090 2012
3 1680 2089 1311
3 2015 1431 1046
3 1435 2088 1038
3 1314 1788 1781
3 299 1961 298
3 126 1744 125
3 1751 672 732
3 831 1413 1583
3 1583 1413 1172
3 1798 1753 276
3 148 1799 1465
3 1238 1979 1208
3 1071 1905 2032
3 439 665 1496
3 1119 2004 1094
3 873 1577 1644
3 1425 1983 1023
3 468 638 1010
3 1643 499 1425
3 1644 500 1645
3 1414 659 731
3 936 660 1567
3 897 1943 1035
3 998 1774 1443
3 170 1986 169
3 255 1987 254
3 113 1389 1426
3 2008 1699 311
3 834 1876 1477
3 1227 1777 1322
3 828 503 973
3 763 1405 1514
3 1019 1906 1511
3 1917 2071 1013
3 1906 2082 1082
3 1334 1048 2071
3 1405 1903 1144
3 996 642 1428
3 34 947 33
3 70 1864 69
3 233 431 1391
3 1430 433 191
3 215 432 1432
3 1246 387 1978
3 1718 394 1613
3 1324 422 782
3 1563 448 1671
3 1003 492 1648
3 2072 2145 1073
3 1076 1415 2073
3 328 633 1423
3 1732 632 96
3 1245 560 1393
3 1713 417 2131
3 2132 418 1715
3 2105 2006 1564
3 2136 401 994
3 1021 393 1887
3 801 2131 1698
3 945 2132 1383
3 1878 457 1086
3 778 457 1878
3 1741 1745 940
3 934 2152 1743
3 788 1557 1930
3 894 1501 1262
3 962 586 1978
3 1718 585 948
3 26 1457 25
3 78 1640 77
3 977 1731 2063
3 805 597 1720
3 1998 598 756
3 1377 2194 1536
3 1898 2196 1049
3 1762 559 1170
3 1591 715 2023
3 1692 516 730
3 1477 1876 180
3 99 1512 98
3 326 1837 325
3 1540 614 1117
3 1532 1731 787
3 901 1752 1346
3 1077 418 1238
3 2032 417 1024
3 1354 1625 870
3 1086 457 1747
3 871 520 1204
3 1765 521 1040
3 1561 461 1782
3 968 1927 1421
3 344 2041 343
3 81 1951 80
3 739 568 1941
3 334 1965 333
3 91 1964 90
3 1223 510 722
3 1611 1617 727
3 1249 390 802
3 1059 391 1495
3 1117 1721 1540
3 1338 1818 1421
3 267 497 1542
3 1117 498 157
3 73 1780 72
3 31 1742 30
3 80 1640 79
3 345 1457 344
3 1147 685 1460
3 1133 1560 1367
3 1330 1419 841
3 1845 1581 735
3 1514 1405 1144
3 1511 1906 1082
3 1334 2071 1917
3 1257 2189 1506
3 787 1966 1532
3 1615 394 1098
3 963 387 1265
3 847 664 501
3 753 711 2000
3 1825 472 1026
3 1481 471 720
3 1398 560 748
3 928 437 1070
3 788 1572 1557
3 1501 1857 1262
3 791 702 512
3 938 2182 1678
3 340 1623 339
3 85 1253 84
3 2043 1670 1434
3 1165 1696 1438
3 1308 2119 1129
3 1532 1966 810
3 1564 2006 1140
3 868 400 1860
3 961 2142 1547
3 1547 2142 1135
3 509 701 789
3 800 419 1766
3 1070 437 1266
3 55 1447 54
3 1506 2189 798
3 1104 1894 833
3 840 1976 1975
3 109 1935 108
3 316 2055 315
3 1768 466 1164
3 1741 2179 1780
3 1742 1960 1743
3 1532 1212 1041
3 976 1297 1707
3 1707 1297 995
3 881 1670 2043
3 1025 1696 1165
3 1129 2119 964
3 1105 666 1889
3 72 1570 71
3 32 1228 31
3 740 1926 1782
3 1095 1897 1757
3 837 420 910
3 1889 666 986
3 1846 660 936
3 731 659 2097
3 1217 1886 1547
3 809 2187 1639
3 1249 2117 859
3 874 1957 1495
3 1241 535 753
3 1498 898 807
3 1216 1350 991
3 1199 386 2127
3 988 1923 1329
3 1390 2163 1152
3 1988 1803 939
3 803 1954 1351
3 990 1587 1858
3 1790 669 1480
3 1558 670 1791
3 1318 1901 1394
3 768 1901 1318
3 1351 1954 1257
3 841 1596 1248
3 1639 1807 809
3 1559 2091 1259
3 809 2091 1559
3 970 2145 2072
3 2073 1415 1063
3 1300 549 1362
3 1247 550 1141
3 1639 2187 950
3 1010 638 1419
3 754 428 1223
3 1261 2050 382
3 349 2113 1796
3 1066 560 1245
3 1398 1901 768
3 49 2068 48
3 1804 1802 372
3 359 1806 1482
3 1978 387 962
3 948 394 1718
3 1666 1850 1961
3 1884 392 930
3 2103 386 1446
3 1307 2184 794
3 863 2183 1403
3 1017 1992 1765
3 1204 1767 1014
3 1354 708 986
3 1169 1469 228
3 1868 2174 210
3 196 1078 725
3 1242 613 1744
3 725 1783 195
3 229 2159 1169
3 211 2204 1868
3 868 708 1354
3 238 1675 237
3 187 2104 186
3 310 1992 309
3 115 1767 114
3 746 1548 1360
3 985 635 1332
3 1758 541 885
3 877 542 1440
3 1206 427 1769
3 1190 488 1782
3 1072 536 1676
3 2106 537 923
3 859 2177 1249
3 1495 1688 874
3 1286 581 1526
3 1374 583 1015
3 1293 582 1371
3 972 1904 1497
3 1176 2077 1907
3 1289 1972 1015
3 1286 1719 1967
3 1293 2003 1970
3 95 1650 94
3 330 808 329
3 1417 1691 1320
3 1325 1821 1153
3 2029 509 1094
3 1782 488 740
3 901 512 2031
3 910 421 837
3 788 1807 1639
3 926 421 910
3 852 2173 1232
3 1329 1923 819
3 738 2163 1390
3 937 2050 1261
3 1796 2113 1380
3 1259 2033 1559
3 1526 1959 1052
3 1033 2126 1374
3 1371 1787 1380
3 1835 484 1060
3 1033 1802 1804
3 1482 1806 1052
3 36 1609 35
3 68 1705 67
3 1234 2191 1623
3 1253 2156 1114
3 1533 513 1779
3 42 1577 41
3 62 1983 61
3 1428 642 1637
3 1391 395 233
3 191 396 1430
3 1432 397 215
3 1911 609 990
3 1357 657 915
3 932 658 1984
3 1241 625 1061
3 1333 1906 1657
3 1453 2071 944
3 1450 1405 1455
3 1281 2027 1285
3 1416 1584 1151
3 737 511 1322
3 1784 1525 1105
3 1005 404 1166
3 1515 404 1005
3 1249 1776 1109
3 838 2034 1495
3 1016 555 1423
3 1732 556 1205
3 1273 2142 961
3 1813 542 1471
3 1065 541 1815
3 1260 1032 733
3 260 1763 259
3 165 1989 164
3 1626 1638 1187
3 258 1934 257
3 167 2053 166
3 1146 1307 2020
3 2021 1403 1113
3 837 1638 1626
3 1337 494 758
3 756 1188 1367
3 1838 430 1555
3 1423 633 1016
3 1205 632 1732
3 742 430 1838
3 2020 1307 1401
3 1340 1403 2021
3 113 1426 112
3 312 2008 311
3 291 1750 290
3 134 745 133
3 759 1812 1573
3 1022 1954 803
3 1462 1734 848
3 1035 623 1989
3 1763 622 998
3 1456 535 1667
3 1667 535 780
3 365 1485 23
3 162 2045 161
3 263 2044 262
3 171 1896 170
3 1458 898 318
3 106 1350 1550
3 1327 2147 861
3 915 657 836
3 1659 658 932
3 384 2083 385
3 354 2203 355
3 376 2081 377
3 1387 1883 324
3 100 2135 1319
3 338 2171 337
3 87 2022 86
3 1222 1578 775
3 1172 1908 1902
3 1214 2179 1429
3 1402 1960 1115
3 1098 394 2124
3 1981 387 963
3 1559 2187 809
3 247 2061 1895
3 1256 599 1843
3 17 1009 285
3 139 1580 8
3 368 504 369
3 362 505 363
3 1466 1849 1368
3 1164 466 875
3 1272 2118 1943
3 1774 1955 1275
3 1492 1940 818
3 1125 413 839
3 1081 414 1809
3 1518 1940 1492
3 53 1875 52
3 1579 591 844
3 1593 2128 742
3 1068 1896 1327
3 1624 2014 1189
3 1833 1947 914
3 907 2133 2062
3 1594 1996 1038
3 1306 1839 1568
3 867 1712 1379
3 1168 1841 1311
3 1419 2070 1010
3 1388 1883 1387
3 1319 2135 1385
3 741 1875 1466
3 194 1830 193
3 231 2161 230
3 213 2160 212
3 1549 1603 746
3 1559 2033 1105
3 1151 566 1416
3 1285 565 1281
3 2185 613 1242
3 835 1599 1339
3 851 434 1572
3 1857 435 904
3 242 2094 241
3 183 2093 182
3 1477 2139 834
3 1416 566 912
3 909 565 1285
3 1200 718 782
3 907 1603 1549
3 1056 1578 1222
3 772 2126 1589
3 1375 1959 804
3 1568 1787 951
3 1907 2077 1087
3 1844 2140 1132
3 1391 431 766
3 1315 433 1430
3 1432 432 1442
3 801 523 856
3 833 1602 1145
3 1604 2109 981
3 1368 392 1466
3 1478 388 1142
3 3 2111 60
3 43 2112 1
3 1967 1719 1108
3 743 1972 1289
3 1970 2003 1210
3 2060 1335 870
3 1551 1988 1096
3 1372 513 1424
3 1572 434 1522
3 872 435 1857
3 1679 657 1357
3 1984 658 1681
3 600 602 1520
3 1429 2156 1401
3 1340 2191 1402
3 1351 1697 803
3 2100 1977 938
3 1993 534 1472
3 314 1557 313
3 111 1501 110
3 940 2156 1429
3 1402 2191 934
3 1948 456 776
3 1514 1852 946
3 1511 2095 773
3 959 1854 1917
3 776 1083 980
3 1634 576 1179
3 1075 577 1484
3 774 1847 1396
3 1299 684 875
3 805 1504 1848
3 1046 2101 2015
3 1781 2102 1314
3 989 648 1921
3 934 1960 1402
3 1429 2179 940
3 822 1440 1933
3 1397 1758 1702
3 875 466 1299
3 1573 1812 1036
3 760 600 1520
3 780 535 1241
3 825 689 1312
3 1945 690 817
3 1569 1950 777
3 1518 1617 1611
3 782 422 1005
3 794 659 1414
3 1567 660 863
3 1255 2131 801
3 1383 2132 993
3 1858 2007 990
3 271 440 1337
3 1920 439 153
3 1856 846 1542
3 1099 846 1856
3 886 513 1372
3 54 1849 53
3 982 547 888
3 2194 639 1536
3 1898 640 2196
3 1144 1852 1514
3 1082 2095 1511
3 1917 1854 1334
3 1019 686 1657
3 1453 688 1013
3 763 687 1455
3 1497 1904 795
3 1589 2126 1033
3 1052 1959 1375
3 1380 1787 1568
3 1891 634 911
3 1921 648 51
3 16 1971 973
3 828 523 801
3 104 1543 103
3 321 1801 320
3 965 2007 1858
3 2021 2171 338
3 86 2022 2020
3 1064 1537 1759
3 1915 1913 1029
3 836 657 1000
3 1562 658 1659
3 1367 477 1133
3 2159 687 1169
3 725 688 1783
3 2204 686 1868
3 884 1616 1855
3 1738 430 1131
3 172 2147 171
3 1001 1977 1154
3 1848 1795 805
3 766 1627 1781
3 2015 2115 1315
3 1680 1433 1438
3 1435 1439 1434
3 1442 1436 2012
3 1308 1441 2013
3 741 1727 2078
3 1301 2033 1259
3 1384 629 2095
3 1853 630 1852
3 1854 628 1373
3 958 1212 810
3 1554 2048 992
3 65 1584 64
3 39 2027 38
3 1973 654 1226
3 1410 2117 802
3 1059 1957 1411
3 1384 2095 1082
3 1853 1852 1144
3 1334 1854 1373
3 176 2086 175
3 1138 1912 1143
3 1612 1863 1068
3 1692 1677 914
3 451 654 943
3 1382 2130 1062
3 2100 1678 975
3 1462 2066 1018
3 812 2067 1316
3 730 1672 1893
3 1231 2014 1624
3 1922 1714 1225
3 2092 624 1267
3 893 559 1762
3 2023 715 762
3 1891 664 784
3 1336 664 1891
3 1102 2060 1599
3 1893 1672 1010
3 1601 1792 747
3 767 624 2092
3 251 1597 250
3 1594 1709 1996
3 1839 2195 1568
3 1168 2196 1841
3 1712 2194 1379
3 1660 399 896
3 1100 2053 167
3 257 1934 1608
3 1463 1873 1341
3 782 1821 1324
3 750 2092 1733
3 1820 436 1124
3 848 2053 1100
3 1608 1934 957
3 865 713 2035
3 2036 714 1236
3 1093 496 1880
3 809 1807 1404
3 1320 1691 1820
3 1324 1821 1325
3 821 575 1908
3 1908 575 1178
3 370 1914 1828
3 1829 1805 361
3 1845 2096 835
3 1027 448 1422
3 1395 1977 1001
3 1143 2173 852
3 1087 1032 1260
3 379 1899 1536
3 1898 1816 352
3 248 2061 247
3 1709 571 721
3 966 572 2195
3 1027 1714 1922
3 1006 445 1657
3 1453 447 866
3 1012 446 1455
3 1834 1859 1102
3 1642 530 1345
3 795 1794 1497
3 1030 471 1481
3 747 472 1825
3 1131 430 2128
3 848 1734 1720
3 848 2066 1462
3 1316 2067 957
3 2193 576 955
3 953 577 1928
3 1455 1405 763
3 1657 1906 1019
3 1013 2071 1453
3 986 666 1301
3 2001 667 1633
3 1636 522 2002
3 1828 573 370
3 361 574 1829
3 270 1748 269
3 155 1919 154
3 1698 2131 765
3 799 2132 945
3 381 1797 382
3 349 1716 350
3 1400 557 1703
3 1770 428 754
3 1769 389 451
3 1828 1914 1077
3 1024 1805 1829
3 359 2181 360
3 371 2180 372
3 804 1788 1375
3 1589 1431 772
3 1594 2088 773
3 1168 2089 946
3 951 2090 1568
3 959 1445 1379
3 1607 2066 1100
3 1100 2066 848
3 957 2067 1608
3 1608 2067 1020
3 276 1753 275
3 149 1799 148
3 1179 573 1828
3 1829 574 1075
3 899 1947 1833
3 759 1573 1069
3 1069 1573 1275
3 1657 445 1333
3 944 447 1453
3 1455 446 1450
3 86 444 85
3 339 443 338
3 1878 1576 778
3 114 1389 113
3 311 1699 310
3 1828 593 1179
3 1075 592 1829
3 1174 1668 832
3 973 503 16
3 1354 1335 868
3 227 1165 226
3 209 2043 208
3 198 1129 197
3 182 1950 181
3 1421 1927 815
3 1865 1846 936
3 731 2097 1867
3 1061 625 1251
3 912 566 1167
3 1814 565 909
3 1827 1712 867
3 1038 1996 1826
3 1590 1839 1306
3 1311 1841 1595
3 385 2083 2082
3 355 2203 1903
3 1048 2081 376
3 1999 502 727
3 867 2166 1827
3 1826 1840 1038
3 1306 2167 1590
3 1595 2168 1311
3 1237 709 1493
3 911 1616 1891
3 1077 554 1828
3 1829 553 1024
3 1108 2098 1967
3 1289 2099 743
3 1210 1968 1970
3 1596 1592 902
3 1535 1592 1596
3 1468 406 1116
3 749 406 1468
3 1889 1860 1209
3 181 1569 9
3 380 2073 381
3 350 2072 351
3 1388 414 1885
3 1349 413 1385
3 1619 1870 1649
3 756 691 1998
3 1834 647 904
3 1046 1431 1589
3 1038 2088 1594
3 1375 1788 1314
3 1311 2089 1168
3 1568 2090 1306
3 1379 1445 867
3 1826 425 205
3 201 424 1827
3 219 426 1590
3 1595 423 223
3 322 675 321
3 103 674 102
3 1008 2154 1629
3 166 545 165
3 259 544 258
3 93 2084 92
3 332 2085 331
3 1302 495 785
3 883 676 1800
3 2131 417 765
3 799 418 2132
3 865 425 1826
3 1827 424 1170
3 1590 426 1236
3 1591 423 1595
3 1887 393 1208
3 1071 401 2136
3 1447 1849 54
3 79 1640 78
3 25 1457 345
3 1552 484 1835
3 501 664 1336
3 987 595 2157
3 1187 2110 1174
3 2018 656 1550
3 1458 655 2019
3 1489 1171 818
3 1547 1886 961
3 1332 635 1529
3 880 2182 1395
3 451 389 1226
3 1097 1618 1007
3 971 1667 1356
3 1833 2080 899
3 1835 457 778
3 2064 664 847
3 1170 559 1827
3 1826 713 865
3 1236 714 1590
3 1595 715 1591
3 1039 530 1642
3 1851 503 828
3 736 1775 1167
3 1814 1729 853
3 1881 2143 127
3 1242 2143 1881
3 1882 2144 1126
3 297 2144 1882
3 882 2048 1554
3 1953 1812 759
3 1524 1981 2079
3 2079 1981 963
3 1527 2124 1528
3 1098 2124 1527
3 57 1321 56
3 1270 1907 852
3 1862 539 1279
3 1303 540 1517
3 436 684 1299
3 1176 1907 1270
3 249 2162 1874
3 1629 2154 888
3 1855 2016 1135
3 1200 570 1621
3 1577 699 41
3 62 700 1983
3 1893 480 730
3 921 456 1215
3 1322 511 1227
3 28 579 27
3 76 580 75
3 191 433 190
3 216 432 215
3 234 431 233
3 2 2078 1921
3 1353 538 815
3 343 607 342
3 82 606 81
3 179 673 178
3 337 2171 1186
3 1900 2022 87
3 1641 575 821
3 983 575 1641
3 1650 519 94
3 330 518 808
3 92 450 91
3 333 449 332
3 2117 697 859
3 874 698 1957
3 175 2062 174
3 1632 405 2070
3 837 421 1396
3 786 2114 1284
3 47 1706 46
3 95 632 1650
3 808 633 329
3 1396 421 926
3 731 481 1517
3 1862 482 936
3 779 2137 1478
3 993 1499 1844
3 1651 1451 760
3 1047 1699 2008
3 1426 1389 1278
3 1600 453 1585
3 1654 452 1028
3 1478 2137 1344
3 1585 453 1471
3 1065 452 1654
3 1844 1499 367
3 1147 608 1031
3 1082 2083 1384
3 1144 2203 1853
3 1373 2081 1334
3 1361 2116 792
3 1317 2116 1361
3 260 604 1763
3 1989 603 164
3 938 1678 2100
3 1491 2030 829
3 862 1997 2046
3 1135 2040 1855
3 1842 456 1948
3 1808 653 884
3 123 683 122
3 302 682 301
3 1986 1892 1607
3 1068 1892 1986
3 1020 1437 1987
3 1987 1437 1067
3 1133 477 1848
3 1848 477 1036
3 1284 2114 997
3 896 602 1660
3 1660 602 1256
3 17 528 1009
3 1580 529 8
3 1885 1883 1388
3 1385 2135 1349
3 363 1053 364
3 984 1942 1358
3 1479 2074 967
3 1018 1892 921
3 1359 1437 812
3 805 1795 897
3 149 522 1799
3 1753 667 275
3 2020 444 86
3 338 443 2021
3 1271 428 1770
3 969 1553 1845
3 1974 455 1331
3 1268 1952 1541
3 1009 528 1000
3 1562 529 1580
3 1404 2047 949
3 1719 692 1108
3 2003 564 1210
3 743 562 1972
3 821 1737 1641
3 1517 481 1303
3 1279 482 1862
3 367 1499 368
3 1972 524 1015
3 1286 526 1719
3 1293 525 2003
3 1031 1598 1123
3 832 671 1174
3 1443 1188 756
3 2111 1997 1369
3 1486 2030 2112
3 1177 1778 792
3 1215 1778 1177
3 378 1899 379
3 352 1816 353
3 1174 671 1187
3 2046 1997 1149
3 1490 2030 1491
3 696 620 968
3 1007 1618 861
3 1503 1357 1134
3 1276 1984 1941
3 1349 2135 101
3 323 1883 1885
3 980 1083 1561
3 303 1772 302
3 122 1728 121
3 1999 2077 1176
3 1169 644 1469
3 1868 645 2174
3 1078 646 725
3 1384 2083 384
3 1853 2203 354
3 377 2081 1373
3 1149 1997 2111
3 2112 2030 1490
3 2035 1415 781
3 1034 2145 2036
3 1080 1523 1874
3 1531 587 771
3 882 588 887
3 1874 2162 1080
3 2108 618 1047
3 991 1350 107
3 317 898 1498
3 126 2143 1744
3 1744 2143 1242
3 1126 2144 1961
3 1961 2144 298
3 1063 1415 2035
3 2036 2145 970
3 245 2120 244
3 936 482 1865
3 1867 481 731
3 1393 560 1398
3 1278 619 1310
3 1142 388 1191
3 921 1892 1068
3 1067 1437 1359
3 1272 1812 1953
3 1468 2139 749
3 863 660 2183
3 2184 659 794
3 364 1053 1309
3 104 627 1543
3 1801 626 320
3 1654 698 1211
3 1689 697 1585
3 1880 496 1409
3 1047 618 521
3 886 2109 1467
3 1645 2148 1644
3 1425 2075 1643
3 1799 522 1636
3 1633 667 1753
3 1658 2151 779
3 1309 1053 1255
3 520 619 1278
3 1122 2130 1145
3 1116 643 1468
3 1123 2151 1658
3 745 410 133
3 1300 410 745
3 1750 411 1141
3 291 411 1750
3 1509 2128 1128
3 2069 1604 1394
3 1612 1083 776
3 785 1604 2069
3 1281 1758 1397
3 1933 1440 1151
3 1191 416 1298
3 2035 713 721
3 966 714 2036
3 1724 605 732
3 1348 399 1328
3 1397 2027 1281
3 1151 1584 1933
3 1316 1824 1317
3 1720 597 1107
3 1110 598 1998
3 894 1553 969
3 1930 2047 788
3 949 2047 1930
3 1256 602 600
3 2127 386 860
3 2078 1875 741
3 2133 2199 755
3 1824 691 756
3 729 663 1191
3 1237 1944 1058
3 1262 1553 894
3 1165 1433 226
3 2043 1439 208
3 198 1441 1129
3 805 1734 1504
3 1664 527 1089
3 538 511 1768
3 1207 492 1003
3 1244 419 406
3 861 2147 1007
3 834 2139 1468
3 984 1894 1104
3 1975 1976 967
3 1870 668 1004
3 267 846 266
3 158 1721 157
3 1754 668 1870
3 829 655 1491
3 2046 656 862
3 1122 594 1428
3 815 1927 1353
3 1353 1927 750
3 1846 1688 1112
3 1420 2177 2097
3 1031 685 1147
3 29 1690 28
3 75 1610 74
3 896 399 1836
3 1068 1863 921
3 1428 705 864
3 850 607 916
3 922 606 1861
3 954 1563 1686
3 1158 2185 1946
3 1434 1439 2043
3 1438 1433 1165
3 1129 1441 1308
3 406 419 1116
3 83 1861 82
3 342 850 341
3 1175 1944 1237
3 804 581 1967
3 1289 583 772
3 951 582 1970
3 107 1350 106
3 318 898 317
3 1658 1642 1123
3 1312 689 1533
3 1529 690 1945
3 1536 441 379
3 352 442 1898
3 1686 1563 1051
3 986 548 1354
3 26 2041 1457
3 1640 1951 77
3 897 1795 1272
3 769 685 1031
3 1520 602 896
3 818 1171 1711
3 779 678 1658
3 1711 1171 1054
3 1468 454 834
3 1895 2061 1106
3 981 2109 1372
3 1372 2109 886
3 372 1802 373
3 358 1806 359
3 382 2050 383
3 348 2113 349
3 1937 2091 809
3 1057 1872 1177
3 1361 2155 1317
3 1935 514 108
3 316 515 2055
3 1263 2110 740
3 1488 605 929
3 132 410 1362
3 1362 410 1300
3 1141 411 1247
3 1247 411 292
3 1395 2182 938
3 1113 490 1186
3 1900 489 1146
3 1339 465 952
3 723 2006 2105
3 1215 1842 1778
3 1945 616 1529
3 1533 615 1312
3 1177 2059 1215
3 917 1832 1361
3 1610 580 922
3 916 579 1690
3 143 616 1945
3 1312 615 281
3 856 595 1646
3 417 505 1024
3 1077 504 418
3 1757 1897 1541
3 1541 1897 1507
3 1145 1602 1131
3 1779 615 1533
3 1529 616 1332
3 280 615 1779
3 1332 616 144
3 1028 698 1654
3 1585 697 1600
3 1541 1952 844
3 967 1978 1975
3 1104 1718 984
3 227 1469 1165
3 209 2174 2043
3 1129 1078 197
3 1536 1899 1377
3 1049 1816 1898
3 1946 2185 1242
3 1648 2138 1003
3 346 1746 347
3 356 1292 357
3 374 1287 375
3 305 1956 304
3 120 1866 119
3 986 708 1889
3 1717 661 1995
3 836 528 286
3 138 529 1659
3 1275 1188 1443
3 1245 402 1066
3 914 1677 1792
3 738 1925 1239
3 1924 2134 819
3 1316 2155 812
3 1317 2155 1316
3 1018 1872 1462
3 1462 1872 1057
3 767 620 696
3 1230 636 2014
3 2014 636 826
3 2000 625 1241
3 796 2077 1999
3 882 2056 1916
3 1106 2138 1648
3 1659 529 1562
3 1000 528 836
3 2142 2040 1135
3 119 1866 1265
3 1615 1956 305
3 1933 1584 65
3 38 2027 1397
3 1094 509 1088
3 2120 2188 1130
3 975 1678 1070
3 2062 2086 907
3 1335 400 868
3 1539 2122 854
3 1252 2123 1980
3 1508 683 123
3 301 682 1673
3 1406 2100 975
3 1149 2052 2046
3 1491 2107 1490
3 771 2100 1406
3 1597 2162 250
3 1275 1955 1069
3 1953 2118 1272
3 1891 653 1336
3 906 1677 1692
3 1658 678 1142
3 1930 2197 949
3 969 2198 894
3 784 634 1891
3 792 2116 1661
3 856 523 1370
3 999 695 1937
3 1101 2188 2120
3 265 2165 1823
3 1985 2164 159
3 1165 1469 1025
3 2043 2174 881
3 964 1078 1129
3 1537 717 924
3 1120 719 1913
3 1986 1896 1068
3 1146 2022 1900
3 1186 2171 1113
3 18 2197 1930
3 894 2198 7
3 3 499 2111
3 2112 500 1
3 1423 469 327
3 97 470 1732
3 1888 512 901
3 2046 2052 1085
3 842 2107 1491
3 1080 420 1626
3 1007 2147 172
3 1626 420 837
3 203 1949 202
3 222 2010 221
3 733 1032 1274
3 939 2054 1988
3 170 1896 1986
3 1698 1905 1043
3 1074 1979 945
3 995 1694 1707
3 1227 511 538
3 1050 1727 1044
3 1132 2105 1564
3 2199 461 755
3 765 1905 1698
3 945 1979 799
3 1080 2162 1597
3 1422 429 1027
3 1296 587 1531
3 887 588 1181
3 914 516 1692
3 1707 1694 977
3 1076 441 1536
3 1898 442 1073
3 982 1460 1058
3 1792 1677 1137
3 954 2087 1422
3 1317 1824 1560
3 2079 693 1524
3 1004 668 1195
3 1783 688 820
3 751 687 2159
3 1150 686 2204
3 1239 2163 738
3 819 1923 1924
3 1967 2098 804
3 772 2099 1289
3 1970 1968 951
3 1476 429 1422
3 1592 415 899
3 1535 415 1592
3 1947 516 914
3 978 1451 1651
3 1044 1727 1159
3 1414 2149 794
3 863 2150 1567
3 1195 668 997
3 796 590 1641
3 15 1627 234
3 190 2115 10
3 13 1436 216
3 11 1441 198
3 226 1433 14
3 208 1439 12
3 1536 639 1076
3 1073 640 1898
3 1725 459 985
3 1140 2200 1564
3 926 2158 1386
3 250 2162 249
3 1386 2158 253
3 1948 980 1163
3 1564 2200 816
3 1713 505 417
3 418 504 1715
3 1725 676 883
3 1464 676 1725
3 1467 495 1461
3 785 495 1467
3 1003 1668 1207
3 177 2190 176
3 454 643 803
3 792 1778 1669
3 1274 1737 1161
3 2138 1523 832
3 369 1914 370
3 361 1805 362
3 1288 2007 1751
3 1751 2007 965
3 130 1701 129
3 295 1323 294
3 1943 2118 793
3 806 1955 1774
3 1299 681 1605
3 511 681 1768
3 1043 1905 2094
3 2093 1979 1074
3 2122 689 825
3 817 690 2123
3 1424 689 2122
3 2123 690 908
3 1609 1785 1279
3 1303 1704 1705
3 1208 1979 2093
3 2094 1905 1071
3 101 2135 100
3 324 1883 323
3 930 1682 1764
3 1628 386 1199
3 1702 1785 1609
3 1705 1704 822
3 1195 438 1004
3 1589 1381 1046
3 1314 1890 1375
3 864 1756 1355
3 1510 469 1423
3 1732 470 1513
3 415 468 845
3 938 1977 1395
3 2180 576 1804
3 1482 577 2181
3 1796 572 1716
3 1797 571 1261
3 899 1856 1592
3 1318 1448 1206
3 493 631 1269
3 1573 567 1275
3 1179 576 2180
3 2181 577 1075
3 1716 572 970
3 1063 571 1797
3 912 408 1239
3 1924 407 909
3 1337 1748 270
3 154 1919 1920
3 1651 2125 978
3 241 2136 240
3 184 1887 183
3 1468 643 454
3 68 540 1705
3 1609 539 35
3 1370 2054 856
3 917 1929 1359
3 2039 1926 740
3 1545 696 1515
3 370 573 371
3 360 574 361
3 921 2059 1018
3 1215 2059 921
3 812 1832 1359
3 1359 1832 917
3 957 691 1316
3 1124 436 1605
3 1605 436 1299
3 1478 678 779
3 1206 1448 1516
3 2118 1810 793
3 806 2175 1955
3 246 621 245
3 1638 1958 1187
3 1948 584 1213
3 1355 484 864
3 1060 484 1355
3 1476 662 1682
3 1090 467 2129
3 180 1876 179
3 790 1958 1638
3 1457 2041 344
3 80 1951 1640
3 1176 502 1999
3 2057 669 1790
3 1791 670 2058
3 379 441 380
3 351 442 352
3 1265 1866 963
3 1098 1956 1615
3 1524 693 458
3 1142 678 1478
3 991 507 1216
3 807 506 1498
3 1152 408 1775
3 1729 407 988
3 883 654 1973
3 826 636 1185
3 1682 662 1400
3 954 448 1563
3 773 629 1594
3 946 630 1168
3 1379 628 959
3 744 684 1691
3 1358 703 1017
3 1014 704 1479
3 755 677 1618
3 127 2143 126
3 298 2144 297
3 1916 712 1173
3 740 2110 1958
3 289 2024 288
3 136 2146 135
3 1571 699 1577
3 1983 700 1574
3 1280 1962 1793
3 910 420 1597
3 1073 2145 2023
3 1762 1415 1076
3 1554 2056 882
3 776 980 1948
3 771 587 1154
3 1916 588 882
3 1691 684 1820
3 1154 587 1296
3 1181 588 1916
3 2073 1797 381
3 350 1716 2072
3 871 552 2169
3 989 1962 2026
3 2169 552 1736
3 991 514 1002
3 891 515 1498
3 2009 1949 203
3 221 2010 2011
3 847 501 2103
3 2103 501 860
3 1516 1448 981
3 974 665 1920
3 2026 1962 1280
3 1793 1962 814
3 978 1665 1673
3 1508 1556 1268
3 253 2158 252
3 63 700 62
3 41 699 40
3 16 503 243
3 1623 443 339
3 85 444 1253
3 937 1709 1594
3 1033 2193 1589
3 1379 2194 1377
3 1568 2195 1380
3 1049 2196 1168
3 1375 1928 1052
3 1893 405 480
3 480 405 787
3 1035 597 897
3 1443 598 998
3 1355 1756 1209
3 1619 617 931
3 2073 441 1076
3 1073 442 2072
3 1368 1849 1447
3 834 673 1876
3 186 1676 185
3 239 2106 238
3 1003 2138 1668
3 1498 506 891
3 1002 507 991
3 380 441 2073
3 2072 442 351
3 477 567 1036
3 2013 2166 867
3 2012 2167 1306
3 1311 2168 1680
3 1038 1840 1435
3 1367 567 477
3 159 2164 158
3 266 2165 265
3 933 400 1335
3 1005 422 1515
3 1668 2138 832
3 1545 2141 942
3 1213 1842 1948
3 1096 1988 824
3 1958 2110 1187
3 1190 2199 1549
3 1762 639 893
3 762 640 2023
3 1434 1670 2088
3 1438 1696 2089
3 1445 2119 1308
3 1076 639 1762
3 2023 640 1073
3 1593 1756 1128
3 1209 1756 1593
3 1070 1678 928
3 774 1929 2005
3 1216 507 1588
3 1932 506 807
3 59 679 2004
3 461 677 755
3 758 494 1356
3 274 667 2001
3 2002 522 150
3 175 2086 2062
3 1277 419 800
3 157 498 156
3 268 497 267
3 1146 489 1990
3 1991 490 1113
3 1834 462 1859
3 1594 629 937
3 1377 628 1379
3 1168 630 1049
3 2088 1670 773
3 2089 1696 946
3 959 2119 1445
3 2064 2201 784
3 1294 2201 2064
3 1217 1952 1879
3 786 517 2114
3 1263 488 1190
3 1166 570 1005
3 2114 517 1266
3 740 488 1263
3 888 475 982
3 50 648 2026
3 1243 459 1973
3 789 701 1588
3 1932 702 791
3 1863 456 921
3 1348 1808 1836
3 795 1873 1995
3 2025 2127 860
3 1360 694 1180
3 1959 581 804
3 772 583 2126
3 1787 582 951
3 735 455 1974
3 2005 1929 917
3 1225 1714 1447
3 355 531 22
3 24 533 376
3 385 532 21
3 1158 1946 1605
3 1859 398 933
3 740 1958 2039
3 228 1469 227
3 210 2174 209
3 197 1078 196
3 761 398 1859
3 776 1863 1612
3 1447 1714 1368
3 982 475 1147
3 1116 419 1277
3 2039 1958 790
3 2004 679 1369
3 861 1083 1612
3 1838 2178 950
3 987 2157 1485
3 1912 2173 1143
3 1485 2157 1427
3 1996 1709 721
3 893 2194 1712
3 966 2195 1839
3 1841 2196 762
3 284 1817 283
3 141 2186 140
3 972 711 1904
3 2026 648 989
3 1407 569 1620
3 737 681 511
3 1720 1734 805
3 1348 2127 2025
3 2025 501 1336
3 860 501 2025
3 1764 2137 1159
3 1819 2182 880
3 1684 1682 930
3 845 468 1672
3 1352 1918 1576
3 1879 1952 1268
3 1284 568 739
3 1328 2153 1199
3 752 2153 1328
3 1135 2016 1579
3 1579 2016 911
3 759 543 1939
3 1647 1918 1352
3 727 502 1619
3 997 568 1284
3 1581 455 735
3 1990 1776 1420
3 1112 2034 1991
3 1209 1860 1355
3 1939 496 1093
3 1752 680 44
3 1063 1797 2073
3 2072 1716 970
3 1109 1776 1990
3 1991 2034 838
3 1939 569 1407
3 1944 547 1058
3 1476 1682 1684
3 1780 2179 1214
3 1115 1960 1742
3 1117 614 2063
3 212 2204 211
3 195 1783 194
3 230 2159 229
3 292 411 291
3 133 410 132
3 1344 2137 1764
3 233 395 232
3 192 396 191
3 215 397 214
3 220 426 219
3 223 423 222
3 202 424 201
3 205 425 204
3 153 439 152
3 272 440 271
3 2028 621 246
3 1265 387 1246
3 1613 394 1615
3 1275 567 1188
3 800 612 1277
3 1739 409 1240
3 1548 694 1360
3 93 519 2084
3 2085 518 331
3 875 684 744
3 1064 717 1537
3 1913 719 1029
3 1093 569 1939
3 864 484 1552
3 1961 1850 1126
3 2068 2154 1008
3 860 386 2103
3 1127 2141 1545
3 1502 492 798
3 278 473 277
3 147 474 146
3 1935 1994 1002
3 891 2121 2055
3 1280 2154 2068
3 781 1415 1762
3 2023 2145 1034
3 1157 438 1819
3 845 516 1947
3 1889 708 1860
3 1486 680 1752
3 2084 519 1162
3 1084 518 2085
3 6 470 97
3 327 469 19
3 1521 1994 1935
3 2055 2121 1218
3 1605 1946 1124
3 1869 459 1243
3 985 459 1869
3 91 450 1964
3 1965 449 333
3 1494 534 494
3 1195 437 928
3 94 519 93
3 331 518 330
3 1836 399 1348
3 2029 1997 862
3 829 2030 2031
3 286 528 17
3 8 529 138
3 1340 443 1623
3 1253 444 1401
3 1420 2184 1990
3 1991 2183 1112
3 1764 1884 930
3 1027 429 1714
3 1069 543 759
3 1535 638 468
3 1159 1884 1764
3 1623 2191 1340
3 1401 2156 1253
3 105 627 104
3 320 626 319
3 1637 642 726
3 2107 500 1490
3 1149 499 2052
3 164 603 163
3 261 604 260
3 1369 1997 2029
3 2031 2030 1486
3 1539 485 783
3 144 616 143
3 281 615 280
3 1645 500 2107
3 2052 499 1643
3 116 704 115
3 309 703 308
3 1409 543 1069
3 1483 654 883
3 803 643 1022
3 1831 596 1092
3 918 596 1831
3 1131 641 1738
3 1270 617 1176
3 1163 584 1948
3 96 632 95
3 329 633 328
3 931 617 1270
3 150 522 149
3 275 667 274
3 33 706 32
3 71 707 70
3 51 648 50
3 1022 643 1116
3 2154 475 888
3 1995 661 795
3 998 622 1774
3 1943 623 1035
3 1140 2006 1766
3 1766 2006 1687
3 1691 716 744
3 782 718 1821
3 890 462 1834
3 1185 427 1206
3 1199 2127 1328
3 1328 2127 1348
3 889 402 1771
3 44 680 43
3 60 679 59
3 1271 710 510
3 1487 538 1768
3 1062 578 1674
3 2020 2022 1146
3 1113 2171 2021
3 393 536 830
3 797 537 401
3 1800 676 1464
3 1461 495 1302
3 1021 536 393
3 401 537 994
3 1102 647 1834
3 222 423 2010
3 1949 424 202
3 1023 2075 1425
3 1644 2148 873
3 2010 423 1591
3 1170 424 1949
3 1937 695 2091
3 40 699 960
3 2042 700 63
3 884 653 1616
3 2080 649 1099
3 1226 389 1622
3 1417 716 1691
3 1821 718 1153
3 1279 539 1609
3 1705 540 1303
3 1616 653 1891
3 1990 489 1109
3 838 490 1991
3 1744 613 1663
3 841 638 1596
3 1596 638 1535
3 1187 671 1626
3 855 1674 1628
3 1628 1674 1446
3 1740 710 1271
3 1131 2128 1509
3 1121 467 1651
3 1269 631 2153
3 1730 485 1755
3 181 1950 1569
3 1763 544 259
3 165 545 1989
3 2025 1808 1348
3 1967 581 1286
3 1015 583 1289
3 1970 582 1293
3 2032 401 1071
3 1208 393 1238
3 797 401 2032
3 1238 393 830
3 1830 558 1630
3 1291 561 2160
3 1519 563 2161
3 1163 1926 2039
3 820 558 1830
3 2160 561 1150
3 2161 563 751
3 1535 468 415
3 971 534 1993
3 1422 448 954
3 1684 392 1368
3 1185 636 892
3 1635 2190 177
3 1868 686 645
3 1169 687 644
3 646 688 725
3 1823 649 879
3 976 650 1985
3 813 662 2087
3 968 620 1927
3 1927 620 750
3 1400 662 557
3 911 591 1579
3 1469 644 1025
3 2174 645 881
3 964 646 1078
3 1703 557 1331
3 1864 707 1538
3 1365 706 947
3 933 1335 2060
3 183 1887 2093
3 2094 2136 241
3 1401 444 2020
3 2021 443 1340
3 2003 525 1006
3 1719 526 1012
3 866 524 1972
3 1582 409 1603
3 1645 2107 2051
3 1662 2052 1643
3 787 405 1966
3 557 662 813
3 491 586 1294
3 1269 585 493
3 2093 1887 1208
3 1071 2136 2094
3 70 707 1864
3 947 706 33
3 1423 555 1510
3 1513 556 1732
3 644 687 763
3 645 686 1019
3 1013 688 646
3 1040 641 551
3 1047 521 1699
3 1389 520 1278
3 1352 546 1647
3 1699 521 1765
3 1204 520 1389
3 1017 703 1992
3 1767 704 1014
3 893 639 2194
3 2196 640 762
3 1085 2052 1662
3 2051 2107 842
3 721 571 2035
3 2036 572 966
3 1904 711 1290
3 2035 571 1063
3 970 572 2036
3 308 703 1358
3 1479 704 116
3 243 503 1851
3 1305 1786 2104
3 1675 1789 1313
3 512 702 1037
3 2104 1786 1072
3 923 1789 1675
3 952 455 1581
3 1045 701 509
3 1966 405 1632
3 908 690 635
3 1998 691 957
3 1031 608 1598
3 1058 547 982
3 1178 575 403
3 403 575 983
3 1602 641 1131
3 2000 711 972
3 1616 2016 1855
3 1738 618 1555
3 1040 618 1738
3 623 670 1558
3 1480 669 622
3 741 1884 1727
3 1006 564 2003
3 1012 692 1719
3 1972 562 866
3 855 631 493
3 2165 649 1823
3 1985 650 2164
3 1597 420 1080
3 1576 1918 778
3 551 641 1111
3 862 656 2018
3 2019 655 829
3 1524 1931 1981
3 1981 1931 962
3 948 1760 2124
3 2124 1760 1528
3 1697 454 803
3 996 1918 1647
3 1197 663 1459
3 1727 1884 1159
3 2038 497 268
3 156 498 2037
3 1506 694 1548
3 1002 514 1935
3 2055 515 891
3 2032 553 797
3 830 554 1238
3 1024 553 2032
3 1238 554 1077
3 748 560 1066
3 1831 546 1352
3 892 427 1185
3 1618 677 861
3 404 696 968
3 1860 708 868
3 1354 548 1625
3 1101 621 2028
3 1042 2173 1912
3 990 609 1587
3 1772 2076 1505
3 1726 2076 1772
3 1728 1910 927
3 1507 1910 1728
3 930 392 1684
3 911 2016 1616
3 899 415 1947
3 1947 415 845
3 1036 567 1573
3 1543 674 103
3 321 675 1801
3 232 395 1631
3 1936 396 192
3 214 397 2065
3 1873 476 1341
3 458 634 784
3 1684 429 1476
3 1555 430 1738
3 2104 1676 186
3 238 2106 1675
3 635 690 1529
3 1845 1553 2096
3 599 600 979
3 1256 600 599
3 2085 2206 1084
3 1162 2205 2084
3 2084 2205 1139
3 1148 2206 2085
3 1147 475 1793
3 1903 531 355
3 376 533 1048
3 2082 532 385
3 1622 389 892
3 2096 1553 1262
3 1982 590 1203
3 766 431 1627
3 2115 433 1315
3 1442 432 1436
3 1540 1721 2164
3 2164 1721 158
3 266 846 2165
3 2165 846 1099
3 1024 505 1805
3 1914 504 1077
3 1656 530 1039
3 1625 548 729
3 999 530 1656
3 1072 1676 2104
3 1675 2106 923
3 1903 2203 1144
3 2082 2083 1082
3 1334 2081 1048
3 1509 594 1122
3 1128 594 1509
3 1524 2201 1931
3 1931 2201 1294
3 1269 2202 1760
3 1760 2202 1528
3 1522 434 2008
3 1426 435 872
3 2008 434 1047
3 1278 435 1426
3 1646 595 987
3 770 556 1652
3 1343 555 905
3 1672 468 1010
3 2180 573 1179
3 1075 574 2181
3 1510 555 1343
3 1652 556 1513
3 1622 637 728
3 892 637 1622
3 1566 634 458
3 830 536 1634
3 1484 537 797
3 1471 542 1585
3 1654 541 1065
3 2111 679 60
3 43 680 2112
3 1634 536 1072
3 923 537 1484
3 1361 1832 2155
3 1872 2059 1177
3 814 608 1793
3 2111 499 1149
3 1490 500 2112
3 960 699 1571
3 1574 700 2042
3 952 465 1366
3 1585 542 877
3 885 541 1654
3 1904 476 795
3 513 689 1424
3 1533 689 513
3 1058 709 1237
3 1807 2047 1404
3 788 2047 1807
3 797 592 1484
3 1634 593 830
3 1761 487 1474
3 1282 486 2170
3 1484 592 1075
3 1179 593 1634
3 568 668 1754
3 1793 608 1147
3 1369 679 2111
3 2112 680 1486
3 1419 638 841
3 1228 706 1365
3 1538 707 1570
3 997 668 568
3 1738 641 1040
3 2126 583 1374
3 1526 581 1959
3 1371 582 1787
3 2095 629 773
3 1852 630 946
3 959 628 1854
3 2063 614 977
3 736 487 1761
3 2170 486 853
3 815 538 1487
3 32 706 1228
3 1570 707 71
3 1460 685 769
3 2169 460 871
3 427 389 1769
3 1768 681 466
3 962 387 1981
3 2124 394 948
3 493 585 1258
3 1103 586 491
3 1673 682 1505
3 1507 683 1508
3 2108 434 851
3 904 435 1310
3 1647 546 726
3 806 669 2057
3 2058 670 793
3 1294 586 1931
3 1760 585 1269
3 1450 531 1903
3 1333 532 2082
3 1048 533 944
3 1856 2080 1099
3 899 2080 1856
3 784 664 2064
3 1859 462 761
3 122 683 1728
3 1772 682 302
3 943 654 1483
3 861 677 1083
3 795 476 1873
3 1690 579 28
3 75 580 1610
3 1047 434 2108
3 1310 435 1278
3 398 400 933
3 1060 400 398
3 1627 431 234
3 190 433 2115
3 1436 432 216
3 1290 476 1904
3 1341 609 1911
3 1681 611 2172
3 2153 2202 1269
3 752 2202 2153
3 795 661 1794
3 1861 606 82
3 342 607 850
3 1505 682 1772
3 1728 683 1507
3 1366 465 1298
3 1264 549 478
3 478 549 1300
3 479 550 1347
3 1141 550 479
3 2172 611 1173
3 1495 2034 1688
3 2177 1776 1249
3 2128 430 742
3 1018 2059 1872
3 2155 1832 812
3 1158 589 2185
3 2185 589 925
3 1095 1910 1897
3 1897 1910 1507
3 502 617 1619
3 1589 2193 1381
3 1890 1928 1375
3 1259 695 1656
3 2092 620 767
3 1266 437 2114
3 194 1783 1830
3 2160 2204 212
3 2161 2159 230
3 1656 695 999
3 1381 2193 955
3 953 1928 1890
3 1239 408 2163
3 1923 407 1924
3 1095 693 2079
3 2163 408 1152
3 988 407 1923
3 1366 416 913
3 1939 543 496
3 496 543 1409
3 1092 596 2103
3 2103 596 847
3 1215 456 1842
3 1230 637 636
3 636 637 892
3 1496 665 1794
3 1830 1783 820
3 1150 2204 2160
3 751 2159 2161
3 1298 416 1366
3 864 705 1756
3 1223 428 510
3 2201 458 784
3 776 456 1863
3 1099 649 2165
3 2164 650 1540
3 726 642 1647
3 2120 621 1101
3 1460 709 1058
3 1420 1776 2177
3 1688 2034 1112
3 1647 642 996
3 369 504 1914
3 1805 505 362
3 2091 695 1259
3 245 621 2120
3 908 635 1869
3 1316 691 1824
3 460 619 871
3 1188 567 1367
3 1310 619 890
3 1555 618 2108
3 1803 612 800
3 1112 660 1846
3 2097 659 1420
3 1267 624 2129
3 1086 460 2169
3 1598 608 814
3 1651 467 2125
3 2125 467 1090
3 1092 546 1831
3 1551 612 1803
3 890 460 1747
3 1747 460 1086
3 750 620 2092
3 925 613 2185
3 1820 684 436
3 2129 624 942
3 744 716 1530
3 1530 716 1064
3 1756 705 1128
3 1524 458 2201
3 1628 631 855
3 1199 631 1628
3 1301 666 2033
3 1674 578 1446
3 2033 666 1105
3 1000 657 610
3 611 658 1562
3 610 657 1679
3 1681 658 611
3 1996 713 1826
3 1827 559 1712
3 1590 714 1839
3 1841 715 1595
3 830 593 554
3 553 592 797
3 2056 712 1916
3 554 593 1828
3 1829 592 553
3 1446 386 1628
3 1561 677 461
3 521 618 1040
3 871 619 520
3 2153 631 1199
3 2172 712 1586
3 1173 712 2172
3 1747 462 890
3 2183 660 1112
3 1420 659 2184
3 1876 673 179
3 1012 526 446
3 447 524 866
3 1006 525 445
3 371 573 2180
3 2181 574 360
3 1794 661 1496
3 1111 641 1602
3 1931 586 962
3 948 585 1760
3 446 526 1700
3 1454 524 447
3 445 525 1452
3 1586 712 2056
3 761 462 1747
3 1083 677 1561
3 458 693 1566
3 1158 601 589
3 589 601 1156
3 388 416 1191
3 510 710 722
3 1869 635 985
3 913 416 388
3 1712 559 893
3 721 713 1996
3 1839 714 966
3 762 715 1841
3 890 619 460
3 594 705 1428
3 1219 710 1740
3 1176 617 502
3 1992 703 309
3 115 704 1767
3 892 389 427
3 1417 717 716
3 716 717 1064
3 718 719 1153
3 1029 719 718
3 510 428 1271
3 1515 696 404
3 466 681 1299
3 1128 705 594
3 1291 564 561
3 1519 692 563
3 558 562 1630
3 866 562 558
3 561 564 1006
3 563 692 1012
CELL_DATA 4028
SCALARS Von_Mises float 1
LOOKUP_TABLE default
3365595.9069331316 12289518.071687588 166895974.1763657 171109388.811505 153306219.18811125 116127253.948787 138443045.69200814 217791861.25312102 472026.9913899664 257360450.53917384 97311401.64443281 113290801.43383633 121640507.34204748 257182884.20211518 255487627.02417335 182316300.96710885 203769781.81593975 465032064.2485855 466010957.6400379 275234695.21180975 274302673.9605792 8674277.721514456 46417261.14370249 24337809.328457296 273708306.57500386 274970585.7686818 169146205.08176392 169582891.55245104 349662063.27346015 350372021.2035099 8877260.976229494 23826438.699191507 191534215.93459564 172157775.53936997 5784804.09490469 4711814.608390914 77837772.85275796 148050118.7406908 429309987.8772085 147883041.87178612 363148558.9583121 337109566.64933145 365696268.6736668 318442692.3281346 34559599.08273094 315093705.93164945 277674789.7371756 199739883.40165207 204305367.07027045 2163073.78387943 521293064.7614208 521310047.5857056 11396031.939481486 119287133.48777993 404191850.37475944 181594526.0746654 26276402.221302807 4270809.598445526 261087352.81173933 184934667.128666 397993205.09891045 395883690.2883709 297933261.5135554 414335955.9860565 414506305.0212358 78779706.62848343 39996319.49708477 17759022.02240218 103369.23423586146 67713635.1687762 52896487.64200383 311437900.9168786 158246071.207676 3650645.1800887682 198234.11618498334 240885.29470798073 325346040.9031491 24824896.21210194 165376280.11077327 107595015.78264624 112300586.39042763 160984545.40176398 143059990.79135478 155996253.04501918 141306380.49072275 27713891.176708277 27709624.979912594 226898081.63169056 226832329.93339646 4485600.24080635 232069282.21990284 31326912.908169616 31308563.753347352 288037920.853213 288129284.0964533 9537983.77251819 288896720.7006927 5385454.248511844 10211098.235108536 354165422.6296682 355752285.35083634 381367881.9907895 9420586.856843531 9419546.458336787 109600533.6702148 66872181.89052304 501707.5218535066 44261451.3330415 49403943.74222895 4853354.363507702 292292250.2714724 433164.86212153523 58331.86904966183 45460.72269629131 1444605.2542017652 10384524.22283586 10393012.206436612 7147855.435512474 6649590.614003238 6648142.950622039 173927380.38377962 40966265.26199785 1262157.529984749 889884.7434458407 10009899.936363287 330814674.94404846 85945060.96603024 262631512.34394148 6301380.482131547 10983036.466910942 273898057.8864137 64985236.89369042 4129268.0861549494 396701058.99611336 434556054.25552416 4029342.49282357 556181897.1264402 556465225.1177374 50840398.13650298 142236446.84860852 291965354.45150745 285983721.221132 15768228.602612276 222563117.3930506 222644950.65104538 212993113.7439265 485514860.0535266 484378716.3140598 10493167.58623091 521964542.1093943 522876151.98567486 182902.5638589271 182000.702939782 4424671.68119982 6041521.888448236 45366792.1680836 505511086.0199054 505281997.51998556 3286984.539026253 16431210.594414346 16426222.124924295 4743380.754142859 4742706.205148399 17148751.379453804 17152520.826077364 147584961.47688967 18156387.12629987 14136290.47282236 14137862.371553944 58805291.89946502 14249817.376475979 310835582.11764586 310964870.7961593 16365403.177736089 16367046.602299172 4831958.44505499 191489515.45212778 209335424.5107629 223527396.1475714 100713058.20099263 100696159.17132837 115166.42891871826 193006.33859214882 201657871.82379636 196845021.0512456 73850760.47187607 78353140.48610207 259170766.01155946 257692528.66459513 9473746.775231542 141024134.73057455 82161161.6398724 27609.345576798598 163247.81205964286 257896719.0297008 307721388.02061695 92833159.50533573 53500.76622425693 57332.739797698436 311165722.2841741 309345359.54659593 162234844.23045495 165584415.98910582 147149414.30051163 157074241.8848217 152633679.00933814 587106673.7382157 587087102.3421553 643438115.394374 643355094.551854 138495600.10414183 6424381.965628425 47174835.62928082 320913207.7161887 31364823.43352848 5250926.866797561 3076266.5067089773 175222291.67517328 359998703.85628235 360205780.8408601 6657361.719007396 7121184.616167805 7120575.269201539 316243629.92199916 315571927.0736328 6270183.9957401 414010958.74933296 408147217.08996344 17163913.11754927 90856144.76704088 6429174.408782979 86517187.86890161 89837695.2561169 70944404.93575548 16701983.534350196 16704412.416726708 30207967.462734893 195018498.04962298 8378312.416968238 8377594.252188018 196115612.7417913 99289.92778782762 391979.5862156101 129754850.741271 7751322.233418273 144210.54759127772 171395.51984933956 73606586.72954963 224816437.8982622 11473736.733898243 11473143.33396599 77074537.77253325 48405878.796493165 10325965.434032537 26468605.51180063 10423121.704406254 10422873.310061239 177958.54488872917 325089.4136193007 402968.72076638485 170167748.97378296 263232951.05321807 262934948.60247618 90597665.37179577 95781642.63319597 14060265.146118483 479040153.3796799 478288572.9567954 383322096.1405912 384189485.10173094 152735276.6428457 152731343.3689361 298535582.20298505 298232892.4927691 269188199.9741075 269700040.43205124 500467262.5500929 498696657.5334003 2321429.790183616 2321649.001341697 128565995.91889645 205829921.12079397 418172702.4358266 416879347.36370903 93373829.16725087 9913305.625871478 199681469.66310927 57080461.80079282 57086256.170135915 8051395.014757822 3861781.227919227 6521873.535848795 84082038.14332809 360609340.55960315 358085040.5699739 7534115.360497938 274376956.148193 274584892.37198794 14834241.168161934 14832004.168042129 5462993.17335821 5462681.710654259 11407060.141499719 11407245.268392676 19911904.501984913 19916342.10090185 26383062.74836476 42306165.011080414 4102546.915602661 4102320.1335158036 283428091.6973597 280322178.37663805 25858676.85545609 384667.8716319588 284448.1564743594 252396.5080152604 676739658.3983356 677560088.7224662 122199816.5570313 60762014.995015934 60770798.19604389 105316679.60528941 522908906.3656867 523118584.46879935 65841548.82909722 118925860.83467092 128711454.51186593 595231045.8785409 595105896.1376438 35226464.12412112 84496050.68030272 225838970.91951585 113438155.43000735 4895461.675173921 4895964.337390357 280068189.09147257 280483317.4940264 53118901.444729604 19002363.428631786 35984776.256427 346056273.1512953 303808889.21601546 303936632.78009754 83529591.40031719 207038364.05806944 26666013.799478266 188746591.2333738 188714260.63316634 257092156.37987646 391188034.58650744 392028677.43515205 325396051.5790192 324028636.1505099 18944636.70829921 18941178.726111755 5631051.454829227 209161633.9857071 413975158.48457575 407976753.4104935 192397661.20349023 3648031.9507283717 14598606.794565698 50696748.74352343 237492876.55087504 238717365.9548751 46292506.568168685 55247505.2285913 33240501.01020301 33231993.088342283 194598055.5214646 100152.09638203766 8030578.432003446 13282448.160758939 71430204.626694 140076875.3227499 28467.24253322697 19922.45888820517 142734669.51885122 134506710.27604073 224084081.31684706 79955234.9624175 71894045.97117741 77252207.46704872 71114259.68130353 85588928.81867185 93762729.957428 170037160.2135059 103151622.78843455 103167836.34740792 116668539.05524923 199163762.69219425 25576985.69681014 25557521.26790962 5024561.736647495 7164002.543585564 14357896.445954336 186946699.13550833 188396375.67704326 331904075.5395293 331565217.65952903 1813504.0127182223 255451373.82739317 326603607.0253877 387259506.2843015 323491413.99149173 320057906.8381162 285954987.1055589 276010084.2864168 151036825.63874006 18187415.00020429 18189927.169893574 16442570.627475083 44115907.09120528 295384902.2367435 290258788.69159704 312275807.98167896 310528743.32410866 17354094.03540551 82472669.92544799 43783953.841103844 100435108.52622321 32955714.098428324 32952462.86144509 570082.0565244245 185613605.3031089 114094226.5381332 444706048.116291 444508134.03153247 23026627.181700807 101610.87219426068 73263045.28094238 77359312.44955833 46155192.05019989 15609816.485751694 12894075.397159236 1102625.3665748003 1101468.1248105753 76815141.74369662 258962100.04931185 256136216.22182485 24307752.252648156 273672438.75365573 25594801.778087992 99868103.1590685 92962041.03994584 4401863.596817916 4401232.566789747 55156.969724080656 71478.0191246622 5143188.363350713 3614601.224173142 314681421.10573447 385296292.1016187 386154376.3581669 11902410.297706492 131797384.56729046 139084272.19347322 171575708.64844027 167090184.83972362 203138735.7362595 217860422.5915522 217849819.37053886 367527905.2935331 370032115.91719043 39867380.920134544 39877927.52631168 160673201.11046264 98320588.46726438 98337070.33341904 420773023.84477806 419428204.8309044 202568.0885531047 77624.4400630091 249804.06487297278 132071980.19125377 42151808.257117376 45650.508118696984 50625.42785390458 805560.6465397152 320811171.9231671 18664.497433468678 16381.63794410716 33274.1088493332 3007544.90586516 127854658.94557607 44196622.17758173 322282024.6407166 8121856.926788596 2645356.67813949 19971745.788713895 19324219.619968254 19326204.09931205 19917549.92188034 117707001.94488572 62276007.399672285 42094221.9957996 271104903.67170876 275258118.9350266 3687761.459558921 3687306.8935609004 85912601.9996312 52455353.792901434 451388293.01548 373413986.2569638 450646614.85508156 380986134.6244825 121065897.34858458 131441898.43850794 103933568.80282076 116600423.93553515 284404.8107268652 368097.1404392485 9216703.812696714 9215655.162207851 4692939.585086705 9687300.533431917 123721144.56482019 162085115.5190426 211125.06296398875 146498.54231247274 172193.47351489318 67663657.27325408 13553948.411516936 47094562.52841861 52586275.518518835 1949252.862774001 87409059.61212431 27565244.544553198 567674.500619134 143207761.95983666 453950518.68854123 461436257.1006235 9435373.766928738 192071928.43006712 5600270.683360829 5599727.544800081 137822885.637278 215261.26761993827 59083453.887389235 67656379.4114125 172883192.20745397 251402183.19449422 246660437.64475256 30736712.09908764 3645137.8392147115 34451974.247966215 52937342.70092587 319911930.0459448 188968494.13429645 160317385.2358333 41377851.44951011 46434654.400778614 8027711.684751944 26295686.612727925 4381260.2642844245 162986.43414551378 146445.31446114922 2055.6781244541053 37271712.064764455 15700450.90228864 44024.335744201926 50082.27681281093 77770.15123469489 135990998.77662805 201585425.48070785 240646545.05000806 241460531.4247921 30828783.513009645 30826983.628959253 251325983.58328578 3830855.7378217936 3830386.657923295 13395323.614981718 167689940.14847502 162390338.3806171 67186.55945956748 75042.77006646372 31408057.990869816 19279617.618827302 9943654.14992827 137757026.43733272 6787498.581151238 173272134.51346725 166716023.05685708 260571387.7367564 256388650.0748859 190152377.10985157 177667147.4444252 32046603.197125424 32045733.932656277 139723215.4934795 126965281.21442595 127016980.60486284 8380905.745563957 11747770.680515988 11746189.781575242 4894094.220538068 4893601.444639747 39528500.55025083 191650094.96249172 192397072.0124777 93536564.90169717 1058346.6806569432 21267060.927357025 21271876.10334548 7190545.638596675 6479761.50001331 6480482.152204876 6431806.076826827 6432396.900867842 66959834.88631516 113625969.05678357 353167611.5855101 418943811.33782643 1890435.1515855584 293189043.8144839 289737474.78069025 68501897.39722177 258648797.27200413 202360692.97023913 62688491.265847854 46231.6179452464 55739.00904249669 404690119.7405216 402337072.0350732 154361952.43188545 120377.82029658402 351683.45437397965 33668.91955601065 49775.41346473835 215225915.48935816 209951365.12506434 67152670.68645431 17879114.277394626 103158453.36639406 15286.874547213893 25746.47940784485 37163.591179270945 153481.14171404898 36898.87073913007 173473.20641043063 494912687.90764916 494019302.2659413 96483864.31039396 97017409.67789914 193392.74436733153 146751.91967825784 138792.32968184946 245579170.0030532 17840095.95887304 23139259.68586022 823701.4582836786 293228.77929540066 96183494.89492634 42250610.95056916 39244943.33854137 39243231.96431921 16106797.556413274 16111066.299277904 34008506.86127119 39107309.29120147 28780380.961415824 33652067.79056956 5257286.34493613 5256682.990865139 111367921.28954539 23260990.11451139 195637827.22696203 194541758.7440779 347528242.25455856 346206481.7829023 184665873.2724579 143458.37519637175 161182.5229759658 21996170.051415056 260680822.1441473 262829743.97112715 1483105.3551780316 121108897.8319871 160779885.51981103 69153305.48047501 65419.83073716638 217096616.8791681 6864080.46855212 11115219.477213973 33977234.19950089 15012414.86007308 208172306.83777598 15388508.094975911 15396000.878594594 8714030.08361079 233102506.78525358 232682796.9401468 174928464.85759932 5238968.261454569 5239461.511645367 44802798.99780816 38842168.52069714 208730054.45250076 12900377.791774811 12900026.137327494 125407878.64092445 13805268.839529952 60385098.1343151 328262352.50633276 326105744.8650701 15725587.291862978 15722503.643221792 28212.29077062454 25477.074128518292 15701.61788712057 32604.693605631488 22590928.447539307 18701.534039633527 30212.435650295236 19815.220223026932 34188.049016566336 62604374.39658522 3127484.5130554447 14118275.181774545 14116059.534196766 35183201.83470773 300724036.99261445 299137915.42372006 10051609.048870355 125800281.99591428 11654275.211188538 11654414.988135781 68216020.08008766 2594804.6924512726 119079965.3193935 5934064.779016498 178546754.15978068 229375213.1138562 233868139.187797 459270263.8112064 463560854.354249 957330.2557469468 217723723.32707953 63572501.3212914 16792777.382975407 197024271.9273925 294743.23507080844 108554711.0304055 13513876.433728978 117765231.07356748 64592816.745400734 114873639.42359653 185033175.9949534 3217630.7896997007 250842.56203064127 117009580.01796202 368275643.94575673 202656030.50522316 12905565.21723501 12907274.515356291 62327521.92066009 431471946.36225474 433557448.24825084 29445637.843613356 29446768.96760422 196113116.7485502 6618088.331463945 17625117.93751725 129964657.16153172 119586814.93769181 7087759.192179462 7088562.747531245 113530451.32704502 108269557.18655118 120682370.64956194 2132690.9032038017 39311784.2009051 88012430.48119943 91423130.0985442 319980676.99943316 177751537.7048529 181416067.6939863 13559781.179255418 4621777.756517712 113849818.36422993 410795099.7728583 53368452.1776368 161609666.2375497 155989668.44894472 69107615.09842958 193881738.83593744 20383403.291110173 20384876.799870733 2740043.030796094 2502337.1284366236 154541386.69402966 148545808.0498763 96084192.91672267 100843286.80348474 586008734.7956026 586468000.0987571 58959929.98068252 49665844.85434081 54800249.09246492 230180476.28510556 225953360.76922023 179105200.57132083 38593371.35982806 15022483.081685884 15036046.184511138 110309635.79551041 453050561.2694566 453406379.94963574 55828396.60056133 39466969.98811235 45313192.39948105 33449732.049579605 38471798.1004011 360421903.5235428 359179616.56093097 35134559.69913999 35147908.687904246 56847189.39419167 129229549.74908479 45495.17052605708 17162.622886047873 31695.248222947892 40326.05405096606 21931450.88266094 34542304.637822405 228145671.03021201 148385407.17163968 155091329.83603758 27587624.48715594 32931828.349987917 35923057.15425924 35907576.83536724 256102075.7318598 176989.03172131072 135306.48148327362 128716.51744412963 12758050.941242913 4388984.825441354 20683161.117803436 20684153.321950134 161196593.26875183 134670244.02943593 130733222.9500603 16145608.690932387 143501294.06605724 116459046.48649958 115815291.18314911 28307179.17659734 8712478.367383067 13231168.851296296 221604962.5903335 328374379.6750375 3188539.8661304475 138117563.89377993 46972242.511548184 4380220.300185309 112507177.35746612 76864.96945665801 196220.9455890129 150661.28048118815 109893483.1518681 168935.26487025226 471547534.359381 470560404.57879543 51307325.42340116 179233.24028780576 197048.75159796383 470138667.4755177 470045812.4383405 202645.13936772608 108760656.27047083 108748353.83735499 217797330.46620637 161858619.44561905 262136.65703672214 454798945.6960844 452593053.11151356 453405948.4855402 455137443.2097203 585658395.4589932 590163811.1271638 202786938.49824566 208567347.15247902 38752946.47461629 2810423.342697937 588464.808385744 109139325.86427402 228314.76084744427 86828.20700860856 178023.736527566 44624289.33476646 122499280.9649477 336564273.84990275 3585746.0629136376 3585192.649788036 517238.2633354857 74746006.33412981 165121145.130179 9634576.053165719 331025409.8450953 218629162.72013763 208595936.89735517 204029123.6420478 389406441.5709108 81735.91115011295 256535321.1258556 251390246.6540806 213830767.3615825 209128068.5538039 373715478.5520419 415222.0966566041 241049.12529973226 150990.7385048327 182829.01651104898 11314762.76565592 11313525.864076426 28542677.724610925 72469947.97942603 128944645.62005824 7463237.134031997 3851814.4983703033 2966368.524102331 101288479.6569005 75225875.40015084 64421043.8882916 88301583.34316137 202209852.22508898 96239005.88169964 105302.37184140373 47371190.36337359 52376093.27188099 20272329.47059391 116714852.67765579 116687457.22250548 250034410.41214678 7826781.030344174 7824614.239479407 4066126.014071166 4066506.249872523 161211.09969311685 140837.5104917028 41971.21102193146 40218.15178817349 29792.255992646442 20986.804323362034 63491758.72378071 218575558.77001515 64257082.677864194 9000485.938551968 8999551.151406743 268153965.1549779 263716607.06237048 43400798.85030173 43403300.79220854 7677598.498111137 13898556.481384052 104629763.26653357 221636713.02563816 221683223.232235 228345539.80799717 227455600.53617558 386910184.9967892 383222405.510691 362781105.1622074 208407.48994156846 180931.44474645224 29183.07704089826 61417178.33075835 66592109.46044032 10325700.705443025 60637115.280354224 60633591.79359292 300757846.26777273 51624614.36455755 1755150.9821043168 21227617.0394809 273616637.98127395 269551788.1949661 772266.9343790787 55045161.1743097 39905043.918805644 8746490.396645758 6598981.844697095 49175209.88365268 54471003.44974071 157523599.18092522 41153599.41280584 2113686.2929032706 86986578.3009393 43867489.70155595 43869474.457035534 20530647.45697354 263892.67877563514 132935838.51770195 257825038.65143928 109727321.3602219 113052753.2347821 7800501.984796377 189941426.5541965 188405712.74035096 137987538.02849942 131060334.32328916 204893619.97211766 200185657.68044108 5170332.681050834 5170876.341532757 376714516.8152533 3844402.4477233156 16188092.984324314 16765580.506224364 16768159.538216738 60638747.6460345 269637233.163822 281892121.2659531 265446063.47251013 261259913.3166734 308646221.22118366 15281004.353570636 15280340.805259708 329519492.0671362 329436498.77357775 813584.9620023171 99223765.69045167 125391205.91652529 403292835.3147577 403486661.83764195 129118501.80777761 125658647.21119489 237900484.9410277 234897986.5723825 46403587.465338565 32907493.374834143 169368472.62278745 182818670.11759838 13808278.828666285 14885782.889068639 5823005.726638784 119800627.91719536 9996034.55811018 9995433.144453064 11539191.060631374 7878071.458340018 5151249.038516178 1463026.3397993783 1457491.6552735956 116897092.53726506 97791558.0757276 297924395.0797541 294315293.90982574 93382554.52988443 90876639.49034376 5628538.09054165 5628030.486076407 248070004.40417102 247785211.44329378 398242322.48949736 61875710.98886481 83284366.73487727 61009191.43397753 165911.74723559953 194746.78324014635 35480.91577775443 87209.71743532004 176769860.8788288 87014190.78167781 65638453.105924554 66759373.85773797 6090740.378959993 6090153.425949536 224345179.82121065 228686046.50559142 182004.80136512013 148322.56779300547 47943.17736243635 287988557.09916013 165462.69479298496 185318.63382705586 245245242.74496442 9193298.462632608 9194227.61179611 83595334.1755188 86063136.81296115 63517435.90892511 146573181.448684 80075119.75812054 86461070.66987346 162677561.21309778 61249422.61966586 230992085.19790572 230655070.74009705 131417457.86166061 117145242.63674282 55748994.718157396 29529874.673493247 32338.263415414105 23340.990548991398 15041124.11765907 14484434.291584563 10127142.670950018 133541.55213859968 38885.773181724464 153670.48156469112 28932.5690417941 41831.19999365636 20044.946988075884 68370631.32145509 407530944.97686726 400709433.95034736 7382534.641410282 12238136.890950592 173188966.7759878 75718727.59610222 23070414.167212594 23075590.18929086 154313.7160393642 129089.36540453746 28726.6184587021 123145.50726713162 113637.45678426737 83749.54940999519 9312641.349983621 9311568.165969698 77553679.09356305 348000709.5598927 351489835.45800036 48860061.98549967 48846331.539016604 25450316.747417673 213971926.90564767 209790336.6526229 98315019.38083023 182194268.23656604 65791697.4188639 91073058.51782884 106179330.81476979 106155304.86182852 100632654.23066457 359272963.10653216 174128126.33083314 234922300.8591682 237594012.88522077 62212328.53967893 62057187.58973835 36066811.005394496 124644077.19525947 45345539.44526535 135206035.48597693 116377639.49445659 300493.7011910421 141160.08423366226 25001514.056459527 77146476.32930298 50381908.1439687 25538167.713510692 114689263.79035969 201865633.87029678 201882989.3446213 29880845.000819426 92721454.64122434 158313160.51010534 372946239.87260896 367815551.3962006 51848158.73353264 33669.116577767425 72662.19485067265 276687891.6026046 62774396.04824012 67684979.37917969 58478791.87805571 51045.722244448705 72827425.31900091 279726275.59517175 164126035.41926402 210481012.6591862 23088586.55324253 14831385.641610755 39026434.40372285 159435279.24619055 77596287.12363456 186826317.31511125 158914650.04176268 52769057.510520786 311383956.28856844 108514805.75658482 5571406.910811834 319792442.8043093 120142447.01742189 114166510.20287512 143662661.67682585 143613199.8722642 1586777.7514141118 16583534.635874087 16582279.600738328 18432557.03517536 55632149.76624593 2820350.03818481 114674374.26623277 9045141.990236666 9044043.942267708 136428380.53722265 3320681.063969104 20585424.427725013 202721.97599200127 182497.7126789873 9817.836670394663 81354305.4035014 12452730.680517927 34352504.429898985 34357093.15362661 38248380.06025814 165811827.86801434 161829193.41709295 267072148.43501833 168549907.16934597 165170733.63413727 11236805.371627634 28753628.89495068 99527339.3286044 224661063.555205 4852925.143065 4852410.862231139 6472719.128536925 33621636.97692446 116939557.99509265 25787920.991436675 25785438.987063527 7408715.49300771 153491089.9735713 80983449.35691625 44697599.061507136 38649927.32229067 15090736.420483753 15085624.495269712 60529439.428470306 52083727.74995342 22545.81060774016 82765.30937433062 102907.74620971584 8855361.716493646 14854112.081614424 4051797.422828787 5110864.612417529 1006234.9895039056 52526253.95252452 56027053.18324273 56010423.27930247 8421181.843714405 254457560.54374826 34721.53440007089 53750192.40741924 155885688.9278689 300016.2751036561 224550.25008065015 24819819.016313694 155134956.83568457 21435691.747416522 21860338.70335534 21858590.439153697 50299569.15990361 4866125.633157075 160022924.70185763 209801.11746636077 278352.52248052886 11885469.389257936 163527512.45205808 160181846.139035 181893775.0139007 3364070.592162452 5046081.789600947 5045472.799414362 128471419.58563069 82629696.32836005 12468861.86957272 12467401.907479024 6271747.641423389 6272348.745104938 4620515.227454858 4619990.102622183 43745698.73291693 405343188.4271203 206008053.69309574 579105423.0217475 577268091.8471192 189183.86860394257 201769.70651416967 115905793.41774265 41964344.870651565 22628326.322697673 22626087.096775524 403187292.2162293 10716830.99145553 10715584.087703256 19232503.80500926 19235594.534501635 235705252.4117981 296905586.61103326 51983299.59450933 157139100.9973093 134981711.1508668 134980104.4319377 83016656.36433727 11036627.837285642 53842723.68314167 170319.37470020188 242882.0853290706 142099.84265270253 105600787.81396592 7752968.7799108485 64476641.222032696 39827153.86657203 51845296.632382974 5609537.819469036 5610069.476037378 291052810.8884046 287659272.73951876 15310955.374387441 15310393.378115315 5705745.529704288 180978086.1446223 180976784.09620526 5271159.823860158 5271701.895070278 4756419.735653804 4755975.621960348 195230.50157127547 226161.46105273938 1918872.2954450732 281142.19858386973 125494.51658809811 350659.2838092568 102909331.56817688 102899676.03139152 66403912.23829492 33716067.28411049 38079731.20473123 14673654.8095618 3989819.426775996 104023868.01228155 14184050.244989585 256388162.1908714 71062030.55499011 160034996.1143911 157989787.17167348 37566842.50573056 94853306.67903589 1271673.8186469746 263758672.02648398 114853955.66500081 7291802.387294897 7291940.286845408 3835777.0926112374 3835651.939412639 14651095.55154789 14636404.710206779 11504119.855087437 355850322.4449056 356174721.2032815 197208650.27449176 5502348.812146546 5501756.3889289545 147463.23376571003 76566198.32351698 125461024.20425133 193402995.8246018 22479852.205320988 10745905.926979562 4783959.632935524 4784411.285375102 19549956.79482577 134205.9863128825 33785656.49424284 378135.8616991518 21559797.016780753 21555038.02312908 74899168.7681143 142779838.55018938 159035841.23086503 217755.34820645655 75605.04339246343 264898.01112834294 165696285.24784437 158024160.91308808 358034178.5357084 363187233.43797547 373502591.7773154 6184796.111403199 116564910.70810464 208441217.65519962 5175827.789319105 5175323.005994824 226258.9328084894 34183770.807596914 439086065.1527128 189422867.69028872 137475.10596061905 150359.227806835 66739136.58561903 117210869.86826107 8297298.681604984 134805485.53283134 5749035.360079385 5749599.337901569 104561.11087249522 93026.16414272264 74219.0494735309 76954534.22144523 22915906.41932099 22904434.4470978 216865132.83723155 2638120.9840182182 25113029.99642149 25113575.337563902 5308143.115865251 5308640.620113191 5742208.977105023 5741802.503600382 23556086.71134756 23555059.428168844 2026091.215552644 193774585.6535651 430549430.49739134 7437724.432068655 7438427.794258999 5180755.973015779 5180269.874344359 17007053.0632483 17005711.84524604 556288529.4694428 556051878.65946 344039853.00502354 41983742.68229286 88275713.04599442 200643109.43165508 64325391.789029874 69221321.16882406 27468076.505912136 27472353.0793019 36741319.67690367 73007928.45529814 9159508.584932726 134480704.57804918 130170119.31924133 17257.36391015507 7266.544537578581 15029.235822433906 9291458.00731317 12390152.01014356 12389215.059161933 202037986.04634738 197426203.7218658 109237757.76268281 102347220.6596445 143524698.3428197 10366.8578159606 18139.03771795738 24484.6104548726 42954512.77840937 47803368.88795854 17158855.363041826 17157952.029035736 130625187.63074201 5344205.646435838 5343662.984886966 245670384.12147546 245539835.29701313 239579179.70036954 23689132.50890048 23689037.357810535 28866893.444340255 28866932.147743724 17808632.715032022 39411493.76049281 183111811.1150356 4223317.636423012 633971.4900457276 98818967.47026637 274987183.442347 3232733.9204721223 53445611.74724555 58649327.17477086 229429.60856328046 76928097.2279855 2580724.859088147 234434804.6607424 10116502.866541935 26495054.02257116 26497216.14064397 84449059.31812596 84446344.28503282 75933075.69287723 10469294.077803936 160309282.87539127 5120383.610252126 5120911.050315276 66065327.09307339 62691546.380454965 83201812.82862902 83201557.95850791 3248268.1672689146 47473020.65882153 23552851.05216983 1433579.4040665631 82368092.2834064 85890957.52459304 5438002.288056304 5345085.4918305995 79406734.82822876 213003007.1134021 217447673.31407496 15551078.7649056 198507378.21576357 193976048.1692341 297629324.6112297 52043577.69942582 47624103.652398825 53359799.9030575 340913908.6850703 370306.5809900932 272907.6677752938 417330.5674235183 601251.5213864063 182815.2923107918 3146113.8982358836 3146444.2974185627 8426051.688675564 66916221.06723136 295648066.1823008 259643.5288602138 6714392.9806244355 138401.68475525806 97487117.32383077 16134552.536645755 394589616.4514755 453195871.57224387 134012809.17875585 319115604.347186 318200821.9820027 37839202.897962295 132854514.19797552 10557090.577030718 77451.3737550662 80483.9822466424 267261457.92053974 130202109.09748445 135772085.1784387 13652344.21697028 4552372.442295013 10664925.643704515 161534037.6405407 153597.6183479474 157971.43629828494 3091205.4307725 3091004.2455053637 169736828.85298026 169705052.79659942 132109.2270691751 137295.2168809326 241093528.33159786 241098237.12464923 50848841.14551267 333437006.6454723 12591329.295041861 12590365.660030061 96295.08405567409 70054.6006040503 101911.75057853542 254374736.320014 254529395.4869288 150160523.51173344 11966062.787263472 302955567.17875445 432710828.1421564 431624758.0254262 91209011.43295808 150810909.37311724 3420780.0619629542 307782513.7921094 307813762.24056137 41426851.25325668 97320795.42536207 18405906.604918007 245358649.2841718 8402435.197956583 61817901.41739762 40526390.174269594 7915827.889475062 10862766.677495405 10863779.436629497 9634902.570374018 9644983.455220884 22187938.148762267 22196253.68409952 184790716.72932103 184765031.3038007 15484447.05809172 302480485.5642018 300361812.1364207 6479508.566362863 4067383.5577215175 541233351.8401929 546045271.9064058 203527.81290108617 156726.1062343065 126682.52013624094 4658457.978101011 11026573.372511081 312395631.03042173 308582311.0614594 101447247.02540475 194691760.89805433 14317504.153875137 80912926.16897088 33197505.91682038 33202478.217994824 306240414.9710718 306951975.0804028 65889.36672521215 93503.99551783099 59248296.308792524 501039.6701013682 487018674.742432 485392411.22560406 298890083.00727755 299235706.1292981 5225425.625603857 27333248.396384243 83019677.76406507 427853495.44289833 14608577.572578263 195172811.17461196 9501013.106984144 4685009.885747575 254148.92187073064 170861706.98847383 42987789.260366835 182730.80310310997 199515.27471313698 4904684.840339007 201922.93620507422 225617.67456075587 185616.41851815488 191554.72261389994 286770135.4966914 595605.0765324583 264507009.1542244 21883.74327989326 31479.88612751226 34059.842071222236 54439561.00886218 1651257.1022647044 186875.60872401172 264314.8804923776 265628994.26098493 36798603.56161949 36803733.54336082 67463536.2780441 67473367.51951903 39345026.23393163 106495672.29225154 646588.8812438995 297720170.3828006 306943774.5512141 307871639.37914866 437473831.1444686 437056107.96022457 75021904.83323114 183094743.31589094 179856655.73483965 35120002.25498669 85761844.21709919 52232137.95272585 576112596.2121055 581640374.0711448 226510.69833203766 296006991.2052527 224573425.03408948 119019230.2596894 4723578.256935091 65032118.04360352 69876849.17143749 29569092.692367975 181800018.96167123 50335359.006108604 468818015.3213555 472150215.9932345 118162702.16630912 123471568.61728255 113265798.98016995 157064336.19875178 560816203.1300031 561071027.2786459 941721479.8081886 943212339.8962102 194900386.57565475 214937.87494821093 165225.47735273468 132422.6582462755 105045410.5287936 79689963.62390165 79697905.09265493 3811189.2024859725 1155543.1916149058 14201288.86677183 497099.3942684091 188395.59181736267 122659180.32845123 22133117.090730883 9523286.204313073 189860980.25001973 3648542.5806412585 46252551.06855277 10252971.092271965 71487113.9113827 284151745.16347986 287505613.520003 132557769.99551903 17352.044484952952 22266.78722916256 37031.91748419375 223549.10844056442 198997.68670891944 35689.294556432316 331554461.71260345 4199087.861148401 270515121.55445373 270524069.6269647 2502602.337160498 45000.39550498936 90613.66847202985 120438.89680448413 15599160.131386569 15607980.395422775 123755834.38705082 89225163.17822967 298557832.4628761 64006738.49543901 55014845.66157987 423090440.70173454 423204926.2198714 198884202.9251426 32410208.355670765 32407083.176561892 199824031.60766187 349678292.0494571 65611431.46989416 89189173.75173187 271230751.07344764 28137571.779428322 84325813.34008488 52691334.18521008 57867880.397703454 1811244.0483700528 121879774.77951519 90888637.78907545 30666967.375476334 34435647.27330857 93610558.39816093 567571.1578185889 122588114.87523025 11208603.485997127 106468253.06242262 106461872.66952005 80288454.33490707 75179590.4014583 135816294.43152478 135832715.6953485 4742772.996931805 4742268.659293595 61842042.952661425 15339350.327857079 15340053.592660177 15345910.195098877 15348099.348439775 1887127.1824098516 7042723.204677765 246139685.52801022 160056869.6742711 86285310.886736 584440.7329479485 144477485.5462252 97370.98685561967 79231.81673665033 428891460.27045935 432349567.13051015 492679914.8266704 492483490.0914087 5129743.768956885 5136292.1327756215 68091.17377257852 74149.97051090056 316979.6278847273 322697.38843191066 7311772.137110251 230772751.03000462 123593.78869851143 122914.32546577558 271448564.708741 278029.70540250075 239548.55683107744 303741586.6043035 300461056.6987209 178466.08920731553 153554.45069366932 24175.90846231707 974166.3844264931 973208.990190906 3848634.3567514815 1064946.9419381362 22345578.553684644 23523526.654180333 123170145.98350842 120511256.702085 4877971.928894782 4877625.206091695 683962.4992350009 289392292.9960352 319402600.2165021 146432701.89617595 239171923.58813566 241123937.65157908 112356100.97974159 14517548.25956061 14518356.862120332 2232069.3917106786 2230788.078713142 95679.61717758047 86506.23921953735 60647.1622454674 588353157.2095845 588208764.904863 69219733.99589254 69868904.65192574 5226721.560880182 5226260.24703891 19969.660986385603 10452.032281977083 19441.929612794316 151814.05167345822 6381.100341010398 164262.00973482904 527193057.84377337 528940947.07921374 78308789.78293549 76022230.88014542 78215329.68310997 205891361.8160539 201450641.74713784 66607.23585891514 78948.73792992895 140763322.66692156 217932548.44727945 130179189.13368884 130150526.19578998 46222140.90719744 231086891.16903117 231118723.14779112 5826450.2248842325 5826206.139440216 38474799.75146266 42567739.68445781 39487812.98340313 44765856.056022696 566340659.8213875 566570404.5960736 732297.501326733 78888742.16437767 1568156.7991151249 10839.651898847585 21179.57268387757 5204.237605596103 95051.89252743206 58397.24370045492 89384.59457632928 7920223.3888065 2434434.017123858 2435217.214261577 235699.9791248771 199817.56652900996 53686.83228432355 423426798.50216275 423376011.0234964 248062353.8994032 143774212.48457852 9623295.756051918 78755.83648424484 77760.81690890442 11836318.990348523 11842371.997870486 24866287.334707722 361915.1794189215 104379.43855215321 733584.5432665432 348313.76868740906 201104.45684975592 406752.537744954 113153.21233321875 255758880.63569632 210214562.3128841 4832646.210728787 4832111.008958797 575145869.3155502 574238702.6507384 380727204.82683915 381023201.19541484 3894504.1245425846 3894869.1242566714 70817135.58280206 36960281.65816641 42098073.42707299 68391.45652525364 77103.51486344363 64975.53148899204 62743.90516046745 7020277.031277171 1078323.7331386153 1889495.0188211827 1880313.139619343 105472103.27700776 61062213.12431021 220173583.17507258 104964.09918408155 176221.88345387558 47973312.6084841 264245328.1182615 477497275.53870726 476468252.542153 7089454.26284654 58780867.82733098 4534442.468214851 4534863.005980485 137256596.78972703 12685502.523109198 12687254.772364985 51133046.2210286 62756354.636285245 12214639.830847455 12213321.484664679 107820229.47883053 56530537.78914033 137186314.01847133 133603442.1651621 4663280.475677233 4662653.862053575 3426546.426704202 3426225.7867760505 67889582.31749663 14723548.738972832 40267682.592087075 210149398.82396337 35112.52562849118 50006.95544738034 25927.02315014639 4026030.1755037764 43169939.33883774 439698709.0770561 438430085.14719385 124343591.39799425 12420326.107235989 68359084.81483965 55981497.77382536 9543073.369079353 38482782.870118126 430166050.77127606 433783189.0470631 202764023.48803526 117003026.61085907 6857681.649578708 6858306.789439043 40667.80832909625 52354.87122054453 25728.215725285376 63695736.58958459 1146941.3851778328 38861544.86263629 143233254.82062787 124611577.1640539 203089587.87545052 2970769.348909472 6449778.180588965 291456314.8313402 4693079.1304528555 361040661.7539588 360918076.87565 411671408.09174025 412077910.4432844 112762713.86760496 4079297.7117845328 4078760.387207763 86647026.46404546 69052134.21884096 57751430.780229546 41399.602259299754 72625.18808259802 45421.19952475136 61036040.55332215 3818024.108234016 3817359.4866328374 3743218.5509865466 354433225.65588695 19403490.644854046 52457962.75627278 8048882.664595306 8049195.379472119 197690645.6084086 226499428.61196977 13316746.618577056 13315820.176407948 10545121.944089066 250830080.40382397 250640166.41786093 54485441.16893113 43147870.34229564 43150820.81010629 3984678.2605147436 2555026.9002263667 9200587.451048233 72328509.96761508 67624074.7082244 36445191.11800355 35339498.054782815 1978532.721836187 83215825.36619633 283948386.1524967 140243683.07328823 145396155.4665102 73854.9227168894 63371.46278167093 362607354.823349 364845458.7387053 210955487.9227009 32031772.739916753 116853886.80230245 99725.37015572602 89157.61502050502 44466142.66814436 10020013.007657146 291904818.7021964 189612.0065108662 223264.81226276883 394626405.97516996 394834479.5390408 439579668.7905973 48776421.89354443 34611963.051567614 7097303.157317892 7096708.760684172 507226738.5196609 507104086.25875145 7231808.91398805 147694.7016467259 81136.87277400558 102433.72001830234 399874518.1667884 132442.94423703552 180903.75879949413 86377.02972887848 35262521.06970898 267643.4722317526 240421.26956884732 614187575.8683017 613874023.9736655 2294500.276844047 194884322.77960593 17300796.64407404 17299794.529114205 6963858.713392788 4262933.350496293 122453.67192267533 152685.14183419623 11218931.587620145 11218302.842475588 106151.21797643827 89442.70906079262 78937.60008294086 59544054.999926195 106725228.5159438 92722.56888119293 103124.62004952159 30023.018606984675 14682097.945314264 14676358.498934299 309861494.5859913 309386758.17309487 197744927.0999576 3451930.3196840985 197956532.47197574 21098590.6884098 291829397.5049745 24864683.565009058 259306814.24479848 53673440.1835095 53674828.09036236 99678.0672150189 89762.86230806452 100617856.88049431 130771.83554086066 103877.44795787564 99035.13024539218 85540527.98836726 168331.57668588645 198513.977893934 381349.88302248745 382388.40502313024 5512889.075750672 5513429.989715062 239635930.80451372 15438062.745670024 15435321.59265035 54024368.84058497 264647.9961032542 219158.81131063675 72580.02686755569 40536234.23867866 257599263.7038906 257909518.1906935 9519611.349066006 57554.01381314611 22202.769855058665 37957.32443826986 23892725.25617946 23889529.458383914 162770351.582856 120788740.44610314 173632366.41959363 189207549.83411688 11027384.326633751 11026430.511285426 14728010.876178626 14734382.795356603 119473775.08212237 22400547.89597902 22401304.664881647 171762900.4564036 79413590.33269724 74367241.16118968 13196276.249883581 65812900.28092863 61094957.72048885 6980955.8255821895 6980306.727423891 15283525.307311995 123979021.56331722 24666355.698045336 247466036.525004 11338093.045131335 11344504.94761988 252376939.8271306 6095783.074235442 6095205.907085914 646326244.5598352 647191578.168753 434478903.70823294 435430220.55693567 4728217.257951428 1960681.4078229323 25722261.910376877 49668752.90456346 54556420.88412729 37163564.047391936 61059500.55962064 784716.3245074204 102356535.57780129 105977771.62733415 32933082.835708108 197241253.13680595 197224368.55422586 23605497.715698317 256149607.77281767 256610199.49836907 243191.613117112 243099.87867165488 150666.93976876515 8636885.706014117 8648363.238731759 6438117.073691451 6438725.84936137 177929773.66691524 47801137.082884 3861292.786884168 3860820.8274712726 443031024.2912336 440773161.0577179 223843977.85107115 12737790.700390704 284805089.2908022 363673786.4337441 362602178.96860135 281026.1883086123 252218.58469318564 98313639.39516655 174828812.84392247 28676980.790098652 32692473.187286466 160510174.8608997 77113299.14093778 77106281.42150554 166940832.28566206 158574720.33569703 250429986.3568823 185183216.0613198 24121656.492932636 34055752.15425943 49201995.82277795 9185281.653048972 31835.787461047494 44869.87690691164 43660.90227874557 44690.454562382176 26433176.391165458 13359183.305285497 13374705.421035102 92987990.41287996 261438.74708095854 336176.98198380525 139868.00234394148 5072826.254611488 103134589.95470256 28353613.287318464 28356318.459237274 404758909.7013239 176961954.2976805 470974407.44357175 473501655.1091614 887824.6252334408 377659.60121344595 1154248.329791563 36574337.23237061 36578081.04832084 241949927.5120298 6680153.454121173 199154946.0386886 125039.04866730378 130313.83044106442 41893.68097052215 162640804.64129582 146464.02327381275 209948.54681873738 179605.32488515408 37828.65600331039 1091539.6241366062 307465304.35050535 105806563.82307567 102852040.87359118 19650268.419262245 357635972.2647041 357458633.91668284 62374.494172846935 60316.849387210255 28968.84169214847 98192921.68737672 5832409.898065584 161249795.97126478 473328294.6352683 475381517.6600359 199179218.31684813 205326655.9219669 190240109.36835432 5164055.542496994 5163538.4047237225 1796813.28197283 132446516.79800238 130123866.27250081 754253138.772027 754799720.710766 5106911.756471547 5106375.402266541 10439867.280970756 11002.256614742648 22831.620713421235 20583.326653456665 11532171.093105664 190712.72220556554 175178.50717412308 16522629.763592372 223717572.30734473 13193116.736802988 181807.35917607736 198874.89515578537 50357543.24614096 4661776.085068071 4662301.762885739 11677533.50534903 11678964.616787791 189012273.40051794 4730684.63256106 265248449.30885142 35416254.99462422 211693370.9196037 206850552.04731587 374991.14128627337 58794105.40525125 248324168.10067263 6778805.613885999 6778332.504056958 507800.6842708104 99680.25314773194 12986805.997229924 169107102.89354548 163103815.65980688 122784567.49914797 102016499.3524181 194503798.28102595 229319603.178966 82092615.40673964 62489.87536986141 70457.48895888147 64076.76155944313 72152.6105033969 45184.24068397911 10016.938933184936 24255.607840893506 30635.27166914354 90461059.44186415 139961.65880479518 147095.39987634285 61064.68557869441 188465892.72696397 110466456.93851845 7671623.060879223 1113403.876705909 89100010.69824377 89099762.32827514 21858629.754878864 6314590.586360627 6315207.696189897 208723550.14078766 201059967.68877658 305303514.0907708 303892412.9238837 5473991.546580971 188844.0329433226 137905.91655072168 92049.08789247677 62816074.43666078 255612920.73404372 28094932.565455504 233743370.85252193 17838172.486708142 192662.0769563023 169682.05318515492 41565.74818138834 32518.017296080307 21721.745623938026 18325.15342462694 40382115.0126876 96643619.41491571 63114.69276996147 58079.27448821893 47053.53080243691 90925985.52014858 116455733.9448507 3307910.9938007337 3309204.1377931577 83650006.51949741 14982413.839750156 14981077.86936676 83792.79704355614 80223.87219770998 58808.108680447374 9686824.809194567 291747452.3097503 18607526.174570695 18958353.597416297 48961275.61315322 170134416.11143142 86935262.37586637 25090160.419012737 30369357.46728059 640677.8078337592 32637662.671789434 125539927.02789453 217230404.33614317 64130.2202520498 72344.46369855636 143134315.95414883 145542692.43811035 199353382.01889607 22918714.209616367 44397407.61092204 191074488.22760728 23328955.047525436 25311.256906792198 40341.5342608418 48013.18580729441 55712.61058670289 129786187.92348261 46944987.388992466 52568119.51402341 95308206.50657637 298451054.0108183 78019896.04731344 331977479.18872565 44851335.852747284 50233789.997655466 27481.920303425355 50074.1057334667 14214765.386192162 268054349.39445093 315912092.3655339 297448183.22875804 43711597.31688867 42975312.97602068 256133.37452821058 263166.21040708304 264195003.73523712 75000764.3749464 184166272.5701975 218379293.69905612 169340272.4897371 37633.38437237453 58419.71180034962 12711039.832251182 51603.26708198545 65420.49424668679 157809318.09969148 28030.679587785133 45825.45635423161 55231.844251930685 210677927.79354212 77876692.50101927 91702267.55902411 63933161.316240326 57667529.57972 257677110.4373422 35881611.317917526 35363936.33345787 39957325.144246876 133460.53735013818 126255.91473516077 28253.75134207832 25230.564478408724 19968.643021045747 41492630.151159726 190095943.08794957 186094244.75508887 289430.9468955555 271558.4095635816 172691257.19583067 167183012.1583556 208335.78557614246 78731.9341077937 113491.39737020696 86031.29995401512 45678747.45162352 156677130.45813417 46081203.16503674 216169.11858450432 187113.1281725841 384425.94390241697 336656.2513294025 134314.9657480246 128672.91694245477 22976.19410856403 26792.472008690365 32881.088030298284 32646.192100835513 36881369.17765288 35615735.80552715 40524034.23874776 42276488.52120271 242529783.3511605 237871714.3133038 193916.52789049465 215434.2399684078 68604397.01649007 9815846.74199609 18477248.98056032 72475.17437488734 42922.05155306169 64988.68329764673 6965330.736511929 6964696.034192194 187076001.97270525 628334710.6199629 629078640.6343815 176511.1348854072 115637.72172552143 9267792.165520322 2796043.2847646456 38953957.019719556 116602.78654057457 94061.65315914096 68558.15320961489 533085.2472897702 59220888.736040756 8807983.011452546 8808180.505945863 12564185.570532285 39915096.621345416 39919167.76190779 44264.02357407079 3882.906506949147 21224.660755516852 34913.91992170357 172281.3727999395 164354.40555710677 101086.1194065467 43372080.247249365 27824.847994597494 22467.54467099997 27331.54054689454 33605.340566101644 191499200.3980092 146312040.19342414 133997.2855574125 167634.9066404054 176196.16854499155 154059.49450755047 16558.94385398806 85814140.26058425 83228025.8721545 1738789.085538678 1138812.0506046135 66526459.461015925 709188.1077140529 78155.79773896831 52125.48982912885 42405737.87431499 42429885.89247612 42383231.37714029 35034857.707175985 281669638.3024562 193755.1547402509 11065.398077986023 209883.78095041026 21061.751489416438 8859.074117126158 30399.962828999025 37758.04482358747 23334.789379348862 32119.095178560525 37416.67973359794 32902658.518769413 32917938.52573645 128727831.11315607 66248640.45250071 71359838.03686985 16271159.855964974 16267800.92380568 168970664.58859307 164175796.6963826 202990.09855577676 85881.16625750661 22465.400020792284 39049.66540965928 28492.485291367044 42028.75306932227 122968.38246274863 271449.61437799776 178550167.02465472 3188941.8034606366 3188640.6811312092 77121781.18320552 75002562.74947836 658367.9444375399 8460108.874102209 266118960.0249459 266063753.463597 258130971.6586293 199342881.7350775 236267402.78157952 146265475.32303667 44878245.00303044 14899870.804390647 101134389.111348 69788516.17875536 140702085.04324397 138027017.75222018 52913.70672816302 39743.4467922627 53806.16389340981 57410.062924532365 46579285.27174536 529766.0497793523 36086464.049195796 36086570.300718635 454085436.4381071 411786742.43677753 415113039.23186266 453875904.6008727 115969275.97013663 8942525.173800703 378065688.140079 371689723.0842216 379827755.5689061 374227638.2373829 349169855.03622186 148585113.64562887 5167595.559047919 5167352.535163095 247416729.26474518 147792861.05739743 17918888.953486703 160051822.05638024 126130853.59790143 132451825.7061578 50916464.49036134 50906418.128245525 5501583.003210038 11740818.845707867 147213938.1556734 5742766.857189543 5743326.427515056 248095.62214245944 80531.81841593017 295807.29130583873 17459340.291522566 5091153.234611643 5144929.229370132 5145400.816067465 2205912.3645471404 6336829.836551849 6337490.447344951 4170774.2466014307 52704803.53870178 15935928.187321734 15931752.617706543 15355576.466059756 15352899.363883076 12651175.250465607 12650746.131833477 13523692.538561672 21563328.053381324 17401043.153601076 98389293.19749925 352995028.3460449 13257040.59580204 13251538.134453833 21778326.14594641 6726261.791577994 6726277.082635443 14258441.950108103 123921.25767074962 326559060.5719087 565511286.6908175 565311318.8020643 17284834.66946297 17284266.365072828 14625787.416434003 20072692.343926866 20072423.32576996 106235.83929713944 58243626.25163634 134645.9150460664 118066.62596857466 71307.81417770158 8840151.989667816 15197879.521046475 76204981.4707501 71753506.56563345 133672809.26022743 347448440.8281252 348194202.42699414 64225394.4802694 4989800.3782506995 26269970.105415914 554325680.2558101 557678673.3941288 35693475.74558772 25653816.938762203 40860072.28770532 31455836.081600342 4528535.1491462095 4542845.162903573 50652277.30079968 185528618.86881867 186996927.5090831 337101653.64555174 331581387.38343596 32955874.91580516 32973728.447806153 645462.8694753387 523150595.3979271 523661444.147702 23639670.7692368 28262976.7907705 26058380.205148965 201277133.26949486 205647329.3450149 6478269.151230434 6477636.851303015 117907770.60009204 359875298.16993636 139863871.43772092 359818272.70035946 313852094.49183977 311719728.3275253 357089809.32387334 149998.01899894295 25718.395445934068 126487.55693873871 9602741.106090194 7054014.060811733 7054147.762656812 124749.45214137743 51564.9385258484 71062.87692138086 76782.2356443302 25657558.975386284 10952542.171970705 30814855.23014278 409341084.74355006 409786631.43524826 4037686.6445586905 8744149.809795896 36878.411362424784 96439.20060789304 10168271.204825047 423626633.9688529 423926687.7285024 134631738.37112173 16409693.624494068 190997732.71429145 185375768.7777476 15769821.69330808 15772398.352319032 7685115.880368047 567398462.2520242 565935725.8708631 102006176.45329177 151034.7913105365 87009.4240570571 103355.68515600066 135753.23963594474 118440.18549887692 70382.30537887101 429155520.01433873 430144259.82343996 51006.07192612126 72514.67707664362 16568126.920251613 216187974.90616032 210955098.5975519 16334073.048937064 407465719.68971586 215953283.6100167 216074953.11525586 454321007.0673397 457080498.1623888 450137014.2996168 452792933.5271783 76979.59759585669 81730.88068499991 7869846.846655275 6923849.631606537 6923811.238173067 22575594.20323149 403553801.8781736 18972970.04171661 25644909.084982175 31532473.378980648 14605251.415858947 790584.6620385782 6856907.820998239 6857377.245756355 208004.62885687774 125420733.29635982 125432354.29720159 15868325.601548253 15868360.269100364 26589241.71080449 479385422.3827197 186826086.95007798 222680606.45503473 222648423.54738367 202249759.36684242 206869360.29138535 15495823.934073698 217903.48034020312 480988054.51629937 152874989.41593257 1401568.124156032 15929977.114189673 394204357.9296616 372064079.49938434 369021080.273329 395264318.89435965 177717041.13637015 97319437.87848051 12552849.649590356 99979557.129326 21118766.74143058 21116814.346999433 43187545.12295741 56193.489043185844 68756.29069658642 81769828.91006082 127048170.18190049 14849380.704793207 14847331.582977392 26641939.743425116 37492347.693608105 42235682.266561635 374513622.8568557 388864498.9826189 373279165.28821665 252727316.77300125 56670064.4265912 34166728.647452116 10502362.079731574 28355810.557599828 16019234.689672528 211881701.12156934 391915821.9725345 72054.80271496343 53993.58150726962 41162.89080888527 24495645.157516025 239643.7686093906 128609720.47979821 8270345.372769931 1818252.3747325991 19974192.84767273 1116117.6537340798 413218394.32793397 407501459.5474232 35854795.21988489 145823834.86868992 140873341.43700624 35523258.558836676 324979742.0067383 325095869.7169506 113593242.92776005 4308263.184364169 66772045.44485131 9827028.477167977 9827518.372196946 59021488.17259074 5746431.060352168 5747020.116529456 126100847.99724996 17756461.89172345 40740488.37994246 5225910.012773422 5226404.352054212 210183334.90917218 346897674.07048637 59401.745614419684 76933.60225511252 43876.12936200457 1796965.3341983883 6153495.881034171 6152935.618872766 186432735.42708316 131967.28000803618 122192.77105322546 30171.208454636464 237274532.36651444 237431686.20972613 38922742.41094336 245197348.11253503 240220926.72275683 38815.61185363111 49894.20993906935 186087189.2151462 3546298.9105432075 4557370.267699192 4557796.890435983 23173068.239607878 87839080.37832242 188571294.91451243 252631302.01260498 8842173.442461045 249167976.06954795 1409437.7442198393 11951896.577305116 147935638.03594828 145656659.8404442 364366.26467938634 436164.35765219975 172116.8897397892 142501.07215302682 180817134.13314417 13328008.660698805 17633996.020194065 265076940.27475208 265223926.3933498 4923336.037298776 64574462.81686422 401255558.71248907 377902228.37194306 379571510.18497723 401365976.1491255 137322139.70762816 8019410.2624654835 8020214.586549048 127938778.88167492 855269.9685789577 5146355.859638411 257315598.81338087 261518615.13975966 9582943.60938906 14702525.726216454 5136568.0916880295 5136066.121305504 267283687.5216226 271217679.98251534 826948.472157657 254558.70496154684 126046.6397739451 365946458.6746536 366732138.6144458 254528528.35797486 245259165.29347587 242725313.34228283 268175972.64833 264242430.42200074 15461007.615629453 15461181.501353322 340704326.9878363 390370997.9533974 390275788.9653996 114785.79974007723 71499.93886528983 74605.62062666916 48656.12282243773 74913.72961661589 342108330.5376768 10637932.4375316 240107.01650886112 450891.2512380321 351005.6838844368 586568924.3588262 587613775.3699383 22901892.814777385 128343831.68631391 338032609.4367991 338364252.7379503 25284256.94288666 67978834.89681569 37083767.702892505 69064282.68503883 69067673.78184254 30693872.886178568 22996736.118845366 25339880.874982122 17499282.07795022 190583327.37610036 32089939.744646333 33854914.4455606 16114157.313405564 56565020.23089052 168827295.16364244 11514136.483539622 317339862.87197083 319927517.4075357 116184050.9140792 507318284.5907209 507062382.93765175 11820635.997736137 11822138.67258635 199154572.23242754 8763426.742521614 88283984.93762721 10238969.71396196 69384573.19681758 156270548.47048047 152309486.87865588 498668706.97609675 499239082.18881226 123430553.17050895 395483744.2487743 395571816.3408121 126074840.28705353 19272912.122580197 27291777.668655723 24976434.28368456 84091144.20595069 12046860.697051082 12869199.750711929 488170622.1868609 490285577.3966886 203841432.13164794 4255099.706096273 1043421.9286935972 120735913.27021457 9241963.991822531 112906009.4385005 107762294.74812429 102192.53699563225 69357.65418204904 63388.270547140666 253842724.15995228 252116312.5218422 31397795.94293266 7057947.099451231 7057293.115833135 459570224.8642502 462805618.5422479 976315748.2797096 976250485.0608675 7139467.760830304 7145892.610763241 199089864.34727684 348647056.0650525 348774227.7857864 17771185.996259138 21827557.59557759 16709477.585002443 24598.170779164117 27142.1844070967 152500163.21605605 2879340.5057801455 30646326.03124789 537729.5095516428 222758.00531273548 49803685.50694503 68357312.12593654 3396079.2566334186 597788.0456798873 6853063.540917986 175900.55978300187 9505.70819196898 19867990.417884547 119796024.54295497 212263775.0074121 207216307.21377406 29233411.18216226 70771496.81322308 59982.71539316036 61592.057862426715 87991276.7738645 15636048.030770525 105947392.26109819 18952172.286793143 321410216.0131665 9274223.277426405 91810.86981579172 119674.21928017659 39063.873895051714 60968095.76099766 60967871.39726983 89145.03498611733 86241.0769676239 31902.09163338169 53967742.32462501 77480020.00173569 62321211.09079936 39937202.46022123 362326102.45950997 4246453.199728663 5228395.762686593 5227995.391265319 40346735.699155144 3507463.2047054283 165633.8500255037 141234.44923534864 41660.8346520269 29109.631153764727 55655.72762768747 53463.57905341156 65398.0219631606 84532.32609634555 174415614.64001867 857456.7905119251 30754280.582752608 19376993.52259084 30442782.40457269 4763685.666233447 423246.862823228 293409.09786056395 161756.98043629044 167784309.66402778 165226514.40992022 172819557.89517257 174347111.50956294 8893738.025593009 6579339.060729561 1401166.3647784512 4481841.028001629 105049132.85185318 12008605.043643443 399854.2902600078 291546.9459072183 28105491.24968478 58229666.5007827 494762994.90207416 496297285.40523165 39860081.15098855 44453459.43192713 228881018.8995656 134768971.3207234 312344.50055182073 185734.2069665428 214511642.18021068 210464436.51054716 162820024.9496503 163415126.77161926 8795293.032451393 8794813.768930234 197818.44774529294 522781.25000252493 1555280.5606494516 1540803.8562427615 19513403.479456328 110534408.09019136 7808610.879198206 7807767.921156101 9923002.606073134 115138.93130292888 114996.82639826325 12750556.55312016 7229784.511391843 7236389.814189194 41465761.75591575 184918599.77043116 191778.84703481194 199746.08805630414 86524.98183729622 86464.18919796823 84573043.19649304 30624258.20421087 238049651.23063764 13120101.374451667 130958.6643463876 133663.04559804883 75262.89019100042 72961.95230505269 59484767.701952696 59489855.28090601 151933599.20023173 148861338.45040286 384616163.741437 519368.43196142896 316130.32859231235 1586628.2394318893 4274614.779432416 4274608.075510629 2641521.0000036443 18013430.520364337 4143047.720163511 231931096.82479647 382074.1757986005 398721.28759839485 20166177.16294262 15760753.862888366 26180371.576244175 21055853.50695057 33190616.276344374 270732983.7190473 271134424.7601725 5443565.308457181 74301573.15145262 37909789.14459388 42772544.43771199 8720204.174820486 10563473.111732898 4208219.940119758 10770758.384962779 62922004.29011943 79240654.7099028 302818515.6678281 376123.02452499326 10654850.306195421 3439533.7548504253 3439857.7413543835 43349198.5278266 61683064.879675515 57078580.375241846 48277.38283811148 48812.178161166594 499893555.06040895 499506611.2636544 325297640.87208045 6804918.406664602 241149519.82187065 241356534.8467894 41659951.12388584 41658989.67833109 122065638.88040379 11320732.126300983 34007603.951011084 141918648.3603434 29383.519292992947 33425.01059155229 39784.750823595146 250220985.6807485 495612692.5441502 494768096.9508465 10942253.383602144 524290014.2603791 525307736.6151284 225448893.20173052 7104958.153323564 427504774.93313634 423273059.5848288 64219120.11894637 64206463.857497394 97031332.50957952 22714995.397268187 77655.18442710604 62623.02082836572 170361450.87706494 6775201.1291250205 221074749.95515075 213915727.6467368 285056390.83555555 217834443.77048424 210748596.55260518 66823.76731391126 50645.66207663563 420899688.7583982 82572862.82070976 353800723.1032578 278146599.20318675 278448892.3704987 23012.51014524108 23145.612350379924 56796954.94569372 45194746.05275839 77916922.61060756 132142520.54721978 97716148.7827157 47321129.46149679 469032098.8443675 461492316.07735384 33531369.542862944 7821841.229464903 7823210.156997943 1152354.8967678011 6445673.365015288 6446300.449191799 60411.66056057769 93699.59926384767 56636.9966400851 67462.53960786658 66573.92278969187 93992.28178755831 21064905.627817817 20115927.84882088 38436350.96003484 43360882.89900579 61188657.34263541 94949467.93580271 63395.040211960564 71941.81551068311 185396839.66619417 1389371.9258663552 262518.0426421893 303419.5225138337 9775437.49590878 241282280.4234668 241211302.03045124 46113.583193198436 34187.72426990666 5448730.459014694 19471.430696132247 10816.32350247797 25191.3711350074 24426.759359927284 11431654.321412556 130966729.43535951 136223098.7245163 77228825.9000389 213876985.85485727 11268138.211369282 311904044.22539294 5193438.584158028 5034074.680348402 8190604.305197776 6867298.760175267 66487.64875932646 72026.79009381421 19810.85283220498 33764.75788560495 18785.270547952045 77281.00072774626 79312.19991619534 121441808.51332654 57019228.54553146 46785915.93056554 17062078.41522663 287069961.06252027 287244482.4583055 104263045.5850558 10897419.05950722 123931120.84826545 202853454.95046958 197894114.83965752 10388559.099703835 2506316.7155366316 151341395.74111983 153512575.1731951 8354667.583327391 8353942.92568902 244754709.8044515 50832.99467570794 56186.20397885828 57918.463282203506 16630.762427403548 16813.353433877375 14618.165025230452 200079561.02988252 261671896.34687656 335508895.3778567 57919143.897684574 3313449.3087092065 124510351.85735765 55148999.73927784 4105495.4604152706 119249853.30731103 123588799.05244203 114714403.57108948 258112755.04222894 257796834.88435417 17925787.712352145 63580562.76804081 99562366.0868481 9633677.324706975 3997850.1222793036 108276.101548939 101157.4056152735 62907.60792668572 135788619.649223 14787652.036533164 208267604.68597803 355128.4369918312 244461.0975840517 283581.43267897813 289191553.10715914 125447537.37929872 5583109.76337005 182522.43557400876 125917.17470112974 118641.29136973529 194116258.60766128 16484115.927212792 111510296.14090097 58721099.333918 2774251.3798774597 8358612.24462658 195604432.3931831 17698025.6956702 221348769.21633524 380818.68852257676 253780840.40679362 198099.88127658947 57650.11642848417 60618.01877385678 68373.82553751573 67485.06787734367 347867174.5835067 345622498.29456645 50877566.80520013 129807640.77384599 23713061.72182844 196032276.8163872 25253772.12911884 63497821.05092621 67135876.43673003 9685712.455920443 10657877.055720527 128110294.35031295 61578188.45391763 41803965.80052994 127370489.68674737 361285182.3617419 102672679.22177424 128512398.71921274 189585051.17956978 127373884.99973786 189572399.6012925 2886271.6186573613 121321082.72769172 37707266.31379615 99503819.89994104 181551554.03244057 9784896.559656624 9784145.399992341 14960585.27716647 2832610.2070467765 104154911.72975175 91268.83875471092 86198.31112198868 9819157.568168188 9818365.255284138 11242467.319540406 141228622.43778402 39082461.32886377 4590587.135471389 4590020.282657045 89963454.81798525 148106.3799476706 221982.13139092166 298734.4284833301 465526727.678508 463628202.618585 23567424.55214188 354379.6372915523 291447.9746603521 110530.26399558804 27988.898496629896 37399.45128185015 21833.081060456396 42429.31450367493 197823274.02627036 202248981.20006153 10027568.208778659 489727195.7905331 490017275.92730343 24888306.64281178 3906431.6576874126 4452566.921071036 3290273.425274744 16021711.124462835 16017809.740015415 228405565.33166894 236005373.0070631 238539926.46964094 5362441.664524049 73901612.09388402 391963747.318824 207594503.17212754 5792114.449183326 319677846.8594016 7671383.63045882 272971196.4578242 268333437.4395758 307254035.4986844 307493994.01730204 113493071.91460301 78769.32447035654 79989.61322577274 88837236.38758904 37756036.803831406 17923434.70666096 191325705.19623867 16362745.408649916 16359187.34518609 2135437.9285641247 2136586.8175031627 369001938.53466994 368812534.28702414 339257028.9518512 157825469.05895784 157124645.19772258 13582643.578867214 13580597.130026987 123752002.97247487 5242225.611131753 16412868.201406023 16408260.988610875 62043799.816220775 344793624.58891857 344013565.8155385 392093511.7825979 389273175.2685174 6161731.495047153 6162323.244158903 8485545.562615559 8484951.045921626 37229405.464646704 75473721.2576937 11745344.563227592 51088568.46816644 15992439.724836495 6057121.354702659 6057723.054937511 152035108.22885644 152038230.81677353 5172455.505309173 551532210.4961233 551525387.9212142 85816130.9684273 90994325.55848204 247757641.34272736 248103399.65310165 118725233.7910286 308671242.69246423 312578906.069527 316250880.3325772 316229235.584236 622378734.9783028 622624933.1014308 21813896.30306074 91597013.29253776 2403705.3551518964 99729190.40634666 115729254.3296755 327791516.19664377 98343538.8463432 3902844.54075846 9968033.21251197 9961162.240703404 100868823.98977396 230101340.02085972 234780723.27148387 3325185.7274683616 3325915.4273760277 159522671.80381513 2027892.558925855 78856808.07418832 125570089.87135874 55403966.37257793 50473891.96961055 1180896.2763618238 1980942.2187301284 249924977.73040333 242814789.43157065 306136734.9447125 4673565.098651884 125971158.07444617 60155048.35625199 80400332.16986518 217547155.19667345 217169801.66748717 58823205.93383441 60448932.38423902 124635705.73145573 6981814.903765875 6981147.504661656 112224.16912349834 187742.98839999424 160655402.06242907 165532381.62737948 120512.05996432192 182518.3560886214 273341545.0604474 27687.946965791813 18359.307153895796 129550031.56424944 129566923.49234371 49724.10780174381 40282.205252757616 150400680.60583863 32537943.29323876 32531732.692611236 61840019.003152564 99122633.87357277 82002169.96161813 287149017.72303224 295634132.8287877 4728290.671731045 4727844.988533499 106832199.25599796 9190748.29478336 9189874.147735901 453295748.7639342 65591598.170893475 63463779.5530911 11522181.651541563 98341473.7814107 100800484.31069495 100727054.77977018 192791114.728202 318110427.8476059 184627384.67283148 52025815.82892661 314285.17973806226 65754140.86721663 60896362.968827985 3712689.607344154 72317.63455332219 57215.69282068002 76299.75100036562 297780.5379320829 153917.63841485165 122353.1030810462 61336.46650070171 157009.5868609316 59030.33387244992 195207.56467440748 4097662.132630374 109106.56634940118 47228.64527312928 140889.46926092095 61851547.12009783 126822025.71891415 141025171.30635273 76100212.59372231 31598089.901244134 4883917.22185158 41032.816426951584 102194.8582033282 74057.82212815125 98012642.07512245 92422259.08850951 112283099.17103046 128112954.55389692 80389377.36214365 81767138.0685875 186265920.74314144 74122.87287136934 34806.305854934886 49076.92359576197 88478246.2314947 3105543.1794936666 3105043.511559429 117695863.71837775 232842.684134852 439902.5269805887 6418478.816570726 6417866.502200922 30870.54495243748 62248.73785851445 55376.99875463992 5708570.818237841 233370505.84493163 233375742.5563494 40798760.904977664 70373493.85181722 254883965.49019352 241814879.6923397 231736.7199145037 491724.9646011186 3113231.3889047075 3112586.37518463 10695143.499775238 10703345.76822358 106083.61204612938 49434.0885731008 75071.6539277984 423440059.0929824 489860309.60485584 491460876.4424308 70485518.30661659 517956825.8928736 516959635.89183986 550752560.6980042 550435401.7370403 70590.49908116249 71685.28900392547 223159137.01911914 223149590.99246135 53465.167789064835 68595.16469500518 38155667.2009852 68726.90759453287 80581.09874387513 557602347.3083124 557122817.6344227 209298.72253307447 189006.9071282037 207746.72049601626 243367091.30779856 102254.81055020464 113217.34511359328 146676249.2265964 243616609.0054199 23038424.04841969 199340038.93395808 41770904.74643134 52001979.944221 149294739.27266172 99616673.19931874 65950385.910516046 288127894.3767309 41093847.95112627 105567317.75471404 325551652.6387013 399995079.4016508 52857725.35157579 57524361.13741047 19832751.50060356 30063.284713588233 35212.95871535262 35272.06880831459 174033174.52153653 108318920.34695873 103831002.04104191 18148370.893796194 171232148.5886858 366890515.74537987 291736061.279839 291409056.57684326 316530454.72969747 374255835.7699054 374457845.52734387 318015377.82309395 1854144.929593034 53357244.59812505 27037799.541959397 24012873.14002618 136792979.3598637 129582227.64337143 3140864.4671203652 322719194.4390315 322940812.00780165 46056.90165231701 35124.703083230044 38933.387674105375 133718.13596964153 15886249.582335873 130159249.87381004 9805908.288826179 16100816.739262186 165175073.0334428 17922915.736969028 39057312.979540065 10100226.349758545 292810360.266936 18723894.55537693 424235123.8685351 469888020.19206995 469417180.83419394 437659638.8222169 43010537.20630865 134298123.40450016 54611384.0412027 52154652.73778927 9970804.08791504 86189300.16794427 86192581.7011057 255451.52641904683 210798.7853183527 70924.29331352076 66440982.163558215 207680251.5369095 89188291.49380255 326939107.1137934 178513.83929946093 201070.7008111882 199080855.13439354 269643251.21830887 308704594.6630262 259162797.76604027 16189454.47522805 16192576.94989447 15475083.14144835 15472792.356139624 95767498.99540937 217477.03935712675 149671.99466054316 180453.51411666893 44325715.03874607 377943246.49644625 20245189.138372894 220630.6558211882 190028.64632919666 43349.7745417832 114695106.14673063 114973168.58756879 120673951.85030803 120578806.63426103 275313.28689588717 215310.72372821296 75961689.85305817 14639439.001161708 78014716.16822088 196890.9588708801 239425.7150853928 142877.72947053332 130947.3720474163 96647.84347502532 130943388.42954321 121846455.32076687 318875582.4150062 257910679.43418136 253062015.41254607 317312914.0881509 577961902.9506598 576184344.8867878 484361170.46356034 484909950.7482693 494522.3113624836 21175020.09498682 21166916.656810317 22027814.333353188 235772.8533196481 236948.46967762423 13730369.378867045 13738271.932419928 81760282.35436103 71567701.09238206 269903249.5574786 78608.50782003322 96191.59836384363 19669311.593741145 19669536.48534971 71095385.1696661 73115251.86414951 96618.75077429954 127132.95083655936 22174179.323579025 16755379.425232723 61280955.44152664 499987376.3506068 500219049.05400294 44942137.28220288 44935163.8840164 97678235.96893519 20175378.950647626 20175951.0663773 66349556.63245179 202464432.30486298 203397656.87172785 143077901.5048181 268571429.9258678 374135749.60914296 77372.41718151383 97619.16233851975 24703833.823303018 24702021.93015215 98387.08882920568 88126.8532283847 85146113.94879812 35032709.10217475 155243169.19303554 160117995.95211536 56810767.13154968 3061047.7978867586 3061574.495245361 48372767.23708345 336094696.04236895 90841.08674479475 101415.61342480047 64470.734251025584 65675.1708593344 63399.24984815985 50479.08645933124 86700814.37522839 25921629.074728712 25920742.439622596 63037966.87153113 3814163.4543829313 3814816.3051884654 113166935.61006467 336039538.5095292 8850953.777297366 169088434.8664363 373481910.9575062 376922047.85579187 306896493.8107369 306709129.06476015 452464044.76144123 440626695.6600401 389826295.27401865 378958612.2059468 68854366.93577747 58750651.015170075 53949915.38715322 309911028.773661 306855978.27426654 140009.69134558702 137137.51144167426 90737.87877695264 93528262.6245663 87843781.6335874 201124967.20155296 190900723.99702293 489649124.0718185 487729700.3839916 92134180.49682648 12232509.561753226 93552601.44186722 5698281.521464394 5698845.680898882 483679687.06123155 483569213.35864156 129304298.56126828 68657533.55269277 209764.5020190186 179491.11280856782 43019.4070056385 65458781.03784165 58723239.88209136 204766497.99326128 248093993.26767617 200580719.55848524 118595417.05597723 5567765.268105641 5567242.794811227 487947632.84876126 490829537.04057926 76253252.80126733 296829150.8323755 296395055.22368723 296071741.0673061 296986182.04232967 248846350.18682837 10693028.138231432 10693782.20715198 191477675.0627178 16931611.9350141 22224978.61464893 291852492.85442656 345548647.81415313 363739390.4068055 433922440.92556465 43976788.4062544 169878.54420366112 174870.7870630481 91307491.2001173 153735774.16312936 9230104.538268613 161991.00116584043 89194.86057684422 212647.1820425111 116802258.25132772 104270.6889793689 100391.3519817133 52835622.79810011 52836678.34475139 378979052.12052023 52746679.697610386 52746986.13743589 50608116.88384995 14086480.516552333 11876109.273433411 37470505.120296635 104046157.68189038 10497157.66508338 72294408.09539169 34354322.71015028 139651462.39039177 165212.0777987663 90888.9165179131 216635.50204698986 53150203.59290605 59083558.19683453 55065766.75226593 264614681.7152469 11342771.46360042 99229172.64684938 94018604.67956841 7342549.448167524 9079251.822760783 176923066.8395687 10182894.462121973 10182257.469546137 43444038.13012108 269616.86181060266 229518.66807920556 119052197.17183782 9771011.515919132 163328756.77810013 31108533.37534236 401489654.6211003 14522336.634582976 402933820.0280685 406542218.4354519 3138031.910669287 8475297.678241117 8475715.614122566 232719955.57726932 335108009.40010315 29026366.036119405 315736437.2286695 349425884.7598288 67798425.13227202 4580981.623335458 326997226.4998455 261602194.8915528 142431824.29899848 345907871.5379928 274075876.496061 279897542.91785043 231094160.81295788 206042459.00891024 55902770.898710065 263059225.5683068 169191511.9473514 110768142.06140241 56726334.423515774 35704999.24878621 99962043.15122566 250381024.6027004 248556278.27187607 251576827.88978097 250251471.48574963 32192.633953623277 52424.526883299615 47254.76346103573 54290.73511010011 83284.46147612832 37658.28189113275 199556554.88031375 124296.49695517101 125848.29531498601 37320796.080430605 8108411.991759541 399488706.8988493 401452054.0305692 179503357.05589578 198933282.29501328 196410898.78805912 256821062.48353723 8419312.15819704 8419855.698635416 1499749.8267330178 61742.05522710896 40027.72947512046 73960.22284626865 229979.87781017486 261504.50617310056 125394052.9274157 352349822.71383256 311460762.2430998 308314512.9935497 74514.22493553102 53234.03061496427 73375.27609824475 166995286.1845492 260327775.01495296 12293337.604944758 266720745.557292 292144531.60072035 230875425.25651783 19837832.03895668 40909342.807103045 195349550.81058002 42506295.613484085 60752.32528520782 24190.471490492575 45671.437785464484 55492.40953982904 326424061.0371511 49163231.29311289 32005586.63186007 96667288.64714955 552912796.2038178 552470451.5586947 43675509.92010021 262407837.84347782 250478938.99026167 260739804.2835841 248054583.1118141 118930918.67784312 189389375.726766 193744893.9306671 112142677.88261265 23813.218978782905 123835.98509666389 101681.2388599673 92177.4556559198 21108.58416630349 111474.47633870321