# vtk DataFile Version 2.0
Really cool data
ASCII
DATASET POLYDATA
POINTS 2167 float
10.0 25.0 0
10.25 2.5 0
14.75 2.5 0
15.0 12.5 0
20.0 12.5 0
20.25 2.5 0
24.75 2.5 0
25.0 20.0 0
13.015625 5.0 0
12.5 5.515625 0
11.984375 5.0 0
12.5 4.484375 0
23.015625 5.0 0
22.5 5.515625 0
21.984375 5.0 0
22.5 4.484375 0
13.015625 21.5 0
12.5 22.015625 0
11.984375 21.5 0
12.5 20.984375 0
23.015625 17.5 0
22.5 18.015625 0
21.984375 17.5 0
22.5 16.984375 0
12.5 15.5 0
20.0 15.5 0
20.0 14.5 0
12.5 14.5 0
10.00403225807093 24.63709677361622 0
10.0080645161563 24.27419354593253 0
10.01209677424696 23.91129031777318 0
10.01612903230577 23.54838709248107 0
10.02016129035602 23.18548386795797 0
10.02419354841103 22.82258064300752 0
10.02822580648097 22.4596774167125 0
10.03225806456681 22.09677418898731 0
10.03629032266798 21.73387095988129 0
10.04032258075012 21.37096773248903 0
10.04435483879861 21.00806450812494 0
10.04838709688005 20.64516128079578 0
10.05241935495465 20.28225805408125 0
10.05645161303756 19.91935482661994 0
10.06048387112473 19.55645159877427 0
10.0645161292065 19.19354837141498 0
10.06854838727757 18.83064514501887 0
10.07258064536606 18.46774191705492 0
10.0766129034346 18.10483869088549 0
10.08064516151669 17.74193546349787 0
10.0846774195907 17.37903223683728 0
10.08870967767305 17.01612900942542 0
10.09274193573161 16.65322578415481 0
10.09677419381719 16.29032255645265 0
10.10080645190677 15.92741932839017 0
10.10483870998482 15.56451610136578 0
10.10887096806891 15.20161287379791 0
10.11290322615036 14.83870964646787 0
10.11693548422069 14.47580642013797 0
10.12096774229187 14.11290319373216 0
10.12500000036691 13.74999996697819 0
10.12903225842383 13.3870967418552 0
10.13306451647886 13.02419351690233 0
10.13709677451437 12.6612902937063 0
10.14112903255518 12.29838707003324 0
10.14516129060447 11.93548384559769 0
10.14919354865313 11.57258062121796 0
10.15322580671374 11.20967739576328 0
10.15725806477384 10.84677417035441 0
10.16129032281338 10.48387094679534 0
10.16532258087472 10.12096772127496 0
10.16935483892187 9.758064497031445 0
10.1733870969857 9.395161271286613 0
10.17741935503843 9.032258046541457 0
10.18145161308684 8.669354822183982 0
10.18548387114214 8.306451597207326 0
10.18951612919923 7.943548372069355 0
10.19354838725904 7.58064514668658 0
10.19758064530033 7.217741922969729 0
10.20161290333043 6.854838700261147 0
10.20564516138313 6.491935475518151 0
10.20967741944725 6.129032249747367 0
10.21370967750003 5.766129024997362 0
10.21774193554038 5.403225801366053 0
10.221774193581 5.04032257770997 0
10.22580645163059 4.67741935324665 0
10.22983870969496 4.314516127453131 0
10.23387096776351 3.951612901284103 0
10.23790322580145 3.588709677869551 0
10.24193548386297 3.225806452332522 0
10.24596774192589 2.862903226669555 0
10.59615384879596 2.5 0
10.94230769598397 2.5 0
11.28846153932223 2.5 0
11.63461538477885 2.5 0
11.98076923215367 2.5 0
12.32692308114312 2.5 0
12.67307692536209 2.5 0
13.01923077070862 2.5 0
13.36538461224543 2.5 0
13.71153845566042 2.5 0
14.05769230141394 2.5 0
14.40384615085709 2.5 0
14.75892857144616 2.85714285784649 0
14.76785714288078 3.21428571523109 0
14.77678571432 3.571428572800198 0
14.7857142857668 3.928571430672074 0
14.79464285720148 4.28571428805915 0
14.80357142863987 4.642857145594823 0
14.81250000006625 5.000000002650031 0
14.82142857153606 5.357142861442594 0
14.83035714299431 5.714285719772646 0
14.83928571446538 6.071428578615361 0
14.84821428592949 6.428571437179454 0
14.85714285740048 6.785714296019075 0
14.86607142885319 7.142857154127467 0
14.87500000027791 7.500000011116425 0
14.88392857167472 7.857142866989042 0
14.89285714308988 8.214285723595362 0
14.90178571450818 8.57142858032706 0
14.91071428590076 8.928571436030644 0
14.91964285725977 9.285714290390665 0
14.92857142864635 9.642857145854018 0
14.93750000005199 10.00000000207956 0
14.94642857145045 10.3571428580178 0
14.95535714287157 10.71428571486281 0
14.96428571429883 11.07142857195331 0
14.97321428570877 11.42857142835066 0
14.98214285713628 11.78571428545122 0
14.99107142858074 12.1428571432296 0
15.3571428591223 12.5 0
15.71428571719138 12.5 0
16.07142857423201 12.5 0
16.42857142974857 12.5 0
16.7857142846084 12.5 0
17.14285714112862 12.5 0
17.49999999772317 12.5 0
17.85714285297952 12.5 0
18.21428571083795 12.5 0
18.57142855939082 12.5 0
18.92857141386655 12.5 0
19.28571427430228 12.5 0
19.64285713574168 12.5 0
20.00892857145444 12.14285714182253 0
20.01785714288121 11.78571428475149 0
20.02678571430391 11.42857142784392 0
20.03571428575173 11.07142856993083 0
20.04464285716307 10.71428571347709 0
20.05357142862058 10.35714285517672 0
20.06250000009985 9.999999996006125 0
20.07142857160473 9.642857135810823 0
20.08035714307449 9.285714277020388 0
20.0892857145293 8.92857141882806 0
20.09821428593644 8.571428562542428 0
20.10714285739586 8.214285704165588 0
20.11607142887573 7.857142844970847 0
20.12500000035236 7.499999985905506 0
20.13392857174129 7.142857130348313 0
20.14285714310267 6.785714275893214 0
20.15178571450528 6.428571419788685 0
20.16071428590087 6.071428563965252 0
20.16964285732718 5.714285706912793 0
20.17857142873676 5.357142850529643 0
20.18750000014888 4.999999994044952 0
20.1964285715605 4.642857137580068 0
20.20535714293256 4.285714282697754 0
20.21428571435444 3.928571425822371 0
20.22321428574628 3.571428570148774 0
20.23214285715693 3.214285713722903 0
20.24107142855655 2.857142857737868 0
20.596153845103 2.5 0
20.94230769181397 2.5 0
21.28846153698369 2.5 0
21.63461538161964 2.5 0
21.98076922946485 2.5 0
22.32692307653609 2.5 0
22.67307692028468 2.5 0
23.01923076562454 2.5 0
23.36538460449588 2.5 0
23.71153845024273 2.5 0
24.05769229413811 2.5 0
24.40384614838844 2.5 0
24.75520833333718 2.86458333360238 0
24.76041666667798 3.229166667458308 0
24.7656250000173 3.593750001211001 0
24.77083333335809 3.958333335066103 0
24.77604166670141 4.322916669098772 0
24.78125000004511 4.68750000315787 0
24.78645833337953 5.052083336566992 0
24.79166666671298 5.416666669908391 0
24.79687500005813 5.781250004069072 0
24.80208333339111 6.145833337377437 0
24.80729166673437 6.510416671405975 0
24.81250000007497 6.875000005247864 0
24.81770833342114 7.239583339479573 0
24.82291666677311 7.60416667411762 0
24.82812500011363 7.96875000795414 0
24.83333333345632 8.333333341942213 0
24.8385416667967 8.697916675769235 0
24.8437500001361 9.062500009526882 0
24.84895833347101 9.427083342970692 0
24.85416666683082 9.791666678157132 0
24.85937500017594 10.15625001231616 0
24.86458333353615 10.52083334753068 0
24.86979166687154 10.88541668100752 0
24.8750000002114 11.25000001479821 0
24.88020833353079 11.61458334715515 0
24.8854166668455 11.97916667918503 0
24.89062500018088 12.34375001266188 0
24.8958333334951 12.70833334465707 0
24.90104166681805 13.07291667726343 0
24.90625000014924 13.43750001044626 0
24.91145833347969 13.80208334357788 0
24.91666666677206 14.16666667404435 0
24.92187500007075 14.53125000495268 0
24.92708333337507 14.89583333625455 0
24.93229166665025 15.2604166655177 0
24.93749999993438 15.62499999540688 0
24.94270833326972 15.98958332888 0
24.9479166665939 16.35416666157307 0
24.95312499989663 16.71874999276385 0
24.95833333321826 17.08333332527833 0
24.96354166655782 17.44791665904754 0
24.9687499998933 17.81249999253098 0
24.97395833322337 18.17708332563618 0
24.97916666655323 18.54166665872609 0
24.98437499992156 18.90624999450882 0
24.98958333327948 19.27083332956353 0
24.9947916666537 19.63541666575921 0
24.65909090697006 20.11363636434331 0
24.31818181387862 20.22727272870713 0
23.97727272112545 20.34090909295818 0
23.63636362933978 20.45454545688674 0
23.29545454074166 20.56818181975278 0
22.95454545175678 20.68181818274774 0
22.61363635870555 20.79545454709815 0
22.27272726938004 20.90909091020665 0
21.93181817642107 21.02272727452631 0
21.59090908415283 21.13636363861572 0
21.24999999070893 21.25000000309703 0
20.909090898365 21.36363636721167 0
20.5681818062032 21.4772727312656 0
20.22727271532826 21.59090909489058 0
19.88636362288735 21.70454545903755 0
19.54545453222531 21.81818182259157 0
19.20454544067146 21.93181818644285 0
18.86363634917439 22.0454545502752 0
18.52272726008306 22.15909091330565 0
18.18181816691119 22.27272727769627 0
17.84090907624678 22.38636364125107 0
17.49999998161302 22.500000006129 0
17.15909089129634 22.61363636956789 0
16.81818180107666 22.72727273297446 0
16.47727271035784 22.84090909654739 0
16.13636362113641 22.9545454596212 0
15.79545453028867 23.06818182323711 0
15.4545454400335 23.18181818665549 0
15.11363634812483 23.29545455062506 0
14.77272725866684 23.40909091377772 0
14.43181816866006 23.52272727711332 0
14.09090907805834 23.63636364064723 0
13.74999998745307 23.75000000418231 0
13.40909089754563 23.86363636748479 0
13.06818180839043 23.97727273053652 0
12.72727271853859 24.09090909382047 0
12.38636362812021 24.20454545729326 0
12.04545453791708 24.31818182069431 0
11.70454544876188 24.43181818374604 0
11.36363635991656 24.54545454669448 0
11.02272727049761 24.65909090983413 0
10.68181818161208 24.77272727279597 0
10.34090909059876 24.88636363646708 0
12.86460193220061 5.364601935898014 0
12.13539806564783 5.364601933746452 0
12.13539806779939 4.635398064101986 0
12.86460193435217 4.635398066253548 0
22.86460193304701 5.364601935051613 0
22.13539806478868 5.364601932887309 0
22.13539806695299 4.635398064948387 0
22.86460193521132 4.635398067112691 0
12.86460193226812 21.86460193583051 0
12.13539806566697 21.86460193376559 0
12.13539806773188 21.13539806416949 0
12.86460193433303 21.13539806623441 0
22.86460193292542 17.86460193517321 0
22.13539806482679 17.86460193292542 0
22.13539806707458 17.13539806482679 0
22.86460193517321 17.13539806707458 0
13.0357142863834 15.5 0
13.57142857334916 15.5 0
14.10714285783675 15.5 0
14.64285714470339 15.5 0
15.17857143070267 15.5 0
15.71428571720997 15.5 0
16.25000000702564 15.5 0
16.78571428904744 15.5 0
17.32142857412979 15.5 0
17.8571428511085 15.5 0
18.39285713616606 15.5 0
18.92857142211578 15.5 0
19.46428571101452 15.5 0
20.0 14.99999999601014 0
19.46428571160309 14.5 0
18.92857142040583 14.5 0
18.39285713577575 14.5 0
17.85714284336419 14.5 0
17.32142855637984 14.5 0
16.7857142655791 14.5 0
16.2499999775787 14.5 0
15.71428569556309 14.5 0
15.17857141150299 14.5 0
14.64285712475407 14.5 0
14.10714284117721 14.5 0
13.57142856006613 14.5 0
13.03571428124737 14.5 0
12.5 14.99999999867727 0
13.59915724833058 3.675389054095287 0
15.86935450219855 22.72169992088736 0
21.8763834262036 3.198868851087295 0
17.94771679616114 17.51095621814974 0
23.2948534993517 6.820985158823478 0
23.48033402155674 16.77243687560966 0
10.62409999020659 12.70051642504893 0
20.20340026492392 17.28262483480204 0
21.55834855747514 15.677040303776 0
14.1807834394081 22.253116323364 0
23.99214496963538 9.913804593755271 0
15.98635007750356 19.31263359543293 0
13.47410414346389 7.176954213693744 0
11.07821088732477 22.04347622136611 0
13.63350093113004 13.03413331850676 0
19.05684105765551 18.60308228177225 0
12.84549219210573 7.515569876574403 0
22.49999999841045 3.484639627020975 0
13.56391847915692 8.646682402948013 0
21.21475694808388 8.498475770269465 0
21.64965309736175 6.796923435370785 0
11.45661295397357 23.07590950936937 0
21.12984338297854 16.68993678784089 0
23.57950716949996 13.88021812080324 0
20.84028037295655 12.31470126173513 0
23.69810360944451 16.18969226509057 0
10.75747183345806 22.72102572386566 0
17.19214722901291 17.64535894143353 0
11.21384999845295 13.16704960094677 0
20.90725350970228 9.776286739660348 0
23.26996394477202 9.320717929826134 0
24.55726034295771 8.888599700867385 0
19.9075021102781 18.05288082149201 0
23.06094548900615 3.206676001334439 0
22.90916006512585 14.81879230915883 0
22.09439228440378 16.33708179506873 0
21.12241179786722 5.889341883147993 0
15.70275702321914 22.0106042749609 0
23.93565351947909 18.0095873826133 0
20.39873186443622 20.40074108569521 0
12.50000000325256 3.484639627000463 0
15.02918054935144 21.33791714832311 0
12.79621869395968 18.32593420033999 0
21.60950755209764 11.91160216738594 0
12.31179020831078 8.359780859112618 0
24.65464835889408 15.787343910205 0
13.44761687512333 10.7674177115836 0
11.90898707291546 3.167075935437521 0
11.90685699072605 12.42277138961524 0
10.90191117294099 16.8506158141956 0
17.73589702219846 20.27212824041041 0
22.44563065431722 13.23531220128361 0
10.74375977224861 9.572982540349798 0
10.91494554822319 13.59924096567976 0
19.60771737494959 18.87324184678637 0
13.98444311239617 19.6792282805981 0
17.88283261615295 13.34754481112353 0
11.13887487413797 7.56276999486774 0
11.36499535577895 9.681038236044305 0
18.07782790075357 21.70760370875133 0
22.90212817827948 11.59988024134902 0
11.63284005398679 7.252718672175422 0
11.24611961642826 16.12161904568324 0
11.43203470612148 11.85894408566462 0
11.69311543758284 10.76992264565667 0
10.45832210297363 11.69087330428489 0
21.2447935747471 10.56560644512322 0
23.75299933353121 5.908513313803812 0
14.31358659272774 21.43672728680616 0
19.84485841484958 13.56163878027754 0
23.19911778340273 3.747400303198432 0
22.44904409943795 11.53514901691835 0
12.46425306195175 8.008276539153274 0
15.87696663488604 16.94474808275909 0
13.8244609438675 9.772147651188304 0
11.48382050948424 3.607781952445793 0
10.68783510995785 14.09802702593879 0
21.84584941742348 7.487787383588736 0
24.30275515392092 19.21278118686427 0
23.2053652275467 4.054998549327868 0
18.14094904640276 18.98049122342882 0
13.88367297114703 7.621997974990438 0
11.4844411460545 12.47829752105929 0
18.68921177368665 17.97873688786566 0
11.15331345507938 20.45501862924738 0
15.77702876008395 20.47439362498318 0
23.92089692943119 14.79625849115992 0
21.39871403156747 9.324372384893554 0
11.91034167111371 17.9348244535196 0
12.5728511274729 11.15609973095997 0
23.51685326043534 3.608742930781371 0
12.58472760263225 6.602963373838036 0
12.02972964317751 22.60988701027332 0
14.65952546674223 17.80315457599315 0
11.63956550554761 6.720984848756198 0
13.78717206080162 11.93394532361837 0
17.2052305609298 19.00769981917422 0
23.14971621198172 7.57466510701128 0
13.41572895772954 16.98281831462912 0
14.17854394382283 10.36622705435567 0
22.46172214380701 9.671341163523634 0
22.71543455400566 14.14042972360121 0
23.28334235345573 11.93574801521631 0
20.42662625793899 13.09741574365884 0
23.13906360049725 19.72698961007155 0
13.92971837337397 5.648963406280537 0
22.63010161149629 10.13507372916853 0
23.12192609617027 15.60917308594563 0
20.96082070211488 18.17631421230508 0
18.41726896606066 19.57695078313297 0
11.40544277417131 22.50765694806159 0
21.58798400423422 20.06130247887926 0
22.10346673645892 14.04051421608436 0
22.33250579487898 19.43430798816604 0
21.40084275171758 3.675389053571288 0
11.10408721697289 20.83836529722853 0
12.29722488959114 4.210751835624055 0
11.55671535439758 13.82594000247642 0
24.30332067773493 16.50180314613747 0
10.72910737094102 7.191625461042217 0
12.18321105863372 6.990260804309887 0
11.66068832567915 8.359689177551578 0
18.38586423845075 21.07566329997223 0
21.86444042860296 6.327927599249477 0
11.22343240405422 5.786673136416122 0
15.89285714571172 13.50000000193109 0
21.49992439334317 14.2898405059771 0
22.48299630169148 8.088380031173827 0
14.96354358941983 15.9478713945627 0
13.54985233719276 6.431143742666772 0
18.1235158558358 19.94815362351934 0
19.23905127884852 20.29531300001994 0
13.32206170232285 8.02062262121205 0
22.98312458707055 8.613135129372921 0
17.02208545153933 13.58837935629738 0
17.95267170489838 18.32951885407798 0
21.12241926355684 13.07525000136413 0
11.66989335384159 17.24041633407779 0
23.44121417695029 18.50369302320109 0
12.55897662095526 9.48709220413898 0
16.54406313999714 21.24226553315605 0
10.68329212658981 18.44873407668388 0
21.62295626513528 9.37921697276371 0
20.68333954647857 13.98107941563639 0
23.65363887575624 19.02595280926701 0
21.29189377349172 8.04491143685472 0
20.9223456860362 11.39461374211985 0
11.75377078743115 15.70444815357291 0
16.0857376547617 18.19983815831565 0
22.99452442191633 15.10025791000165 0
11.53268590652877 20.38103891563613 0
12.57745145160864 23.06503164388564 0
20.99925833441133 7.29591263029011 0
11.54803229889057 19.754453929995 0
22.51086637110647 10.58929745263032 0
12.62942596407646 12.02845723457041 0
21.38457129978145 12.87156354154433 0
20.79009023653228 19.37157449941032 0
10.9415932355861 19.16750353850486 0
13.15440699199252 11.56761394720304 0
14.53728129860958 16.66180233082579 0
10.46601297786507 11.35174547847942 0
10.97968035246022 11.21439010599762 0
10.83950390540542 3.895856806411087 0
18.71789448177952 17.18600829221287 0
20.09160393898458 19.43594118550134 0
22.46543284223744 7.202752039028835 0
14.0422118956422 17.34160881886008 0
21.59100570126144 17.68535593015637 0
12.1577500258287 17.01895606063161 0
23.67844728124669 8.292483361464019 0
17.44164963496836 13.89008620859283 0
15.17731648742115 13.1239167898843 0
11.62087111358515 13.18987433615643 0
23.13679575582844 10.1368782883478 0
12.70395102985641 13.06518167792801 0
19.10627797331355 21.19194864194136 0
19.61624831475157 13.22295364731567 0
11.26456858580561 14.32340157474587 0
11.32838350783019 18.44702195846213 0
14.56075026103833 20.81960783296006 0
11.01074007937108 9.290361414821984 0
14.8251798668927 20.24203775309573 0
18.69220024875284 13.58837935758356 0
20.75913273264848 6.616676224555207 0
13.25146419366419 9.328857086131025 0
13.45569895441043 12.67091530824724 0
24.04165823721848 6.619853971452215 0
10.54100048166699 22.15947341729323 0
10.91180586768269 23.77400614064041 0
13.49507216629681 22.79007777851864 0
24.17479208947588 12.21883386186366 0
24.0132973488877 17.06510609799881 0
12.799896949343 19.73638222732078 0
13.78084690771177 18.60536918430001 0
14.21341247652518 5.085857686592219 0
11.95709430019918 23.54115405229892 0
22.95166222502156 9.690333361396203 0
23.8595917986701 12.87461487518323 0
12.92934465656396 22.51286328182659 0
23.01959528329261 12.77811405532152 0
24.23494562912039 14.18292599560685 0
22.74138525691871 16.04242936976681 0
14.36797654529199 9.86991809428403 0
13.9370127995935 20.89554021911825 0
20.88088864468335 5.263983581846136 0
16.03513008804611 14.00395916413206 0
14.09882867796797 6.940931253850178 0
10.70575465586803 21.47077861192368 0
22.26118629467237 20.16965743420742 0
12.02337867544756 7.561288320888026 0
12.83568720154372 2.852236810820597 0
21.30117147672674 7.553235506013816 0
12.04479318463769 11.62670182137157 0
13.26275678262157 20.44267430919965 0
17.62326661831914 16.6961700486548 0
23.63395975693068 10.71804661833697 0
14.14460994349031 11.12693945712789 0
10.95667940590651 10.37456110325118 0
23.37529923247157 20.21844858702654 0
14.14831650433281 22.91845284660676 0
24.02083138267896 8.926551874076281 0
21.75390393570168 18.70432480142955 0
12.24922110465808 13.68702294228719 0
12.09882263964922 8.049028036226751 0
12.12810264351777 19.01853781838198 0
12.59578756722675 8.542020939673131 0
23.34465476491119 14.5213139872943 0
14.97494583636617 22.48748289747657 0
12.71597032427058 10.26372371990571 0
13.37608507773269 17.79572010674909 0
20.70004111984407 8.275094149089519 0
13.12361657491369 3.198868851655978 0
19.38816107750971 20.79156277928621 0
13.83523420374968 4.58270243434072 0
22.37587020223798 6.35314018419652 0
21.23224034855493 17.50864651458262 0
10.38313733213097 19.02628634777137 0
13.12744603133875 13.68258529039668 0
23.04972383054968 6.101037807316356 0
24.16942448685255 3.966037800379697 0
16.7256225318757 16.45095674689616 0
17.64820992204187 15.88247835264014 0
14.34141102783415 4.475728119704121 0
22.12666850465651 15.04994077877097 0
21.8547471555026 5.978218418989353 0
20.47827325007417 7.3473716199538 0
12.08478993762044 6.153647234349918 0
18.79488165430424 20.08124235187077 0
11.14298749326954 17.2669702649087 0
11.07620810366441 4.555019986938794 0
16.73398873562002 19.42241470068157 0
16.70118304805437 19.99611335133463 0
14.93006946854721 18.98434408371685 0
13.04411230338385 19.42507537927728 0
22.85546076129014 18.7638024312459 0
21.14975195413985 4.59102408337172 0
23.53941059652753 7.214070522375091 0
20.65161920973227 18.75467449494172 0
23.95775917806228 7.38870507466169 0
16.46270210606722 22.02979083868568 0
14.21512939172663 12.5084788608111 0
14.61022508723733 13.51116161876792 0
15.1096349188481 17.19348985606052 0
15.61074292970681 17.66461120341533 0
22.49417926114638 2.978367114805588 0
21.6635673430539 13.52223884035757 0
14.56814281942414 22.50488505385907 0
10.58527618530795 20.82974023247204 0
21.61137701253887 8.70202186392845 0
11.54034867341271 19.18549893869187 0
24.21208642580963 7.950104083032686 0
12.97353026732868 3.967746862330799 0
13.68537290262997 20.29423305637586 0
17.08580154451619 22.02088264617365 0
14.17787640945406 9.071616351836713 0
17.42639231104287 21.43603950405013 0
21.18510079105942 18.87661216930399 0
12.01441394438972 9.539225720836018 0
21.31599374262449 10.07155736597104 0
24.11313233798126 3.236811953584486 0
13.2563072170656 9.895344006569617 0
10.52149566900975 8.069676321915491 0
13.22659694873414 12.37483410040813 0
16.96428571286854 12.70836442144616 0
10.97772388135628 12.69977818173314 0
10.73515874160665 14.6633595736406 0
11.41887150368814 9.137106282698467 0
12.80674552922227 6.361240637872792 0
19.80897803660754 20.0971076860396 0
14.18214540675289 3.944341188603149 0
13.72418058448099 9.249721767470056 0
15.51940220172911 22.58606827411821 0
20.73739611763836 5.904401915183329 0
19.18771329390581 19.62296121373705 0
10.86623178685611 6.674222729970971 0
23.6549134858451 10.31845934705998 0
19.13638382494412 20.59466593132609 0
19.76541610688627 19.45660099545592 0
13.15130125429934 18.9736038611613 0
13.11666829049608 22.88350384447206 0
15.27102256031087 18.27116099388222 0
16.44156114585534 17.48195201561979 0
14.38726927397024 11.69378668337493 0
10.68438945323963 15.7505821314432 0
18.82254400316107 20.68791951899502 0
22.61046957308997 14.74828294744717 0
23.83667425832008 4.621028141382162 0
23.94370535245133 10.9913611189042 0
10.56859549902989 24.22495111079605 0
23.57622727202739 3.006239787529559 0
15.74809203532885 21.26631644762123 0
13.82004869282073 16.27568931266978 0
10.61334098840795 10.08541096065138 0
23.6388848078328 7.733896440807618 0
22.32926694748246 12.40179175912205 0
22.92209078776411 3.957473823230492 0
20.92701994565401 8.82977477091217 0
18.3201767006312 13.89343365893289 0
17.28269021038439 13.02203855497643 0
24.0881243003788 5.244388406090129 0
22.27914608714135 8.827242096776532 0
23.82931471558402 13.52325589376665 0
20.75626220019805 15.94091508498677 0
21.78985915740956 11.16599417487194 0
12.05035337998238 15.25126911914879 0
11.65833262557079 11.61038513128309 0
17.63767558030624 19.01528101841681 0
23.47629294795721 9.790228597238682 0
21.52598909090816 19.37139994098937 0
22.18676603406877 15.69531935711233 0
10.64042161310381 13.11644471147545 0
23.99750981902864 11.52254455344666 0
11.91439215377219 4.328329304688449 0
13.4684391892224 21.42645087028185 0
19.49724605291248 16.49747436344954 0
11.18530872802254 10.78379220640664 0
18.41916817833625 13.03664624275589 0
22.02646973304293 3.967746861139147 0
24.35295961138577 17.57712093746562 0
23.45403621887936 12.7206322267827 0
23.65947053050845 17.48522969160122 0
12.97205823872557 6.040781746650019 0
20.03141235009723 18.47519187611995 0
23.00083412430241 13.4146128736939 0
11.4708442011806 5.273455869639421 0
11.02723775361197 15.19090796618135 0
12.16576192745297 19.64479411385066 0
18.9495249087341 21.73493840979256 0
24.15040632430926 15.54630838589317 0
10.73149705557684 4.522572559218249 0
11.93126723258623 18.5116258523521 0
20.62502995974135 4.361692689263106 0
22.68974676314746 11.04203893994827 0
10.62701876677066 23.26579335689503 0
12.07114321254885 12.03362107773404 0
16.43623121374478 20.58229810965565 0
10.97528407653508 8.933118281958514 0
23.14279513290014 19.20254499513167 0
13.07176334286074 12.01389822049562 0
11.75034429482188 16.50696561614404 0
10.76315668556019 11.79581272223386 0
12.71041837931827 14.0138271067926 0
13.47188633398358 22.17828142628241 0
14.21804147839758 6.308891289062496 0
10.59867755470023 17.30189670312831 0
24.24191183786212 10.48529334668177 0
12.51456685851247 12.56186308745123 0
24.40256600187155 11.81391763007208 0
21.52447867456511 5.424468102451352 0
13.80596955690785 10.1693120959094 0
12.45587899546893 16.55141520388838 0
22.90458681914007 16.57439601428744 0
20.38456806967594 17.91743750544109 0
24.47825631061434 16.90278598611816 0
10.35626511601406 23.73020071739185 0
21.35636445855557 6.408242535690627 0
11.99817823713469 10.07103018007773 0
15.9999389785833 20.86795906734649 0
10.96574703065016 17.70440578418213 0
22.05750745084768 20.51121038657692 0
23.12445505721501 11.20044997798448 0
20.89875836895819 19.96172921616298 0
10.8926194139834 5.172713660171726 0
11.81434592170525 3.448629054707871 0
23.73976320065876 19.78601029288578 0
19.7785868502207 20.93332082057395 0
22.31394308843107 18.56254986709935 0
14.22214677012793 8.250387472829782 0
20.75150193913552 17.1189586997576 0
11.9881350588981 9.189122379585402 0
20.55669156803593 20.90628224901305 0
10.81592221375674 20.20814154012481 0
14.44732706166941 8.687643730145856 0
12.9061196908935 7.008727134835005 0
20.64404145399449 7.72342188806023 0
21.81512214736812 10.06657819987772 0
14.2228809135044 19.07313226247884 0
19.38332598648756 17.81954563023157 0
21.9765261671738 19.79198172719112 0
19.32133188269756 13.80414061868961 0
15.77095344292884 18.7162415005899 0
23.04201690120782 12.33088050497598 0
20.65306682194881 10.78693249246883 0
12.23311810276473 10.58369424364857 0
23.79934574714401 7.012815917903261 0
22.63896050630555 7.613865011677672 0
24.25902889099974 19.53415945673888 0
11.22279141031734 7.892791536598955 0
16.45144088254714 13.12429434978323 0
21.85654912715007 9.62082425005754 0
12.92950519102749 10.76343559658606 0
20.8856679709161 14.95527920546469 0
14.72579077996242 21.83128702092262 0
20.98251490394578 10.27565293707099 0
13.13035285214109 12.89117048680195 0
10.51753696097632 5.915389803249041 0
17.49884201416453 18.44880142479412 0
24.59184494429364 19.7094935374976 0
21.20178622797999 20.23655334621145 0
14.47380034606056 18.42137233987657 0
10.67729362678564 9.184635926730897 0
20.22002942612799 19.12087177110509 0
13.82996680429222 22.09046575604632 0
21.52249526520254 15.27344700081096 0
22.62668318560231 5.925265023416395 0
12.52070029364644 23.59371563712156 0
13.4665452722475 9.102461619919522 0
12.47799645002688 17.44601234952654 0
20.35686418482694 9.824011777077633 0
13.66451554113778 19.19402126128919 0
22.12704737818422 11.95354813044147 0
14.67296496872101 11.25732667745479 0
12.13930080700456 20.28229213325626 0
24.27641210481643 18.65030650541006 0
11.52390701874981 11.30457199022015 0
14.13044956853753 20.32086479227839 0
24.29142890966238 4.317904164808669 0
17.14972847333422 16.98310351087275 0
13.09376910041799 16.21094986233361 0
24.24120910788675 13.52618856869505 0
22.33444791040764 20.60197516283146 0
23.64320627151464 12.36289632543318 0
14.0199444867706 18.00958176224812 0
10.4295897488496 10.99815545812701 0
24.51951358237324 6.322455661637123 0
19.8214285678709 12.98405612181365 0
17.13367878288252 20.79051578552309 0
16.04943110760379 17.31999360132519 0
21.87610427507945 8.137341814901141 0
10.88884757096047 3.236111730465273 0
13.09260191168942 23.32042264593684 0
11.87551703145199 23.95211340243476 0
24.52693449533965 12.54142091422859 0
11.29766793562001 13.50043693094324 0
10.52171227739558 13.50957467140643 0
20.63786538114003 9.306905948111218 0
15.23805456609226 16.37471858375343 0
12.27259786066196 3.225219734962015 0
10.56496775318671 4.851959219200103 0
14.5461049287735 10.19431269699712 0
24.54680686301228 13.2178195681585 0
20.89070141697659 3.22179981228278 0
13.40505573720298 10.16951607430351 0
20.24689862590829 16.51612503901485 0
14.57616924395287 17.28639018923204 0
14.29114045475307 2.968016217810309 0
22.16431279964178 2.85223681054593 0
14.10929858294439 3.221799812670546 0
11.75572475536403 12.77183559669165 0
22.89587820813133 3.539473440688815 0
24.69083328114778 18.3802850581464 0
18.55048421110077 20.41513092582201 0
13.7437520556175 6.036775568928872 0
15.24215387825336 21.66505278815905 0
13.76613742620021 21.67029650648567 0
11.73993330306323 14.90034125374643 0
17.75718891592612 20.90991730237153 0
23.79636438332967 18.61855198075007 0
10.898121731305 8.278415584712931 0
13.92009918680445 16.82121628096709 0
11.83436955564325 5.982047438434608 0
24.45011270837234 5.282084723957648 0
23.76905388880029 9.377528932613334 0
11.45410079826931 7.554788112739546 0
18.1635939165661 20.71793486659739 0
21.68981382561679 12.59387454533193 0
16.02831833253838 16.19430885839292 0
13.39452412097106 21.05732555769859 0
21.36131499456044 11.64445011836741 0
14.48549775110544 9.397843244993455 0
12.40853555898716 7.397083619268146 0
21.07872692559749 20.57040776950061 0
13.01291862479444 9.76462266563823 0
24.18218049192696 19.84752912818117 0
16.97115400853569 18.38963974581996 0
23.01353283007491 10.68222704493279 0
15.38141540328427 19.03552698715943 0
21.27980169620219 19.74652824432379 0
13.49453080048788 4.207221780580945 0
21.60459544172238 20.60924089087686 0
23.3990615875557 11.60702382788021 0
21.35236281294581 14.67456511171604 0
23.21568566437685 15.97028626095611 0
21.22975390618257 6.88368946315716 0
23.35178116684574 17.92569215012901 0
12.07792931690329 3.957270694999486 0
13.51121459141258 18.91879918330197 0
13.3882004270826 5.636852220873014 0
11.79667911535863 20.07402424238424 0
19.43858084755619 19.95834661297268 0
22.53727325217329 8.618478169900566 0
22.51889997009524 16.39760031645668 0
18.65814973253515 21.59101639362508 0
17.74846443439349 19.51097044082616 0
24.43782453926732 19.9744829396823 0
24.28640357201256 9.434292645407481 0
10.56947432720199 19.60887168671518 0
20.8073401913489 4.017785432935562 0
14.4670830846063 4.177387534613366 0
14.23742221194259 3.57969116184762 0
22.62410563841487 13.77208495965803 0
19.51045473097216 12.83426084360491 0
22.18748944512652 6.85972167754954 0
15.16823493663473 19.61651827727291 0
23.56192004136633 15.04668283898238 0
12.43039998238759 9.988091045706843 0
23.44037917983573 15.62765394062264 0
19.58201524887758 21.32971185123455 0
24.52531908767867 19.06824336890658 0
15.28122532032845 20.13804357967663 0
19.1416990535011 17.17425729777173 0
13.83264357239602 12.36270693246463 0
24.44394144801655 18.16068409075767 0
19.91448239124047 16.10838754776217 0
20.65285164989401 4.819249591712745 0
11.29578915963038 6.321885904672537 0
18.85355422900525 12.96249039089721 0
22.99307110401579 8.094624383857589 0
22.80932686745546 20.15739210041826 0
21.52900994218325 14.95260086752869 0
20.37729646257448 13.64435839380732 0
11.05393461162771 9.626463042193615 0
12.51936429463603 3.924552606082878 0
11.26534147696062 15.56597833535801 0
13.89865234208188 22.57229565756192 0
23.76955463655705 9.045037185816566 0
23.68074032421015 11.56868807571961 0
18.62050513621296 16.37407160340703 0
22.96293194539142 18.31524825917859 0
23.58413023242948 13.04240732123839 0
19.9738604637171 20.49207795939371 0
13.88512437844412 13.7521911845102 0
21.06251232760007 12.66512549268865 0
20.74055484145759 16.4038218026089 0
16.47326974624485 18.83599645080335 0
20.89291324950817 9.488359790277318 0
13.02004077775662 13.28647805702231 0
11.01414428532928 21.20781686952006 0
14.06525280247638 9.44992114972535 0
21.08925679152541 11.84245797698797 0
14.97537600655082 20.54470384990055 0
22.4840388325099 18.98059631213696 0
23.29643659068448 17.20600559863723 0
11.47837578787332 23.88025468271767 0
16.12491331778591 20.31473511078582 0
11.21114905981872 8.486017581416782 0
12.47324400616676 22.58611235250926 0
21.08668054898607 15.47557465385711 0
11.34422368376833 21.44445018697891 0
14.66186664391298 22.90753037878468 0
23.19444103443555 5.666524963114465 0
24.45260132581637 14.58084836828112 0
22.76182428408256 9.160835996616582 0
14.81406955269463 22.16197263850507 0
10.66653772836102 7.729105475490646 0
24.44799305634047 13.82512211946352 0
22.14233246883556 8.468358292965643 0
12.59544201499626 19.27525734142541 0
19.11696512066814 12.7822724410826 0
21.80242791895137 7.053028882882515 0
23.38119842665787 4.637608426348708 0
16.1142138684048 19.91874880527081 0
22.14971680636551 9.872602604826241 0
20.27764908185051 21.17787179594954 0
13.49758930872559 23.50035746295319 0
23.51852862575852 5.348940093842246 0
24.58474904701898 8.529979526150951 0
22.16275313438348 14.49566152522033 0
19.26284482588011 13.12429435086306 0
21.53076038768895 7.240692398203683 0
24.30308866038136 4.801716213469722 0
13.34586580043207 21.79762832163937 0
17.53627597393038 21.98222870161232 0
14.6049346530119 12.56628123775146 0
16.41064363926908 16.94612250304341 0
10.39012327005732 6.675459246086304 0
21.83195471393415 10.58724781650711 0
11.04935420283804 12.23380217920937 0
24.33003961618631 11.03970296931245 0
22.30929793603603 15.39887506528469 0
21.22049657087936 9.680774209170462 0
12.25439714311398 8.95795177570855 0
21.05909715438591 3.530947498088283 0
20.55480648784701 11.82841186932549 0
18.10541799077352 19.36283696856146 0
13.27225271903136 4.684841248759201 0
10.64690248051802 12.30935202217973 0
11.17792695656559 14.76737059639221 0
24.54153624255247 9.976199515120019 0
17.59577116778957 17.16122863839973 0
20.45927291653897 8.763860285060652 0
20.609490080095 10.28126479459045 0
15.15713803680443 17.82587978913369 0
24.30977988215132 3.576317483364572 0
18.63812641597571 15.88222325659372 0
12.06316386282827 23.08023746854369 0
24.34848223466589 5.641543903783885 0
10.99012457410777 23.37758156736805 0
23.906463447852 15.22086364220818 0
10.76441482422035 6.144706339084036 0
23.12510787467307 13.96914939751922 0
12.06982578484914 11.08141459808009 0
21.5829365110948 18.12013301580403 0
20.3363759401352 19.75597849432799 0
13.62363321857918 11.28387798276002 0
20.43903337375485 8.023140799162542 0
24.50869054205551 8.164445239532988 0
15.33192084343204 21.07427294698738 0
22.72927490363939 12.01827807498732 0
10.42423867615926 22.99521109904751 0
21.1332202970973 4.968798811247125 0
10.55545629100488 5.307309358838082 0
21.92426914185418 10.33935264321597 0
20.938564863872 20.97726001589275 0
14.68753841409876 21.50972348205841 0
10.42886208125469 20.48094177583502 0
13.59187867986318 5.07817513847715 0
21.18282417099642 13.65997304319323 0
24.42123994728583 15.08538853735366 0
21.56004939528578 8.299808750470286 0
20.33147707349506 10.17462223965915 0
15.55530639514941 19.79354846252136 0
14.15166928425217 21.81248549698971 0
13.36346551519357 19.69812181150364 0
23.25724431961263 13.14732980446389 0
11.50440401558374 10.27605744520358 0
24.37040487157878 12.89119589374813 0
11.15431090058984 22.79726291841543 0
21.23125402381784 4.025986309678565 0
11.85125989923389 10.43588665521528 0
13.9775879533086 8.735468989345126 0
23.5300879996331 8.816766192899708 0
24.3165637400543 8.475898968193832 0
16.75845868293062 22.26112562479407 0
17.98006384517334 12.97713982583744 0
11.11485387393462 13.96165560944699 0
24.25988848813075 6.142923562331166 0
13.81417803737512 9.001720938921604 0
15.27243078868326 13.81978136315705 0
13.65233927028822 7.821931420968639 0
14.4314684981545 5.383806020697655 0
19.36407839029574 18.57129894506933 0
14.37112588366119 7.4165589722101 0
24.03305914521306 19.07008869777556 0
21.0170550343038 14.48410402430805 0
10.68798231016114 16.32725380555372 0
20.47990599649739 3.788184611988788 0
11.153293473141 5.445740372115795 0
16.05605070817384 22.43419916704963 0
12.91100172826804 16.55827572709322 0
24.6097559779319 17.84100490830126 0
22.99505535577253 9.375043830462104 0
12.1985561902868 15.73561035799585 0
13.40674397548647 11.86428513758216 0
24.06401073543818 18.35169889110779 0
24.5948074201441 12.11612330956128 0
14.36231997604134 16.02426059281891 0
22.64536704351331 12.46481980310846 0
10.38913574216004 12.93637555340864 0
23.93297200053428 3.609170819006823 0
23.57044283104443 13.32406088334334 0
12.82205799202996 12.35013964775098 0
20.54083872258252 5.558735521415207 0
11.69783123887663 4.667768252139517 0
20.57117668770667 18.33158089116093 0
21.5375044267205 4.229482168615116 0
13.77242728881303 4.013218857913353 0
20.36225954156783 9.467509158980278 0
12.98263712321047 20.14340439675983 0
11.41887874079709 3.000833412595612 0
10.46987827615327 21.78521630804467 0
23.07441440329067 6.522345000894643 0
23.25668366112254 2.865228263335178 0
12.77551054016178 9.050331787486094 0
23.76339806265743 9.700536909463006 0
21.86391954584411 19.10112735495664 0
11.63143036488183 8.758867116993567 0
21.29734364147832 8.957029985968644 0
17.87621574109893 18.67737547198913 0
22.7605390357838 6.734036393506299 0
20.72642305351497 3.591965959981238 0
11.56440051692099 23.47449932154286 0
22.43741325784631 11.86473137720154 0
16.29579455479596 19.52522044354212 0
11.22635967870215 19.35828524097581 0
22.4771552927765 3.927754208842827 0
10.66710912411184 10.80270858964002 0
12.03762010947861 20.63755545762695 0
15.25804867970222 20.75447421162915 0
19.96514544172322 19.73800858156639 0
13.58281633359664 3.008255284684391 0
21.43187605750275 2.743992328015735 0
12.63386090710939 7.761205891785893 0
13.59526569871687 20.72798102519947 0
21.5593304722547 3.316403332609335 0
21.41718366662882 3.008255283857939 0
13.91254168472325 2.861319920525424 0
14.25385506212002 17.70489599960698 0
14.55486950817477 5.123665971184937 0
10.74414123802183 18.8516278311035 0
10.63708193421644 8.586796814734683 0
23.42531015098244 4.212842646188864 0
13.97443043871508 6.584676834715964 0
12.88245264971976 16.99163729687534 0
13.92784137534276 12.75842573872855 0
15.65362182279722 18.05099087295066 0
24.64285824866931 17.24816319372842 0
16.21594365655125 21.34716675240345 0
12.71553511731657 20.44965002897501 0
11.55256289530033 4.251083391439629 0
21.52432017477552 6.108436753957454 0
12.50118431920574 2.71748571369114 0
13.39981737623182 6.793865056786939 0
12.50582073909831 2.978367115268095 0
22.26277040973868 3.244180426620697 0
24.02366580899839 18.79688867214043 0
18.28536198495987 21.4105790147362 0
23.99666345646013 17.41184095112436 0
11.7000317516364 6.321289637613899 0
21.7261148805321 5.233454314737767 0
23.31999143298729 16.40743675630629 0
21.82207919393562 8.975479396272474 0
16.20190175956629 12.84061742325225 0
21.68963780036998 11.57062392311189 0
23.59771872634903 6.369088866688819 0
14.42017403696408 3.245271940230696 0
22.68292328085588 6.329710586916458 0
18.01014788015359 19.66015294892257 0
11.35950899070638 17.96857445029252 0
13.61468388547401 5.434770337393276 0
10.80555769906291 20.5892626909929 0
20.41074272282484 15.01735036071178 0
12.10787481694818 8.620021451129324 0
11.56046576195872 7.859408526905135 0
17.8571428503134 14.06498105623528 0
24.54700846618335 15.42345210455791 0
24.51918629217227 11.41643998808751 0
13.41332554932398 9.668030744401715 0
20.56538590668862 15.46560220721605 0
11.62142310838731 20.93564512750014 0
16.74705877545519 21.92471035472641 0
11.61404206091435 21.9116828991416 0
12.73064084640991 4.220447540857482 0
12.03922313293792 17.49281437879647 0
21.60453676174402 7.859394310679258 0
21.60290693970452 17.26117736304836 0
21.47883497233422 16.1802811788363 0
13.2678955277705 5.314485321743501 0
10.43696974474372 15.47438526742596 0
17.25735353203398 19.85253213142112 0
13.92805850558357 21.31122872977591 0
14.57523405108031 9.051143768087252 0
10.39487680915915 22.55394148184222 0
14.62937633447891 12.90831642062323 0
20.8674267347081 19.0359938097054 0
16.8607314769656 12.96249038891504 0
21.85279499228171 12.21446127725839 0
24.33897119463309 7.031019185364326 0
21.58856662997172 10.83825912285194 0
14.19461929301669 10.72245765307125 0
10.45354719313477 16.08165489809388 0
10.39750798243011 12.45326930915221 0
18.44618870035579 17.55835324330091 0
21.87713284810096 13.12159076388473 0
24.4346569403476 15.98362434375636 0
12.33906629756643 12.25232427644912 0
20.31728331172103 11.62714480730192 0
12.17474088399311 2.8468536740003 0
19.61795945094682 17.19025449845711 0
22.59888597271069 15.0887945207494 0
21.74601686288399 4.583224357299186 0
14.56937394021416 19.72263594268764 0
10.3941775881767 16.47749257729086 0
20.37627619964812 14.20301669018507 0
22.09237598534143 9.343411666249144 0
16.4285714293708 13.87244898555862 0
22.05510694127864 12.48782387539451 0
22.3521729601242 19.80645650643906 0
19.14373831375186 16.01952464421862 0
11.28657907791187 4.927125252975674 0
24.63076755470347 16.20905811303175 0
13.09282756913038 8.484849183505597 0
12.09980344335031 3.533798876399711 0
20.70885954515497 2.968016217824241 0
20.55654676241431 14.59237522817432 0
21.68010506984389 16.80547942185584 0
14.05291305004642 4.322725941743712 0
22.74578123775247 19.31998971420511 0
22.96127072734452 7.180311004692664 0
21.26563628806278 11.01642902051311 0
22.74907779883186 10.42107353928944 0
16.57368716982486 21.64618859042247 0
14.30503789138561 5.71439545850305 0
23.69901897236439 11.18884420480433 0
15.26326669692261 22.45528085582656 0
19.97213976247918 13.96874161854083 0
13.77457395761921 23.25554009700532 0
10.46001090410749 8.90438068571289 0
22.94004823108089 14.51345069501897 0
15.6122855287668 21.66031927726241 0
10.39157217317238 18.66356052374932 0
13.1709119515024 4.29944422453671 0
20.61043768198759 6.962818029540947 0
21.8870767722217 15.41259572164067 0
22.44162608367414 10.31885046061847 0
11.5822303034313 3.324826419763719 0
14.08481051474698 13.1196151056974 0
19.30287508622192 21.51520909002481 0
21.11563501052643 9.259001670437666 0
12.79147926327479 8.08477720761674 0
10.87389325456384 10.1209141646648 0
21.19696825964544 15.91123207772095 0
10.6802398262296 5.635180634671429 0
24.54340459149971 10.34096771756201 0
12.38111844126625 20.63270676698034 0
18.05789874816407 21.08164820700624 0
18.41756401023821 21.78918174920858 0
12.75731955993927 5.752041432458662 0
21.12264027493906 16.28977076385285 0
14.47197448120846 10.75821431199612 0
12.53785667846376 18.77738089305359 0
20.6204806113539 11.49303209374179 0
14.98622095332031 16.64085356827357 0
15.87935261475416 13.02855217373274 0
21.62437676520961 6.510260978157967 0
13.85623177811746 13.3724099085573 0
10.35611031060194 15.7597115453438 0
10.55984945937107 3.238303123063468 0
23.36461909700639 5.029787437542216 0
16.71193793650104 20.87752129567427 0
24.68267229406129 16.59999138113948 0
16.73158273287403 13.77789910870201 0
20.90810474572652 6.242295162013521 0
16.73372734730962 20.30697148007449 0
12.04071104551964 13.02329140562952 0
11.47991821812994 15.23745392049867 0
15.98508933679512 21.7017024711945 0
22.34007419026766 16.04444281375201 0
10.58321908923118 18.08138805477506 0
15.14869207045882 22.20818074195974 0
21.32909777831485 20.86582684705656 0
10.3787654203694 24.48007594433292 0
10.76143437371655 24.433909560157 0
22.15828890501689 10.17951126665817 0
11.07590119273063 2.85003703273283 0
24.63232796875286 13.56432385661388 0
16.96500206806647 21.5332035333626 0
20.54240911038334 20.06340364182233 0
11.98934640866198 10.78910466757689 0
22.62570409946703 15.48537794136769 0
21.511849877463 5.765782942345469 0
23.38650331052086 3.234411434828216 0
12.46555491030927 11.56024271744937 0
14.53382580014176 18.81657207798177 0
12.82862867453679 11.3872982221052 0
10.5887209695404 6.472746754746868 0
24.14214549392457 12.64523398034822 0
13.44066952834511 3.316403333260607 0
18.52676929126968 20.78517808382886 0
17.65607215370449 19.90185292857296 0
23.60740476526292 6.728989764285166 0
11.25706031858339 3.28559540111028 0
15.73415970298381 22.35035156340134 0
23.66338554897201 17.83075807168965 0
11.74196970480316 9.793020288644223 0
11.71715745351435 5.710451228790365 0
21.41709970393576 18.53952520557551 0
11.89182573590172 13.94531777420933 0
19.34403417357959 16.88149461343012 0
14.33748898105077 9.645363135984663 0
23.88116731619323 19.39369002816363 0
21.49508235844199 13.14741709751651 0
13.13828513544023 6.568975474277265 0
23.74394825743981 3.287604281755275 0
13.84939197139261 10.78562205665908 0
13.6690333052071 8.209470216073248 0
14.39784253670562 7.940871681649639 0
21.24160266457532 17.89815135342494 0
22.22282460217778 11.68597128489024 0
23.49949773035489 19.43471176487403 0
22.7460571742085 8.297603516569103 0
12.52782269384518 6.090404244764827 0
13.66103473928198 10.99579023661508 0
11.44944206859136 10.59491993661405 0
11.06838691309635 3.594966310298805 0
20.38128272436771 11.26687972132508 0
19.11176643081751 18.2270897741479 0
10.91037428086465 4.80587813570091 0
20.66431160583157 9.034388823408793 0
22.55344082155199 20.42093051404283 0
17.2019611146113 21.18251614005216 0
14.4440767126672 12.1375946341018 0
22.73274776166782 7.043045903394346 0
19.60174130796774 14.12407814092425 0
14.62560530918938 7.348804984167388 0
23.30485084950489 10.93334121992761 0
20.46552554685405 12.61316113934935 0
22.18670023682854 10.98603612852162 0
24.24119306757375 7.251482454295043 0
12.25604551903926 19.36845823688293 0
23.79155548871159 11.84422682584692 0
24.12588711251778 14.54801100998293 0
11.95391075348861 14.34565689156047 0
12.16432443071743 12.64231019672084 0
14.4591975676953 20.07833897450335 0
17.64072423634525 13.13902318219908 0
23.27178160612667 7.169528997768217 0
23.30141527908028 6.313526382984272 0
19.92001359331562 21.36075024727412 0
11.25036672949982 4.304329151707572 0
11.86022734388773 22.15122224498323 0
22.59570433929131 12.8866753073384 0
17.61225070798525 17.96888316156943 0
13.9372135869433 3.529694967859327 0
11.05187731696185 21.65378557631582 0
20.94775391034021 10.85151639115896 0
10.55883905787331 4.186744566105897 0
18.34684734363694 12.7390344914999 0
13.63512107787342 18.16631147478522 0
21.21118342543406 12.32330718635302 0
23.81207106431959 7.987985439985408 0
24.64138503854742 14.29565574887656 0
20.83547265917946 17.75620097764062 0
16.83310262103135 17.68823486821063 0
11.31503687126069 7.301188380685498 0
23.77401928425365 14.4264578365649 0
20.4623994554595 4.097915419727684 0
14.10761882357628 23.27967651292321 0
16.20447455865204 22.66885256246457 0
18.8871655927022 19.21333567238201 0
13.17162804051287 9.568512080205128 0
18.37795661576622 18.31609755813037 0
19.43195404509601 19.26141066965136 0
21.51356792196628 4.86416500158802 0
11.00918698687627 22.42156915648881 0
11.70738020970614 21.23303005703232 0
11.10889420156688 24.32096044003083 0
24.48714117579315 5.926098170519817 0
14.32251160136117 19.45294333134575 0
19.49262952529012 18.25058087879109 0
13.18811955954655 6.980829078471363 0
11.47852418737107 5.979688672732784 0
11.70729053288944 24.16247617735802 0
19.99381181009662 18.85910735178089 0
23.41766933015589 10.0948066909181 0
14.33273161799 13.97754509742179 0
11.16660899098664 19.66807033304539 0
15.46065359302297 22.2566171510344 0
13.84888248344603 4.903229521669864 0
24.63641436173504 19.36032295148349 0
24.43765898691604 6.657372044021673 0
12.078914288433 16.17903696858053 0
23.22598159723149 18.20051564777301 0
11.63964876295947 9.392811892411595 0
11.20168152932191 7.047935210382472 0
13.37247705905468 7.61930069765033 0
10.48694171612032 14.35339249109734 0
15.61289476048929 20.80488617100304 0
17.88368653368599 22.03795743798614 0
13.56970880094328 11.59328813938659 0
17.24561889123335 16.1365366248832 0
10.43771474475867 14.82074408418493 0
18.10496007163191 16.01752003534295 0
23.28933483860468 15.30019099456471 0
22.83982743102378 7.420523184300568 0
23.18396304260227 9.873212729529497 0
23.54102011197633 5.694435665583542 0
21.62767146448531 19.70149338199053 0
22.75011975125508 19.73796025410175 0
23.68004613760371 17.08140116047921 0
21.16535065505177 19.29477695280928 0
10.60459587663719 23.91541540152712 0
11.24829152638107 3.977653320770736 0
12.5014063197277 19.58679810013072 0
21.18775935732468 6.20856960033385 0
22.19197558354426 7.718087531483266 0
14.14797429888787 5.409694875286907 0
22.98311922013811 16.25833738675668 0
18.48868484616303 18.64476231372851 0
23.63979617147501 18.20416199430158 0
11.43846982071931 5.579618892287972 0
10.68429555132399 3.56549741788722 0
24.51894156947657 7.27167550341005 0
21.58765241097844 10.38203017395051 0
15.74974963587079 16.51652868863711 0
14.6373197519917 9.763296743073958 0
23.03506692389689 10.38078208986583 0
12.02060548087383 6.603313493570873 0
10.35679431046148 18.29460622910368 0
23.88744217068485 16.68671428179263 0
24.33515221474543 7.568998763459422 0
11.95157280772866 8.342442601701876 0
16.59715653545826 12.78281296517988 0
18.47214617023105 19.12270679038698 0
18.78146318869682 21.05196060690026 0
14.41180831023114 6.638058828007389 0
20.57982596290204 3.245271939684519 0
23.40005129632542 6.006864565333474 0
15.40342304852461 16.80797052127776 0
20.16912940968377 12.81835733001011 0
10.59528876822352 15.14777135942972 0
11.44378591666039 10.98887120847195 0
14.36001781662481 6.042380096642915 0
10.51088254163353 3.837684273911572 0
17.0124627221751 20.07764834228333 0
14.51842872507773 20.45199448869828 0
11.44361610757409 9.989616183425388 0
22.70522407161626 9.480063302655457 0
20.77249378522093 7.992592830939191 0
21.45370622132711 13.91096760685264 0
13.8757791641535 14.14263007187177 0
11.74515572934147 2.844497395712239 0
22.07981382824906 13.72761179078716 0
22.82632502298324 13.14573199470527 0
10.45719906711349 6.230762124469092 0
13.88143248466443 6.299859592816184 0
18.16238819460886 17.92231334787879 0
13.26344943083444 18.53186808533313 0
10.33446368317235 23.37843055629817 0
22.31213108207362 14.77694850921131 0
17.84575758271157 20.57928201490835 0
11.86290432356467 6.946503751279102 0
14.4853984634498 22.04385043211431 0
23.1884852912861 5.285987536451832 0
11.7173211415469 20.66590085869548 0
13.14104378311206 21.00682796980718 0
20.9414517415916 6.967844938259127 0
11.11684568937198 9.906338156631925 0
24.56271551518998 9.252236642923766 0
18.27956195537387 16.75563383824611 0
14.60249522034314 6.845358741816528 0
23.24707165543393 14.84980457555407 0
10.478869956701 12.05694138935644 0
10.6035091941072 10.42131228752546 0
17.84310109856262 21.34719594647529 0
11.07080404185758 11.95554333494981 0
20.69756355875304 9.998915154734895 0
13.13495303335776 11.22409772312462 0
22.00064831039323 11.51398211202271 0
12.68711324148996 7.234690777706024 0
22.63052055848437 16.71607539447706 0
11.34298405764637 21.06642235338692 0
21.93087591543147 20.16710505526032 0
21.54540994632831 19.00556273101595 0
13.8973263449796 20.56536365963792 0
12.83453447201953 8.408414515108756 0
23.69585506898651 4.977025017106377 0
14.47279670689818 21.72681474377824 0
14.22783078229977 8.543593913481434 0
15.19831499501778 22.84829883157786 0
12.82752640014125 17.33975882661645 0
12.31741124769893 22.87480742675806 0
17.08792751692384 20.40022706274468 0
20.79092913004441 13.3801825351103 0
13.1827526427584 21.24192133010586 0
23.90292917144241 10.18285556528774 0
12.27050505917389 7.751397770802448 0
17.37153183090504 20.17491643450268 0
11.12016791599565 11.63387158577913 0
10.6695406174899 2.924476745681369 0
11.02462962101239 7.262241208546016 0
24.30406857119655 18.92113079244247 0
15.08764130944197 14.158786671251 0
12.89628380770018 17.76949699194146 0
13.21329801671938 10.51626076315451 0
20.24839441513087 20.76113864574357 0
12.89526643795454 9.409806523644905 0
24.33177125018166 2.924719816355335 0
23.96337744191175 10.51902513098782 0
10.33591901080703 19.39617640255131 0
24.23513498820955 14.90831236414284 0
19.88474557262093 16.48717468543238 0
11.38937094420277 16.81284740537773 0
22.52653543202664 6.885235469049835 0
13.22041079070318 8.88004012438827 0
24.24804935241121 17.8891769893378 0
23.95002945239326 8.571091374525393 0
12.56977922473728 8.869388192301008 0
16.06586145578624 17.75157223906227 0
12.87830150486416 8.758067894390031 0
12.10515935371892 14.73751650297833 0
21.10157679126775 11.57707567267826 0
12.84508999865251 23.68946955517931 0
14.69013140074881 10.90176723025216 0
16.54629004672314 19.75705522903886 0
22.90964771932053 13.74379632644612 0
23.08371632699282 16.83314060502104 0
14.90434873934235 22.7686605695921 0
10.72066066567416 11.12730034443101 0
24.20026632752036 10.16533523434317 0
23.0106040776012 6.89362839932392 0
24.69868279767684 17.56528995972705 0
23.12837965304251 11.52899717356237 0
14.49070535241484 2.766117825578616 0
19.81098986937076 17.54946372838084 0
20.41687648427817 6.66904059109383 0
16.1420389313608 13.20028717804816 0
14.49039403262005 23.14660834334492 0
14.80656197558154 19.42219402543238 0
15.88327513666865 19.67547566126829 0
22.150903991492 16.73616880971862 0
21.76733342467297 16.45020546850849 0
23.31202422365443 17.61151476648281 0
13.82186227954544 7.247363770688564 0
24.02685805193569 9.569079485127405 0
13.87525073029843 18.96229111858267 0
20.50818676408416 6.251416243366263 0
22.2616743670165 4.257598836984739 0
13.18093414325284 3.591768808089355 0
21.81906585731524 3.591768807155236 0
12.19134444807398 5.745160418686074 0
12.81546569325826 3.615118436479419 0
12.88623989250044 11.05422691112798 0
14.72861528620248 9.45837386079891 0
10.68114597049699 16.61678107634504 0
23.85124435872758 12.16526003349199 0
10.48681521799757 2.718108068889549 0
13.44510435388964 23.12863625660545 0
11.49816649719534 6.495172582102114 0
20.42780326484294 12.19870762018262 0
10.84011337428533 24.12059008721313 0
15.55218045964458 22.88805182934193 0
11.76884930725863 13.58066602189854 0
13.72000265789038 6.859739050704619 0
24.52368988242495 10.7323957850787 0
24.11433639559881 13.15816633857086 0
16.41815235091103 22.44622998795188 0
14.17368614057333 16.47799440203206 0
20.45573414234885 3.467626535351685 0
10.99804337694265 18.23042318145449 0
13.35718197367602 3.091470328603485 0
17.55500685056861 17.56568930980217 0
21.64281802740328 3.09147032786861 0
22.07468015386435 7.207202075271063 0
12.95206814348784 15.8549899194774 0
23.25591169824998 18.88429126117483 0
11.38637238032665 4.52986412549109 0
21.83170963824053 8.445784699969444 0
18.2167247743344 21.99331221738959 0
21.2745890799263 18.21798953079871 0
17.60430048796351 22.24471970079103 0
20.40863701473135 16.18687705835863 0
22.60843595542431 18.39175086419162 0
22.01203772509213 18.51527480936564 0
10.48873550051266 16.90673531775832 0
24.28237850028573 17.19729296311044 0
12.36230723185483 17.9397787511281 0
22.77570099936494 8.876376678238042 0
16.57758004023444 17.98781637628434 0
20.30641191144795 18.69373720296221 0
11.44086993015306 2.734289050521118 0
11.24429818186779 23.62962788688046 0
12.68790676886831 13.50118348452241 0
12.42449860393016 10.35093556318384 0
24.03867266407486 8.248378389090949 0
18.96671710138677 16.75857445971538 0
10.50141958646887 7.439731021152572 0
11.69314109887674 22.48351006283029 0
16.27992001348453 21.76352437850885 0
10.38496302910865 21.16191616886443 0
22.1133193304384 13.36334950325827 0
21.97524299724392 12.79586375679501 0
13.98239911323726 11.50722007059001 0
11.87391956443872 7.813024458707608 0
22.21083210309503 8.058495886085135 0
12.33813569334337 18.41401723186087 0
12.34991626319481 10.90885267738743 0
20.65434144040753 8.538841202560027 0
24.01474137201553 13.84458099914953 0
12.16584702847872 18.71998678855018 0
24.00714466989418 4.278961434341819 0
11.68884967908188 12.15288645465366 0
19.8803552204225 16.82671179150298 0
14.07941022143788 12.15661052717371 0
21.94203249718464 18.20911475875966 0
20.74876506946828 12.88898729340711 0
12.17314884730281 10.29501485891715 0
24.04426506951164 15.93324728683145 0
11.90826419486225 8.856545966133918 0
22.72054473304886 7.958249882226099 0
12.73722959133123 3.244180426916477 0
10.58150554623517 6.854434705997896 0
21.8337106094249 17.89113395942671 0
11.08076692857687 18.79907963117654 0
13.63793564765057 5.745764653332646 0
22.82111711773332 2.852573900053677 0
21.92205488593715 14.31216975004616 0
20.53838694601216 17.52260310666448 0
23.38273665761213 11.31108035627861 0
11.81279990549104 3.754156481112439 0
12.24146625575212 20.87584432399355 0
23.36958716819364 8.479139824707243 0
13.1790844205118 6.269194561652016 0
24.28066746137506 5.036737699872366 0
23.334260583327 10.45694133729188 0
22.22649831727692 5.828040467001849 0
14.8719901199345 19.88267508354129 0
11.64926737700132 9.026096284046142 0
13.32606370143402 4.964090738273728 0
23.08524055058939 9.02393528343306 0
22.4853070728265 14.46953322674575 0
11.81653139035446 16.84845002521667 0
18.58303005334563 21.29354477058464 0
18.96774335351024 17.58813541546165 0
10.85484234491869 23.04723293858835 0
10.54962648865237 17.70035040258773 0
23.21185961029929 3.467340822166254 0
20.24060313032494 18.23712458594926 0
14.44198989166716 7.081922401679031 0
12.60974249558747 16.04329754867701 0
22.70001235100218 13.47951532315016 0
23.79156319466536 13.18450106242049 0
18.75169086521104 14.05965114010291 0
16.96627131093165 14.04672706222913 0
21.33969562191163 20.57540290535311 0
13.07077522837304 8.195334962897922 0
20.27153618497697 11.91999992336446 0
20.99149016277364 18.55976236208122 0
21.9266323072219 19.42509395372586 0
23.98415494394578 19.64635773934809 0
24.15479505460523 2.737044632986688 0
23.92524537078897 2.850737406626496 0
16.52176725775945 14.20574886185605 0
24.10508939731324 5.51409043848084 0
10.43840216282632 20.00711307058592 0
21.00881561660616 7.808002023139379 0
20.64150678010482 9.642865867075267 0
11.57956421440291 3.929132846184825 0
15.53646489697931 12.84648292508546 0
23.46054105037733 9.117081156169244 0
12.24018821215892 23.8393328488566 0
21.08745831336839 2.861319920027245 0
20.81795413338258 2.729045360828535 0
13.74568898596112 17.1314170166786 0
11.32932889349977 21.82767589618385 0
20.79700946162805 10.53750151012342 0
13.5679978483217 9.930926969152436 0
22.17851259155067 3.643150478126994 0
19.56077738281813 20.46175279471873 0
23.00419978365852 19.46379444320902 0
21.55557332364296 9.859775848432076 0
17.92057795891658 13.7108277940428 0
12.99527308565592 20.73905704305301 0
24.28191983186503 9.079642812653564 0
13.36670746584245 5.987121760407647 0
21.50991154499783 12.27352713027742 0
13.59426258220809 21.94240011087611 0
24.27928723835176 16.20373225890666 0
10.95275572910301 8.637960035459933 0
11.17092136587217 12.48363698139555 0
22.98247862371777 7.814217365824486 0
11.153197492538 11.04683960428559 0
16.46982651119358 15.97420875595077 0
20.3960124487495 10.53360587295637 0
22.19307435475388 9.575169923972313 0
11.4119329765465 22.17264673580447 0
20.89034591396358 5.608883399175585 0
23.97730032282586 20.07465225436803 0
11.29064914211325 9.370933609265998 0
22.69118600424977 9.836076455633306 0
22.43445554696159 12.1538899094025 0
24.62163568624629 18.74923811816062 0
11.26003258299613 19.05249248931962 0
22.90087774757795 10.06125991612758 0
21.89422298887694 15.97429797119748 0
23.84343449829086 12.55783836694345 0
17.25688413117176 19.43649036258051 0
22.57087208216013 20.01038559921158 0
20.41993742237133 4.869186505808591 0
11.91010148210049 20.91389564816965 0
13.30471500060204 8.6346334823085 0
17.28984351966416 17.30597807124925 0
11.25981819174871 20.05145379227923 0
13.26833861281495 2.850386437235859 0
21.86321394601758 20.7407978216864 0
21.73166138891325 2.850386436193493 0
14.90655454503548 17.51948275735353 0
13.76361616081388 3.26881039551593 0
23.78298537152951 8.789292655378363 0
20.53227952946337 5.122791930383178 0
19.82306956222414 19.13505577154642 0
11.80421339741325 8.576325928000433 0
23.35249224408929 7.987316118254419 0
14.55749635920632 8.376939854659389 0
22.2733774582826 18.25956191122681 0
20.96136550150053 19.61695438516817 0
21.87869343083579 11.82920715374407 0
12.81533950376558 19.01219746081401 0
20.84420858210266 4.98280580020213 0
13.19016268776797 17.40549612858599 0
15.56196060017833 17.23839171895509 0
12.60571105739357 10.60143564436416 0
11.99679459938923 13.33540414531861 0
24.4208213824259 18.44087257386916 0
11.75732846635408 22.86910861652064 0
17.94295976824029 16.94929968129743 0
16.83847523259686 20.5969618967824 0
11.84345998605835 19.40638063094736 0
24.26421982313005 11.56711737973811 0
23.60428582395834 14.72951445542979 0
14.67136522312168 11.58101415835597 0
17.4103229911667 20.90647515698435 0
23.74323266210645 3.983468632998908 0
22.1272069761239 6.166310993634328 0
13.09418337150507 22.20048820577171 0
11.0286815112324 16.46224953380703 0
14.88340553973778 18.54738951647988 0
10.42441948286648 5.58699623180778 0
11.71884690911137 23.71200536474855 0
11.93528426032725 7.255534733192946 0
21.84429908089975 14.69902615893082 0
12.5427063432013 6.946379127046717 0
19.40170450759478 21.08529159633598 0
17.32704679991769 21.75381917654524 0
14.49553799459186 4.791523284542182 0
24.11697274403429 11.25116186081881 0
17.11198542229024 18.02396153432334 0
12.69551686197964 23.34814722532656 0
24.26900334299858 8.209706669962614 0
10.88172060531185 16.06453549894078 0
11.40597210690939 20.69178582473497 0
17.48846320257879 20.60534988521492 0
13.47355299214337 13.46461478272517 0
24.25657703672689 8.740540040967682 0
23.83908026983099 5.541335391823717 0
22.91453962334428 15.38731985147087 0
15.7560311726813 20.10490851263263 0
13.57264338615767 10.4397223922809 0
14.00453121390252 7.987472771618193 0
22.27630889041473 7.444007341366396 0
12.33551893318831 6.710385312878858 0
12.47251520475019 20.05410157744765 0
13.50261428682412 13.93903734397398 0
12.85736007214487 6.729586549425092 0
22.9858971751154 11.87422416486948 0
24.24355141174668 6.400776300111747 0
23.08587487770295 4.328363475015043 0
14.66651518634534 8.041261237068127 0
21.17019428704645 5.427954094285258 0
22.39148060957735 13.58571412304775 0
23.96182736196468 6.244055973873402 0
11.24466481555548 6.698610381135523 0
11.6652088484767 16.12760729802221 0
12.90745693292387 10.47448501939914 0
22.39673493946909 9.24840997075281 0
12.08719249529526 19.96031405646034 0
13.66225937009513 7.472724244267571 0
22.33035800826506 12.68362133799253 0
21.04324292650651 9.996905646855598 0
20.77194104070638 20.37256544140079 0
13.19234293235637 23.65303095232737 0
24.20054482616729 10.75355567019299 0
12.757799495329 11.73414066393147 0
21.88910580827992 4.262655182637261 0
13.28067212318723 22.5083969046509 0
22.7182350033211 3.226055388888258 0
22.4436277110997 7.820101637910033 0
22.47886531711323 11.21301350391457 0
14.83073749963684 13.84472690632112 0
11.39046428963413 17.56332379470838 0
12.26053504521742 22.27425804374775 0
20.42335574950662 5.900053590168568 0
18.29227483760141 13.4282846813149 0
21.84588793829434 9.265998782390103 0
17.4652194713664 13.4212983432154 0
21.84193093059977 5.604674982710261 0
14.08132602085738 5.996511723003697 0
20.275198804773 15.87856661912989 0
20.34588427231187 10.90538552379679 0
22.03309808240675 3.412874297474872 0
21.39735049196468 5.172067437412693 0
20.39573109226782 8.400183446369041 0
15.57401104656724 13.29531628295251 0
14.54888453921325 6.2333675484726 0
24.10013741774072 6.922580753468715 0
13.68164430545197 21.08964634948038 0
21.25592302797326 17.06690805068198 0
16.41556790680275 20.11567225252026 0
11.51109439870281 18.75209509724899 0
20.84754903853204 9.183686200629433 0
11.28051001895137 23.33254061104698 0
19.17763031841865 14.13491113107976 0
11.18190506417431 9.083633494821388 0
14.12465529523966 10.05181401447869 0
16.51956019027574 18.46144637288736 0
16.09115414590639 18.5970950139942 0
12.28131349495275 9.352506844057244 0
12.27823338544601 14.10373774182978 0
13.6007356699293 17.41153897236106 0
22.67150567020948 11.70747414367498 0
11.39045171652602 11.54652601806794 0
16.87427169917755 18.74098012321 0
20.38767929780614 9.13403807647633 0
13.89154345512114 15.86117701973144 0
20.18113307943118 20.09313322664164 0
14.32389181639193 16.97285149209617 0
24.44227205467999 3.238793292947413 0
23.69715049300694 20.11941539106103 0
13.12270025161808 7.344212673759528 0
13.04087070373031 10.15257837325399 0
13.17395239281819 18.12023611131544 0
15.30817508361768 18.66174576595972 0
13.3451402487499 20.05323464062306 0
20.85236693757668 13.70433744017291 0
11.4261778071495 24.21439940582146 0
18.16729559086587 18.58964908427096 0
19.50340499622071 19.62543557756173 0
17.31593918303523 22.29408563506954 0
12.13688085241204 24.07854338231973 0
13.49262325055009 12.17574627497929 0
23.37516133466692 6.550987034735275 0
14.444888471097 13.17363328237551 0
13.8861044836097 5.252204674827071 0
15.51360972263271 14.12942508677684 0
24.5531345433277 9.596963958389297 0
16.08942239028573 22.07622848558664 0
13.36084805632766 8.363215912644042 0
13.02290030716304 7.810130337300344 0
14.56316995182721 19.14983715619111 0
18.13277720707699 20.32342211075838 0
23.95184296286426 7.715734247262756 0
16.91966592707491 15.88762983074359 0
20.84869567180553 11.69071971352574 0
24.09437955059045 11.8875379731431 0
23.33742381405429 13.58880231687534 0
14.70606423049828 11.93236701632343 0
24.00197401819757 17.7296666130416 0
22.17815791662013 10.59946336585402 0
11.80307432282053 11.87017597538146 0
20.39024403758266 16.90874394679741 0
24.66145564218134 12.88999899050166 0
12.29535704744625 23.35446541343631 0
12.306406114891 3.723701401364765 0
18.99816072262668 13.82159688676179 0
23.60939123403597 15.34483476111748 0
22.40319209122266 8.326783411955963 0
23.57150413747233 12.06991613684344 0
17.027494420571 22.38340060171592 0
11.30322208819255 12.8347084651326 0
23.78909807840207 15.58866690196499 0
22.53896631543558 8.951762933716957 0
24.51210788318508 3.848651811714885 0
11.21781631619241 11.32485729739271 0
17.65774804073881 12.80089785230247 0
12.3448350592337 9.663320719416197 0
23.43113336413712 14.184936309451 0
14.2187471517969 8.81376810870698 0
12.77930090462236 12.71692913237334 0
13.32728730963334 3.90495022235441 0
21.67271269006511 3.904950221704726 0
20.47363920842371 4.607929080787299 0
13.78920379769228 17.74686128487977 0
16.08521975433014 18.95323608743896 0
10.7948125644004 21.87759522341193 0
16.86856744220919 17.27201609773596 0
15.59029927671246 15.96983768188985 0
10.46265495091846 9.865399633707895 0
24.54139416989946 7.85129295361937 0
21.01033208764442 11.13120815381953 0
10.92206887027773 12.98094016101835 0
11.07811545997964 6.075813087220278 0
10.95424181363655 4.236027637770474 0
18.32361465871993 17.12698948315587 0
20.54860216761842 19.067465726983 0
15.19149125220358 12.74795393642009 0
14.21661187932922 20.68555802803959 0
13.43491942926509 16.48535508090175 0
13.81270409821885 22.92208103910428 0
14.66683798307139 10.56812106560079 0
11.58206031522387 14.53430246018374 0
18.81423089837122 19.72308060621652 0
22.49893841903155 2.714833680883258 0
20.05104163982876 13.22805435875441 0
13.59000080148536 22.44426447216117 0
13.40342991049445 15.95733745441975 0
14.79091833475405 13.16108202409409 0
11.66171320097052 18.25508083267639 0
19.43726964644036 13.50296211163761 0
16.92305305782379 19.73512959362237 0
22.15316487678193 12.23733057586719 0
21.49155234133609 11.24320551111613 0
10.88410083534049 12.44518200640133 0
23.67871203359221 4.346781856252092 0
13.10279719192683 5.682647403005141 0
14.22083736706578 22.58919443936556 0
10.42083324309286 13.93559630772006 0
14.94792379657601 20.95302004302805 0
10.89147289480672 19.47891482750821 0
12.07000223729453 16.63299332773794 0
21.26320670524499 4.335930095375471 0
11.30925437671811 8.822124066453902 0
23.99605398609344 16.30655938407941 0
24.19136993489189 16.83585400217985 0
11.14711386788675 23.10508477007416 0
24.68083657095754 14.01658770149782 0
12.52910583357921 23.88173309865327 0
11.38177533057258 8.209605363730459 0
21.23576896255533 3.269019150072811 0
22.10687603241629 18.84231291102283 0
20.96113560910541 4.319338595865082 0
14.42538269888816 11.02243739072117 0
14.69228764253707 8.73874294621642 0
14.13576813944677 4.70751040362529 0
10.72668294757009 21.11541543372919 0
22.70277510341962 4.210751833650465 0
23.80166638088126 14.07207486010575 0
17.69382229905979 21.70462352975752 0
11.48589049089628 22.77455687202931 0
10.31488132473432 24.04715392799746 0
12.42568696667437 12.87475866891088 0
22.4232638989732 9.98868341011031 0
20.71008301271222 11.11809256557041 0
22.56705410661592 18.70018431369235 0
13.04786439595307 9.09556334381209 0
17.63855294373366 16.29426574116496 0
14.25754654620518 21.052491777276 0
24.58515601690436 7.014930015504697 0
11.79912213271553 5.382291132114241 0
18.48172252742333 19.99185275302258 0
10.42830633253919 9.520389072340528 0
20.89856595147697 8.472304591265367 0
23.24734161606909 8.77599674866734 0
20.67282655075823 19.7101630131345 0
11.85088329946278 20.41268595381256 0
11.74666485240473 7.549460470768114 0
12.60284492099934 8.27089253025672 0
14.97794423168971 13.48164704151286 0
20.42443609259089 3.038999361924041 0
16.28464225422471 13.50797194154149 0
20.68800952966924 18.04538339663693 0
14.0194590931826 20.01286874007277 0
11.88569939098774 11.32656582654628 0
10.71114314430331 22.4197527877484 0
12.3559002118957 6.380748864739755 0
23.40570768780258 19.16811776596292 0
12.35126753081794 13.23897651336234 0
12.27935077986406 11.28216064600761 0
11.75972002005522 23.2081817936551 0
21.95619510058203 8.734440019372245 0
13.67251308448329 19.51111605044141 0
13.56812393980814 2.743992328489135 0
12.6534337369658 22.31712112749716 0
12.49412167546461 5.775807773977389 0
23.63750632031416 15.86190933109316 0
10.91121416399844 14.3612011452103 0
13.64380042439903 9.514645675765589 0
20.35323641264292 7.68438893288884 0
22.84950649100344 5.703030181972061 0
14.56878004199415 7.681493083066183 0
16.3816229850755 20.98344215164718 0
21.06018575360642 14.04673292534847 0
15.44343411663934 20.47023499163753 0
22.22496301170714 11.31727061563782 0
13.40450238709013 11.08086650339758 0
11.4061327993595 16.43848678893096 0
24.08257397355074 5.84695525580836 0
14.13887754379935 18.72522332202881 0
24.67682173790978 11.79542168918727 0
14.20417007412278 13.49149515134698 0
12.79240182683698 9.97029044502689 0
13.85857913774204 23.50755563737382 0
22.22024036223448 13.0077898401225 0
20.99392833902903 8.19388971601991 0
23.07419095216352 20.00770158581895 0
12.74836272086725 22.80277377905723 0
23.08260422691822 20.33308165525382 0
20.50929464692306 2.766117825720552 0
20.86663075987839 7.535189314856434 0
22.72063683692914 10.76459282895246 0
10.32744177290961 21.50454995624062 0
12.33973062268945 11.8450840326367 0
10.98036083171309 6.379262530854977 0
24.63095790649809 11.07115746114629 0
17.20434197476348 16.56171548059139 0
23.35768387373697 12.30598975416581 0
15.40320181250297 21.40518908791487 0
16.89022292826287 21.14695070724421 0
22.94834325843458 10.98523396269074 0
24.03757342922949 9.240588056863047 0
24.69047858129348 15.10477892804736 0
10.89941745385948 13.29222794675757 0
24.53844240825752 4.887014222041832 0
21.11141290175306 6.571591376731345 0
18.93376277280177 20.3563375385294 0
20.7805415342836 20.6827053275891 0
14.27566109373903 19.79608720325501 0
24.26970125234032 9.774113429208095 0
21.76471435602769 20.40817490347303 0
12.69119416575851 20.75824119144252 0
21.93283394022165 7.822181409436896 0
17.5269955302038 21.15486923005573 0
12.92396891420265 18.71440267559663 0
22.38600185504236 13.93641096014925 0
11.65192124102788 5.02692229579449 0
14.58925923895871 21.16628856695608 0
23.43223357671802 19.82957462829144 0
20.80370766280291 12.00872692630111 0
23.4901299278079 9.47980243672153 0
10.83755632299847 15.48304614844869 0
14.49890276025201 3.778174404097353 0
21.79158329168225 13.93385125606139 0
14.37799610614369 11.36791901442479 0
10.8368575402173 7.507538263737104 0
21.19212636481795 11.33449703643572 0
14.90605830016615 23.06069224351443 0
22.7992835861061 11.35679080116331 0
15.52199478125707 19.42513790817165 0
24.62476949297291 14.85880399655298 0
11.82943646868026 18.98597869811748 0
10.84217564140377 11.47451523118295 0
16.28380085170405 16.52856371201422 0
15.97539371865299 15.80007424804048 0
10.63931577472315 19.25132921028642 0
14.20588537271903 7.656899658630661 0
20.45603548716193 19.42794258377327 0
21.403939042353 6.689470373476914 0
13.90214769857926 10.45067965771428 0
11.58400549052626 14.18198933759434 0
10.29858663045484 19.74057120034571 0
17.3095162205687 12.70626016574501 0
21.63283097667906 20.873713057956 0
10.40258303915567 10.69480376285416 0
10.6682217831387 23.57052882918481 0
11.4691291661922 6.972645376832625 0
14.30368477138975 12.85385651547533 0
10.31939173510383 17.21403734295858 0
21.43638751244135 4.513819319346873 0
23.09447330377932 14.26264616646645 0
14.75241990537975 12.27077458252788 0
10.25752666401592 22.25346661009607 0
15.73417968244898 19.07024587873536 0
10.93939614935445 10.92228720315905 0
13.08546873507135 19.84692655368659 0
13.32617664641102 13.15886114426907 0
10.36863325716151 13.20828496126445 0
12.84491459633003 23.07877657878253 0
19.63546820288688 13.79231225401397 0
21.2424114952761 7.151248231279582 0
13.18465597922344 10.8600637370977 0
14.13091230304429 11.87283014408631 0
16.42359088130763 19.19160057831704 0
15.8841639791638 12.7334046418381 0
13.0924275266659 14.07001436761361 0
14.12752304114876 7.289561075647186 0
10.41738713633248 10.19189406489002 0
14.13139805438834 9.745836447846523 0
18.78027808358295 18.83560062477082 0
13.5131056603075 4.479318013880164 0
22.53353316106743 15.79036243449711 0
14.59856913985777 5.899720052156865 0
11.1992004136741 10.47755247583631 0
23.55303007041323 2.733893958218148 0
19.02915205046753 13.41877581881823 0
24.02994147925295 4.939998487706495 0
20.78366250042657 16.7659852335615 0
13.73772902527409 4.320274573039865 0
21.33751254831192 10.32681362725651 0
11.17972402311089 10.19820045310463 0
20.65003564366532 21.18046463186651 0
10.83700880032315 14.94592524517423 0
21.91318207163316 10.8559431491957 0
11.16289291922727 23.99415003987382 0
12.55591911831825 9.221931809105687 0
16.67196806831304 13.42979870806984 0
14.03438031253391 21.56202715646986 0
19.65351214946064 21.57053219900952 0
10.32366472719345 17.96786010578268 0
11.71004351041647 10.08547515361365 0
11.63056343703931 21.60770153350984 0
24.48484219370876 4.528834168281293 0
10.84618279910676 2.737198429488211 0
14.06483883772806 18.3501636594621 0
14.57556390762735 3.038999362508031 0
21.47506558780413 20.36179667434883 0
20.17273423190735 17.63463442496725 0
20.72605477963312 14.28949222068864 0
14.83147113151226 18.13979104867724 0
10.29836864626999 20.82516479321844 0
24.54487671354614 4.14882043855305 0
18.93506389816928 21.4197363089142 0
21.57670795284077 9.078064318170213 0
11.73533409417869 8.100017857720186 0
22.69220484011893 3.725322704188252 0
10.91964424082957 10.63778371043781 0
10.71057928661428 13.80233518786051 0
10.90049491146396 5.780610108528031 0
21.0536699132137 12.10021698203565 0
24.13985783556856 4.558212336850762 0
23.09918729998095 8.345146943914374 0
13.94367939768947 8.397355325201485 0
13.96398513728292 19.31483463216282 0
24.21521055852125 15.25666137495164 0
10.45886843928516 7.116200655216065 0
22.88427364662078 19.05839228318857 0
20.77927082921974 12.62049379679506 0
15.63838646586774 13.75958299662952 0
23.44047289119968 7.523281029456757 0
23.09245993368929 18.58343432033541 0
13.67839899277258 19.8748004299358 0
14.74648886953208 16.3242522038582 0
20.75997093428929 7.218401433381137 0
10.8910770864719 7.889819221822852 0
21.32392131334957 12.01189155880101 0
13.37512047697514 11.3539516292045 0
14.37994098999435 18.07040781044809 0
19.19366014908061 18.90358614800687 0
22.06540320746063 9.065830321968882 0
10.92621954019546 6.962389940561068 0
14.77308839474338 16.96753479022308 0
20.92270498417107 17.39466346986546 0
11.88822516461116 19.76799339472752 0
21.72953825002984 18.41838222564605 0
11.69456358057431 17.64140273290603 0
23.61944064709922 16.47235310476691 0
14.89544213141166 12.81595694403414 0
22.46489548478182 10.8771075875889 0
13.85910261488417 11.14689896809398 0
10.40281020940768 7.764444292168841 0
18.61423402275171 16.80323135370412 0
14.94512957488169 21.65224814773059 0
16.87501393685773 19.08208389055032 0
12.5044196418701 17.09458300690757 0
23.63914022823475 8.57207761000084 0
23.52568424262775 6.982898996155153 0
23.21234650694391 12.56213098202415 0
10.85694979688785 19.83709420837646 0
10.27421401792604 22.00339065365611 0
10.80958536876118 12.10071327324393 0
23.54498677576127 18.7579152645528 0
10.84084411451335 17.42350741537103 0
11.85300940899581 21.78620615045807 0
21.68436866583702 12.9060619410145 0
22.82790869524446 20.43773205574945 0
21.3722481612072 12.58602604653425 0
19.09313494661466 20.89492061907578 0
12.66884470631784 10.89681011208512 0
18.68666519532575 21.84761808770099 0
20.8372853594612 4.665611188510293 0
23.6905518806401 7.460208990523919 0
11.04980932441844 15.80079167684974 0
12.36792579206739 8.669832643584927 0
12.96576729263272 3.41153454070028 0
14.57293692020381 5.629598988880963 0
14.40272823345209 22.80187259168856 0
16.8426766121253 16.84347086252479 0
10.44427280339905 8.393481957291124 0
19.04715445751258 17.90244931190541 0
17.2014017522215 18.66901446002479 0
21.80824790308893 15.07242809194669 0
23.70394363229946 9.997653520292477 0
22.85686231119665 15.74012465619615 0
11.75046904030098 11.04535923065579 0
19.10511403206883 20.01838337209533 0
19.55069193814647 15.89598102341642 0
23.42064099061315 3.920639268725584 0
15.27865503433831 17.49336174284049 0
24.38821473015417 15.71098483840398 0
22.44926938206884 6.615040521717598 0
24.71119072129038 18.09646093353598 0
19.8214285678709 12.70908998313476 0
20.26335076408541 12.43074681472762 0
10.72723234022741 8.842459103782257 0
12.07213839365258 18.21107067393179 0
10.82687081291435 22.1843733612617 0
19.36138791793422 17.44092755629342 0
19.72185580398109 18.57021274091153 0
21.86043202641441 17.06732289500236 0
10.82314203493119 17.14307527143868 0
19.12686727587446 16.44204012324499 0
21.42332042466647 16.60077315676205 0
22.14279450257423 19.15668770400166 0
18.65805781037555 13.26320702756281 0
17.05874442239199 13.26169686509717 0
18.74999998662868 12.70836442437949 0
13.37355116651411 19.27839733182062 0
11.00281181350476 18.52007471002691 0
15.04524661984587 21.90799308886945 0
21.04294486767525 3.803994055447919 0
13.95336492604052 3.791716113401683 0
18.75692023709512 18.41351025849333 0
11.47972863079466 8.558743769028366 0
18.14358486931599 13.19740389025794 0
21.91078447936076 6.692134389582604 0
20.53799910680607 20.63378695387339 0
12.69800444640086 9.704889406319435 0
24.75799464977758 16.90386643783203 0
22.15251015225349 6.502379227655011 0
14.60509415838885 4.469136041440254 0
23.81215972866208 5.247328068160914 0
13.56797526179961 4.781423822023542 0
15.64301257261989 18.41594533451507 0
24.51445494227586 2.718114914374776 0
24.77695939353089 19.08391490713537 0
10.84269888737439 20.90086239275993 0
15.30581970402876 13.49494158684666 0
11.51650240259669 19.46137790340681 0
24.12161963994307 12.89230277196261 0
20.34294854122653 6.975431524820378 0
14.18204586587029 2.72904535971441 0
23.54524077828109 11.8051205763013 0
11.43962144862818 15.88444973944342 0
10.37154520007531 9.213636192751904 0
24.6005716183822 5.601725468631682 0
18.00492018441219 16.4711739048773 0
13.96962033979597 9.220259503957761 0
22.38864811413165 6.091847633146502 0
10.81073821118976 9.862918083033236 0
18.03571428190875 12.69818993561667 0
23.21245150520416 9.581441414296128 0
21.25096445321871 13.35701230350835 0
10.86085155327903 17.97636615079101 0
15.15379525786848 19.29832867226036 0
21.25708615844916 15.06112859843733 0
13.07585605857829 12.61144446981955 0
10.86820597666044 5.463516453967761 0
14.40629889830176 10.52829399400054 0
12.10595938558978 9.810937590936202 0
10.33615852304252 17.46639344764363 0
11.7936475833325 4.059084279460901 0
11.31606752363761 12.19385175948872 0
13.28202892899859 20.75651444030966 0
10.44880852184411 4.507044957137722 0
22.29583637310901 14.23245323364118 0
22.73399245843528 18.14680651463585 0
21.45207312505541 6.966114451753595 0
15.39564386282432 21.92921719593966 0
12.98915052204635 20.45044260375848 0
21.56613360529103 10.12677391266507 0
14.54138194037235 3.474872123757484 0
19.69336068765926 19.82785839599162 0
21.55914474854469 9.592147152850632 0
11.66381296162133 3.084308290877273 0
POLYGONS 4028 16112
3 638 1232 1887
3 1059 501 1195
3 686 1055 1421
3 1007 624 1186
3 391 526 904
3 1445 1200 1852
3 607 350 1167
3 825 635 891
3 239 240 898
3 826 516 1312
3 1176 29 1843
3 895 621 1381
3 1169 487 783
3 88 1394 1162
3 686 826 1312
3 530 1128 1230
3 670 692 879
3 783 362 1238
3 347 1007 1186
3 922 790 1170
3 1138 644 1599
3 412 1038 984
3 1314 452 1287
3 646 1128 1650
3 323 859 737
3 350 607 1591
3 501 1059 1675
3 874 803 2037
3 39 40 950
3 592 704 1721
3 574 1461 1750
3 704 592 1288
3 7 227 732
3 1055 319 1421
3 1185 350 1673
3 720 480 1299
3 1059 381 1675
3 1143 631 1012
3 837 480 1468
3 819 1314 1287
3 803 357 2037
3 1461 983 1750
3 754 890 1503
3 1082 822 1818
3 692 399 879
3 737 859 1808
3 890 515 1503
3 143 144 1220
3 226 7 732
3 563 363 1407
3 979 726 1119
3 440 979 1885
3 1402 180 1731
3 362 396 1506
3 239 898 1993
3 182 928 1731
3 507 892 568
3 1051 1369 1150
3 427 713 1553
3 39 950 2012
3 338 1254 867
3 702 1211 1618
3 1052 655 1304
3 304 485 1069
3 632 302 1069
3 1316 86 1162
3 87 88 1162
3 268 1176 1177
3 747 1666 1149
3 1274 712 346
3 1048 1515 772
3 1049 579 1690
3 1169 783 1238
3 338 1231 1454
3 12 277 895
3 1103 321 1429
3 396 362 783
3 839 400 933
3 617 1226 1974
3 270 1082 1818
3 855 417 1388
3 366 735 495
3 450 1388 1510
3 824 603 1573
3 1481 402 1078
3 844 838 956
3 735 671 495
3 1801 412 984
3 641 410 2082
3 621 895 1817
3 14 1268 1105
3 895 1036 1817
3 381 1059 1332
3 935 415 1420
3 622 530 1403
3 271 1445 1852
3 1373 638 1887
3 1766 465 1652
3 455 1173 1464
3 880 793 1831
3 855 457 1108
3 272 10 998
3 1124 380 1093
3 1666 1043 1149
3 321 1103 1507
3 740 1766 1652
3 622 1403 1686
3 933 1405 2026
3 373 1369 1051
3 346 657 2100
3 1128 530 622
3 700 547 1573
3 415 835 1420
3 1518 1713 1597
3 933 400 1405
3 1181 588 1075
3 449 731 1247
3 1233 573 1709
3 588 907 1742
3 808 732 829
3 731 641 2082
3 1209 360 1662
3 295 296 1297
3 180 181 1731
3 1335 54 1296
3 573 719 1709
3 1617 1526 2023
3 419 1127 1701
3 480 837 1408
3 1023 875 1886
3 111 112 1365
3 1515 354 772
3 331 1049 1690
3 693 1063 2145
3 394 1313 1328
3 322 1138 1599
3 721 732 808
3 950 40 1559
3 580 1098 1495
3 1098 580 1206
3 442 290 1790
3 497 632 1697
3 485 448 1699
3 266 267 1271
3 484 1526 1617
3 1216 561 1445
3 499 741 1880
3 632 497 1547
3 448 485 1548
3 631 333 1012
3 1042 1126 1493
3 1314 819 1198
3 639 461 1170
3 411 1123 1241
3 1601 565 2055
3 1297 296 929
3 1274 346 2100
3 895 277 1671
3 333 583 1012
3 1330 111 1365
3 466 526 1902
3 30 31 689
3 610 530 1529
3 383 855 1130
3 968 250 1461
3 805 524 1644
3 528 587 1028
3 875 844 1886
3 1081 322 1599
3 514 1246 992
3 390 970 1879
3 713 523 1377
3 487 342 1773
3 26 1119 1066
3 506 1052 1304
3 741 605 1880
3 735 366 1854
3 434 805 1644
3 1518 493 1713
3 54 55 1296
3 454 1126 1042
3 661 1666 1680
3 309 1280 1693
3 496 844 875
3 380 1124 1250
3 631 1143 1714
3 278 1639 1876
3 32 944 1353
3 1666 661 1308
3 805 330 1027
3 1063 493 1464
3 451 563 1407
3 1063 1464 2145
3 1254 338 2021
3 365 1246 1348
3 1421 285 1375
3 761 1387 1656
3 351 1171 1750
3 1231 338 2029
3 498 1137 1430
3 1214 418 1574
3 846 409 1508
3 480 720 1664
3 623 1176 1843
3 588 1181 1648
3 1299 480 1227
3 943 716 992
3 819 282 1437
3 272 998 647
3 1313 394 1740
3 447 825 1215
3 809 1483 1651
3 43 44 551
3 892 539 1155
3 742 1481 1078
3 1084 1601 1194
3 677 737 1808
3 362 669 1100
3 181 182 1731
3 64 65 475
3 559 437 1045
3 464 1607 823
3 425 713 1377
3 575 846 1508
3 199 200 923
3 520 439 1863
3 1127 419 1311
3 1262 1131 1802
3 865 700 1573
3 459 526 1079
3 1391 805 1027
3 526 459 1560
3 505 682 990
3 1063 693 1694
3 660 922 1170
3 669 362 1506
3 568 892 1622
3 1388 417 1510
3 688 432 1165
3 608 1264 1267
3 427 1553 2105
3 786 619 1193
3 817 339 1055
3 907 588 1648
3 712 1274 1221
3 793 722 1831
3 86 87 1162
3 1601 828 1194
3 469 996 1100
3 565 1601 1813
3 752 529 924
3 726 979 816
3 534 1262 1802
3 1181 590 1648
3 805 434 1646
3 477 1316 1219
3 597 673 1744
3 1128 646 861
3 1372 473 1189
3 526 391 1079
3 1607 706 2060
3 521 1330 1543
3 411 1241 2031
3 337 1759 636
3 1733 1290 1752
3 1325 585 1755
3 523 713 1112
3 625 692 1042
3 790 639 1170
3 302 632 1547
3 485 304 1548
3 793 1035 2080
3 212 886 1256
3 1948 395 1978
3 685 1286 1544
3 531 1209 1094
3 847 989 1410
3 1137 498 1361
3 1201 536 1378
3 1328 1313 1981
3 1435 1120 1436
3 527 1866 1871
3 1171 351 1134
3 691 840 1511
3 1130 855 1108
3 573 1325 1755
3 842 700 1243
3 386 538 1391
3 309 1693 1397
3 841 817 421
3 693 563 1694
3 1187 403 1189
3 928 554 994
3 1187 527 1871
3 230 231 533
3 637 1073 882
3 1036 895 1671
3 853 1303 1898
3 673 988 1744
3 1344 440 1885
3 892 507 1308
3 669 527 1905
3 8 273 920
3 1073 726 882
3 1216 1445 1877
3 803 874 1416
3 380 1250 1570
3 1310 391 1664
3 1651 1483 1258
3 580 952 2144
3 1324 506 1304
3 527 1187 1905
3 716 514 992
3 998 1114 1471
3 692 625 1292
3 454 1181 1126
3 1679 414 1589
3 1123 411 1299
3 719 573 2073
3 862 1297 929
3 150 151 925
3 788 355 1910
3 1303 418 1898
3 1391 538 1498
3 1803 123 1418
3 804 1320 1204
3 445 824 1573
3 1320 804 1448
3 682 505 1758
3 591 1201 1378
3 769 645 1915
3 1173 455 1323
3 619 786 1918
3 299 26 1066
3 1226 1508 1974
3 998 1044 647
3 1417 262 1830
3 571 719 2073
3 261 262 1417
3 952 580 1344
3 355 788 2054
3 713 427 1112
3 1322 408 1053
3 787 419 1701
3 1281 1607 2060
3 694 523 755
3 848 649 2088
3 1176 623 1177
3 1529 530 1230
3 1553 1010 2105
3 395 1438 1978
3 1450 505 1600
3 1607 467 823
3 656 1216 1152
3 54 1335 1083
3 1085 789 648
3 563 693 2064
3 1297 862 2138
3 400 839 1634
3 1442 1020 1839
3 465 1766 1386
3 517 774 1718
3 590 1181 1225
3 697 1114 982
3 1627 537 1457
3 1866 936 1871
3 979 440 816
3 505 1191 1600
3 1246 514 1348
3 1154 1803 1418
3 1663 1210 974
3 319 1324 1304
3 1458 443 1037
3 1232 638 1995
3 1762 1232 1995
3 911 1762 1995
3 886 212 1942
3 613 568 1622
3 1766 930 1386
3 774 413 1718
3 526 466 1972
3 32 33 944
3 525 96 1608
3 172 781 1610
3 403 1187 1871
3 524 1391 1498
3 684 388 1718
3 147 148 743
3 722 371 798
3 1068 722 798
3 862 1364 2138
3 1128 622 1650
3 672 1214 1574
3 417 855 1807
3 1141 328 1039
3 1543 1330 1365
3 812 425 733
3 337 935 1759
3 424 1269 1590
3 432 688 1827
3 124 125 746
3 250 251 1461
3 930 510 1872
3 713 425 1302
3 817 841 1878
3 339 817 1878
3 1085 648 1710
3 561 1322 1053
3 625 1171 1134
3 529 752 1908
3 790 922 1804
3 463 1104 348
3 1073 25 1066
3 771 442 1790
3 1565 510 1766
3 959 995 1759
3 1264 608 1805
3 510 930 1766
3 1110 520 1863
3 643 812 1305
3 275 1530 1700
3 660 858 1933
3 996 681 1100
3 589 804 873
3 1260 541 1780
3 740 1565 1766
3 1330 521 1037
3 624 1556 1208
3 40 41 1559
3 678 1330 1037
3 409 846 1744
3 539 892 1234
3 1290 446 1752
3 728 380 1570
3 477 1219 1307
3 1028 587 1379
3 915 343 870
3 514 654 959
3 469 673 996
3 783 487 1773
3 111 1330 1708
3 1179 1004 1196
3 1086 119 1448
3 1291 57 1820
3 989 352 1410
3 1114 659 982
3 950 582 2012
3 1123 1299 1227
3 527 669 1763
3 658 959 1759
3 157 158 1441
3 538 386 358
3 206 207 767
3 674 1286 1823
3 696 812 733
3 944 33 1087
3 521 1438 1458
3 679 1479 2102
3 638 1373 1058
3 914 1184 1983
3 1303 427 1122
3 56 1291 1296
3 1044 998 1471
3 487 1169 1627
3 838 844 1531
3 1012 2015 401
3 1556 594 1208
3 1045 437 1159
3 537 1202 1457
3 303 304 1069
3 302 303 1069
3 423 1264 1805
3 833 557 1121
3 764 1179 1196
3 350 1591 1673
3 362 1100 1238
3 815 416 1427
3 406 930 1629
3 332 1210 2024
3 965 589 972
3 451 483 1078
3 416 716 1669
3 282 819 1287
3 349 1435 1436
3 1015 776 917
3 782 834 1248
3 416 1669 1427
3 994 554 1637
3 1143 1012 401
3 489 729 871
3 649 1113 2088
3 787 443 1579
3 51 1095 1107
3 898 705 1993
3 62 1367 1096
3 1802 1131 1452
3 716 943 1669
3 1171 625 1042
3 342 487 768
3 427 876 1122
3 778 848 1476
3 1226 575 1508
3 930 406 1386
3 1645 902 1354
3 553 739 1882
3 444 364 1194
3 1933 858 2074
3 1759 995 636
3 920 273 1136
3 960 964 1218
3 458 978 1205
3 322 1081 1146
3 1711 703 1989
3 1316 764 1219
3 594 928 994
3 558 1645 1354
3 391 1468 1664
3 685 1544 984
3 1438 326 1458
3 581 323 1357
3 731 809 1651
3 735 1854 2136
3 1220 144 1703
3 596 793 2080
3 708 1733 1374
3 414 1679 1342
3 353 865 1729
3 649 1507 1203
3 1210 1663 2024
3 363 563 2102
3 1207 443 1047
3 1252 969 2142
3 377 640 1763
3 570 1268 945
3 863 569 1477
3 604 833 1121
3 1520 175 1007
3 916 704 1513
3 278 16 906
3 159 160 997
3 810 1529 1230
3 1506 377 1763
3 1114 564 1471
3 282 20 1437
3 857 354 1446
3 331 1020 1572
3 970 390 2019
3 700 842 1647
3 278 906 1639
3 462 1720 2125
3 515 890 1829
3 1067 916 1513
3 93 1102 1346
3 764 1394 1179
3 704 916 1721
3 668 944 1539
3 1114 998 1928
3 443 787 1350
3 842 1142 1647
3 778 868 1989
3 846 575 1039
3 673 473 988
3 342 768 1915
3 1402 594 1556
3 828 641 919
3 885 553 1882
3 817 516 2085
3 1764 778 1989
3 822 1579 1818
3 1211 702 1663
3 1268 14 1054
3 1235 646 1758
3 664 564 1222
3 515 1260 1840
3 606 1384 1129
3 804 589 1086
3 768 367 1915
3 461 1286 1677
3 605 873 1880
3 804 1086 1448
3 1663 702 2024
3 944 340 1539
3 193 1325 1317
3 1106 1433 1531
3 1232 1762 2050
3 1143 915 870
3 336 1711 1989
3 467 1281 2130
3 504 1802 1452
3 1081 1599 1436
3 523 1224 755
3 288 289 991
3 516 817 1312
3 391 904 894
3 776 1118 1566
3 780 782 1031
3 343 915 1683
3 961 775 1460
3 797 1932 1564
3 694 234 1609
3 715 811 1736
3 950 706 1065
3 276 14 1105
3 751 554 2013
3 1433 838 1531
3 1209 531 2051
3 1460 754 636
3 443 1207 1527
3 964 378 1218
3 673 597 996
3 1181 454 1911
3 1256 515 1829
3 1260 400 1634
3 886 515 1256
3 564 664 1796
3 891 763 1499
3 360 1209 1217
3 928 182 1776
3 586 857 1446
3 1020 652 1572
3 1179 1394 2005
3 457 855 1738
3 1226 617 1760
3 644 914 1983
3 33 34 1087
3 1441 158 1696
3 1699 370 1576
3 1142 490 1647
3 1617 411 2031
3 625 942 1292
3 736 1484 1798
3 447 1215 2023
3 256 1432 1939
3 775 754 1460
3 395 1663 974
3 700 898 1243
3 1398 356 1481
3 1599 349 1436
3 873 605 2139
3 712 1221 2081
3 15 1442 1839
3 333 459 954
3 321 703 1522
3 888 581 1357
3 729 489 1782
3 583 333 954
3 121 122 774
3 1712 896 1419
3 1827 688 1480
3 686 1421 1375
3 1174 542 888
3 742 1398 1481
3 13 739 1530
3 561 1216 1868
3 1351 397 1266
3 865 603 1729
3 1656 1387 1392
3 95 96 525
3 172 173 781
3 840 1488 1511
3 855 383 1807
3 898 700 1400
3 574 968 1461
3 646 1235 861
3 851 903 1987
3 1210 332 1751
3 1617 628 1255
3 1402 1556 1555
3 811 715 1965
3 767 207 1765
3 526 1560 1902
3 364 444 1754
3 1579 822 1519
3 82 83 773
3 143 1220 1101
3 1295 555 1756
3 1136 586 1783
3 988 473 1294
3 1038 412 1624
3 541 1260 1634
3 641 394 919
3 417 1231 1510
3 1286 685 1823
3 1073 637 1702
3 1214 458 1205
3 1072 499 1880
3 575 1226 908
3 1460 636 1546
3 604 834 1934
3 1097 397 1351
3 254 255 1384
3 484 1617 1255
3 944 668 1353
3 196 197 345
3 1468 391 894
3 776 1015 1331
3 834 782 1060
3 1269 327 1590
3 638 1058 1815
3 1037 443 1350
3 1664 720 1691
3 958 568 2109
3 935 337 1780
3 275 13 1530
3 1042 692 1884
3 932 503 1957
3 1507 1103 1203
3 811 567 1736
3 668 932 1957
3 813 1136 1783
3 338 1454 1931
3 641 828 1601
3 530 610 1403
3 942 355 1821
3 1566 1030 1832
3 1025 1031 1612
3 652 1020 1442
3 860 797 1564
3 1216 656 602
3 266 1271 1739
3 840 1779 2119
3 398 706 1607
3 1917 1167 1309
3 1281 1019 2130
3 1483 462 1413
3 515 886 1236
3 645 769 1969
3 485 1699 1576
3 498 1167 1917
3 1874 958 2109
3 1268 570 1961
3 1618 1211 1672
3 446 1210 1751
3 1322 434 1356
3 1407 363 1640
3 1294 473 2038
3 635 825 1775
3 419 787 1519
3 1479 679 1960
3 25 299 1066
3 473 673 1687
3 1206 580 2144
3 676 537 1487
3 776 1566 1832
3 1031 782 1612
3 756 654 1909
3 1018 325 1975
3 1093 638 1815
3 408 1322 1356
3 832 1015 2112
3 834 604 2113
3 547 700 1647
3 415 935 1962
3 1566 1118 1567
3 780 1031 2133
3 1210 446 974
3 459 1079 954
3 671 735 2096
3 483 742 1078
3 567 811 2146
3 330 1733 1752
3 1035 793 1583
3 844 496 1531
3 703 321 1764
3 1260 515 1236
3 506 1827 1480
3 1247 317 1351
3 840 543 1488
3 553 885 1332
3 615 927 1040
3 603 865 1573
3 616 909 1789
3 863 282 1287
3 689 31 1353
3 159 997 1696
3 723 1090 1998
3 851 651 2108
3 1079 763 954
3 923 200 1148
3 198 1749 1363
3 1618 117 1836
3 851 1987 2106
3 699 1214 1205
3 1733 330 1374
3 700 865 1400
3 531 1094 1835
3 285 23 1375
3 873 388 1880
3 543 840 1894
3 1330 678 1708
3 651 1252 2108
3 981 165 1463
3 1247 731 1651
3 1372 1189 1447
3 55 56 1296
3 1779 453 2119
3 1286 674 1677
3 896 1018 1419
3 400 1260 1236
3 346 712 1429
3 1415 790 1804
3 915 593 1683
3 602 405 1868
3 1512 339 1878
3 1178 710 897
3 726 816 2147
3 589 965 1781
3 1954 633 598
3 96 97 1608
3 171 172 1610
3 1104 463 1660
3 1388 450 2144
3 633 1090 598
3 1237 1415 1804
3 1023 942 1821
3 867 450 1510
3 931 1272 1890
3 444 423 1853
3 483 451 1536
3 423 444 1062
3 651 969 1252
3 970 431 1952
3 128 129 1563
3 943 992 1595
3 890 754 1180
3 1200 1445 795
3 149 1727 1002
3 1713 665 1943
3 840 691 2151
3 17 278 1876
3 997 160 1614
3 410 641 1601
3 939 1497 1294
3 367 769 1915
3 1219 389 1307
3 1272 971 1890
3 1530 559 1700
3 514 716 2059
3 855 1388 1738
3 773 83 2156
3 596 889 2036
3 1998 1090 2107
3 504 614 1689
3 1409 332 741
3 1320 517 1204
3 72 1035 1132
3 970 492 1879
3 1281 467 1607
3 693 1540 2064
3 1035 72 2080
3 616 1483 1413
3 835 415 1927
3 683 1185 1673
3 203 204 1071
3 410 1601 2055
3 404 994 1637
3 1120 1435 2101
3 1005 522 1788
3 2072 945 1623
3 1216 602 1868
3 325 1787 1975
3 418 1214 1930
3 1937 371 2036
3 1484 572 1798
3 1010 643 1378
3 214 215 1070
3 351 1750 1197
3 1220 1703 1846
3 1632 539 1234
3 1241 571 2031
3 406 881 1386
3 385 1940 1724
3 520 1110 1557
3 1126 1181 1075
3 1104 620 348
3 297 298 1113
3 551 44 1135
3 312 27 676
3 1667 311 1977
3 25 848 2088
3 118 119 1086
3 1310 1664 1691
3 881 406 1695
3 1454 918 1931
3 190 191 1285
3 927 578 1040
3 208 209 775
3 354 857 1767
3 952 1388 2144
3 1020 331 2017
3 554 1776 2013
3 846 500 1744
3 733 806 1684
3 164 165 981
3 825 447 1482
3 1015 832 981
3 706 950 1559
3 555 1295 1908
3 1305 812 1620
3 1246 365 1896
3 501 719 1195
3 906 677 1639
3 706 398 1065
3 357 803 1058
3 1285 191 1851
3 1325 573 1233
3 1076 1245 1590
3 641 731 1013
3 532 1368 1145
3 925 151 1706
3 154 155 560
3 794 412 1801
3 500 597 1744
3 1249 522 872
3 1124 1093 1815
3 98 1031 1875
3 1566 170 1026
3 569 1470 2028
3 1268 1054 1705
3 536 1010 1378
3 614 513 1689
3 1368 532 2018
3 1264 423 1328
3 1590 1245 1492
3 628 1617 2031
3 631 925 1502
3 380 1318 1093
3 216 1115 359
3 552 676 1487
3 809 731 2082
3 458 792 1050
3 282 863 2158
3 1943 665 1504
3 1231 417 1334
3 1759 935 1420
3 570 945 2072
3 1470 672 2028
3 1120 1080 1711
3 1774 1512 1878
3 1713 493 1811
3 1271 267 1177
3 230 533 1732
3 777 684 1662
3 978 458 1050
3 852 1617 2023
3 933 663 1774
3 98 99 1031
3 169 170 1566
3 768 431 970
3 418 1303 1574
3 424 962 1269
3 1318 911 1093
3 703 1711 2044
3 503 932 1486
3 1290 326 1681
3 1687 469 1905
3 1187 1687 1905
3 1109 1679 1589
3 2011 734 2039
3 767 961 1191
3 1158 439 1707
3 56 57 1291
3 965 332 2024
3 932 668 1539
3 1909 654 2059
3 20 285 877
3 967 1411 1489
3 805 1646 1374
3 1540 693 2145
3 1384 606 1456
3 793 880 1583
3 436 1051 1150
3 30 689 1843
3 1384 542 1129
3 62 63 1367
3 25 1073 1702
3 234 694 755
3 1303 853 1602
3 922 600 1879
3 1080 22 482
3 95 525 1046
3 781 173 1806
3 825 891 1770
3 349 1599 1172
3 1762 468 2050
3 523 694 1377
3 93 94 1102
3 174 175 1520
3 177 178 1556
3 175 176 1007
3 1675 381 1890
3 449 1247 1351
3 37 38 1494
3 1703 717 1846
3 446 1290 974
3 1719 809 1726
3 51 52 1095
3 746 1635 1936
3 1199 372 1288
3 90 91 1179
3 92 93 1346
3 731 449 1013
3 789 957 737
3 426 1347 1927
3 764 1316 1162
3 729 500 1968
3 1544 753 984
3 1657 871 1968
3 1534 887 1482
3 328 1141 1160
3 883 1249 872
3 963 428 1784
3 314 1001 1783
3 447 1534 1482
3 432 1324 1826
3 1071 204 1892
3 64 475 379
3 428 917 1832
3 1248 314 1612
3 534 859 1819
3 898 240 1243
3 696 733 1684
3 53 54 1083
3 739 553 1061
3 754 775 1180
3 928 594 1731
3 505 767 1191
3 58 59 769
3 1497 939 2051
3 859 534 1802
3 475 65 758
3 199 923 1749
3 909 387 1945
3 519 945 1673
3 786 1754 1853
3 673 469 1687
3 915 1143 401
3 43 551 1404
3 1720 715 2125
3 49 50 1479
3 626 794 1801
3 1325 193 1792
3 1641 734 2011
3 522 1005 1904
3 592 1199 1288
3 837 1468 894
3 1487 537 1870
3 1432 884 1939
3 1347 580 1495
3 1639 513 1876
3 685 1038 2056
3 206 767 990
3 8 920 1533
3 796 931 1558
3 1540 679 2064
3 1479 363 2102
3 502 1005 1788
3 1260 1780 1840
3 865 353 1400
3 961 767 1765
3 314 1192 1612
3 1029 428 1832
3 1000 963 1784
3 1001 813 1783
3 1322 561 1868
3 461 858 1170
3 309 310 1280
3 1668 1207 1275
3 998 10 1928
3 427 1303 1112
3 504 859 1802
3 483 685 2056
3 1316 477 1338
3 1927 1347 1674
3 147 743 955
3 607 1441 1696
3 959 654 864
3 12 895 1163
3 707 1618 1836
3 116 117 1618
3 1441 607 1167
3 726 1073 1066
3 705 898 1400
3 844 1661 1886
3 1367 921 1096
3 311 312 1977
3 972 589 2139
3 746 125 1635
3 539 1632 1943
3 1016 878 1486
3 1361 498 1917
3 320 599 1794
3 326 1290 1733
3 991 289 442
3 1348 514 959
3 121 774 1320
3 163 666 1785
3 710 724 897
3 732 721 1284
3 832 666 1261
3 721 1205 392
3 1209 1662 1951
3 957 323 737
3 891 1499 1770
3 306 520 1557
3 1441 498 1430
3 576 1280 1893
3 884 581 1422
3 226 732 1284
3 578 1625 762
3 177 1556 1986
3 848 1702 1476
3 645 320 1794
3 665 1713 1811
3 387 1319 1945
3 934 730 2020
3 1718 388 1980
3 848 778 1406
3 1503 337 636
3 413 684 1718
3 655 877 1304
3 1205 978 392
3 86 1316 1338
3 550 1080 482
3 1443 546 1192
3 316 1444 1029
3 546 525 1608
3 781 316 1610
3 859 323 1819
3 1324 432 1827
3 1940 374 1724
3 658 1348 959
3 767 505 990
3 1507 649 1406
3 493 1063 1811
3 1179 91 1485
3 150 925 1727
3 1560 459 1897
3 689 1353 1957
3 1754 444 1853
3 904 526 1972
3 464 398 1607
3 643 1010 1553
3 349 826 1435
3 1173 1540 2145
3 955 743 1371
3 675 379 1944
3 1120 1711 2104
3 503 1996 1455
3 527 640 1866
3 1635 617 1936
3 379 475 1944
3 192 193 1317
3 826 349 1172
3 498 1441 1167
3 881 513 1899
3 658 1759 1420
3 1100 681 1238
3 500 328 1968
3 389 1219 1196
3 640 749 1866
3 1940 385 1692
3 1133 541 1366
3 1713 584 1597
3 792 458 2063
3 27 1237 1722
3 581 542 1422
3 1232 2050 1692
3 506 1324 1827
3 994 404 1208
3 975 1127 1311
3 916 1067 2075
3 439 1158 1431
3 766 510 1565
3 730 1147 2020
3 560 155 2132
3 858 660 1170
3 340 944 1087
3 895 1381 1163
3 664 773 2156
3 848 25 1702
3 1996 1271 1455
3 1487 489 871
3 390 1291 1820
3 1477 569 1847
3 997 607 1696
3 920 1136 1982
3 1264 1981 2040
3 521 1458 1037
3 415 1133 1535
3 402 1063 2047
3 1671 277 1839
3 272 647 430
3 391 1310 1924
3 157 1441 1430
3 786 562 1918
3 1563 129 1976
3 1119 726 1066
3 434 1322 1665
3 684 413 1951
3 425 812 1302
3 551 1135 1034
3 891 635 1873
3 1742 907 1475
3 1381 621 1988
3 948 806 1175
3 859 504 1808
3 1237 27 1415
3 492 922 1879
3 866 1280 1345
3 237 948 1175
3 1003 1043 1666
3 971 1675 1890
3 585 1325 1792
3 301 302 1547
3 304 305 1548
3 1280 576 1693
3 294 1295 1756
3 1538 397 1097
3 1368 627 1145
3 314 1443 1192
3 1444 428 1029
3 160 161 1614
3 477 1307 1796
3 332 972 741
3 799 786 1193
3 1778 135 2142
3 1749 830 1363
3 347 1520 1007
3 28 29 1176
3 234 235 1609
3 269 28 1176
3 742 483 2056
3 28 269 0
3 1286 461 987
3 1789 909 2079
3 237 238 948
3 1295 294 556
3 684 777 1571
3 1102 361 1346
3 736 479 1615
3 388 684 1571
3 607 997 1591
3 637 882 1146
3 1673 945 1705
3 513 881 1876
3 572 999 1552
3 844 956 1661
3 716 416 1909
3 800 2068 1580
3 1483 809 1719
3 533 231 1900
3 1657 552 871
3 743 148 1002
3 552 1657 1667
3 1133 620 1535
3 317 1247 1466
3 1201 1552 1474
3 286 287 1809
3 765 614 1452
3 999 422 1552
3 268 269 1176
3 554 928 1776
3 926 955 1371
3 1503 515 1840
3 459 333 1897
3 563 451 1694
3 857 820 1767
3 1115 1099 359
3 630 1020 2017
3 371 722 2036
3 1245 279 1695
3 1048 525 1515
3 781 579 1049
3 1010 536 1833
3 906 16 648
3 925 631 1223
3 211 212 1256
3 997 519 1591
3 333 631 1855
3 569 863 2032
3 1657 866 1667
3 837 894 2117
3 739 13 1882
3 1095 980 1107
3 290 291 1790
3 1055 686 1312
3 478 1538 1097
3 901 345 1658
3 685 483 1823
3 1113 298 2088
3 609 1676 2042
3 519 997 1614
3 242 243 1142
3 1711 550 2044
3 544 1398 1624
3 1727 770 1002
3 682 1071 1892
3 1676 1289 2042
3 1174 888 2111
3 882 322 1146
3 613 1352 821
3 967 901 1658
3 411 1617 1585
3 510 1016 1872
3 208 775 1765
3 1102 1048 772
3 812 643 1302
3 579 1520 1690
3 857 586 1077
3 1257 687 1522
3 525 546 1515
3 316 781 1049
3 1734 1399 1678
3 276 1105 1688
3 212 213 1942
3 793 596 2036
3 1021 1368 2018
3 1280 866 1893
3 649 848 1406
3 774 517 1320
3 492 970 1952
3 1136 813 1982
3 1063 402 1811
3 437 559 1638
3 286 1809 1469
3 1352 613 1926
3 555 1587 1756
3 979 1119 2010
3 614 504 1452
3 522 1249 1788
3 507 1003 1666
3 1113 649 2103
3 1117 361 772
3 524 805 1391
3 347 784 1690
3 398 429 1065
3 913 1071 1650
3 361 1102 772
3 1599 644 1172
3 818 1361 1917
3 1520 347 1690
3 1091 800 1580
3 701 876 1833
3 1168 670 1712
3 1750 983 1197
3 655 1052 1761
3 777 1399 1734
3 124 746 1418
3 184 2004 2013
3 317 924 1630
3 876 569 2028
3 1022 747 1149
3 869 1719 1726
3 583 1056 2015
3 288 991 1728
3 82 773 946
3 709 560 1902
3 582 950 1065
3 1494 522 1904
3 1138 738 2083
3 1324 319 2048
3 1362 372 1341
3 1198 655 1761
3 877 285 1421
3 964 960 2002
3 820 857 430
3 192 1317 1851
3 182 183 1776
3 634 796 1558
3 1020 630 1839
3 850 1676 1906
3 889 596 2052
3 967 1489 1653
3 1038 1624 1385
3 295 1297 556
3 507 1666 1308
3 1135 455 1034
3 1262 534 1432
3 692 670 1884
3 1560 1897 1343
3 360 1399 1662
3 1214 699 1930
3 1388 952 1738
3 516 826 1172
3 1189 473 1687
3 1399 777 1662
3 1329 2014 1537
3 1276 850 1795
3 1661 399 1886
3 968 588 1772
3 196 345 901
3 1353 668 1957
3 399 692 1292
3 1140 389 1196
3 1352 508 821
3 306 307 520
3 740 1417 1830
3 330 805 1374
3 1552 422 1474
3 1587 555 1945
3 1207 1047 1275
3 1981 329 2040
3 2004 751 2013
3 1352 356 1735
3 280 18 1270
3 525 1048 1046
3 579 781 1806
3 1005 36 1904
3 922 492 1804
3 1016 335 1872
3 1544 24 1469
3 508 1352 1253
3 868 637 1153
3 1676 609 1906
3 482 937 1212
3 1883 1211 1948
3 1102 94 1046
3 174 1520 1806
3 354 1117 772
3 1579 656 1818
3 784 331 1690
3 404 1186 1208
3 1122 876 2028
3 1031 1025 1875
3 1030 1566 1026
3 1054 683 1705
3 254 1384 1456
3 799 436 1150
3 1164 761 1911
3 1799 486 2049
3 1544 1286 987
3 1433 1106 1273
3 883 2003 1569
3 332 965 972
3 223 224 1596
3 422 1257 1212
3 666 163 1261
3 1887 1232 1692
3 991 626 1728
3 1141 1039 1959
3 219 220 1041
3 1137 560 2132
3 326 1438 1681
3 356 1352 1926
3 710 1178 947
3 1091 357 1621
3 1165 432 1115
3 801 1587 1945
3 443 1458 1047
3 389 1140 698
3 1257 550 1212
3 1445 561 795
3 1186 404 1541
3 933 1774 1769
3 900 885 1358
3 1113 862 929
3 1494 38 2012
3 988 409 1744
3 1202 431 1457
3 637 1146 1153
3 745 1091 1621
3 664 1251 1796
3 1797 317 1630
3 352 1314 1198
3 436 799 1193
3 1164 670 1631
3 1119 26 1108
3 236 237 1175
3 1432 534 2078
3 923 1148 1424
3 320 921 1816
3 792 452 1314
3 1280 310 1345
3 1104 1184 914
3 1171 1042 1493
3 1394 764 1162
3 367 970 2019
3 1006 1014 1061
3 1321 1125 1598
3 22 1080 2101
3 1492 1629 1842
3 654 756 1600
3 134 135 1778
3 145 146 1588
3 989 748 1050
3 210 890 1180
3 1012 583 2015
3 876 427 2105
3 367 768 970
3 440 1344 1935
3 1116 1409 1414
3 512 654 1600
3 593 915 1575
3 1335 660 1933
3 594 1402 1731
3 1230 1128 1523
3 354 1515 1446
3 1049 331 1572
3 1347 426 1935
3 791 799 1150
3 225 226 1284
3 1563 1158 1707
3 36 1005 2061
3 580 1347 1935
3 298 25 2088
3 1118 776 1331
3 782 780 1060
3 279 17 1695
3 761 1225 1911
3 763 891 1472
3 1190 609 1516
3 659 1114 1928
3 1424 324 1921
3 562 786 1853
3 1524 389 698
3 1249 883 1569
3 404 384 1541
3 452 792 2063
3 923 1424 1921
3 372 1362 856
3 1099 1512 2091
3 1038 685 984
3 191 192 1851
3 599 320 1816
3 1413 578 762
3 1796 1307 1244
3 800 1496 2066
3 1285 1092 1709
3 687 346 2009
3 812 696 1620
3 1988 621 2022
3 554 751 1505
3 1364 862 2053
3 977 1883 1948
3 775 961 1765
3 792 989 1050
3 1136 273 1077
3 1366 839 1298
3 903 851 893
3 259 260 899
3 11 272 430
3 277 15 1839
3 440 1935 1521
3 1481 356 1500
3 340 962 1539
3 246 247 1293
3 1899 465 1386
3 1512 663 2091
3 1184 1104 1660
3 201 202 1459
3 660 1335 1994
3 152 940 1706
3 588 968 1075
3 1645 558 2083
3 1220 1846 1156
3 345 197 1363
3 501 1285 1709
3 697 773 1222
3 881 1899 1386
3 1128 861 1523
3 1015 917 2112
3 1248 834 2113
3 332 1409 1605
3 885 274 1358
3 454 1042 1884
3 1932 344 1564
3 1458 326 1047
3 953 1070 2026
3 1251 477 1796
3 825 1482 1775
3 396 783 1773
3 1826 1324 2048
3 771 1790 1319
3 372 1199 1341
3 626 991 1462
3 639 790 1415
3 1894 840 2119
3 1573 547 611
3 968 574 1075
3 1409 1116 1605
3 1442 276 1688
3 1496 1098 2066
3 861 815 1523
3 463 1366 1298
3 1115 432 1582
3 250 968 1772
3 670 879 1712
3 152 153 940
3 486 1810 2049
3 1556 624 1986
3 451 1407 1536
3 885 900 1301
3 962 340 1269
3 1902 560 2035
3 205 206 990
3 575 908 1959
3 1130 26 1228
3 201 1459 1148
3 473 1372 2038
3 1015 981 1463
3 322 882 738
3 1303 1122 1574
3 1381 900 1163
3 1070 663 2026
3 438 1276 1795
3 1846 460 1156
3 1004 1179 1485
3 643 1305 1378
3 657 346 1542
3 736 1278 1484
3 728 926 1371
3 355 942 1910
3 1387 761 1631
3 365 1348 1545
3 638 1093 1995
3 1133 1366 348
3 406 1245 1695
3 691 964 2002
3 773 664 1222
3 1001 604 1121
3 786 799 1754
3 1650 1071 1633
3 1701 678 1350
3 356 1398 1735
3 1090 723 1327
3 1005 502 2061
3 537 1627 1870
3 890 210 1829
3 889 1937 2036
3 832 963 1834
3 1443 586 1446
3 652 1444 1572
3 346 687 1542
3 1144 386 1027
3 1435 284 2101
3 1883 115 1672
3 882 726 2147
3 478 1490 845
3 377 1393 1725
3 1284 721 392
3 957 789 1999
3 429 398 1655
3 1791 366 2141
3 1497 409 1294
3 931 796 2137
3 1411 484 1489
3 666 832 1834
3 214 1070 1914
3 162 163 1785
3 557 1837 1121
3 450 867 470
3 489 1487 1870
3 1394 88 1451
3 1825 671 1583
3 24 286 1469
3 569 876 1847
3 297 1113 929
3 550 482 1212
3 1641 567 1188
3 1596 224 2127
3 412 794 1568
3 880 1825 1583
3 1531 496 1239
3 1329 490 2014
3 479 612 1615
3 233 1224 2067
3 1543 977 1978
3 1405 953 2026
3 24 1544 987
3 680 1403 1424
3 543 1734 1678
3 1732 533 1930
3 773 697 946
3 1267 1264 2040
3 319 877 1421
3 1407 674 1536
3 1288 372 1593
3 421 817 2085
3 280 1270 1604
3 1114 697 1222
3 760 1807 491
3 445 1573 611
3 977 1948 1978
3 724 456 1698
3 1855 631 1502
3 274 885 1882
3 26 1130 1108
3 242 1142 2000
3 312 676 1977
3 361 1117 698
3 784 347 1541
3 582 1494 2012
3 1109 724 1698
3 1148 680 1424
3 1147 946 2149
3 58 769 1820
3 537 676 1722
3 513 1639 1689
3 1305 591 1378
3 180 1402 2126
3 1588 926 1570
3 681 996 1782
3 2068 1254 1580
3 458 1214 1869
3 1092 1233 1709
3 156 157 1430
3 521 1543 1978
3 981 832 1261
3 1293 247 1475
3 717 1588 1570
3 1639 677 1689
3 661 1632 1234
3 670 1168 1631
3 273 11 1077
3 942 1023 1292
3 535 1411 1658
3 495 671 1717
3 1138 322 738
3 1053 850 1276
3 1333 577 1157
3 1435 826 1375
3 1239 750 1865
3 1459 680 1148
3 386 1144 1860
3 1201 591 1552
3 1411 967 1658
3 1214 672 1869
3 1048 1102 1046
3 1520 579 1806
3 1837 548 1121
3 141 1454 2095
3 339 1826 2048
3 284 22 2101
3 867 1254 2068
3 335 1016 1715
3 1152 1216 1877
3 982 438 2020
3 1433 1273 1753
3 586 1443 1783
3 1444 652 1784
3 1479 50 1107
3 769 59 1969
3 406 1629 1492
3 677 906 1581
3 876 701 1847
3 609 1190 1906
3 715 1736 2125
3 1588 146 955
3 601 1825 1532
3 722 1068 1831
3 719 501 1709
3 760 1334 1807
3 398 464 1655
3 542 581 888
3 186 187 796
3 982 2020 2149
3 338 867 2029
3 482 22 1517
3 940 545 1706
3 1559 831 2060
3 232 233 2067
3 81 82 946
3 1086 589 1781
3 1190 934 1906
3 774 122 1803
3 587 750 1379
3 1332 885 1301
3 734 1641 1188
3 1061 549 2140
3 73 74 596
3 908 1088 1959
3 1393 377 1370
3 787 1579 1519
3 878 1016 1643
3 1058 803 1815
3 289 290 442
3 1790 801 1319
3 292 293 1587
3 313 639 1415
3 675 1393 1370
3 1854 366 1791
3 84 85 1251
3 779 407 1032
3 862 1113 2103
3 1443 314 1783
3 428 1444 1784
3 1552 591 1089
3 1276 438 1315
3 2014 827 1537
3 853 1224 1602
3 877 655 1437
3 511 1300 1598
3 738 854 2083
3 1106 1531 1239
3 612 1267 1615
3 323 957 1357
3 1825 1011 1532
3 999 1484 1542
3 799 791 1355
3 194 195 941
3 980 1095 1654
3 1873 635 2041
3 1454 141 1551
3 219 1041 2120
3 61 320 993
3 499 1072 1265
3 49 1479 1960
3 474 1462 2034
3 1780 337 1840
3 462 1483 1719
3 1384 255 1939
3 739 1061 2140
3 1117 820 1524
3 938 1857 1182
3 478 1097 1797
3 969 1778 2142
3 800 1091 1111
3 1640 980 1654
3 630 784 384
3 1056 583 1873
3 1398 742 1385
3 806 733 1549
3 1224 523 1602
3 546 1443 2076
3 1444 316 1704
3 1095 618 1654
3 651 851 2106
3 1094 1154 1835
3 1125 420 1598
3 909 616 762
3 1429 712 2099
3 1356 375 1958
3 1462 991 2034
3 484 1411 2057
3 1200 1276 1315
3 757 1253 1786
3 542 1174 1129
3 23 284 1435
3 350 1185 1045
3 1424 1403 1390
3 1509 283 1619
3 1016 510 1643
3 877 319 1304
3 1008 1401 1997
3 1239 1865 1920
3 240 241 1243
3 719 571 2058
3 1245 1076 2065
3 833 604 1934
3 1538 478 845
3 1291 390 1879
3 1090 633 2107
3 142 143 1101
3 600 922 1994
3 481 794 1730
3 481 779 1032
3 1837 509 1283
3 787 1701 1350
3 708 1668 1275
3 562 1805 2087
3 1040 462 2125
3 1821 355 1929
3 455 1135 1323
3 1413 462 1040
3 1152 270 1818
3 810 1230 1912
3 1393 675 1944
3 724 710 1575
3 1133 415 1962
3 572 1552 1089
3 20 877 1437
3 707 1086 1781
3 1579 443 1527
3 1206 450 470
3 1080 550 1711
3 952 1344 1885
3 1098 1496 1896
3 1805 608 2087
3 1253 757 2006
3 416 815 2134
3 1464 1173 2145
3 843 1596 2127
3 531 1497 2051
3 820 1117 1767
3 900 1381 2123
3 601 1288 1593
3 784 630 2017
3 113 1543 1365
3 1230 695 1912
3 1250 717 1570
3 313 24 639
3 1733 708 1275
3 1097 317 1797
3 257 258 1262
3 857 1077 430
3 542 1384 1422
3 688 1165 2120
3 1185 683 1700
3 1131 899 1452
3 413 774 2150
3 1211 1883 1672
3 320 61 1096
3 989 847 1628
3 106 107 1649
3 1601 1084 1813
3 1801 753 1809
3 1438 395 1681
3 366 495 856
3 1637 554 1505
3 356 1155 1500
3 948 238 1993
3 10 1852 1928
3 753 1801 984
3 699 1205 1554
3 1267 368 1615
3 789 906 648
3 1072 388 1571
3 270 8 1082
3 600 1291 1879
3 1975 869 2055
3 1841 907 1648
3 808 228 1592
3 587 528 1737
3 387 909 762
3 279 1245 2065
3 614 765 1970
3 794 481 1568
3 728 1371 1683
3 63 64 379
3 42 1404 1953
3 946 1147 1642
3 919 423 1062
3 717 1250 1846
3 1398 544 1735
3 741 499 1848
3 926 1588 955
3 198 199 1749
3 553 1006 1061
3 1496 800 1111
3 1679 887 1342
3 1158 1563 1976
3 42 43 1404
3 139 140 836
3 538 358 1326
3 1334 417 1807
3 388 1072 1880
3 1187 1189 1687
3 952 1885 1738
3 149 150 1727
3 1217 1209 2051
3 386 1391 1027
3 555 1908 2079
3 108 975 1033
3 766 264 1277
3 1409 741 1848
3 381 1659 1890
3 826 686 1375
3 1142 842 2000
3 10 271 1852
3 341 1247 1651
3 1411 535 1613
3 264 766 1743
3 26 300 1228
3 578 1413 1040
3 1446 1515 2076
3 1049 1572 1704
3 974 1290 1681
3 1711 336 2104
3 999 572 1484
3 357 1091 1580
3 130 131 1057
3 65 66 758
3 1807 383 491
3 724 1109 1589
3 718 1626 1501
3 1498 1068 1859
3 29 30 1843
3 543 1626 1488
3 733 2008 1549
3 148 149 1002
3 323 581 1819
3 1183 936 2086
3 267 268 1177
3 1626 718 1488
3 395 974 1681
3 1470 458 1869
3 892 1155 1622
3 315 606 1197
3 699 808 1592
3 887 1534 986
3 22 283 1517
3 588 1742 1772
3 2050 667 1692
3 539 1943 1504
3 1529 488 1279
3 626 1801 1809
3 1291 600 1296
3 1707 2030 2129
3 699 1732 1930
3 674 1407 1889
3 922 660 1994
3 154 560 1881
3 1438 521 1978
3 509 1747 1283
3 1534 344 986
3 688 1041 1480
3 383 1130 1971
3 754 1503 636
3 806 948 1919
3 1041 688 2120
3 145 1588 1703
3 283 1509 1517
3 672 1470 1869
3 610 1529 1279
3 1369 373 1841
3 846 1039 500
3 1247 341 1466
3 104 105 833
3 1144 1752 1550
3 706 1559 2060
3 663 1512 1774
3 329 1221 976
3 335 1629 1872
3 1752 446 1550
3 581 884 2078
3 1063 1694 2047
3 402 1481 2097
3 964 718 1183
3 1091 745 1814
3 567 1641 1736
3 442 771 2034
3 957 382 1382
3 560 709 1881
3 378 964 1183
3 377 1506 2154
3 394 641 1013
3 705 948 1993
3 1221 1274 976
3 1414 1409 1848
3 921 320 1096
3 590 1841 1648
3 197 198 1363
3 75 76 1491
3 378 1336 1218
3 271 9 1445
3 1105 1268 1961
3 1336 650 1218
3 23 1435 1375
3 1368 67 1979
3 1117 354 1767
3 331 784 2017
3 444 1194 1062
3 1588 717 1703
3 695 1230 1523
3 1077 11 430
3 1070 953 1914
3 1336 749 1777
3 906 789 1581
3 1056 1873 2041
3 1157 577 2043
3 477 1251 1338
3 640 377 1725
3 1270 883 1376
3 190 1285 759
3 494 1340 875
3 1336 1777 1586
3 203 1071 1907
3 654 512 864
3 1071 913 1907
3 975 108 2077
3 918 1454 1551
3 1407 1640 1889
3 455 1464 2110
3 907 1293 1475
3 231 232 1900
3 1707 439 2030
3 252 253 315
3 836 760 491
3 382 957 1999
3 1257 422 1864
3 690 1917 1309
3 478 1797 2053
3 461 1677 2135
3 590 1369 1841
3 594 994 1208
3 779 481 1730
3 878 766 1277
3 1587 801 1946
3 1470 569 2032
3 745 1595 1814
3 1417 740 1652
3 1506 396 2154
3 1393 1944 1777
3 1278 736 1615
3 424 1590 1492
3 1944 476 1777
3 1155 356 1926
3 758 66 1956
3 193 194 1792
3 1501 1626 2070
3 1509 937 1517
3 123 124 1418
3 1522 687 2009
3 1908 1295 1849
3 1784 652 1688
3 471 1305 1620
3 376 1640 1654
3 451 1078 2047
3 1219 764 1196
3 745 1017 1595
3 1853 423 1805
3 1577 281 1923
3 112 113 1365
3 486 1563 1707
3 1401 453 1997
3 732 227 829
3 1367 63 379
3 1470 452 2063
3 1068 798 1859
3 1564 1534 1856
3 1323 46 2001
3 648 802 1710
3 969 651 2116
3 552 1487 871
3 747 1022 1858
3 827 1151 1051
3 1093 911 1995
3 217 218 1165
3 1944 475 1423
3 1142 243 662
3 676 27 1722
3 691 1199 2151
3 557 1649 1837
3 497 1697 2106
3 1155 539 1504
3 320 645 993
3 376 2074 2135
3 1199 592 2151
3 1699 448 2107
3 1039 575 1959
3 559 1185 1700
3 456 724 2165
3 630 1671 1839
3 647 820 430
3 336 868 1153
3 881 1695 1876
3 1454 1231 2095
3 144 145 1703
3 1547 1768 1716
3 1468 480 1664
3 1074 1270 1376
3 690 1045 1159
3 1617 852 1585
3 1001 1121 1990
3 1992 960 1985
3 1987 497 2106
3 261 1417 1685
3 259 899 1895
3 956 838 1941
3 513 614 1899
3 292 1587 1946
3 992 629 1595
3 654 514 2059
3 2015 456 401
3 200 201 1148
3 720 1299 1585
3 1166 1548 1557
3 629 992 1682
3 1070 215 359
3 500 729 2148
3 256 257 1432
3 110 111 1708
3 469 1100 1905
3 1768 714 1716
3 321 1507 1764
3 1293 907 1841
3 1164 454 1884
3 858 461 2135
3 983 315 1197
3 663 933 2026
3 1834 963 1824
3 114 115 1883
3 750 587 1865
3 1644 375 1356
3 151 152 1706
3 1494 582 1838
3 1624 412 1723
3 550 1257 2044
3 1318 710 947
3 44 45 1135
3 255 256 1939
3 1596 843 1396
3 640 527 1763
3 1870 1169 1844
3 452 1470 2032
3 1618 707 1383
3 228 808 829
3 448 1998 2107
3 1739 1271 1996
3 1335 1296 1994
3 1000 1784 1688
3 992 1246 1682
3 1399 360 1973
3 862 1490 2053
3 911 1318 947
3 680 1459 1686
3 522 1494 1838
3 339 1512 1826
3 1697 651 2106
3 557 833 2122
3 1540 47 2152
3 725 1399 1973
3 924 317 1466
3 817 1055 1312
3 1797 1364 2053
3 702 1618 1383
3 841 421 1298
3 633 1699 2107
3 620 1104 1354
3 373 1293 1841
3 1729 938 1182
3 37 1494 1904
3 559 1530 1638
3 1666 747 1680
3 1526 484 2057
3 1348 658 1545
3 750 1239 1340
3 1459 913 1686
3 966 1564 1856
3 1729 603 1024
3 1061 1014 2092
3 283 21 1619
3 748 1596 1396
3 938 1729 1024
3 329 1981 2114
3 917 428 2112
3 314 1248 2113
3 440 1645 816
3 128 1563 1799
3 1404 831 1953
3 960 1218 1985
3 1131 1262 1895
3 1387 1168 1339
3 1110 1166 1557
3 586 1136 1077
3 1649 557 2122
3 839 933 1769
3 1334 4 2095
3 808 699 1554
3 407 779 1611
3 775 209 1180
3 1100 669 1905
3 1267 612 1741
3 1401 1008 1848
3 1158 1057 1431
3 899 1131 1895
3 564 1114 1222
3 1695 17 1876
3 142 1101 1551
3 1721 453 1779
3 308 309 1397
3 1497 531 1936
3 380 728 1991
3 608 1267 1741
3 281 19 1923
3 728 593 1991
3 648 16 1389
3 1621 1373 1213
3 756 1450 1600
3 1251 664 2156
3 592 1721 1779
3 969 370 1240
3 1512 1099 1582
3 831 1559 1953
3 1758 646 1633
3 1296 600 1994
3 926 728 1570
3 382 1085 1850
3 122 123 1803
3 13 274 1882
3 948 705 1919
3 721 808 1554
3 1490 862 2103
3 364 1656 1392
3 1497 617 1974
3 712 1538 2099
3 687 1257 1864
3 599 1773 1794
3 216 217 1115
3 1190 78 1349
3 676 552 1977
3 1484 657 1542
3 9 270 1152
3 1403 680 1686
3 429 872 2128
3 1490 478 2053
3 1329 436 1193
3 617 1497 1936
3 458 1470 2063
3 461 639 987
3 768 487 1457
3 1507 778 1764
3 85 86 1338
3 439 520 2030
3 4 141 2095
3 1253 544 1786
3 1997 916 1412
3 2092 837 2121
3 794 626 1462
3 771 1157 2034
3 1831 1068 2016
3 1932 642 2143
3 1518 472 1034
3 1451 89 2005
3 260 261 1685
3 1039 328 500
3 452 2032 1287
3 179 2126 1555
3 596 74 2052
3 1168 566 1339
3 529 1908 1849
3 670 1164 1884
3 45 46 1323
3 1008 1414 1848
3 186 796 1916
3 1249 327 1788
3 796 187 2137
3 1547 497 1768
3 476 1944 1423
3 1483 616 1258
3 77 1516 2027
3 942 625 1910
3 293 294 1756
3 454 1164 1911
3 653 1052 1480
3 1138 558 914
3 229 230 1732
3 899 765 1452
3 428 963 2112
3 1001 314 2113
3 1821 494 875
3 1080 1120 2101
3 344 1534 1564
3 248 249 1742
3 2074 858 2135
3 1459 202 1907
3 1151 373 1051
3 1052 653 1761
3 1021 758 1956
3 1016 1486 1715
3 67 68 1979
3 84 1251 2156
3 1085 518 1850
3 448 1548 1166
3 913 1459 1907
3 1625 387 762
3 265 266 1739
3 975 509 1033
3 245 1151 2071
3 644 1138 914
3 779 577 1611
3 606 315 1456
3 1104 558 1354
3 869 1726 2055
3 835 1927 1674
3 1464 493 2110
3 619 1329 1193
3 376 1677 1889
3 103 104 1934
3 346 1429 2009
3 509 975 1311
3 669 1506 1763
3 574 1126 1075
3 868 336 1989
3 184 185 2004
3 510 766 1643
3 350 1045 1309
3 358 1067 1326
3 1178 1845 1139
3 1052 506 1480
3 766 878 1643
3 678 1037 1350
3 704 1288 1532
3 849 2072 1623
3 1288 601 1532
3 319 1055 2048
3 995 959 864
3 409 988 1294
3 1677 674 1889
3 1153 1081 2104
3 597 500 2148
3 107 108 1033
3 138 139 893
3 36 37 1904
3 355 949 1929
3 1370 377 2154
3 560 1137 2035
3 1065 429 2128
3 1006 318 1425
3 263 1565 1830
3 587 1737 2033
3 663 1070 2091
3 1773 342 1794
3 340 1087 1867
3 72 73 2080
3 1645 854 816
3 946 697 2149
3 1641 615 1736
3 1231 1334 2095
3 765 1417 1652
3 903 836 491
3 131 132 1327
3 617 1635 1760
3 1071 682 1633
3 502 1788 2098
3 1545 658 1420
3 873 804 1204
3 126 127 1760
3 1105 1000 1688
3 1103 1429 2099
3 589 873 2139
3 585 1489 1255
3 1122 672 1574
3 1014 1006 1425
3 708 1646 1668
3 466 1361 1972
3 194 941 1792
3 996 597 2148
3 221 222 2093
3 508 1253 2006
3 425 1377 1922
3 1341 1199 2002
3 407 2011 2039
3 222 223 785
3 403 1871 1501
3 917 776 1832
3 782 1248 1612
3 1646 405 1668
3 802 1028 1710
3 843 1284 392
3 1871 936 1501
3 1755 585 1255
3 223 1596 785
3 1034 455 2110
3 409 1497 1974
3 763 1079 1924
3 985 847 1410
3 1408 837 2092
3 1901 168 1567
3 100 1428 2133
3 209 210 1180
3 215 216 359
3 1292 1023 1886
3 138 893 2108
3 423 919 1328
3 967 941 901
3 653 985 1410
3 1930 533 1898
3 1173 1323 2001
3 1619 701 1478
3 941 195 901
3 912 1370 2154
3 294 295 556
3 905 1988 2022
3 1079 391 1924
3 1833 876 2105
3 1361 818 1972
3 1199 691 2002
3 789 737 1581
3 1634 839 1366
3 15 276 1442
3 76 77 2027
3 1092 1285 1851
3 257 1262 1432
3 317 1097 1351
3 1262 258 1895
3 541 1634 1366
3 884 1432 2078
3 424 1492 1842
3 577 779 2043
3 562 1853 1805
3 672 1122 2028
3 358 540 2075
3 1649 509 1837
3 1008 1997 1412
3 1028 518 1710
3 1067 358 2075
3 1327 132 598
3 106 1649 2122
3 1846 1250 1793
3 370 969 2116
3 1433 567 2146
3 1178 897 1845
3 481 1032 1786
3 1890 1659 1558
3 545 940 1343
3 1561 343 1371
3 472 1518 1597
3 1530 739 2140
3 373 1151 1473
3 1318 380 1991
3 189 190 759
3 1669 374 1427
3 79 80 730
3 765 899 1685
3 1369 590 1925
3 68 69 1791
3 141 142 1551
3 1481 1500 2097
3 940 709 1343
3 396 1773 1584
3 710 1318 2162
3 1151 245 1473
3 541 1133 1962
3 940 153 1881
3 1543 113 1229
3 315 253 1456
3 897 724 1589
3 490 1329 2069
3 1224 233 755
3 264 265 1277
3 941 585 1792
3 78 79 1349
3 494 1821 1929
3 228 229 1592
3 418 1930 1898
3 555 909 1945
3 447 1526 1856
3 67 1368 1956
3 1908 752 2079
3 718 964 1511
3 1857 696 1182
3 985 221 2093
3 47 1540 2001
3 593 728 1683
3 1509 1619 1478
3 1526 966 1856
3 108 109 2077
3 381 1332 1301
3 337 1503 1840
3 71 72 1132
3 1285 501 1670
3 655 1198 1437
3 709 940 1881
3 1941 325 1434
3 27 313 1415
3 60 61 993
3 388 873 1980
3 2008 425 1922
3 681 1782 1844
3 249 250 1772
3 1127 975 2077
3 1198 819 1437
3 244 245 2071
3 1518 1034 2110
3 1186 624 1208
3 949 355 2054
3 1852 1200 1315
3 980 1640 1449
3 872 1838 2128
3 1192 1025 1612
3 1030 1029 1832
3 1004 1140 1196
3 1189 403 1447
3 833 105 2122
3 659 1852 1315
3 220 221 1426
3 1538 712 2081
3 913 622 1686
3 927 615 2011
3 966 1526 2057
3 1057 723 1431
3 1539 962 1828
3 125 126 1635
3 519 1614 1623
3 1981 1313 2114
3 850 1053 1453
3 1368 1021 1956
3 973 1693 1861
3 1734 543 1894
3 1053 408 1453
3 637 868 1476
3 1215 852 2023
3 908 3 2049
3 518 1028 1379
3 964 691 1511
3 1563 486 1799
3 909 555 2079
3 488 1529 1321
3 1185 559 1045
3 397 1538 2081
3 1760 127 1963
3 1885 457 1738
3 1694 451 2047
3 1669 943 1724
3 956 1941 1434
3 1041 653 1480
3 493 1518 2110
3 1812 714 1987
3 566 1712 1419
3 937 1509 2046
3 919 394 1328
3 1737 958 2033
3 1529 810 1321
3 1526 447 2023
3 1078 402 2047
3 1373 1887 1213
3 1272 931 2137
3 1887 385 1213
3 639 24 987
3 627 1368 1979
3 378 1183 2086
3 1591 519 1673
3 1461 251 1263
3 35 36 2061
3 307 308 1748
3 791 1369 1925
3 1624 1398 1385
3 602 1207 1668
3 1659 381 1301
3 1637 1505 1817
3 536 1201 2046
3 1083 1335 1933
3 405 602 1668
3 1400 353 2118
3 488 1321 1598
3 561 1053 795
3 1499 441 1770
3 977 1543 1229
3 1098 1206 2066
3 1245 406 1492
3 1632 584 1943
3 1300 488 1598
3 47 48 2152
3 642 1300 2143
3 1852 659 1928
3 110 1708 1984
3 745 1621 1213
3 2032 863 1287
3 1165 218 2120
3 1885 979 2010
3 769 367 2019
3 743 1561 1371
3 499 1401 1848
3 353 1684 2118
3 1640 363 1449
3 262 263 1830
3 738 882 2147
3 1147 730 1642
3 1329 619 2069
3 489 1870 1844
3 1146 1081 1153
3 3 128 1799
3 899 260 1685
3 431 768 1457
3 57 58 1820
3 1018 896 1434
3 1614 849 1623
3 989 792 1314
3 1540 1173 2001
3 937 482 1517
3 1534 447 1856
3 457 1885 2010
3 1559 41 1953
3 836 140 2094
3 951 1533 2124
3 221 985 1426
3 1293 373 1473
3 325 1941 1965
3 189 759 1272
3 50 51 1107
3 605 972 2139
3 1098 1896 1495
3 1344 580 1935
3 1333 771 1319
3 341 1651 1258
3 408 1356 1958
3 760 836 2094
3 2003 1076 1569
3 433 1516 2042
3 900 1659 1301
3 1201 937 2046
3 759 971 1272
3 1000 1105 1961
3 335 962 1842
3 1191 961 2131
3 544 1624 1723
3 1126 574 1493
3 1516 609 2042
3 622 913 1650
3 243 244 662
3 1055 339 2048
3 31 32 1353
3 1211 1663 1948
3 1779 840 2151
3 1394 1451 2005
3 1594 511 1598
3 2126 1402 1555
3 722 793 2036
3 1069 485 1576
3 872 522 1838
3 130 1057 1976
3 336 1153 2104
3 1110 1863 1998
3 1028 802 2155
3 352 989 1314
3 245 246 1473
3 1556 178 1555
3 1774 841 1769
3 90 1179 2005
3 709 1560 1343
3 962 424 1842
3 1785 666 2072
3 1369 791 1150
3 1101 918 1551
3 1627 1169 1870
3 233 234 755
3 1629 930 1872
3 878 1739 1996
3 679 1540 2152
3 1082 951 1064
3 69 70 1854
3 462 1719 1720
3 625 1134 1910
3 727 888 1357
3 1508 409 1974
3 1305 471 1089
3 1845 420 1139
3 504 1689 1808
3 89 90 2005
3 1212 937 1474
3 472 1019 1822
3 682 1758 1633
3 1755 628 2073
3 1083 618 1161
3 822 1082 1064
3 1417 765 1685
3 653 1041 1426
3 325 1018 1434
3 1596 748 1628
3 92 1346 1485
3 894 334 2117
3 1225 1181 1911
3 178 179 1555
3 1019 1281 1822
3 590 1225 1925
3 1007 176 1986
3 1118 1901 1567
3 1428 780 2133
3 577 1333 1625
3 836 903 893
3 573 1755 2073
3 103 1934 2163
3 591 1305 1089
3 374 1669 1724
3 866 1657 1160
3 1447 725 1973
3 363 1479 1449
3 1203 1490 2103
3 867 1510 2029
3 1205 721 1554
3 749 640 1725
3 653 1410 1761
3 1032 757 1786
3 464 823 1858
3 1319 801 1945
3 1608 97 1875
3 171 1610 1026
3 252 315 1263
3 1646 708 1374
3 1700 683 1054
3 1800 750 1340
3 205 990 1892
3 248 1742 1475
3 1900 232 2067
3 188 189 1272
3 962 335 1828
3 301 1547 1716
3 507 568 1967
3 868 778 1476
3 880 1831 2115
3 615 1641 2011
3 1732 699 1592
3 1333 387 1625
3 68 1791 1979
3 990 682 1892
3 1251 85 1338
3 4 1334 2094
3 794 1462 1730
3 61 62 1096
3 1057 1158 1976
3 139 836 893
3 1831 435 2115
3 1372 1447 1973
3 748 989 1628
3 1548 305 1557
3 1334 760 2094
3 924 529 1630
3 1237 1952 1202
3 649 1203 2103
3 2062 912 1816
3 889 1491 1937
3 449 1266 1740
3 14 275 1054
3 1662 684 1951
3 429 1655 1376
3 328 1657 1968
3 1206 470 2066
3 689 1957 1306
3 368 1267 2040
3 1491 433 1937
3 565 1975 2055
3 1560 709 1902
3 403 1501 2070
3 583 954 1472
3 1462 474 1730
3 888 727 2111
3 1935 426 1521
3 116 1618 1672
3 983 1461 1263
3 883 872 1376
3 934 1190 1349
3 1087 34 1964
3 752 924 1606
3 1957 503 1306
3 1684 353 1182
3 896 1661 1434
3 1893 866 1160
3 1565 263 1743
3 169 1566 1567
3 1031 99 2133
3 1057 131 1327
3 937 1201 1474
3 568 958 1967
3 1087 502 1867
3 1399 725 1678
3 3 908 1963
3 723 1057 1327
3 413 1094 1951
3 725 1626 1678
3 1952 431 1202
3 1491 76 2027
3 296 297 929
3 1626 543 1678
3 1094 1209 1951
3 558 1138 2083
3 835 1545 1420
3 1194 364 1392
3 823 747 1858
3 1346 1004 1485
3 730 80 1642
3 1693 576 1861
3 287 288 1728
3 168 169 1567
3 99 100 2133
3 1736 615 2125
3 1752 1144 1027
3 1747 419 1064
3 1239 496 1340
3 1253 1352 1735
3 624 1007 1986
3 696 1684 1182
3 1916 796 1528
3 1661 956 1434
3 849 1785 2072
3 518 1800 1850
3 156 1430 2132
3 81 946 1642
3 620 1133 348
3 761 1164 1631
3 118 1086 1836
3 1610 1030 1026
3 1025 1608 1875
3 358 386 1860
3 251 252 1263
3 1299 411 1585
3 414 1342 1594
3 902 1645 1521
3 1655 1074 1376
3 315 983 1263
3 872 429 1376
3 791 1656 1355
3 549 1061 2092
3 879 399 1661
3 618 1095 1161
3 422 999 1864
3 217 1165 1115
3 501 1675 1670
3 1342 511 1594
3 797 860 1913
3 1086 707 1836
3 841 1774 1878
3 860 535 1913
3 78 1190 910
3 1941 811 1965
3 445 1918 2087
3 1538 845 2099
3 765 1652 1970
3 1675 971 1670
3 1987 714 1768
3 1430 1137 2132
3 565 1018 1975
3 1684 1919 2118
3 1514 720 1585
3 1800 494 1850
3 766 1565 1743
3 771 1333 1157
3 163 164 1261
3 387 1333 1319
3 921 2062 1816
3 274 12 1358
3 281 1577 1360
3 1565 740 1830
3 1657 328 1160
3 1739 878 1277
3 1191 512 1600
3 509 1649 1033
3 1135 45 1323
3 1041 220 1426
3 752 1789 2079
3 746 1936 1835
3 1134 788 1910
3 120 121 1320
3 951 1747 1064
3 1510 1231 2029
3 327 1249 1569
3 1190 1516 910
3 113 114 1229
3 364 1754 1355
3 608 824 2087
3 1646 434 1665
3 733 425 2008
3 927 407 1611
3 675 1367 379
3 1175 806 1549
3 1811 402 2097
3 502 1087 1964
3 253 254 1456
3 165 166 1463
3 102 103 2163
3 636 995 1546
3 326 1733 1275
3 407 927 2011
3 1134 351 2160
3 1289 1676 1958
3 6 180 2126
3 1084 1194 1392
3 146 147 955
3 88 1 1451
3 972 605 741
3 1754 799 1355
3 1936 531 1835
3 1758 505 1450
3 831 1404 1947
3 558 1104 914
3 236 1175 1955
3 1034 472 1947
3 1235 1758 1450
3 1893 1141 1746
3 954 763 1472
3 1088 908 2049
3 713 1302 1553
3 512 1191 2131
3 824 608 1741
3 1266 1313 1740
3 490 1142 2014
3 1645 440 1521
3 310 311 1345
3 657 1278 2100
3 896 879 1661
3 1918 562 2087
3 1278 368 2100
3 991 442 2034
3 1110 1998 1166
3 551 1034 1947
3 235 236 1955
3 1679 1109 2041
3 370 1697 1576
3 421 2085 1660
3 999 687 1864
3 635 1679 2041
3 925 1706 1502
3 1578 535 1658
3 886 1942 1405
3 566 1168 1712
3 466 1902 2035
3 939 1294 2038
3 574 1750 1493
3 66 67 1956
3 503 1486 1996
3 1942 953 1405
3 1640 376 1889
3 1018 565 1419
3 540 358 1860
3 1820 769 2019
3 435 1831 2016
3 544 1253 1735
3 71 1132 2136
3 1684 806 1919
3 1132 735 2136
3 450 1206 2144
3 960 1341 2002
3 893 851 2108
3 1043 1577 1923
3 1676 408 1958
3 1236 886 1405
3 1854 70 2136
3 1151 827 2071
3 376 1654 2074
3 1224 853 2067
3 1667 866 1345
3 703 1764 1989
3 202 203 1907
3 34 35 1964
3 275 1700 1054
3 1656 364 1355
3 627 1791 2141
3 1101 1220 1156
3 1748 308 1397
3 16 281 1389
3 1809 753 1469
3 788 1134 2160
3 512 1460 1546
3 213 214 1914
3 437 1638 2121
3 687 999 1542
3 936 1866 2086
3 2085 1184 1660
3 404 1637 2089
3 1702 637 1476
3 520 307 1748
3 1649 107 1033
3 897 414 1845
3 1516 433 2027
3 1090 1327 598
3 1099 1115 1582
3 400 1236 1405
3 318 1006 1745
3 1699 633 1240
3 718 1501 1183
3 167 5 1901
3 2 101 1428
3 1058 1373 1621
3 1501 936 1183
3 127 3 1963
3 1175 814 1955
3 1225 761 1636
3 1317 1092 1851
3 523 1112 1602
3 1307 389 1562
3 1656 791 1636
3 1577 528 2155
3 1302 643 1553
3 778 1507 1406
3 1750 1171 1493
3 1577 1043 2161
3 665 1811 2097
3 188 1272 2137
3 414 897 1589
3 1782 489 1844
3 153 154 1881
3 41 42 1953
3 104 833 1934
3 1264 1328 1981
3 1270 1074 1604
3 652 1442 1688
3 468 1125 1903
3 166 1331 1463
3 1060 102 2163
3 985 653 1426
3 1270 18 2003
3 656 1579 1527
3 1638 549 2121
3 1778 969 1240
3 1 89 1451
3 1479 1107 1449
3 1533 920 2124
3 1112 1303 1602
3 1516 77 910
3 161 162 1603
3 405 1646 1665
3 753 1544 1469
3 1800 518 1379
3 1637 1036 2089
3 1194 828 1062
3 48 49 1960
3 963 1000 1824
3 1614 161 1603
3 179 6 2126
3 1025 1192 1465
3 1029 1030 1467
3 210 211 1829
3 887 1679 1775
3 1125 810 1903
3 1223 631 1714
3 324 1009 1439
3 1723 412 1568
3 807 1734 1894
3 774 1803 2150
3 1587 293 1756
3 59 60 1969
3 528 1577 2161
3 548 1837 1283
3 1663 395 1948
3 949 382 1929
3 353 1729 1182
3 737 677 1581
3 1306 503 1455
3 1676 850 1453
3 333 1855 1897
3 1044 1307 1562
3 345 1578 1658
3 856 495 1593
3 646 1650 1633
3 1773 599 1584
3 136 137 1252
3 97 98 1875
3 170 171 1026
3 552 1667 1977
3 1721 916 1997
3 576 1893 1746
3 813 1001 1990
3 603 824 2164
3 823 467 2045
3 816 854 2147
3 1221 329 2114
3 120 1320 1448
3 1172 644 1983
3 133 134 1954
3 1036 1637 1817
3 227 228 829
3 824 445 2087
3 807 1401 1265
3 109 110 1984
3 1192 546 1465
3 316 1029 1467
3 176 177 1986
3 1747 509 1311
3 5 168 1901
3 100 2 1428
3 195 196 901
3 1401 499 1265
3 91 92 1485
3 1006 553 1242
3 528 1028 2155
3 53 1083 1161
3 75 1491 2052
3 1362 1992 1145
3 1141 1893 1160
3 751 2004 2022
3 238 239 1993
3 945 519 1623
3 1727 925 1223
3 908 1226 1963
3 1486 932 1715
3 1167 350 1309
3 578 927 2090
3 918 1101 1156
3 1289 1958 1259
3 1868 405 1665
3 1243 241 2000
3 399 1292 1886
3 487 1627 1457
3 747 823 1680
3 1491 889 2052
3 618 1933 2074
3 821 744 2109
3 183 184 2013
3 2004 905 2022
3 1719 869 1720
3 613 821 2109
3 1780 541 1962
3 441 1215 1770
3 1215 825 1770
3 849 1614 1603
3 1226 1760 1963
3 623 1843 1306
3 1810 1088 2049
3 1053 1276 795
3 1958 375 1259
3 1085 382 1999
3 460 1416 1757
3 1822 831 1947
3 115 116 1672
3 475 758 1423
3 246 1293 1473
3 516 1172 1983
3 382 949 1382
3 612 1024 2164
3 73 596 2080
3 321 1522 2009
3 1307 1044 1244
3 1843 689 1306
3 1322 1868 1665
3 263 264 1743
3 629 1682 1111
3 750 1800 1379
3 618 1083 1933
3 1429 321 2009
3 1269 340 1867
3 1401 807 2119
3 453 1401 2119
3 1608 1025 1465
3 1030 1610 1467
3 467 1632 2045
3 1973 360 1888
3 568 613 2109
3 1392 1387 1339
3 46 47 2001
3 1659 900 2123
3 1207 602 1527
3 814 1175 1549
3 1371 343 1683
3 1897 545 1343
3 38 39 2012
3 207 208 1765
3 52 53 1161
3 963 832 2112
3 604 1001 2113
3 1045 690 1309
3 1342 887 986
3 511 1342 986
3 1921 324 1439
3 311 1667 1345
3 1108 457 2010
3 1896 365 1495
3 1629 335 1842
3 1156 460 1757
3 546 1608 1465
3 1610 316 1467
3 1362 1341 1992
3 744 1874 2109
3 705 1400 2118
3 300 301 1716
3 1298 421 1660
3 770 1727 1223
3 441 1499 1691
3 1749 923 1921
3 305 306 1557
3 185 186 1916
3 949 727 1382
3 902 1521 2157
3 830 1749 1921
3 1004 1346 2166
3 961 1460 2131
3 1632 467 2130
3 842 1243 2000
3 584 1632 2130
3 164 981 1261
3 1367 675 2062
3 1043 1003 2161
3 422 1212 1474
3 1499 1310 1691
3 1984 1708 1337
3 1482 887 1775
3 1782 996 2148
3 602 656 1527
3 517 1718 1980
3 1084 1392 1339
3 433 2042 1395
3 1460 512 2131
3 327 1269 2098
3 1632 661 2045
3 370 1699 1240
3 291 292 1946
3 173 174 1806
3 94 95 1046
3 651 1697 2116
3 1346 361 2166
3 667 1912 1940
3 1826 1512 1582
3 74 75 2052
3 1697 632 1576
3 1787 869 1975
3 434 1644 1356
3 438 982 1315
3 158 159 1696
3 528 1003 1737
3 449 1351 1266
3 1988 634 2123
3 1912 695 1940
3 628 1755 1255
3 973 1861 2129
3 1003 528 2161
3 616 1789 1258
3 945 1268 1705
3 854 1645 2083
3 1363 830 1578
3 1125 468 1139
3 796 634 1528
3 1095 52 1161
3 420 1125 1139
3 921 1367 2062
3 1140 1004 2166
3 785 1596 1628
3 80 81 1642
3 585 941 1653
3 247 248 1475
3 1626 725 2070
3 1515 546 2076
3 316 1049 1704
3 18 279 2065
3 1677 376 2135
3 1332 1059 1242
3 1215 441 1514
3 1726 809 2082
3 758 1021 1423
3 1741 612 2164
3 117 118 1836
3 941 967 1653
3 1855 545 1897
3 1340 496 875
3 1140 361 698
3 1064 419 1519
3 869 1787 1720
3 982 659 1315
3 1381 1988 2123
3 347 1186 1541
3 361 1140 2166
3 1809 287 1728
3 1659 634 1558
3 1747 951 1283
3 852 1215 1514
3 1825 601 1717
3 1992 532 1145
3 701 1477 1847
3 761 1656 1636
3 553 1332 1242
3 1682 1496 1111
3 1488 718 1511
3 433 1491 2027
3 21 282 2158
3 634 1659 2123
3 1250 1124 1793
3 436 1329 1537
3 70 71 2136
3 204 205 1892
3 224 225 2127
3 119 120 1448
3 218 219 2120
3 166 167 1862
3 101 102 2007
3 155 156 2132
3 12 1163 1358
3 1500 1155 1504
3 1003 507 1967
3 258 259 1895
3 105 106 2122
3 1010 1833 2105
3 330 1752 1027
3 1795 934 2020
3 1377 694 1922
3 187 188 2137
3 488 1300 1279
3 341 1789 1606
3 1940 695 1427
3 860 966 1613
3 77 78 910
3 1300 642 1279
3 1903 810 1912
3 140 4 2094
3 1635 126 1760
3 535 860 1613
3 19 280 1525
3 83 84 2156
3 667 1903 1912
3 1630 529 2138
3 372 856 1593
3 1019 472 1597
3 382 1850 1929
3 134 1778 1954
3 1787 715 1720
3 871 729 1968
3 711 2025 1440
3 822 1064 1519
3 696 1857 1620
3 374 1940 1427
3 647 1044 2153
3 1730 474 2043
3 1495 365 1674
3 241 242 2000
3 1252 137 2108
3 894 904 2159
3 1366 463 348
3 1036 1671 393
3 1927 415 2157
3 137 138 2108
3 486 1707 2129
3 789 1085 1999
3 9 1152 1877
3 779 1730 2043
3 1934 834 2163
3 129 130 1976
3 1163 900 1358
3 1873 583 1472
3 564 1796 1244
3 1237 1804 1952
3 1119 1108 2010
3 132 133 598
3 616 1413 762
3 133 1954 598
3 1002 770 1561
3 777 1734 595
3 820 647 2153
3 408 1676 1453
3 572 1089 1798
3 1734 807 595
3 136 1252 2142
3 1671 630 393
3 1697 370 2116
3 352 1198 1761
3 1278 657 1484
3 369 1874 2025
3 1804 492 1952
3 1142 662 2014
3 759 1285 1670
3 567 1433 1753
3 1486 878 1996
3 744 821 1440
3 334 894 2159
3 2020 1147 2149
3 821 508 1440
3 1347 1495 1674
3 1521 426 2157
3 1445 9 1877
3 595 807 1265
3 1072 595 1265
3 1298 839 1769
3 1326 435 2016
3 1221 397 2081
3 1414 540 1380
3 518 1085 1710
3 1116 1414 1380
3 727 949 2054
3 1359 1022 1604
3 211 1256 1829
3 453 1721 1997
3 841 1298 1769
3 2006 734 1891
3 135 136 2142
3 891 1873 1472
3 924 1466 1606
3 1103 845 1203
3 494 1800 1340
3 538 1326 2016
3 1403 610 1390
3 1647 490 2069
3 1789 752 1606
3 850 1906 1795
3 1850 494 1929
3 1571 777 595
3 1414 1008 1412
3 415 1535 2157
3 1874 744 2025
3 1072 1571 595
3 973 1748 1397
3 827 1051 1537
3 1024 612 479
3 845 1490 1203
3 1751 1116 1550
3 1723 481 1786
3 1089 471 1798
3 870 343 1561
3 1283 951 2124
3 540 1414 1412
3 1819 581 2078
3 19 1149 1923
3 1443 1446 2076
3 1572 1444 1704
3 847 985 2093
3 1331 1015 1463
3 834 1060 2163
3 1341 960 1992
3 1857 938 1949
3 463 1298 1660
3 1861 576 1810
3 903 1812 1987
3 502 1964 2061
3 1295 556 1849
3 1679 635 1775
3 2111 788 2160
3 838 1433 2146
3 446 1751 1550
3 225 1284 2127
3 1499 763 1924
3 1590 327 1569
3 656 1152 1818
3 1117 1524 698
3 2003 18 2065
3 1477 701 1619
3 1118 1331 1862
3 1060 780 2007
3 384 784 1541
3 810 1125 1321
3 735 1132 2096
3 845 1103 2099
3 1273 711 1753
3 734 1188 1891
3 1310 1499 1924
3 547 1647 2069
3 879 896 1712
3 730 934 1349
3 1706 545 1502
3 456 2015 1698
3 1284 843 2127
3 1331 166 1862
3 102 1060 2007
3 2015 1056 1698
3 524 1498 1859
3 1047 326 1275
3 630 384 393
3 1364 1630 2138
3 21 1477 1619
3 802 1360 2155
3 1762 1178 1139
3 419 1747 1311
3 468 1762 1139
3 2030 973 2129
3 1693 973 1397
3 1776 183 2013
3 1149 1043 1923
3 683 1673 1705
3 1689 677 1808
3 390 1820 2019
3 830 1913 1578
3 1074 1359 1604
3 470 867 2068
3 1524 820 2153
3 665 1500 1504
3 1076 1590 1569
3 344 1932 2143
3 1500 665 2097
3 222 785 2093
3 716 1909 2059
3 743 1002 1561
3 1489 484 1255
3 1174 2111 2160
3 1726 410 2055
3 1906 934 1795
3 471 1857 1949
3 883 1270 2003
3 1788 327 2098
3 582 1065 2128
3 1812 903 491
3 1751 332 1605
3 114 1883 1229
3 1014 1425 1227
3 533 1900 1898
3 1722 1237 1202
3 360 1217 1888
3 383 1812 491
3 971 759 1670
3 1116 1751 1605
3 666 1834 2072
3 1595 629 1814
3 1883 977 1229
3 2042 1289 1395
3 1372 1973 1888
3 1900 853 1898
3 1813 566 1419
3 1861 486 2129
3 1787 325 1965
3 626 1809 1728
3 486 1861 1810
3 1107 980 1449
3 1863 723 1998
3 697 982 2149
3 1535 620 1354
3 727 1357 1382
3 770 870 1561
3 931 1890 1558
3 584 1713 1943
3 1121 548 1990
3 1810 576 1746
3 1949 938 479
3 410 1726 2082
3 2025 744 1440
3 593 1575 2162
3 856 1362 2141
3 633 1778 1240
3 1168 1387 1631
3 537 1722 1202
3 366 856 2141
3 1357 957 1382
3 951 1082 1533
3 749 1336 2086
3 1708 678 1337
3 1644 524 1859
3 1866 749 2086
3 694 1609 1922
3 375 1644 1859
3 1370 912 2062
3 1380 1144 1550
3 549 2092 2121
3 470 800 2066
3 800 470 2068
3 932 1539 1828
3 902 1535 1354
3 943 1017 1724
3 1609 814 1922
3 966 860 1564
3 368 1278 1615
3 734 2006 2039
3 1925 1225 1636
3 965 2024 1383
3 1088 1810 1746
3 814 2008 1922
3 864 512 1546
3 1169 1238 1844
3 1583 671 2096
3 345 1363 1578
3 1942 213 1914
3 1035 1583 2096
3 1195 719 2058
3 1990 548 1982
3 1609 235 1955
3 715 1787 1965
3 791 1925 1636
3 565 1813 1419
3 397 1221 2114
3 935 1780 1962
3 1257 1522 2044
3 265 1739 1277
3 1874 369 2033
3 667 1940 1692
3 797 1913 1439
3 650 1966 2018
3 1778 633 1954
3 1913 830 1439
3 1013 449 1740
3 334 1159 2117
3 1425 1123 1227
3 2024 702 1383
3 471 1949 1798
3 1197 606 1282
3 723 1863 1431
3 1082 8 1533
3 229 1732 1592
3 1276 1200 795
3 938 1024 479
3 828 919 1062
3 2006 757 2039
3 1791 627 1979
3 1017 943 1595
3 570 1834 1824
3 1789 341 1258
3 1522 703 2044
3 1273 369 2025
3 1019 584 2130
3 474 1157 2043
3 1159 437 2117
3 1489 585 1653
3 724 1575 2165
3 1404 551 1947
3 414 1594 1845
3 1273 1106 1920
3 1594 420 1845
3 79 730 1349
3 584 1019 1597
3 1130 1228 1971
3 369 1273 1920
3 671 1825 1717
3 1505 751 2022
3 384 404 2089
3 3 1799 2049
3 389 1524 1562
3 1279 642 2084
3 736 1949 479
3 1241 1123 1425
3 610 1279 2084
3 801 1790 1946
3 1116 1380 1550
3 1913 535 1578
3 1536 674 1823
3 1011 2115 1616
3 947 1178 1762
3 1941 838 2146
3 318 1241 1425
3 1863 439 1431
3 911 947 1762
3 318 1195 2058
3 870 770 1714
3 1157 474 2034
3 1023 1821 875
3 1742 249 1772
3 1143 870 1714
3 1021 1966 1423
3 1505 621 1817
3 1235 1450 1771
3 281 1360 1389
3 742 2056 1385
3 714 1228 1716
3 1450 756 1771
3 1022 1149 1525
3 621 1505 2022
3 701 1833 1478
3 662 827 2014
3 711 1273 2025
3 1149 19 1525
3 1137 1361 2035
3 1937 433 1395
3 1909 416 1771
3 1575 710 2162
3 827 662 2071
3 798 371 1259
3 815 861 2134
3 1812 383 1971
3 1959 1088 1746
3 861 1235 2134
3 905 1916 1528
3 1513 704 1532
3 1361 466 2035
3 831 1822 2060
3 2115 435 1616
3 548 2124 1982
3 1011 1513 1532
3 1313 1266 2114
3 1081 1436 2104
3 481 1723 1568
3 375 798 1259
3 785 847 2093
3 483 1536 1823
3 619 1918 611
3 811 1941 2146
3 508 2006 1891
3 534 1819 2078
3 532 1992 1985
3 1308 661 1234
3 1790 291 1946
3 1000 1961 1824
3 1416 874 1757
3 1132 1035 2096
3 1266 397 2114
3 606 1129 1282
3 1011 1825 2115
3 1408 1014 1227
3 1051 436 1537
3 1246 1896 1682
3 1364 1797 1630
3 468 1903 2050
3 566 1813 1339
3 385 1017 1213
3 1825 880 2115
3 1655 464 1359
3 1813 1084 1339
3 357 1058 1621
3 1896 1496 1682
3 460 1846 1793
3 1244 1044 1471
3 662 244 2071
3 2056 1038 1385
3 995 864 1546
3 162 1785 1603
3 1654 618 2074
3 853 1900 2067
3 650 2018 1985
3 545 1855 1502
3 1903 667 2050
3 863 1477 2158
3 1017 745 1213
3 1188 711 1891
3 1918 445 611
3 1514 441 1691
3 1611 577 2090
3 571 1241 2058
3 369 1865 2033
3 1891 711 1440
3 645 1969 993
3 1822 1281 2060
3 939 1217 2051
3 1865 369 1920
3 847 785 1628
3 802 648 1389
3 1901 1118 1862
3 780 1428 2007
3 918 1156 1757
3 69 1854 1791
3 1931 874 2021
3 1282 1174 2160
3 615 1040 2125
3 1931 918 1757
3 757 1032 2039
3 729 1782 2148
3 675 1370 2062
3 1477 21 2158
3 1195 318 1745
3 892 1308 1234
3 720 1514 1691
3 1241 318 2058
3 1834 570 2072
3 1254 2037 1580
3 167 1901 1862
3 1428 101 2007
3 1059 1195 1745
3 1009 797 1439
3 874 1931 1757
3 1410 352 1761
3 394 1013 1740
3 1584 912 2154
3 338 1931 2021
3 1466 341 1606
3 1032 407 2039
3 1009 642 1932
3 1575 915 2165
3 797 1009 1932
3 438 1795 2020
3 1336 378 2086
3 927 1611 2090
3 852 1514 1585
3 1961 570 1824
3 1070 359 2091
3 1317 1325 1233
3 1141 1959 1746
3 1106 1239 1920
3 1092 1317 1233
3 1858 1022 1359
3 1613 966 2057
3 1652 465 1970
3 632 1069 1576
3 1857 471 1620
3 1593 495 1717
3 601 1593 1717
3 714 1812 1971
3 396 1584 2154
3 2037 357 1580
3 432 1826 1582
3 1771 416 2134
3 384 2089 393
3 1966 1021 2018
3 798 375 1859
3 1680 823 2045
3 1803 1154 2150
3 351 1282 2160
3 1188 567 1753
3 690 1159 1950
3 480 1408 1227
3 1384 1939 1422
3 1838 582 2128
3 464 1858 1359
3 711 1188 1753
3 1416 460 1938
3 1939 884 1422
3 1562 1524 2153
3 1017 385 1724
3 1748 973 2030
3 324 1424 1390
3 1701 1127 1337
3 650 1336 1586
3 1074 1655 1359
3 2004 185 1916
3 678 1701 1337
3 1024 603 2164
3 1860 1144 1380
3 854 738 2147
3 1960 679 2152
3 725 1447 2070
3 516 1983 2085
3 1447 403 2070
3 1271 1177 1455
3 1177 623 1455
3 1983 1184 2085
3 549 1638 2140
3 1014 1408 2092
3 756 1909 1771
3 807 1894 2119
3 544 1723 1786
3 1638 1530 2140
3 1006 1242 1745
3 905 2004 1916
3 1833 536 1478
3 577 1625 2090
3 1545 835 1674
3 465 1899 1970
3 1899 614 1970
3 1535 902 2157
3 1124 1815 1938
3 365 1545 1674
3 1218 650 1985
3 511 986 2143
3 1412 916 2075
3 830 1921 1439
3 986 344 2143
3 1228 300 1716
3 460 1793 1938
3 556 1297 1849
3 359 1099 2091
3 1254 2021 2037
3 1815 803 1938
3 1427 695 1523
3 1056 2041 1698
3 1418 746 1835
3 1154 1418 1835
3 1972 818 2159
3 904 1972 2159
3 2041 1109 1698
3 1625 578 2090
3 472 1822 1947
3 1777 476 1586
3 520 1748 2030
3 1919 705 2118
3 815 1427 1523
3 1917 690 1950
3 1737 1003 1967
3 1964 35 2061
3 1228 714 1971
3 1777 749 1725
3 1217 939 1888
3 385 1887 1692
3 1326 1067 1616
3 1155 1926 1622
3 2021 874 2037
3 1926 613 1622
3 958 1874 2033
3 1984 1127 2077
3 932 1828 1715
3 1159 334 1950
3 2016 1068 1498
3 645 1794 1915
3 538 2016 1498
3 953 1942 1914
3 1949 736 1798
3 1969 60 993
3 1076 2003 2065
3 371 1937 1395
3 1009 324 2084
3 1966 476 1423
3 1604 1022 1525
3 548 1283 2124
3 770 1223 1714
3 661 1680 2045
3 958 1737 1967
3 1127 1984 1337
3 1828 335 1715
3 1966 650 1586
3 476 1966 1586
3 280 1604 1525
3 351 1197 1282
3 2054 788 2111
3 2018 532 1985
3 1814 629 1111
3 109 1984 2077
3 540 1860 1380
3 1794 342 1915
3 536 2046 1478
3 2046 1509 1478
3 978 1050 1396
3 1050 748 1396
3 1154 1094 2150
3 1411 1613 2057
3 1094 413 2150
3 1235 1771 2134
3 1991 593 2162
3 1436 1120 2104
3 420 1594 1598
3 1318 1991 2162
3 1300 511 2143
3 642 1009 2084
3 818 1917 1950
3 1238 681 1844
3 426 1927 2157
3 540 1412 2075
3 1129 1174 1282
3 508 1891 1440
3 547 2069 611
3 563 2064 2102
3 803 1416 1938
3 837 2117 2121
3 824 1741 2164
3 2117 437 2121
3 48 1960 2152
3 592 1779 2151
3 2069 619 611
3 2008 814 1549
3 628 2031 2073
3 1067 1513 1616
3 435 1326 1616
3 1259 371 1395
3 1867 502 2098
3 2084 324 1390
3 2031 571 2073
3 497 1987 1768
3 2064 679 2102
3 2038 1372 1888
3 623 1306 1455
3 1793 1124 1938
3 1269 1867 2098
3 634 1988 1528
3 939 2038 1888
3 814 1609 1955
3 517 1980 1204
3 1998 448 1166
3 1980 873 1204
3 2040 329 976
3 915 401 2165
3 2141 1362 1145
3 401 456 2165
3 627 2141 1145
3 1393 1777 1725
3 1988 905 1528
3 1785 849 1603
3 843 392 1396
3 1865 587 2033
3 727 2054 2111
3 813 1990 1982
3 2100 368 976
3 392 978 1396
3 368 2040 976
3 564 1244 1471
3 610 2084 1390
3 1289 1259 1395
3 818 1950 2159
3 1513 1011 1616
3 1242 1059 1745
3 1274 2100 976
3 1950 334 2159
3 1816 912 1584
3 599 1816 1584
3 1360 1577 2155
3 1360 802 1389
3 1781 965 1383
3 2089 1036 393
3 1091 1814 1111
3 1044 1562 2153
3 707 1781 1383
3 1297 2138 1849
3 2138 529 1849
3 2124 920 1982
CELL_DATA 4028
SCALARS Von_Mises float 1
LOOKUP_TABLE default
30593486.256795693 35683640.19340619 31279511.81483972 7811148.123389152 35775791.69102936 48678284.9450263 27506540.173485704 34196808.08653472 46991095.12679706 18531045.098343275 549902.2419189459 19444391.671323635 35629857.922862455 2635826.74643009 30839588.322262865 33973824.47050794 26230640.465679668 36984106.9165089 8033481.689533555 14444728.70400633 6379939.839525306 29922349.99426756 19083338.519776367 35131381.84275363 18634908.907578368 23546841.443949874 31434909.24475819 34000216.02181716 13997650.57942486 34577373.64094986 24050210.09892732 34511639.994207054 632278.2633288251 12772191.436693745 26640026.928415135 39104009.3981226 32904609.303981584 32656295.147491533 41506596.8434981 19217471.952033814 34285889.28490433 25094831.603779037 33905142.88810276 42493831.14343779 22654181.26127979 17668754.94530546 31745991.69608474 41071713.686370894 1318136.0020057573 8552863.606734699 40795410.900726214 33677104.64290401 2640941.2499706647 35751945.56837585 40601420.92786021 4463871.790274542 38506550.98906251 33552776.670573864 9528249.882077077 14692693.275952263 45856666.98495026 31580540.240869682 12669681.057838233 10189202.985226285 9123172.77292195 4463065.802408818 1687551.1255785977 657131.0620033005 51090591.170318685 35847666.33428566 12503582.877966836 12473122.995980315 38374288.54724466 50207942.61167075 14213136.612968603 46447635.6107623 35842437.80750279 20432837.617259763 29977631.15688508 50021641.682728104 65221811.57910767 35321447.75040381 57680788.501189254 28103591.188137054 24268220.921838026 25025258.523945365 34923628.367447786 28137572.067968573 26201190.979127653 12183667.459210357 8166905.765952402 10579098.004826436 35370418.04887348 22983255.009312622 35008705.47526269 64283359.85615597 30090991.257331945 14064882.859162586 14439009.000665942 35071425.020203725 67626728.88163885 14673650.315622903 30586030.828691155 49958398.835117824 62975693.4621563 10591175.833798137 34902803.301745065 25341861.138828605 33342664.16704422 33926411.352658816 33731838.01212334 34723277.05811319 22248462.47696371 23589632.93260868 20391369.222954974 28524367.40132947 28660365.145328406 32691226.362320937 30432696.912376553 836743.2465294072 26621468.028908223 32553166.35651547 30105424.945852336 1689634.2076130405 23205559.977140617 33747231.34254102 35341012.00352246 25731061.106313016 42002960.338934064 22736579.103990715 24679613.691529486 18325817.190437444 18186523.73262851 12724538.91326315 28661430.94495788 7439605.9444973385 2044415.2054908248 17154289.96434271 34946734.85140935 36995309.312134825 18512487.178001996 23373931.86025239 15202055.09260722 2796248.487778772 35199667.615140095 54425687.77743998 33144050.05869554 14054580.78615302 10251807.014632674 32861778.063593987 26865110.1091314 14361123.659308748 4858284.439151394 38454953.23619497 26314183.138867095 34783536.17209071 31157830.770708766 8302374.829231822 32983506.815725915 26370213.710672986 32583636.24546082 2186345.4051306597 33871548.26828656 93760361.79578577 25852973.43373357 39130301.23914896 36096588.48681911 25302266.067189742 10096846.59128445 30890499.851481494 23268012.176140815 13908220.25604023 32323018.16311004 67960790.11008896 19751518.692475706 32855623.858227447 35285768.13375144 41131736.75236278 21425295.142978452 25481744.12321145 24420541.137252565 41045143.85524229 15078291.102688609 23830600.885579854 30494233.310122613 32575069.17464703 24855071.41818114 5089372.136675523 41698634.69180208 38517481.477629386 19060362.481790192 10675254.360246424 16513428.573294401 44568368.45555408 30590569.57203714 70267381.39297397 27953799.949457977 23096987.87790084 62727670.44644256 28815921.0354969 11370483.160513522 34206947.92022323 39912078.91148051 987052.1750490125 30635028.168922983 40796842.57118066 31423594.13258711 21821221.95885484 7603564.260776442 28880792.27915811 35149516.44521586 22584297.24275625 16693897.308887642 33668550.646974646 26421236.012111664 27217894.682914995 16143451.524981922 37238352.46905118 4711029.85027762 35614696.360215485 43678216.91492691 34560566.28475773 15499867.073942157 33634884.56467404 37358367.1136148 10369643.238218883 20722825.9220097 5586857.669540089 30375872.867310677 34040989.665961854 39036547.774204604 33856827.30969383 37556142.70644 16586542.721452236 19318345.0354513 36503878.32205731 35427421.18712596 72652700.59508808 22722676.231803384 26602498.05624454 12065443.187170321 32831927.7618224 8015043.939295938 32311176.321670778 39263212.30889222 34997358.51980921 4675805.692926213 25210019.352530073 38257950.07479506 24063560.1684761 26121679.793562025 27971467.249481928 10154521.830862673 28068976.39193893 41021255.86144303 7764679.427091922 38175607.381709695 34018221.311292745 34609735.7934123 35532518.752251595 22146311.327607647 28412529.3614546 37671952.84114843 26664274.148801364 37342738.30381652 33728563.04203703 10517801.286994653 24424835.88011976 14192796.367445229 8573823.482835408 10211048.132800559 34964665.18643429 36638056.00256545 31864520.261133026 28221726.70640767 31454404.615265314 8353374.064364239 29260985.226572923 6314513.013165574 29953632.86189286 17004413.175246213 35401153.372342564 23324845.129364584 34099235.52203554 76172616.48913136 33963717.36025296 41496176.71615992 37631491.65613514 14622698.747368826 5998097.73740934 11147754.575997053 35437821.91584773 8236296.05047345 35684764.221881285 2565534.774505092 30295931.792647492 13053229.170323446 9158935.51896033 35905534.631670736 34035213.86364776 37623974.09032623 36392728.29264758 14267077.526176075 7973220.4684600085 54722821.87729804 32141147.62052452 31364272.172214303 37916120.750199415 24577607.093149316 42875135.44018774 17928413.906907413 36291948.73842885 31605403.279735547 15103276.78069332 23766129.926791318 28248358.961504042 32533712.79264195 39172164.35763288 34781776.19363992 40116299.51268744 32679839.727899287 21961651.281501364 8728876.425444536 37157063.9932031 31577699.90573764 32128761.06669042 30356841.816439588 32086921.77733853 36518570.358442046 10639803.361291487 29659947.806017566 12523572.798352737 29244948.497453738 17379467.720024455 32104130.20556298 12728006.967143063 13771198.659296516 35523291.99348942 20066957.536443908 36943954.21632053 22700356.563196294 12977017.979540823 41091774.13457267 26850577.912837088 25818572.37127276 19935112.72353377 86724260.64712986 833933.9616340442 32720912.917485632 8307381.572361284 33148245.417945456 34095513.65229757 31809575.750521217 55961864.738013335 18576390.28090816 18809397.302448906 11281066.206843449 32466309.335353643 16967538.006094545 24271172.514163416 16455484.15482147 32047967.81093707 30395205.734889537 22393779.332495082 38571687.130398355 35159198.32611372 29334168.388373595 36161028.2324171 29711038.133396756 31659102.90301113 33844333.59096502 17403055.990331843 34730384.286892004 30416952.83434817 30489719.090969466 30028428.44682178 35115906.75685405 35581805.466693506 14670509.801009063 31867800.295255613 34105753.201336004 8173850.197296785 12571670.788416326 12615005.641572714 35313097.34127781 37977312.90885838 32273742.949180204 34447344.322949976 35385741.998921566 35991081.709255375 33689290.69644249 35266783.38536084 19047405.352309074 76841715.11787473 36251148.0724919 28588689.9549729 18098731.716363747 26272989.743588995 7314337.695722142 23194063.082968302 31853091.638314508 28696502.318318535 9743989.137639245 11974945.145650797 3297780.687919966 6266954.910291783 26516857.397376534 45547567.09499238 24059540.40381491 23242481.59840953 25100038.524348903 9387944.127473008 39115424.98338682 18786868.32744236 11161266.365066808 27192485.62486825 30369747.990715656 14594504.912255451 6996775.94018734 12229819.583773723 63583674.8335367 15841054.761806237 39885288.76780517 32270183.599325493 20956081.38378839 14610392.647910008 30657214.233607866 5176126.836838274 15770344.817905623 27535030.850901876 34599655.47792542 35792447.439340696 35688593.4179927 31867008.81906511 6446743.860848595 34781031.89744207 32494159.249256283 30076447.96438379 38730578.82905834 34088833.55097635 24809155.547654837 5311870.356648025 32112686.77006872 26113402.82182052 8616492.857072279 19485768.737226505 15726726.84348488 39964778.91588742 36017054.70865857 29008233.814824313 21838884.950343173 36521285.3670811 42117071.09341808 20173982.651717383 19554253.37756314 8322841.506785377 33651732.84905618 2990107.493827032 31251994.090011295 7127040.146042672 15226878.20435957 24056454.150129776 8726047.432645325 37653360.08391272 24892810.01778099 32556715.747823343 1621083.6261271636 39147766.67282167 34077077.882337414 10417134.11902591 10417134.11902591 27870666.36065943 13429580.535539286 1605153.744833521 26850632.019752942 38247057.86177837 32172616.95605469 14860678.384993996 33519120.676015206 32544744.31141087 22222006.692127246 31271820.992352586 31035656.487915166 15866331.792389719 3630612.17907318 3582111.6281752335 32571569.89240346 7016431.886732822 32513006.79404807 44480462.655847095 75526493.40981904 36386332.302359894 9124098.95808107 40960256.08708853 33203657.20779993 5420978.869691873 32221200.89672219 23853987.48585941 29977099.815231677 20036127.56145099 71575979.79960987 31314423.046909966 15324156.375933351 16820798.157469835 56088810.19716325 26858575.32965577 10069378.330784872 29381270.31572072 1414295.2565332416 34710895.63042155 7447371.640739312 11301519.22032443 36153891.55852585 3916095.557144692 4067946.61458215 10042256.968554199 39258106.44439901 33476713.683378305 34458224.160277046 18611674.508898005 26517618.309447225 35674115.34521548 35649409.076570846 34428439.258948736 40390476.66266685 32460396.129165005 30199755.812291402 69636889.72899537 32916598.763552543 4240849.557573638 38249904.04067662 52764429.89938956 35299696.891729586 16258003.39406077 40916703.29353928 9935969.022746135 12822635.367521342 34911695.978588656 18009066.793513615 16052578.585604627 32752162.58423092 35441165.04068933 18626310.875030573 52647774.95120997 22883018.931037776 22563129.375560116 26162519.63617528 35467706.47157578 4188327.687494297 23203090.23881679 34787939.50483068 35137350.050548986 12831514.57451489 2782505.6462880555 34578249.515060015 4479442.417117263 19345371.1019852 33023143.269263785 41661338.59660969 43398804.07659718 36328104.483318694 36078975.82842422 30414330.348028563 2780034.9084458794 26954534.912868734 49325225.646696605 9692244.262028381 50603542.04305903 39667842.756744444 32195853.41403492 31892929.527562406 35555798.75807321 17107535.29893028 25545965.48386703 20144277.42874843 32157662.2172809 28428678.79775107 5887333.770478097 32675649.103186917 32107234.598967277 32670843.372151904 6631760.7292346945 31664951.78550346 26577391.41178265 30441009.918186992 32289519.484919656 27654517.77569898 29128911.822194204 6548963.889822042 11220832.009808397 11538854.146237664 19775101.412669886 20181226.057138428 37928049.024193294 2721270.8218655763 2736349.5020130887 32047628.275996312 37136936.52972978 33994871.336745605 26375322.04275655 24456740.582411706 19487620.701035347 16258581.086574178 11744972.052691506 26741484.940941744 31845775.032424722 33935222.13549597 42245584.97995445 34473305.07243158 38209045.386811584 25823166.41963969 36793089.85537256 23015827.883790348 32359658.223946024 12932324.927153585 35302570.47679977 32217525.07578969 8416448.629257394 16722896.434956145 16861136.75247312 3142746.3156444905 59614020.20553696 28671379.289795995 3939899.6707162303 11159569.251816368 22135269.076483026 21833579.86764954 36562084.26942695 36495064.65551151 23080720.031577334 23985783.285184167 35045936.094953075 8369478.339946088 34304449.658906825 33195435.34165205 39410134.83323359 29721375.098562602 11401724.589679878 32544152.86899223 35561792.77108912 56274006.12968514 33480425.6852225 35578872.68332574 20040023.244246963 43064711.228924364 33597953.018594526 32096791.033283986 23403611.688846573 18861532.95047537 26751076.69621787 19513704.547227986 27636271.951506235 57216432.52573042 48524160.02665871 30590616.129912045 26791409.114078492 26858114.68808083 20385879.34576143 20406315.013518386 33998121.50780663 68701819.79635009 35599011.89333078 28988096.861738 34353646.72039174 57400671.569983 33720970.66812005 35314061.04767738 3096030.433191198 24284101.41357662 39510431.71806872 32994755.661835615 28327288.831795678 38823229.866246626 14282006.420770941 36540305.28387688 20324929.481314648 3818098.436046829 34600209.649456106 28642436.318550523 19416046.154828124 26246423.035715505 67112693.97253294 20788858.81604245 34438481.946027756 12684118.984063117 33039163.05937636 32512080.960765637 31024445.229279526 7274874.518453058 37198188.352109425 15844642.436806543 35133875.98205675 5998511.9123610165 35638252.58910053 38109684.41355032 4774936.86076533 4637565.048140731 13540290.99269614 30214856.48607865 31715541.791143324 38079537.63977961 35701943.628801964 23315247.5868043 59312005.34946847 24181872.10328458 985028.708143299 53050597.369722456 25458222.884519752 2470045.651369874 3257578.4932167507 43660732.19201894 27529905.259863652 33833977.36707526 23046242.61070714 5184712.003478881 5166812.896094778 34601517.307800926 34448563.75175039 48019262.96505581 3885117.55109485 33970806.72964737 25382708.454684287 31278006.387990173 26034682.828704543 22610168.50380399 30581487.717920743 28901492.856197402 15199764.076283133 28866642.52775479 35733716.16423087 15463525.39005718 31593232.567934815 34552998.357715525 42922122.45327066 2259270.2968555433 34175451.674880326 34137659.74036176 30220352.10082076 703470.0636176501 17379467.720024455 36112600.13809373 43865953.22777036 52825198.224266894 1963033.6129273647 1979501.2258127125 31656764.966471653 23078769.773609728 30507230.334479477 40981138.31569576 8964086.3569677 8222196.125699718 35867479.40552449 21509481.691566683 3370561.2797886054 3354828.9805334047 34101139.97670218 34421934.242673516 35185804.11127906 23640306.322105683 25098980.592121657 37462290.44213931 34657026.51575736 26632700.603031393 50453142.71501741 28736337.32222493 21334263.652711354 31518771.587021377 34019559.664650254 46527255.84189242 23649204.29260467 31524926.21403522 21186703.278573688 55759181.639073804 3219720.159242006 20849064.838337533 20239116.15867484 52940270.23228195 34642867.2641294 36671368.28249177 35853586.56357926 31898069.225034628 40200951.85449929 6525122.5648612855 38750313.7410058 35368757.86510142 31416982.853530273 40426795.48385714 32440917.046081305 33642311.500795305 26641048.996764947 62044708.59881653 6611910.409172304 25055936.14934794 34654065.650723144 27060467.55659002 34051177.660818316 9991740.308469107 25912011.293573376 22918526.819362026 40856193.76101342 20999382.329259112 31788123.16348812 46534044.058320254 5161477.137953004 31192606.339128137 16381121.327199893 32369866.780548897 32442020.620153587 15646389.98921001 15691263.00029929 3223399.6277452875 52832547.7609531 26896480.505783293 34200913.42152056 22572662.144620188 59469240.82609183 21866739.31866359 29308055.208495386 17115426.48860535 26120880.003365632 43762863.913290516 26523990.220769547 28074515.502725523 31724607.967590466 35502810.423940204 46153145.64752878 33251481.07843177 27716812.45408148 34302119.79387494 25659310.033385444 17980667.208652005 24564646.277429733 32937467.16253496 28696396.350631863 6192744.971778001 26334316.731479876 48130029.85283609 30748442.892883435 59550377.586272866 14030353.623297954 33849143.52579854 20868805.360397875 3312608.3131575403 33413911.60730052 32040803.466345727 35300787.57303644 25522881.32642759 28270676.287296284 8675216.237499397 34790406.34706101 22556939.498635113 24637205.859007295 33110198.509528946 40371272.17310733 24517175.099185836 6153735.206305109 16581604.176374655 13782275.444954418 15844693.878614748 52326269.4370609 25020155.59410538 9334314.166870179 34262423.028702244 19524154.399219234 8204903.772992745 38664732.54283943 23424747.503896747 35806162.00527928 33388447.900256064 37060787.957091525 17461399.46707424 31313393.642372537 5929640.661101188 25740476.682203244 7690203.298118655 55479064.43780584 16101099.822436266 51570864.94493236 33449196.12264648 133551456.71292078 32150783.12362257 38236728.67392612 34540346.18149341 39333931.00517127 27056249.959543053 22774616.148868803 42169846.24554136 22544958.919155654 49321965.521343715 21990739.951670058 10208831.19015393 37925925.905399516 24865633.877012342 8495570.829500347 34395100.80937217 7665969.748085946 17280263.78715873 22394360.584358994 17290745.613169238 30847346.111821435 34495571.11302323 16126887.755021695 19757077.44090496 31791241.759729393 29775399.793080933 32585502.72506333 12567457.439830013 25797758.037566606 35170032.93386403 32336918.808836233 29087747.096257202 27893027.40974511 37816873.26183297 15184240.297112625 29721732.49333745 7046001.69606402 7067327.076903604 27848486.74241709 17164587.56503846 8578776.953239955 4288948.395357116 34984141.99296451 28859587.775050808 7490045.890087996 36126546.87390493 32454531.59486127 30181168.838128343 30885025.856366545 52859943.45540221 23898438.232817855 13152197.86380707 67367376.403795 28121585.82347456 85908301.95607385 23962240.546765547 16830547.271025617 21950594.513387747 21728272.875131037 13374450.505336545 23836654.892106086 1901334.689746785 2865379.4861332467 32400799.172846805 8554628.906427113 35695985.89907626 17613734.29146439 5058637.216897715 5090483.0523280585 28425653.375308942 14963148.499312289 7025530.65753141 30280373.254325107 28602055.550361715 3032261.5307027726 35939414.94233432 37176913.2083281 36370088.82355752 32304629.197341714 26698147.47839676 37626893.695099995 10812276.181062113 27641390.636835527 32850621.444141023 3338098.8662004094 32394222.432305004 31684473.883314323 34399484.86072984 41469015.32607341 12860385.944685675 16802817.000520777 34897333.40005018 32050068.38595803 1350444.6711405085 17299500.510138106 34111980.64196327 97660073.87016474 17460173.664596286 11901833.463215224 22883717.412916623 11437891.572029773 16498034.277704319 16560910.181486217 35129181.650693744 13146736.912894404 30652238.515769046 13653288.338857867 20517549.89734504 20507940.065731686 4946899.544409107 15685687.348918581 28931165.603404738 27304580.310457833 12097507.148833646 32861998.800681017 35446615.798431985 23241653.989909124 16109024.223945122 30662880.638294496 34579872.5931209 4882934.707544072 15767881.5264704 26845020.260601897 20379707.076731134 24400777.583468463 5509850.854585521 40718456.30291243 29682888.368619073 41396056.42870675 33722815.54241951 37102271.76274738 14137055.143568018 5061520.618583893 4736812.552759242 34438231.526299566 16014582.235830806 39277436.83573441 34723004.935028955 1926894.4142063358 1878419.9648803694 15228355.892134072 41931637.20794643 23685950.217664205 23844255.90577566 50758967.46010942 38215709.75503928 5563270.053356735 35928519.19146848 29066181.918836076 32024435.935138084 12014087.174097382 35261595.47414581 36267790.738752164 20257278.69681937 19905848.60992686 29599094.409627922 37260060.99820168 32244568.14316033 17285938.710282754 23412647.683192763 5415531.027706614 25578680.560504403 33219540.608208615 26156753.1763287 12525739.542458383 34594468.31713004 40341317.14400699 44895082.2488458 12157978.21642481 32598322.16960412 6576356.3617262 27650978.935741868 39026179.74375595 13489248.048208315 19851469.084932525 6460025.724161628 4224164.222348756 12274370.642156858 25616297.164366737 29270373.896625698 38879484.199639805 3267051.440824837 3292285.9367635855 6155360.126406 6437022.320435759 47137883.65201887 9673169.873759896 18488558.52415253 41348030.19566404 14681427.012830162 11202682.35156847 11795772.42169612 27809246.264970902 6533007.637062093 27410860.108530764 34112151.47403263 23393268.86234829 31297145.431595672 17308478.56379144 31820035.827711396 31676830.126802593 24770259.16031721 29602387.329242233 35603421.3936502 23414567.68326112 33609240.88416486 39308223.09114433 32488134.68861031 30548004.101097483 31456666.053915706 5598266.681635618 31160739.823464602 31380174.753138706 36422281.433434635 19514853.293860245 30604413.945833683 32004605.014673207 13731605.375080245 31469175.136703245 1025158.6964870834 12287196.81768567 3212516.624417888 31956803.245513156 19705509.47111655 35440636.654904775 6044320.210429229 25392393.04953814 26723415.073247183 16837418.66625372 219884.7254660742 21212492.92962416 6937291.404213087 89836705.94691172 31212081.721369777 24346523.448910903 19128696.867673554 26428986.883737955 32144884.633095857 91477758.6920178 30006535.106402624 32033750.406189874 22558980.092055306 8068657.981028999 8407816.226512786 11812409.85665368 8071872.662899085 8154267.2177567575 13598110.593009727 13660411.669768112 17079392.37917355 22675979.661636356 31699686.62092567 27643540.120086227 39025086.196470864 72995228.62011422 19754898.537196778 6924155.504387118 32860369.42889536 32901476.81508173 2821934.8431049287 28519814.766869638 34501539.918025404 26673190.952961404 10708431.043654948 16707464.323020637 10311534.768351354 33974536.64679488 34180055.83543007 26250760.03427236 3633050.875605016 35375262.89279148 30131212.270834927 34861766.45094613 31795828.064287346 16909503.84460295 28022542.239358786 12371287.674219156 25931508.294786844 38818724.00430223 40628234.647377186 2273981.6580215427 34972381.112528935 30869442.045500375 14725014.29808537 25591335.251408637 13118212.643057782 56690815.52171643 16424252.476850655 30692148.90334878 16778522.650122337 2378604.4776592744 20781549.796120446 35143681.64328373 16387027.740574347 13517916.167941885 21794306.741515003 28320027.77961456 11368981.408197077 8403600.310239045 15861329.016725935 15277046.707488332 162993421.36765045 3083789.671734568 47095531.37932787 25630647.858889088 42271094.29224511 20132951.59347366 9041297.4816236 28115962.543501377 31312191.688048035 19051522.865653124 19698253.77341506 30318937.98281333 31768347.79699448 36645038.21913594 25917052.011357144 31226077.190212734 21437203.5080447 30867746.35264235 43174600.65043928 32009003.56271855 14704644.200635064 16402935.52460404 34236370.04346353 34711677.983988926 15194759.041686937 33437590.296071306 13720043.497501254 29408833.35956584 19774975.74036277 29874106.585905522 35370812.001255326 48033057.506317325 27214410.804326486 32866549.56445295 100499.26662766507 8690892.15658082 20852926.23639187 22574262.32801967 34617106.476332515 35478862.916443095 2600020.9500366547 2739879.688442051 14532435.807585988 11717143.602997964 33317613.33047944 30396690.78084881 47299910.61706426 35897156.11780804 13935344.28753814 375057.60165503254 26361531.642109595 98366.47014621014 26429783.23151554 55653.62394520101 16131175.060964143 21465856.687036984 42618165.60295479 22468700.706132405 32631829.84538215 14053388.03443768 23300269.286586754 32326663.498247627 22829749.52704254 14451390.83032367 20258859.882273767 34968238.74158953 18281468.020870004 25335886.07743365 32473996.068750694 42136250.475861445 24367226.66444595 6507315.328057627 46414169.86242098 33652391.34588296 37348278.18288407 12174791.292980578 25842495.99122972 11509243.4184456 23978090.611764215 3341894.966059291 16578379.52196686 184640.12810355434 6824300.882527805 33258023.1163477 31103722.239113297 33313775.815920647 15221992.78608135 19731111.482605923 31673038.669025972 19278334.912772205 34783072.16596874 36701989.54498208 15888721.748260833 15826621.150896328 7693448.289359829 13505744.249315774 32785754.633623403 40830104.03261949 20551719.657497734 32794435.160937544 44604483.08778023 37480717.88222204 41148639.721042044 55253062.557155885 10689018.832626238 17963585.641625486 21032956.523912814 42331882.7549454 35034659.09060076 22439833.31669631 76150749.91278198 32626810.367750797 17715282.74335951 46970006.23030678 22917424.992139455 29924968.301421247 33157808.183876537 38466405.50465854 34895486.82415996 20310904.359530576 15009838.646950068 32987898.230453476 34463004.38694565 36902344.28991068 9961087.952988824 39427891.91158282 15910820.6624297 13990736.870107451 15947192.238346815 35820676.07975899 32054495.208399214 11292753.191762226 11325276.65505376 33372009.64655493 7678001.792714788 39935245.627452634 34426478.271178246 35373640.7994301 26404396.0517909 87422359.75497672 31959503.405751813 23231651.33488037 11375133.228198228 22199500.161163874 44565434.44077094 28498533.392808218 33185105.379713435 19820280.67151492 47755886.69398474 4575650.446254686 12947350.9335064 42048479.30315337 61539847.51467154 14772403.682918133 38499252.335566275 14941484.138737781 22050819.46909285 37213975.400491 11624892.632096363 9018074.984227434 32260954.118128713 11672446.90124008 36901194.41367796 21666609.13160989 25387347.85844716 21324278.577857994 12458168.620686578 32948247.081767593 31196217.82393719 12168280.969006129 29770265.938612767 29146051.620218568 50160457.164006144 24582294.172901116 33043881.547735684 20800283.69758092 17081289.765816804 31241447.374105014 16157503.827578569 13428641.503341565 8065013.316409901 10659505.755916195 34698583.84697755 9271342.854972856 24810291.900554612 34441521.58369052 36185035.834615685 30394625.01692449 8423298.102047859 21033963.72402738 35848457.270117 34385038.679478765 34041716.89853451 34307993.074535854 29644336.612234794 27907041.487940926 41793740.29329514 16035990.625527075 9816603.307880783 23296110.5860383 32760249.829796404 32593407.00580779 10733285.337512385 51787268.948236465 27202136.22164883 35740247.677333705 32860688.258850645 36537955.717342146 34852740.04369408 24327261.54278349 27578442.240765765 34904531.7211641 3010866.1582792657 24441675.40682082 3696950.6470263964 31970901.114211384 3774177.097816205 14675650.977252185 40143947.70608125 11874655.853283042 19569765.357980657 40419134.372243986 32272966.157157876 13262270.454663772 31095348.243527155 60781517.90136993 15158049.956965255 15162667.423342934 13077304.679845836 22194685.56131545 5664505.557136463 40415881.78736086 30938748.710989047 34290321.40193068 31397069.416315373 1307596.5815920606 31449119.551918313 16560552.804661186 16692585.073818542 12421798.12491833 48532599.95533372 12567249.384428939 3560190.32411246 20019420.90510486 4908134.55187636 4920342.083870759 29460569.31321456 16739424.783061419 33407358.391739286 25855115.071241222 19091285.96481683 22800212.28750241 27558852.600594807 15095941.086347409 32945341.813619014 4142732.567648272 15734436.235945394 10714708.867277399 30305934.918703824 22810291.54907756 35852498.49244959 22668430.35508831 29405639.68211739 34817513.500729814 32409218.69487584 30592584.717227463 33542312.54574856 30045824.56920554 18977282.123057127 36627608.83327599 4985481.5586416265 15351126.72820339 50489964.23313861 4719708.132816896 14372836.796251332 44908630.9101713 40052026.52287179 14084578.684881547 35578683.81058358 33316270.2833021 19652589.445665576 33050900.179116532 14040171.72056191 30312245.941871837 11015697.005234798 30418101.7113493 24441658.610354982 107600892.10000288 39008698.44017383 11315565.065669356 36686154.206203856 32504482.863640964 13563302.285246827 22311700.436498478 2519121.8843730856 24299469.135619346 1622831.4467583941 27523880.575755216 45422364.93855632 32075604.517659374 16285924.668158673 5035791.692639115 32689104.77504108 45172586.091340445 36748241.36445013 8237977.340245924 38678123.06144699 32954683.707115762 15786671.34833142 25996704.94164577 29233895.83076805 34473070.88084794 33687082.98518597 31583184.596317258 14933835.928593842 1630648.8416528227 32665245.775945585 14538419.274272675 14491197.608262736 27693026.614391297 29222958.394567687 3417904.3820745633 18287575.80985715 12547915.614766074 29477858.568546597 80502130.67865619 1914057.7575692153 1888072.9143879304 29840377.979368187 27868868.01580464 34647484.97885305 29176526.618298817 24716007.67569478 35636285.02023328 28501347.89640012 5946652.834834934 14763611.060055042 5622481.972976929 17311161.30009601 35574684.14415806 34944857.96662793 25963661.225669567 29725180.109614756 29584971.189369068 32526076.855672922 21823544.390955 10734169.139332818 38627510.604583114 30322169.760672748 39171197.820542686 17762087.871940553 17096643.70234414 10622573.529551122 42964825.8037874 30535996.236726902 38374008.40357774 8827156.605284937 29611790.50692888 9044137.142187143 56621262.544816576 13436538.433567371 24959163.054854833 24201230.367753536 26774102.481728964 29174808.734827306 5974977.742149097 39378622.16604907 14051558.418711673 19531110.812357187 357372.15706140717 38757120.96115881 19311235.550491646 31939941.216037896 29933165.114882026 11366864.709537385 32250932.20102979 35447862.90595912 31500443.562432177 18071921.18205037 28738946.790397845 34047339.778084934 5665009.124953755 5409248.2214891985 34099664.99948424 47760361.053786 26937039.686705075 34046113.46370903 36595008.18655715 29895150.32581292 9856057.331575448 34140210.27731318 34484262.356635116 16131267.660544077 19065264.037118852 34715883.75036728 22150142.12938765 9763797.446274633 33793170.74022918 30596955.752936456 25797535.170240242 34170264.64261175 28779968.905621722 37120084.05475952 32936684.25161193 10505073.786504624 22304580.011158407 30275595.282471012 23215840.23637512 31429332.602684904 22732551.069909547 4860170.19151303 15851362.962396689 33226721.594630316 7860874.080834903 31073940.06849867 41923041.58942276 33587509.247401744 131198056.79139727 37139917.5283048 34505811.673738115 7035578.687025469 6766700.987995898 15325488.365930017 25289517.927909736 24082462.38969126 30804557.26684551 32979264.01184086 4855036.301066213 12227627.817330956 29758615.396494836 23580003.42207742 32902642.59122214 22536794.177535612 26223822.80119033 28420328.3103862 29649714.782774266 13475769.260173606 11768051.990535581 34364711.580638826 14543773.27482218 12145058.905719867 29835813.962242845 36515668.48886247 27532478.568988334 30132797.893945437 23907840.770555206 12456116.191524649 44034800.024950564 38421711.39380245 33817213.065690376 12482319.160736628 15841776.458337221 16250548.53304145 30011333.316933684 37325314.53486284 31534628.197780523 31007999.27249244 13459545.971208839 49644152.14791991 34702249.2552855 3845858.1767351925 20427239.19750435 22605969.83089548 35308440.64935522 32533498.21652634 18892739.214042272 34680938.67421481 10792436.723196147 33812689.03281377 12739223.563444763 14771194.111314958 50646905.38479561 46771738.40104738 260091.29520142268 34999240.02622563 28951697.815346897 31878390.34607831 50660901.55445409 11333254.604586072 26405961.18190288 711306.5306911289 27038813.290966257 34946032.1751333 25369589.28298721 36056111.444861755 27145769.752802573 11667303.13792206 30129058.85281221 25135220.87060643 50329285.791348845 35699927.95579961 33420825.34876113 6110591.646854732 16645118.091094134 30983403.964772254 12971341.804556776 13804872.780960597 34803573.9085909 3457089.640359016 44316126.7596646 17285194.141290866 61233553.51705281 32135058.573259447 31690198.823055834 32186809.57987842 32685850.141782753 62109816.574460156 152120276.80252066 42712118.62574133 44045455.27952811 8415622.142579501 9031848.417518849 13847724.224872386 32213785.25285637 35840633.44389086 20405013.83993692 27548025.3643363 52058593.187951356 5700459.493223946 11371015.825314205 263474.68007116945 33302165.481754217 40817084.32060498 40739154.555544466 12161638.01014152 32266421.200432338 24565229.03067089 31208498.63692433 9639591.582819734 34955217.35784789 33110562.833793923 10617538.531991698 36855967.07160113 25938270.513502877 23728966.00512223 23555823.82877631 34625097.36869756 35047798.669738464 7491376.898671643 37436891.83065864 20964120.586568683 31304366.98053668 29780143.95126751 37201160.839889206 36437133.435226396 9814793.800201178 34765041.27923348 15978706.900762755 15150568.790428102 15107094.403751811 13678879.390350888 36543617.78569797 8402747.777057085 41193153.36402854 47038415.14079362 4605701.909869437 53779153.81053736 26343235.083932985 28617776.62691988 5228153.085115631 5747273.308623249 5089653.4941539485 29781575.77342646 5291717.124413579 13766238.284472976 24455939.49907449 31121365.415254068 24850985.904461358 34627111.445923395 34995906.68818626 35648177.40560211 31951348.976057455 81037450.84146994 29684771.22033354 18920603.85328975 15316136.130216846 23740506.275124382 58209219.069881365 2505315.607716751 31860453.790416904 19073540.86386385 13909434.544938644 15464611.235207263 32235534.84057369 27545796.795208704 31780544.860585604 31224832.439233195 38713504.912842445 27306988.281747293 50093882.979301 34594552.42539962 31958520.637495358 34577785.71738532 32880514.919936236 8744210.19844044 31662154.103166107 18558103.60850771 18609990.648205817 18907967.5365002 9830789.397057258 34176923.86735122 35741895.11857129 11727112.281398505 25577256.329294838 58593824.824947976 2697343.5528943967 3021286.274074206 15762437.341669498 34456727.73347241 37867685.58454693 8349511.564309631 4947703.703141904 32536189.418706816 9282221.9636741 28007307.930944957 26057150.39755476 21246999.790111538 34997515.44335779 24793971.607654147 31172167.178435285 34183396.0319095 6524866.464527932 33431526.441793796 38933262.75540717 24580303.32988215 31239528.727258623 33295248.946987756 1003276.4815693371 21664268.016736586 25757038.188177254 22725933.629543964 11444687.083052112 52173587.91960178 14499919.848559087 21762584.305976655 34669891.390148334 42580191.010177 36692471.68345279 5290642.077993302 14772446.036368497 33327906.380544204 29107727.19842726 27134368.5835489 12974398.997811234 8929949.467479732 9010608.936128331 12351824.772714809 51929166.360984385 31211662.767531283 31622949.990739692 21431153.85998119 44424768.19021416 38298254.97560244 22138232.002489693 34635077.720307186 35777248.306403056 29351221.535158224 19672470.636419896 33766191.19806732 36244621.17486033 34972531.16604303 16494141.35609116 9122112.308375504 11074220.274421105 34123095.36395854 29251950.81059991 47649862.23838961 36681101.80779857 4384175.774419445 10179548.603712173 41257414.239620455 25660638.09374291 27676018.42962646 45014726.07155743 20048949.187666334 25571509.664066296 25601922.806877285 15425129.652028568 30137273.181644794 41599556.38756271 29764410.432382505 23468843.40191372 22169092.560202546 14267653.487164078 22729304.668384608 65712638.69812884 32009605.738930862 34634629.62357191 31341911.266992427 15910782.442471331 15859524.584542 6915090.306644894 32087340.90042901 40100445.08279377 47918209.91506486 25470500.85988883 39348202.82943337 35181792.1557213 27029254.298636623 28975421.32098709 32641760.045084156 12666143.717385422 1386750.5361032137 31243017.068973057 15809131.480870554 20153818.463378426 34810944.19216457 15796400.98814756 27740765.640257254 31996109.84219175 32304121.83251476 2885349.0273040626 38901318.38795218 35655607.000405 1619500.013123907 24465203.294482447 16795415.64359146 27733678.898904342 34718558.107480966 2211991.20356441 31755976.44165808 30799252.310048513 32672696.509573083 6175220.878430833 13649363.116671037 25540935.106042027 27041706.82882911 33478481.150860507 34975282.27038379 12045783.873834416 31314392.136976276 40700062.59824726 42253857.5971223 30825865.085218318 7568001.194305253 29586616.53192966 24012893.575779915 32626437.792216405 65410151.30168617 21947846.708163884 24918780.02789224 31312845.236885242 2211240.2359846067 39053610.67212582 19747701.42107643 4926954.180497432 5473705.725815102 26882296.705480885 32033317.371834513 35010969.39355131 17599255.70758179 19076401.25945058 29379365.88968205 32673661.9213476 29999096.46056508 33435298.05213781 34671394.27353161 36772881.77249529 46345356.940185994 36401070.291290894 33049544.649436492 19007781.911681682 17317144.73566555 108036473.02049607 36453074.34688917 66214329.792098686 32745603.034311116 35706166.36698832 44885429.29483343 33159846.108494353 31985571.570580635 37510209.53730013 20733665.99895918 16055334.031205157 9539401.221680172 33826612.56052095 27877501.84319973 48195574.433482744 42225820.7239286 66595048.98819922 25907001.274917316 34597988.3854392 11915567.413362307 49211460.30686549 22134371.35892015 15126235.027361369 15332764.011686923 34656557.26017867 23546501.96503071 22669386.654688448 36263586.34329977 27086363.65194466 36076885.6310335 80376147.84031634 32249749.83172834 34309876.539297916 37125987.62358369 474115.9070671032 33819613.507646315 21704237.930144895 33728627.20758118 18535564.467379168 34745474.134121396 658957.8642549915 34171132.67514568 34354901.80709811 17466964.527860492 34789602.73360842 20000482.524159443 1349134.2235891838 33599481.606258854 29972847.606327277 32811258.29184865 30621802.544676427 31049963.91309627 32979095.373467885 26412792.54172721 24680545.113517098 8560938.279298158 4050014.2877533394 6592250.784905961 15918043.119350895 30557459.460356038 31532406.091227535 19520310.618615102 33708261.131461136 21613412.630191945 74385027.18976934 30659199.770325482 29866708.814807363 21811810.824041985 35397805.69271099 29264159.933239233 23528498.50553449 33189479.398562938 35116572.42565496 36633727.19877573 26419834.048384275 11423826.650590101 36250282.084675536 21315535.05627111 17060531.28317225 34803887.98621486 7582094.261315604 36013337.32363975 14391734.368000736 16959176.89817223 25933209.325600475 34497385.48322057 34100520.17278416 25803663.947027348 19723294.27941125 22557510.103208795 30315537.77568346 34596419.98779946 34975101.44352907 29328684.696754314 36044888.94157666 32869806.22696136 34130418.17698533 32233755.329470158 33193554.855516005 36219275.19451433 32119472.2368777 34783050.84233906 59761471.56826262 19159012.701723054 34627404.85324078 48373525.13901446 35883366.291341856 18792402.35806046 18690942.640383597 28434085.296299126 35049844.43385504 32969719.03654645 55542064.276055686 30899658.941913288 34823220.13297564 15261589.125210812 33438925.28782119 21778471.702977117 10800514.25286301 34882227.34787773 17781351.895773593 26571542.757883158 25588301.760741595 34651167.47859424 38238033.49110111 30707071.301625784 38013474.93740298 18374208.87102097 32308610.088762995 6786563.733519273 16972169.671461765 35325169.14407974 6825456.451134985 13029919.723911867 23010015.26893537 70950879.85567717 19459193.87437824 22954296.84000559 31526622.515716948 41685681.81012738 6160504.581595207 30418864.737370864 4318735.713866591 25529830.716117073 9406124.958454961 18306568.69157736 35083758.008676216 32728097.797157444 14687049.0525295 34665109.19233038 34422189.75940382 27326785.70690843 7943867.192401856 34879330.68705873 32030332.374004036 35565730.88684843 32964922.328299988 34266176.35385742 7897349.323973417 32004803.493364394 31468115.257668927 22382152.719549887 6880822.453402615 16082247.787401116 3332259.050392158 18741934.561096713 4302394.7505007805 31971596.294430748 28150562.353089746 60348639.39534826 26808746.02190782 12521229.619519027 34149960.82631588 960764.6973866749 34172730.667517014 21875349.603082456 36581826.090144455 34250484.03610906 11182165.511178786 27545272.13900781 43776293.24727973 45530758.59274786 49664168.512211695 37834975.70507774 30428576.826408505 36155023.09448733 34822390.33019199 41472813.68973928 77993652.77621219 34252568.16669498 13648424.227989266 29838321.516916297 31009618.255175497 31208362.614831634 5034614.411491444 34377113.579185255 20151342.82881075 34456845.54326181 46344800.4638843 32033811.846605733 12679654.093981674 12303489.714145103 25244421.033828676 22836981.27631403 64399065.16470868 38937504.13795077 15222687.272643112 39426930.686149985 32077841.20867825 38343190.25985044 36408106.7806614 10809874.868410071 34826552.015282564 37803778.479312435 12079584.255760306 5839108.8686736 24534977.814123392 12662196.47902885 18698149.2985845 33060284.921425115 31368660.01464 32479812.232710507 38032836.60166747 38515531.55173919 7532112.709883239 31747639.824388776 31375597.130785488 41914014.297354154 6520402.088341418 21760409.80423964 37734519.270517305 36216653.74119361 47403088.98785107 34826514.65198462 24318066.016605884 6777875.532664451 22380531.30161278 22185996.2644755 10868743.253541294 30283596.28143453 31026503.957050316 39711502.05589582 32162690.97825594 14994316.071393888 29475693.42712176 26244955.83832666 30913561.477930896 14981330.861511778 11994802.901125902 2155458.0234631533 35448794.758208156 42022952.98059685 22488810.61597617 31992232.101267453 706065.381128428 16600041.909329398 5350343.441380065 19862148.53017598 3428333.8349809907 31946029.10208216 33224024.201453064 44062253.151315145 30162796.667133376 36095128.29584201 14025969.414597094 17287436.854703978 35679949.62886087 11538029.839985069 4890740.346563678 33281717.803204075 28168964.351418532 6145430.930109511 35268274.34838092 32138101.75137928 5360846.3411223 21165809.31855856 9515045.831075503 34084463.78484009 26234897.898165055 13251571.54075128 50502985.3369525 45588177.930586785 34784360.3921582 28512780.490778606 27017454.03317345 36733698.95353781 34338893.02125363 28309582.85609698 46785766.141486645 37471603.45142442 4761343.753623304 23842789.289612807 31193639.423669465 5467594.715016854 5245441.098161173 23716815.888649404 17680152.547343634 17796954.334324457 34566910.52467397 4280086.717507811 26027949.347686205 8782335.8321003 10201590.743735624 14393338.00419468 12024114.782508766 73543966.21061411 4994297.248199868 24661174.93071459 38043183.595389076 37290796.847251095 27206994.19933918 33975722.53138295 17306148.727362953 6161800.43822362 14854282.040229866 51771211.88091271 37172739.08458627 34244311.697020374 6941703.950350515 31261996.185038105 30747646.53634764 29312873.517221194 63717999.17508617 31191759.070877247 39300666.91125345 31783436.639760904 34580115.0103197 12183240.865053024 34278438.3040062 31469067.478641823 21081276.2346467 18310744.444322646 35701971.758813694 21759804.15748188 32365807.44248824 22207491.97352343 32079462.043789845 62356072.85928643 35579985.99531857 1514143.7498068332 47932767.61640776 27049845.645079378 30510807.358071998 44089817.33664159 24035330.64007974 32053814.218345337 38779519.000021026 25297217.790825065 44003735.47873777 26861686.95487494 60684385.907497786 36035989.18675553 16992169.01071684 41153881.14451563 34694121.33555869 30519048.854908712 17438602.506214794 2916865.505156192 32603361.41699477 62805012.167650536 8411730.540379444 4957478.731309119 62578907.45509172 29279216.81947454 34595885.5548834 44227115.44115602 24691313.50423559 20119870.423738007 35966711.712784335 33774488.46166467 20415637.73278616 1025885.972671681 19062899.59458918 39271103.99681329 30114824.08991527 1021802.3625561455 33599139.17158185 25397373.094061576 26009226.15491335 26823458.934758026 12316490.023925897 34374120.828775786 16279062.312638342 13595270.556880156 19129622.04856925 19595552.38759476 34661607.857150435 21557101.536138266 30691459.091425553 24080419.7063262 20614065.687321324 28139206.211528257 16141225.05294976 5427849.727329371 3009128.4709193986 5325812.354500205 7607508.672028779 7383011.702636253 23110834.323715117 37326406.91185307 33854372.070259854 34656449.32544163 8909946.861448342 38105349.09081806 36979865.77588402 11926121.660894575 35593454.916772455 5101740.562450962 36356415.78703523 13043669.961830115 25735661.486787386 10220111.49465738 37595858.69808834 21241855.06800695 6117873.270877346 18127870.312139664 40056811.06028472 7501956.663343325 22881254.44998699 21233350.698672704 10221615.718138453 23953228.880716916 25117945.776489846 17774340.7021984 31436127.250818055 4718090.0972709535 8454278.97664994 37330053.65339995 18050751.213909093 36054656.95424464 28115976.391086448 40036601.230520226 13415306.392637987 9445347.469332552 31294492.54681011 35784816.80918956 31305635.750872765 16140258.508068003 9060461.760024715 31119898.004656617 34854330.29775727 15960477.323294858 34759744.51261425 4344910.620324295 31150384.573264223 34413136.90177768 7681401.228675902 15755883.66798359 39547345.72896018 14274195.230581554 98433476.23187722 12586082.08600904 22818359.6289462 34331686.95906647 29449449.301432706 17251545.625667717 42141637.32217326 13782047.33439044 34519641.07962274 27197943.899405673 31255030.911502708 8843031.921818169 35395695.10487352 16354425.653896132 20729312.346672866 24966934.496664297 64655737.87431325 8920285.419181813 59067789.446433954 28834007.851035256 29988799.75416362 38092904.64808959 12567413.62500554 26008313.195863973 32158963.02856806 31637409.91582221 7544720.895661887 54912864.99397869 32375875.150559492 34456971.25914127 14880758.096395243 42437450.46735258 42558518.44614055 32272548.445799682 33631626.63493183 40140603.63964761 4505158.892291385 30203410.37980479 14808178.431031996 34440223.03476865 26190555.202855203 2075174.220800705 35008298.44050324 3987547.40839794 3872367.276615853 44062355.7005437 31428804.389445074 1637014.6498396257 34847357.11376576 34197713.055988215 2489977.83470315 17251466.63179865 32393729.590732135 35713390.5262304 7189888.844349782 44538227.67587495 1368220.7530053612 1363969.062806231 42202958.77505833 40279166.2834447 24437127.537685033 71439932.98128429 27206615.64896113 34294078.700141445 11026721.325770983 5799883.3715418065 11802464.165407961 22092220.18045673 34503154.9322979 34026686.45674094 25200674.441756893 15309431.620871935 36592519.44907396 13603897.292021012 33702218.58632557 34506860.5439008 20279782.398556206 16328420.557084199 23594874.96729419 29926830.02814839 29277302.97921491 3819503.5358826527 29545469.132579356 4628540.052270779 16745584.321370611 13805343.6665584 4501195.061114417 23323203.532861147 28245719.127028693 25189316.605504062 35579436.97775385 16955344.672679897 34593443.82263017 31004942.420244567 35596511.78351486 28956344.57331765 13383525.433894994 31452300.024378687 33511716.032751303 27099890.592812177 31208044.576912697 27816843.36103756 23885938.335170384 32202243.4618811 33027346.159180377 20879989.026749913 52274603.97905156 37898909.64471876 31069089.58596809 23619374.51994058 31631856.726705 20496224.974235088 7425109.86839649 32519056.89849563 36345850.26016591 46836316.585499 28423690.670403574 31507668.044690818 33264024.828973465 30731517.432413284 39039630.863209635 18810221.949476928 30951422.74871841 29450915.64760011 18211099.431185476 31733033.737550456 34396594.97355148 19085556.677814145 10538748.311446404 33859798.68457965 24117442.428850207 24312861.30739752 3182604.2605571575 10181988.268503064 19450843.86235895 34689385.134020075 35666594.36042444 22907503.851918217 34226283.18009239 23131200.031946383 6457256.5013288045 9516954.63089297 32038567.846606925 12945511.34067107 34667914.40211953 15756075.517229086 35119842.35593503 26522260.53924642 35719634.53676928 28852327.575836424 9827522.882370356 31378594.481813002 23244057.66711235 9615036.945320845 31839150.798400573 32318154.078680024 20912769.910818417 41219586.67128236 31943179.11370398 18941640.82404074 19010569.14104563 44722464.72649498 18666320.482166253 4273024.629400136 20496512.902502023 43487759.483135864 4222805.182416202 16625545.213011462 2864770.417227452 2890583.3075602804 3310201.715763236 34635830.395963676 12587420.188573146 28727178.931672323 12507681.268534366 39879985.57946378 36077243.09995767 24718522.665070567 34633419.02559621 18731316.512789566 2277884.795029461 31738377.38399406 18009862.362803247 30880836.79447032 37921032.17260304 35369913.20468693 13533633.285313891 33647032.639650196 40100594.600544475 36175095.88462454 35884781.94263094 24875417.77093912 29237445.918542657 34416650.07373182 21665699.753096983 21277886.88248449 32633570.877850525 37817353.42967455 42322768.999157764 26929399.36795722 48335493.11012128 17661474.266224816 31109212.205027774 25262195.184533745 15600177.510603968 20154516.196785934 52389909.48907296 26206729.33882441 5980411.076517114 28539849.373124715 37243769.16748348 32033297.976786785 35080395.526281595 23181361.188073155 31194364.003975302 22053769.715441406 30870648.38214281 11831537.467222992 35410596.778201275 34713719.63550935 20118813.90546697 24389246.909526315 13386995.012073422 1090809.1816547227 30146595.89419222 28929633.852611236 44909615.63211802 29499389.1182767 10273801.589473076 5385945.529105779 19263751.519585192 46079273.10039159 32303031.76844975 32178968.81141545 44437628.36006541 35788848.69906202 29421951.38439178 39946928.51368664 8603057.545859825 30608943.52052443 32740439.39228885 4858992.46772035 33182629.396780446 28574692.618105467 21934667.640859332 31913004.93663336 32359869.165114414 26758614.98565806 38521083.13546535 27088185.64638359 33047275.789805047 33819133.50707068 27130846.994530253 3177731.7452324135 19546495.492532987 7119913.710692096 22032719.144251812 34675274.02731173 42568130.11495991 17879227.407799747 32457487.735840295 10819205.176152604 28693690.534806155 28466625.865086313 23018357.521152586 15492504.770092117 11997410.224209748 9507741.231448114 18571046.15756898 34279415.23655253 46749438.570721835 17474322.59675245 81920031.11184354 17928071.453868337 13107888.648685994 38157439.99586824 25328208.264493525 24422396.807179354 11806191.970461613 32778473.34047895 33230028.9447214 34485099.080204755 19418531.599135097 23235643.82468782 38959777.529183246 78610389.97552906 13878285.401030395 31834369.508643206 32489418.965736695 3931659.9828999154 23868362.42226656 8557702.040753588 1365106.4310056323 35128934.066935815 28938305.260738418 23906928.83121417 31693456.119207006 35778227.54282466 46449304.77814242 7383703.364460656 5068175.752839665 31671759.36113645 34062787.9358832 2103473.3733626143 32440609.764273774 2106379.9190710033 34670395.3898936 11388964.615232943 13898945.72633844 22618352.395449553 26489149.69139662 12901329.305295091 39322569.81129598 10131805.04253321 42074259.116735734 2609781.640765528 10930502.398482356 2630081.7181071066 32213836.42537039 3454698.9593906114 12538349.57282479 31686981.109780986 39026962.53084266 39164122.38417433 20802809.69127565 9688527.066975953 5393460.171818962 7385790.454660381 23919895.376224067 36274543.834652744 23662792.478841 21443585.7454718 19919926.533605278 31750082.969908062 17221797.577115513 31277557.87387413 12419802.167930419 1438253.5243851922 5838162.95760146 22012965.391364466 36588512.309613355 35115756.44932561 17682245.576440636 37187604.02799879 13158387.168668797 17111552.342935517 25396748.93827016 4650078.008367409 8945849.874433544 39630786.77506306 27374801.641180295 1474521.6135715088 25412088.69296426 28020935.25887073 9014219.365268884 1500260.6254622743 1500286.124450938 21444968.054061837 78194456.57705216 34320933.47672822 6352656.326525265 13966719.05522133 32134792.88764859 34292348.02665975 33917812.96549709 2006136.1788056304 58950624.05750294 55984747.3389521 5513692.435049244 34931123.39374605 9540255.913554827 27662711.494725026 38721435.19320751 19398146.21515186 9022280.516773315 9051600.164230762 21551828.802481208 41058035.08917584 43779426.58736108 27909669.755346697 39581807.90257108 32714657.87186499 10247083.51990961 20404988.263839193 2246305.576627279 9836971.02786236 38498418.50523914 68748142.7441045 35124056.42402784 25440704.37185025 4726201.823100409 20307635.05033264 35797742.45457378 39342031.509453624 9908650.73016373 83171128.11359847 24601681.76102931 32816161.06998618 21950197.923613384 74225424.84375928 35374754.76057414 33730735.344966635 5905634.389500415 8745616.610929145 66090194.54798299 26772302.27618717 30097708.714341894 56623180.054213114 33214608.446827333 33465475.355240583 28290520.471959345 64333502.025878266 32292018.298118122 24143408.496287752 40860398.448572874 40893912.61465845 1093902.946946044 26522087.78478767 32540298.56160707 22882227.076164573 31984110.48757076 34501290.78368048 33702062.39321223 23306760.978289627 20895633.604139887 22648595.33849992 31304552.245455146 24346738.010997463 18406555.38158388 27892862.616320584 11433611.789393581 23496363.823918287 2223485.3605974843 27752489.75102776 25650892.553542644 35049193.945890605 14231944.529563375 2566607.771319763 2554656.2615946843 24620688.675017655 2362614.5670672716 38644636.91835076 11561843.941723714 33553853.649056796 34580900.44307349 23457449.168967046 31772215.671250883 33631590.19116207 26044975.30623962 31515389.88830145 39914151.60776719 33834937.243272096 31945056.395995244 7959319.086513384 25653016.207094327 27262074.638183605 42188277.45206391 9425027.56717886 20651240.986664668 17846510.271198463 21338281.430301677 1565388.1502722583 1551312.2849062805 24466481.27545493 36870403.4315157 22283082.10804205 27126961.745132923 31051860.516363423 9542283.092710206 22835554.23331827 17008422.381640818 23286970.610982746 15468182.378955116 24926516.182138287 27391583.126674373 19298360.939073615 13470215.445103636 28337621.783376716 31996453.771958314 9521583.042387657 9492329.665939031 36598231.22554948 26926038.68509355 37849633.85109471 32428532.679290913 18478784.406712644 25589992.05594225 23605606.62444307 18117545.898910295 27558110.074653674 47011764.14323756 25443478.68247359 12608701.17771574 21432693.452040017 28813022.179555118 31678480.277496334 32460897.08657668 34390958.44746493 32077513.8606374 7243668.467162385 34742077.14863817 27872901.836824536 23983253.109135382 30780000.15071566 49502373.924505144 12158741.31654997 27903789.987059757 29807419.686470333 27082868.507254776 25587363.783510294 30351520.30544997 37382262.59442829 25763738.524453875 10344036.802817209 20283355.381206006 11478045.779210344 19925396.14918787 33279058.473011345 66960665.637698375 54904917.96721236 13561516.450191041 38631141.42152278 7923709.067883545 33162719.946827736 14955391.646351278 13586457.872660646 15368549.462694844 21391343.77226266 30819613.53885374 23120766.592756517 32181281.617505062 25037643.26396898 61889980.053324364 13972787.246015973 29157071.424881462 28695596.917275533 27906577.875836376 29635095.797387537 43987714.3308814 20840112.90275262 24730107.941917036 34181661.71989905 26807557.45456282 23255950.48873286 10259899.368700776 19928935.269067287 4613022.893387449 4603898.886656435 31678809.90329963 38400934.39234228 24530970.002733108 22065345.260524172 35206504.42684172 454378.80015743856 25726370.236250475 35554902.262606256 451001.59516538505 32929050.89998928 29191624.202357583 30792303.77599358 36144190.361277 18877236.42108467 4436210.958306388 31541649.14886685 18642975.768719554 34292131.835369326 32819293.298276044 34507227.49930311 34098269.61716994 13145880.451982634 35328961.27788283 26693212.595246416 31944346.098743446 40111153.97047347 20708200.756145462 25426810.98081402 27751234.999918617 23674041.655291934 27650655.204736527 30295595.304296453 19746366.34797413 9622027.377324067 18347976.84097952 34030082.03850109 32713331.53788745 25796947.44650274 2658742.9755935865 22570004.59655777 33380338.073742133 32543057.03855757 34891687.22395218 32320975.590136655 24136848.536676113 31904044.39123716 33004376.410134632 26060079.83744529 36347170.66095631 3090065.4119769814 30159795.382076688 460369.68406952167 23140191.826923054 35799848.62093776 28175220.063094232 35723077.099622406 30504971.983826783 35624276.639510594 28562617.221605316 35495050.90216105 46137442.98572961 34636297.2796549 73878181.08026318 53689237.57333766 37217105.60222659 27879104.851576794 35664528.30483425 38909462.42207761 7259684.128247859 12411417.141687682 29527567.746791 37167737.79114834 39867015.775066204 13278788.637323173 47360051.518114455 29426145.061210644 35521035.56577053 36886015.61463197 6859356.696421889 61557446.42048728 28363661.999388345 21403858.040443324 32511146.24473009 41052646.609592296 47083373.87483051 30944203.53662384 34964542.824024945 3933361.1959326626 3596176.965419228 61567327.843519256 3128812.0979524404 15696540.757724747 31754290.70467428 30376816.296373494 27042466.304938283 26960591.42982075 27682357.471516818 40151172.123122364 29698307.42473445 34425079.35718816 384935.0283941297 393365.7819911763 31121154.895317942 34780892.7293108 30146209.135702014 31524244.586974084 28328744.7708188 30995686.66158035 11319809.903879546 3736028.596421941 30193372.328012783 43362238.71775089 9676479.60969542 74613117.97880624 24468032.582232155 47942025.625196144 26421619.33295972 20323865.685810048 31898725.977052573 43591640.06663631 30375622.452232502 16629394.380574109 9485357.772458358 30379837.915718097 35276947.68703154 12311159.097484143 31337330.511321016 5025390.583903229 5122401.965052436 10608000.992955375 25525534.095024634 43381027.397808395 47314951.76247346 37726774.52722351 455656.2911204725 3237006.8255502223 19151164.128186353 10039002.24612666 28332721.639263082 13333623.699059868 43796453.33028952 33190006.932620734 29169362.491564542 5536943.560254031 28005018.699584316 1065979.9816526917 12465784.020336332 14996213.925478254 464054.1953963592 7516368.184516264 7556413.038599621 42029194.499397434 33482643.614446197 31450864.26624339 32663005.840894043 34907809.43134781 27830604.944730483 33334073.445000406 31871091.329862785 20058068.15663126 30409424.96004698 48052324.50844488 16228961.242160145 32749262.637737755 22117609.587118305 24963227.68570785 18628738.871165633 1394414.9840192273 34926325.22563267 32688847.839402754 6325542.701324603 34889854.53903335 35035984.67303036 36098274.11096722 33124565.088914976 67989822.1005929 10981386.779586291 11022307.714167444 43164730.56807953 34589121.50827997 27126829.74603049 12225290.207328666 28377181.40846431 37514483.79497245 17147215.359190155 32583589.705101598 32111535.18522161 14667844.12934785 37748368.14816168 11958827.42010845 2526857.630316912 27483430.84792677 33494915.138354782 18184061.52862307 8019374.832784879 8079015.936225928 11003464.791962452 18909594.430407077 458296.2372761791 456314.9855975224 35038622.20325958 33379937.482336707 10784482.7293959 45239604.841970906 42031089.4909471 16824439.138763458 33171681.748746537 34857923.084219135 32600512.09426309 12855247.154935736 46688042.767966636 18692649.234649245 32675805.491270546 27914463.860135574 2314282.54562344 29928021.14344991 23220552.820482094 32179162.865354672 35985379.61544451 46869746.53296889 44256965.563811414 23017346.332382984 32793621.634520974 42584929.72692214 32798084.992998 14244504.353564309 33475095.451399405 11678833.161976114 15693745.242697058 23039229.761700615 33876702.483584575 19650202.115886863 35825925.2129678 34943515.14578543 16433446.143240938 29329667.746274468 468597.5316811578 24977328.33143596 41273041.18957968 36893000.29132646 22771855.781684846 32382005.78009661 19359318.90617158 31090577.45443211 35261841.29909472 36643073.216799356 12712406.098160673 21496570.31836002 27548470.18453068 34636949.107603066 43948914.33550416 11475902.283109179 1727028.7678841231 46300421.982100904 15822157.240971217 33329079.8802523 28051012.45929372 13532916.856598713 43257934.2104153 9168556.5005254 33678248.74619822 33810770.44598259 7352533.054111033 7385710.795618604 34319108.05238304 32938393.775541026 35331265.77337952 26247516.041712295 7989934.017794523 22364608.914569236 42927721.91589649 26364849.41592109 32399190.485086914 32211679.91288959 12247692.64491472 43198081.99405265 21402822.24049872 8101399.254444491 7550864.017110269 35102792.62176491 33143167.79458707 33005609.70091526 34874542.49412248 33619509.21684342 53516975.3855083 31566755.934990466 813305.1949572018 30765791.17798125 7815814.482518231 7867027.6389942905 34880564.26363284 33228402.317685995 32800120.107790705 15301508.46188066 586638.6431520194 32861435.553850375 36665717.0534519 36315633.15644953 7426983.78103798 13980558.195608372 20836708.961776003 20240507.49995631 35404769.78739149 7427271.61120459 34404012.10710809 30718831.29094337 41356206.31920527 29225097.6854155 9564044.831693778 33937223.82810263 45353894.79404328 10447433.721888382 36883462.54791724 22525475.6821343 33756707.36449061 40923411.66293829 48936457.83477564 32106136.847052317 26712420.670726154 32942991.4931149 34635241.15268607 10468341.874765353 36056143.021940984 24626292.90838143 18085805.467935693 23311480.653075483 23214356.344349835 36891906.94960156 7844741.222351499 31134265.67272811 17184888.768096898 33603288.59075101 16444938.172481658 23126569.408292033 40294372.76280021 27494691.168984648 18159979.322154563 40611393.64428758 33012613.245270748 18226173.99785615 31693582.07649431 34885276.626276754 11923763.622102914 45456871.83393268 22616207.246980842 21958723.61225684 14470263.504245283 35169525.292836994 30938057.053590283 17054652.03110438 15163408.21395086 31658617.676231544 33186402.975740798 7706292.022780484 2250951.323545128 16921021.261805438 33988183.3527412 37807452.54701547 34157168.21439143 13370047.110456822 13531095.110457258 7918061.225705572 743429.8851919335 39966084.97730617 36311159.87014579 25799150.734603565 35097511.759961076 26008579.60001574 32002799.160549507 34413889.34476228 32677407.278355163 25386858.442701407 8165325.8703086255 29521548.643614788 24108305.83965492 30221936.47516033 21088429.884576622 9067600.295870474 8121693.244286234 23652732.945647117 20643902.286543798 18052477.781784333 36194176.51518194 34900091.00230016 35069483.74575857 38109552.27377846 26501484.367466316 41693859.51192686 34965449.029575385 34217339.974003494 31976747.90036698 53136145.42104376 23402203.574208166 31057172.025979083 33225034.78860351 36114045.45370091 41746186.70402931 5952561.14767114 32208677.872486763 31791363.777243797 1475366.7305988127 1493596.1428242803 27030725.220737677 44030787.363126956 29922736.80761646 42624882.14684684 7502840.719538919 12868223.70659214 13325277.594112035 38009539.97388603 26015678.94119415 20276473.653279 16765556.33432955 32856164.08977168 23074141.0683803 32171090.298586965 34554647.68363092 27041955.742225338 33434110.960040476 31697503.57113937 127112501.18696325 29232153.130294118 34466149.77079954 62786239.629379384 13329706.936058749 31227224.60874935 29708845.67432397 34780392.15937548 24148137.351871166 23360676.298283543 35888893.64749591 23266988.52518707 43203938.26081329 31017726.57333509 29380275.756828975 19300639.54858045 31230525.55437351 4206211.917910564 23282011.839497816 29926579.079043593 49089383.40046446 62622055.09115673 36539568.10050568 7594592.77090406 4558257.715432481 21117665.47318618 85354476.68802263 16157193.962284965 23594545.463423748 57181228.9672171 23129607.222529367 7101511.651541117 28439572.51054728 25160633.784852322 33928292.3887399 15320040.360498557 25529689.58350464 52180117.556671 32718984.012408942 21357205.685136877 32448763.610988103 32973286.504761044 33063392.99292183 9226935.22943925 37868089.72694877 20278388.048320074 33278443.969212517 52066158.74854438 10279143.094957758 26544528.547652077 10311188.013669608 27620160.14379942 31403250.72077095 23910968.441520646 41531533.94482039 27921964.174915116 26363343.685758464 6268556.776521963 32383194.25973924 38258685.712726384 23439068.128998674 31317754.369323824 29450290.394200593 22954233.257684663 57272800.96397159 33209538.253938057 33084890.408568084 12961941.462183386 35938056.75409032 37552947.88547635 35116685.66117801 23933831.346880767 34995595.709872 22120986.17547422 50956565.41139922 37019324.796367764 34161841.55487859 5312152.910288879 28759109.334469043 55086961.16231969 34052608.19172757 26459949.890670247 59297102.049367435 24762834.680139024 36229451.827863775 34867725.23440784 37259866.47906212 24583306.708792407 30930709.884601336 22979680.7753012 32726852.003618475 34476175.24556952 17209915.936921805 33157175.421829272 32924516.09053422 7070246.714911147 35430230.46605096 24208840.65293115 48454269.88707717 35062399.242544286 27690161.680871204 17223246.742990576 32532071.012223475 19406666.26642241 35025922.70150457 16000790.099800933 60505324.90825245 10448927.36783718 10689052.091231707 8860701.668128053 3978717.471831684 3902816.870650588 34626214.81138256 23381568.772894554 5087436.502493129 21421681.92147735 43702252.87485966 12543118.496295894 25549267.20034782 33303508.340295624 21796582.17445694 25390133.29739043 34804063.18075915 1408633.2698001214 35883502.24553622 13015264.317364411 50335567.60713558 9152154.402328596 4146754.0155509156 23962948.5405794 3372254.3600412286 3300202.169938959 9198604.873823116 31999474.556126267 35160097.252257265 46097125.50736869 29017679.652060434 28108649.08838997 36771031.23784907 34116417.71111996 25309520.61556811 23577367.453893676 32357629.110678464 32454330.29377282 223618.93889633758 2015424.0248794348 2023111.7984735644 32803131.804150034 37596342.35230868 37379651.159049906 5353398.798350402 30946182.275566064 52094673.03259549 43476989.51023623 30653750.33216836 23477861.703985147 31158709.88849894 10024105.78429338 11014358.45645518 10482486.991742032 51923277.62628783 22109776.3624006 14299786.954479903 25837143.18363557 35197586.743051976 36913311.2339686 48876820.59556635 5225311.972773362 29354771.395332888 11388209.133080883 33561609.53422115 26844096.75892131 4675963.851782237 31782946.05381122 33593127.51190838 34622703.01284364 20806067.873452142 25536399.37124352 30457893.741238054 19306124.094621804 18555246.418981053 13093094.824578477 17963175.441271484 62715407.53126228 34181745.518846296 29986559.74960742 42824097.89373111 5755229.031714233 28585502.154363476 32917521.32634632 55174166.48536408 27614370.377370898 34324462.36087221 14723756.90616118 32598326.882168658 30368764.37075644 34009579.83548233 33691808.40035087 8312756.571033395 24119766.52205802 12632176.873993158 23169245.397065025 22725573.740819115 19843566.30903607 3495527.325714427 14393149.628929026 19945581.536463875 14348056.678474981 21502336.003069676 32946555.833481394 23918826.329269137 27050994.479608096 15150363.83649171 25804780.648914624 21903832.88211006 24553640.463750303 31479397.52893656 31194656.382295355 34945372.61562705 29763745.249268454 25862228.45531534 47533869.95028612 35276013.113301195 19829404.26296247 27521043.49272273 34818144.1999213 24660632.812414788 39050763.24121761 34971272.89966815 19076001.965652373 38140882.639127344 33720980.06959719 35848312.02913006 47550616.977590114 41679204.8050549 43423832.1523031 2030684.788663513 13753605.757442031 31976439.393257074 25343657.131966572 34289630.86697467 25415688.16427216 27896090.722651724 29726325.291796625 32722136.189863436 28328900.252918743 20163067.807840023 32189258.699680243 39338023.94296345 34868176.96400533 35473614.22963262 35230278.25236383 35075675.35809664 36588947.911455855 12655495.379224792 31375951.50947028 24840963.43160652 28915119.27437464 26295140.587555207 33972020.58261836 21097917.7615002 25793910.546838664 6653156.977623251 33909928.11490485 31499997.206099156 34836547.87617003 34971561.19096729 36787972.145054944 34799353.26476363 30074663.43334928 39120648.247002445 40499905.61061523 32287539.087450366 21207086.247509744 21835602.10635093 16688662.20848123 32682412.58799487 802982.4609932926 44600390.45557528 26043077.54226004 25876731.664069314 28344956.750982925 35850880.098005906 31366861.265310124 15212338.232133767 23687573.90848751 37804126.89078355 31266831.716743555 28263393.988848098 21558337.369488038 42711187.84260215 33855937.5616318 31705776.103076246 17440484.73390148 31880899.251445636 29530643.1577161 31796012.520067513 24583275.450195342 24903492.347460523 80067194.45322844 29388849.552691128 34920067.84405336 14647755.13964796 2057868.0244947148 26949680.00954851 2173021.3350234646 33544470.527974833 24859412.92973771 40327729.85042569 33972234.50669855 18480245.867226988 35172600.47541195 34714357.50290788 15284168.178008996 35257729.82784116 30685006.86919058 25771288.69868462 39377237.0749766 10335503.539003083 30665975.408222385 37294769.94764836 32656638.964211214 21605497.122494094 25059689.070538208 30283478.597106446 32683036.521528143 35096031.579068854 16387552.94565104 34486708.62446101 54473864.10484242 27124586.69983979 31878912.96321982 33024946.238392685 63380226.45814531 13532927.560767438 12874915.584520513 38912657.20473482 29756839.61446255 55628540.23474136 30806592.389790572 33456807.501273874 31888356.912071563 31173565.435317624 41547925.4906548 35670216.117312625 33205546.087513365 69592303.63432983 32258991.16918345 34119443.44672468 16232243.298290694 34879001.730862476 31770525.279070735 21494467.34653332 35507451.153841 15722138.910865813 35095857.067135446 30415876.69300247 15810200.711790938 27711592.959949758 36580182.782430105 3853054.190673757 21189386.37322855 32961654.25623707 25315525.232740745 29560538.781599816 15073494.164183885 34780251.22791776 37271602.75531139 18049742.054810826 13118832.153960897 31713176.09045615 35000858.565701 34716599.55823941 18693014.33703535 35136720.790658906 42876644.040886395 36256824.69452947 32397571.90194685 35041981.288435325 30906737.87907003 25560781.227986414 31588118.58538394 35145748.86923084 32610235.473187458 25447066.067743324 32756182.30432372 33244280.654573344 30717623.296050493 13864588.949211044 40499233.7715405 28786672.601935606 30515931.614354428 14233201.692796202 8428613.264062282 7356410.336378267 34736515.97665051 32332400.241208557 31085172.988135487 60576448.443808384 32045835.085555475 29131796.34531508 28910805.00575632 36673668.815134846 23244004.087320622 37046771.39601201 31595756.801907584 29907883.306254283 30469751.13476389 22275489.270763677 32476158.162815183 31287936.19833783 5647283.096844533 30099994.69258312 1044838.9960723247 1049701.0218898458 34252417.889224865 35737105.198898286 36794091.41909604 20762197.682425044 23444610.518578093 32337734.33037277 27650784.498174492 41147792.057686195 33900112.337477565 41742122.173496224 39045592.417890355 38023204.609476306 37779407.55598932 38861475.51061416 13483460.482394388 39624075.97080775 1577388.391889202 1548775.8668485119 36381921.652523026 34331390.80388722 34565527.69427103 8449172.224921478 27507590.383114647 33517955.572529487 39997735.04617309 25756256.049840886 26258074.61357787 33772144.820290744 31674530.411201105 34355314.56437545 29486545.368349396 34696989.37868206 22622043.806183014 36626552.90587932 12425855.252640966 31192334.29128419 32851867.72230298 33065212.134205583 27379485.313746296 31182937.111059103 43152142.309251614 34518340.34519823 10134471.684741896 11943436.743882807 19967215.213840205 34867711.27553395 34922142.45098209 48903250.32882948 34223253.78378674 35491065.93593933 23487292.217624564 33566929.73807887 4440426.308998246 34884543.89059683 37358162.96909718 38549094.2345734 31477713.412208926 22368315.73712768 27928054.805166237 35854681.41671684 42300683.597429216 16907809.91485629 15091109.09126098 40947203.73834534 28222779.272206984 30408580.97458801 12499850.686930701 4484342.904928346 31144555.367101893 6515974.019817179 34887503.86663894 22755579.99295639 34880285.79758057 35079774.501787044 14595023.758035071 26797371.30623594 25304342.970322482 35940416.799108766 15130660.419486841 3057294.21527938 33974650.577380605 15287579.865911834 34542022.726596974 2765049.8544537704 1479607.5983777805 6045619.0758839045 50103178.39582141 43893952.41653412 33481346.736190584 33615389.61406702 29331394.05629975 54206208.26903804 41236119.88979365 14154484.042459166 10047013.0539086 21580343.22923419 26247891.991746347 15864030.02801102 8697855.658947453 19194769.939263444 30878900.058128547 28296690.744066365 34874103.24401082 33070433.067447174 35092560.068192825 35447572.72585276 33505009.119502433 43362920.73467654 31430586.892460823 25231446.332891744 25360354.515341304 38824140.4636908 30236957.156618036 31923093.178097993 32800489.74570413 31223287.70601615 31280191.27624197 34127352.64223418 35890600.86535157 32740355.71586699 21878890.255990326 21303279.79155857 34681636.16464732 5298971.387192877 30862933.088631153 33216707.36362478 35195551.49632064 40910278.6970177 12034448.230226737 71982051.44889638 34708386.29463826 32613605.931929532 30868426.325840265 35734466.4165885 33593961.127019405 37004954.88355389 33770442.42114031 34038176.689030536 19465564.614652812 2165176.628796729 38679178.636284955 36481146.264827214 30081258.425968096 36844795.6750182 34340349.90321523 20648288.460803967 30379415.128874775 14703296.746597877 34044287.42720807 34260816.27269186 34767247.98820182 52206345.02724936 15702843.977872187 32812147.004614267 40400599.53216096 37623169.584760435 23266250.60253008 444270.94628549315 34688348.76085914 34833262.27833097 75209133.49100375 20734304.320113696 21281269.12022912 35093701.26987797 33605328.86141936 20148774.849185772 35760321.11367994 30448798.8551548 4396505.609170254 7364991.650418109 8404082.155583326 5509374.4219586635 31636151.78404319 34655796.35970034 31656984.66620119 33160487.168107208 31131594.938569795 14442483.01816938 31968155.36625536 30845243.28240506 33137997.288947478 34199772.932113156 33669856.55287196 40836869.36864085 22005739.879107576 35034039.32351633 20510919.098642565 30745207.99996873 34471580.98411395 6895694.84476678 31842845.85383107 44161729.8263858 28806678.16200336 42991675.98560631 2701765.7136104116 34325720.87741062 31602188.317550976 26310531.97930826 35595034.33037381 35319836.42823081 35625898.573145874 34941014.481795885 10478308.950886693 34754153.632686235 36342458.555220254 33678952.02265209 6504408.4058866 33459606.05444509 1979540.10240039 30031925.8036719 11482283.222178468 19231734.826038044 33376097.871792335 26219751.36419372 32107323.68087666 14974431.734335195 32211369.405333415 29570267.046316523 32123505.759050265 35139721.08289413 32019005.988267727 35185165.84632138 34827267.71771459 16389227.401116855 13819965.625342011 4433960.937385811 34287959.54947791 20971949.257195417 11240674.371363906 28064291.866341583 4366897.297042965 31891152.30631122 12727168.188337373 34036736.03189017 35087229.48592755 35751557.1183777 35285564.841074206 39587963.28598237 34508761.40795295 36298196.20815629 33509310.135230236 32326820.361091845 49256465.89920561 51345901.92516481 32364488.17268318 5442369.281586689 33519077.760277238 5815128.946214302 32273486.64303802 30708048.176190846 26121020.1527341 12676515.46427187