# vtk DataFile Version 2.0
Really cool data
ASCII
DATASET POLYDATA
POINTS 2068 float
10.0 25.0 0
10.5 2.5 0
14.5 2.5 0
15.0 12.5 0
20.0 12.5 0
20.5 2.5 0
24.5 2.5 0
25.0 20.0 0
13.015625 5.0 0
12.5 5.515625 0
11.984375 5.0 0
12.5 4.484375 0
23.015625 5.0 0
22.5 5.515625 0
21.984375 5.0 0
22.5 4.484375 0
13.015625 21.5 0
12.5 22.015625 0
11.984375 21.5 0
12.5 20.984375 0
23.015625 17.5 0
22.5 18.015625 0
21.984375 17.5 0
22.5 16.984375 0
12.5 15.5 0
20.0 15.5 0
20.0 14.5 0
12.5 14.5 0
10.00806451614194 24.63709677361278 0
10.01612903231258 24.27419354593386 0
10.0241935484938 23.91129031777878 0
10.03225806461129 23.54838709249173 0
10.04032258071191 23.18548386796397 0
10.04838709682194 22.82258064301263 0
10.05645161296179 22.45967741671925 0
10.06451612913326 22.09677418900329 0
10.07258064533511 21.73387095991988 0
10.08064516149915 21.37096773253857 0
10.08870967759623 21.0080645081696 0
10.09677419375892 20.64516128084849 0
10.10483870990822 20.28225805413003 0
10.11290322607429 19.91935482665694 0
10.12096774224832 19.55645159882557 0
10.12903225841202 19.193548371459 0
10.13709677455406 18.83064514506724 0
10.14516129073117 18.46774191709723 0
10.15322580686834 18.10483869092457 0
10.16129032303272 17.74193546352748 0
10.1693548391806 17.37903223687297 0
10.17741935534539 17.01612900945749 0
10.18548387146244 16.65322578418995 0
10.19354838763403 16.2903225564684 0
10.20161290381374 15.92741932838155 0
10.20967741997008 15.56451610134622 0
10.21774193613836 15.20161287377394 0
10.22580645230157 14.83870964642906 0
10.23387096844209 14.47580642010597 0
10.24193548458432 14.11290319370539 0
10.25000000073421 13.74999996696068 0
10.25806451684794 13.38709674184244 0
10.26612903295814 13.02419351688371 0
10.27419354902925 12.66129029368375 0
10.28225806511086 12.29838707001138 0
10.29032258120948 11.93548384557348 0
10.29838709730668 11.57258062119947 0
10.30645161342799 11.20967739574034 0
10.31451612954823 10.8467741703298 0
10.32258064562724 10.48387094677422 0
10.33064516174957 10.12096772126913 0
10.33870967784367 9.758064497034947 0
10.34677419397089 9.395161271309828 0
10.35483871007663 9.032258046551387 0
10.36290322617298 8.669354822215917 0
10.37096774228375 8.306451597231394 0
10.37903225839794 7.943548372092563 0
10.38709677451733 7.580645146720181 0
10.39516129059989 7.217741923004883 0
10.40322580666075 6.854838700266257 0
10.41129032276591 6.491935475534158 0
10.41935483889413 6.129032249764203 0
10.42741935499985 5.766129025006942 0
10.43548387108066 5.403225801370201 0
10.44354838716179 5.040322577719254 0
10.45161290326106 4.677419353252181 0
10.45967741938996 4.314516127451607 0
10.46774193552708 3.951612901281566 0
10.47580645160294 3.588709677867938 0
10.4838709677258 3.225806452339046 0
10.49193548385171 2.862903226672901 0
10.86363636397148 2.5 0
11.22727272776948 2.5 0
11.59090908917042 2.5 0
11.95454545068175 2.5 0
12.31818181403819 2.5 0
12.68181817915301 2.5 0
13.04545454194173 2.5 0
13.4090908986116 2.5 0
13.77272726213363 2.499999999999999 0
14.13636363138024 2.5 0
14.51785714288412 2.857142857682448 0
14.53571428574426 3.214285714885328 0
14.55357142862196 3.571428572439232 0
14.57142857151165 3.928571430232919 0
14.58928571437537 4.285714287507488 0
14.60714285724751 4.642857144950152 0
14.62500000009455 5.000000001891001 0
14.642857143032 5.357142860640115 0
14.66071428594258 5.714285718851571 0
14.67857142887942 6.071428577588326 0
14.69642857180077 6.428571436015462 0
14.71428571474886 6.785714294977167 0
14.73214285764917 7.142857152983446 0
14.7500000004943 7.500000009885979 0
14.76785714328319 7.857142865663754 0
14.78571428612831 8.214285722566284 0
14.80357142896074 8.571428579214821 0
14.82142857173971 8.928571434794218 0
14.83928571444931 9.285714288986206 0
14.8571428572153 9.642857144306044 0
14.87500000002409 10.00000000048181 0
14.89285714286733 10.35714285734665 0
14.91071428569972 10.71428571399456 0
14.9285714285493 11.07142857098609 0
14.94642857139116 11.42857142782311 0
14.96428571424643 11.78571428492866 0
14.98214285713977 12.14285714279527 0
15.3571428591223 12.5 0
15.71428571719138 12.5 0
16.07142857423201 12.5 0
16.42857142974857 12.5 0
16.7857142846084 12.5 0
17.14285714112862 12.5 0
17.49999999772317 12.5 0
17.85714285297952 12.5 0
18.21428571083795 12.5 0
18.57142855939082 12.5 0
18.92857141386655 12.5 0
19.28571427430228 12.5 0
19.64285713574168 12.5 0
20.01785714292029 12.14285714159426 0
20.03571428577939 11.78571428441216 0
20.05357142862984 11.4285714274031 0
20.07142857152504 11.07142856949918 0
20.08928571434997 10.71428571300059 0
20.10714285726139 10.35714285477221 0
20.12500000019564 9.999999996087139 0
20.14285714320795 9.642857135840998 0
20.16071428614276 9.285714277144802 0
20.17857142904537 8.928571419092558 0
20.19642857186783 8.571428562643403 0
20.21428571479022 8.214285704195643 0
20.2321428577479 7.857142845042126 0
20.25000000069735 7.499999986052996 0
20.26785714347055 7.142857130588933 0
20.28571428619271 6.785714276145805 0
20.30357142900126 6.428571419974752 0
20.32142857178615 6.071428564277086 0
20.33928571464426 5.71428570711476 0
20.35714285745924 5.357142850815163 0
20.37500000029276 4.999999994144766 0
20.39285714311046 4.642857137790787 0
20.410714285854 4.285714282920003 0
20.428571428706 3.928571425880045 0
20.44642857148773 3.571428570245412 0
20.46428571431238 3.214285713752382 0
20.48214285711565 2.857142857687005 0
20.86363636516213 2.5 0
21.22727272581398 2.5 0
21.59090909243092 2.5 0
21.95454545450997 2.5 0
22.31818181891514 2.5 0
22.68181818017414 2.5 0
23.04545453949341 2.5 0
23.40909089990082 2.5 0
23.77272726283935 2.5 0
24.13636362860863 2.5 0
24.51041666667252 2.864583333538364 0
24.52083333335455 3.229166667409358 0
24.53125000003504 3.593750001226702 0
24.54166666672229 3.958333335280106 0
24.55208333340738 4.3229166692584 0
24.56250000009479 4.687500003317582 0
24.57291666676292 5.052083336702424 0
24.58333333342993 5.416666670047649 0
24.59375000011929 5.781250004175338 0
24.60416666678541 6.145833337489197 0
24.6145833334717 6.510416671509586 0
24.62500000015173 6.875000005310423 0
24.63541666684382 7.239583339533857 0
24.64583333354729 7.604166674155124 0
24.65625000022954 7.968750008033958 0
24.66666666691629 8.33333334207003 0
24.67708333359532 8.697916675836199 0
24.68750000028001 9.062500009800464 0
24.697916666944 9.427083343040039 0
24.70833333365369 9.79166667787921 0
24.71875000035885 10.1562500125599 0
24.72916666707987 10.52083334779526 0
24.73958333375135 10.88541668129731 0
24.75000000042991 11.25000001504697 0
24.7604166670681 11.61458334738357 0
24.77083333369809 11.97916667943294 0
24.78125000036938 12.34375001292839 0
24.79166666700398 12.70833334513953 0
24.80208333364604 13.0729166776115 0
24.81250000030942 13.43750001082962 0
24.822916666971 13.802083343985 0
24.83333333355412 14.16666667439433 0
24.84375000015083 14.53125000527908 0
24.85416666675838 14.8958333365431 0
24.86458333330886 15.2604166658101 0
24.87499999988007 15.62499999580261 0
24.88541666655004 15.98958332925141 0
24.89583333319863 16.35416666195201 0
24.90624999980522 16.7187499931826 0
24.91666666644808 17.08333332568263 0
24.92708333312806 17.44791665948182 0
24.93749999980001 17.81249999300037 0
24.94791666645933 18.17708332607652 0
24.95833333311969 18.54166665918899 0
24.96874999985664 18.9062499949823 0
24.97916666655788 19.27083332952599 0
24.98958333330658 19.63541666573034 0
24.65909090697006 20.11363636434331 0
24.31818181387862 20.22727272870713 0
23.97727272112545 20.34090909295818 0
23.63636362933978 20.45454545688674 0
23.29545454074166 20.56818181975278 0
22.95454545175678 20.68181818274774 0
22.61363635870555 20.79545454709815 0
22.27272726938004 20.90909091020665 0
21.93181817642107 21.02272727452631 0
21.59090908415283 21.13636363861572 0
21.24999999070893 21.25000000309703 0
20.909090898365 21.36363636721167 0
20.5681818062032 21.4772727312656 0
20.22727271532826 21.59090909489058 0
19.88636362288735 21.70454545903755 0
19.54545453222531 21.81818182259157 0
19.20454544067146 21.93181818644285 0
18.86363634917439 22.0454545502752 0
18.52272726008306 22.15909091330565 0
18.18181816691119 22.27272727769627 0
17.84090907624678 22.38636364125107 0
17.49999998161302 22.500000006129 0
17.15909089129634 22.61363636956789 0
16.81818180107666 22.72727273297446 0
16.47727271035784 22.84090909654739 0
16.13636362113641 22.9545454596212 0
15.79545453028867 23.06818182323711 0
15.4545454400335 23.18181818665549 0
15.11363634812483 23.29545455062506 0
14.77272725866684 23.40909091377772 0
14.43181816866006 23.52272727711332 0
14.09090907805834 23.63636364064723 0
13.74999998745307 23.75000000418231 0
13.40909089754563 23.86363636748479 0
13.06818180839043 23.97727273053652 0
12.72727271853859 24.09090909382047 0
12.38636362812021 24.20454545729326 0
12.04545453791708 24.31818182069431 0
11.70454544876188 24.43181818374604 0
11.36363635991656 24.54545454669448 0
11.02272727049761 24.65909090983413 0
10.68181818161208 24.77272727279597 0
10.34090909059876 24.88636363646708 0
12.86460193220061 5.364601935898014 0
12.13539806564783 5.364601933746452 0
12.13539806779939 4.635398064101986 0
12.86460193435217 4.635398066253548 0
22.86460193304701 5.364601935051613 0
22.13539806478868 5.364601932887309 0
22.13539806695299 4.635398064948387 0
22.86460193521132 4.635398067112691 0
12.86460193226812 21.86460193583051 0
12.13539806566697 21.86460193376559 0
12.13539806773188 21.13539806416949 0
12.86460193433303 21.13539806623441 0
22.86460193292542 17.86460193517321 0
22.13539806482679 17.86460193292542 0
22.13539806707458 17.13539806482679 0
22.86460193517321 17.13539806707458 0
13.0357142863834 15.5 0
13.57142857334916 15.5 0
14.10714285783675 15.5 0
14.64285714470339 15.5 0
15.17857143070267 15.5 0
15.71428571720997 15.5 0
16.25000000702564 15.5 0
16.78571428904744 15.5 0
17.32142857412979 15.5 0
17.8571428511085 15.5 0
18.39285713616606 15.5 0
18.92857142211578 15.5 0
19.46428571101452 15.5 0
20.0 14.99999999601014 0
19.46428571160309 14.5 0
18.92857142040583 14.5 0
18.39285713577575 14.5 0
17.85714284336419 14.5 0
17.32142855637984 14.5 0
16.7857142655791 14.5 0
16.2499999775787 14.5 0
15.71428569556309 14.5 0
15.17857141150299 14.5 0
14.64285712475407 14.5 0
14.10714284117721 14.5 0
13.57142856006613 14.5 0
13.03571428124737 14.5 0
12.5 14.99999999867727 0
23.22517338101608 12.04587312592589 0
21.48879572468286 15.73446039056322 0
12.4474377392695 8.186371157132314 0
12.11116697196312 13.05184794090327 0
21.23884948523619 10.5928966633839 0
19.8426481460382 13.55934915630229 0
11.16353409553663 3.163876786727475 0
13.01298888133695 8.140847951758621 0
23.44890100245158 2.948090928170033 0
11.1116874027149 10.45358868211552 0
20.20340026492391 17.28262483480205 0
22.97750280318473 10.71752083977437 0
21.77376017241305 6.814739599139984 0
11.14780320132989 15.22451420982402 0
11.70958059738863 6.642954394553197 0
18.1235158558357 19.94815362351931 0
19.05684105765545 18.60308228177223 0
20.79755291504902 12.37083408452932 0
20.98406202695248 9.017143055711644 0
15.45577524228688 18.80904153380612 0
20.38456806967599 17.91743750544106 0
13.67972181074709 13.06714823278153 0
22.85404888597835 18.76364358937059 0
15.8509573960083 19.33638094055739 0
21.09288455406505 13.11953166886741 0
17.14053293683097 17.68164528188044 0
18.41726896606052 19.57695078313294 0
23.84885275903028 14.87671989923204 0
12.54608524488664 6.381884520251605 0
20.79009023653234 19.37157449941035 0
13.41653846099366 3.639015587185008 0
21.59621240299218 11.98809933557576 0
24.07863270324601 12.32286186765193 0
22.0238096275351 7.411138343435149 0
11.199920120559 12.25085452632912 0
22.6501068597758 14.18172153898434 0
20.3987318644363 20.40074108569517 0
14.07658951064022 9.129381820582125 0
11.95325118684196 9.238443571394129 0
20.55669156803598 20.906282249013 0
18.82254400316108 20.68791951899497 0
21.89660886026602 3.14687245713908 0
16.54406313999703 21.24226553315605 0
12.80867016425855 13.1040127554167 0
17.7358970221984 20.27212824041047 0
12.78873911207707 18.4553779605776 0
11.32740328038637 16.11503972760078 0
11.22269025723452 4.9020432412116 0
11.64731297563211 17.21550151157248 0
21.1523900226352 7.47372850916493 0
23.07230063557005 7.763498495003262 0
10.99377509929178 19.25885862832142 0
22.37400973408877 13.34419519036618 0
19.23905127884857 20.2953130000198 0
11.68333325273626 8.597920709691302 0
21.30428049110256 5.94155330309033 0
11.44770761582747 9.751071452162627 0
22.4706860682584 11.53642902720215 0
21.96565449257806 11.56461779886199 0
11.75488254247908 19.5856220533924 0
14.12621922749301 8.196626825508579 0
21.7980845021744 10.65943744042266 0
15.70275702321926 22.01060427496084 0
19.61754887027094 17.19250092960171 0
21.64149999031035 9.35933390251711 0
16.46270210606734 22.02979083868571 0
14.18078343940811 22.25311632336409 0
11.82323623134112 10.82620295333621 0
21.58346153876096 3.639015587007164 0
18.72814426510546 17.2007366024384 0
21.60495098112582 17.26842120171706 0
13.81739608697332 11.92996306742581 0
15.75637431012445 20.44203136599701 0
16.43623121374458 20.58229810965575 0
19.18771329390582 19.62296121373689 0
10.73475835770103 5.217722593393526 0
15.09312682802574 19.51278439879792 0
23.76431617100008 12.90090164772829 0
13.09306225370502 23.32067576873938 0
15.87119273468601 18.16536296803332 0
14.31346673803404 21.43697200245109 0
19.36371610808668 18.5714113156932 0
14.79985846395434 18.80063547302997 0
22.49941295027703 3.418129752413027 0
14.1051439583197 8.83262578650747 0
23.73542361652478 19.7862050773143 0
11.37965166000188 7.597766741112409 0
19.14378005400568 16.01947402327691 0
13.14898015266151 16.95074399312903 0
10.9063743958249 9.589138049948323 0
13.45829207515059 6.509562186181096 0
13.90845289489744 19.74223022730791 0
21.58798400423424 20.06130247887923 0
12.86994746166079 19.80970608356719 0
16.056050708174 22.43419916704964 0
22.45154410743796 8.134854806338096 0
22.50187904616889 6.360961147871564 0
23.09839088773729 3.143774436577334 0
15.02931666987776 21.33924275776887 0
23.69118360351215 16.20665430315371 0
12.71271153320087 7.542218320919791 0
14.72550072694545 17.51726360275915 0
14.05494828790409 10.4341955881604 0
20.72112059776751 13.98064776522259 0
11.29070262420043 16.89541064593082 0
18.38586423845069 21.07566329997227 0
21.13239132743186 16.72337244009788 0
15.98506044952204 21.70182376608714 0
14.63317320739956 13.46638297062145 0
21.67407429489805 12.63091650906028 0
22.73063183969293 16.0584724168336 0
21.32371815324374 4.572408088856512 0
17.20193460664137 19.0318817249706 0
18.55048421110073 20.41513092582193 0
23.64740558378707 19.03781525207306 0
11.46661693137711 23.07498385073825 0
24.10571593387616 15.56788246007352 0
20.22449091000473 16.53791652020606 0
21.80772174326506 13.11458471232989 0
11.70289681865949 7.295195576371199 0
19.26284482588009 13.12429435086304 0
23.05298479445829 14.01920705806312 0
21.453811713263 14.38581888825705 0
17.42639231104279 21.43603950405019 0
11.2585176671527 20.56222115772719 0
23.50871366037964 13.91792546788995 0
23.91674871342382 18.02410479153002 0
13.73487969332206 7.599632390072577 0
13.42411081523904 10.81751800439851 0
22.06339142696337 12.78703208618065 0
11.11937813331781 12.65779034362035 0
23.19745460301109 6.935974641034453 0
21.31020356844669 8.30831547286893 0
20.84508589846543 11.38705823234615 0
12.59878718670614 9.576757071602394 0
11.11471123311369 22.07047359633639 0
11.08366127890029 11.24539039837272 0
15.89285714571177 13.5000000019311 0
23.27022233164117 9.335680350960311 0
11.90936541926415 17.91377851012597 0
22.93487335803633 15.13035694993176 0
10.65690831543766 20.77627995319636 0
23.58473695764838 10.77228957743077 0
22.33155129612642 19.43566251570059 0
10.87803675047155 21.29863590438302 0
12.61124190143222 8.67178270124862 0
23.12183641845788 13.2623766438112 0
13.80381873787312 4.538059948855521 0
17.02208545153932 13.5883793562974 0
10.62512661443329 21.80159212661275 0
20.01870464056562 13.21084319653338 0
13.49866083009445 8.641216946636636 0
19.38332598648746 17.81954563023159 0
23.89460348444483 9.942937379985771 0
22.4705520032042 10.68233162513219 0
12.64066389275207 12.07112899684521 0
13.22014940971958 10.17287541244488 0
21.81991748825842 10.10822321651196 0
23.02463040073707 5.973837069911076 0
11.34822056355565 5.8495635457653 0
18.68921177368652 17.97873688786575 0
14.97494583636629 22.4874828974766 0
11.48428435479401 23.88405390031084 0
11.48223698010569 11.9925039102408 0
21.08920736446957 5.230411359857522 0
14.1176803671487 11.15896765429432 0
15.97089900823373 16.90014364418166 0
12.50416198780714 19.13977727738463 0
23.90732857101151 11.52800449787497 0
13.94389118028799 20.90192069119199 0
16.78213975307101 16.42530999943508 0
11.11240316946072 11.93418940894479 0
23.4917163306844 4.947090499939842 0
20.03141235009721 18.47519187611982 0
21.75390393570166 18.70432480142959 0
12.24308960382682 16.44617440617211 0
22.94222344256152 12.85960281361713 0
13.14584863598989 11.74873150473764 0
23.50969722242308 8.388915910321792 0
20.96201205949987 18.17756439371843 0
12.50076054019179 3.413906322960312 0
24.26601702011244 19.52798439420844 0
11.69627380333404 13.18446689324695 0
18.69220024875286 13.58837935758354 0
11.60786782805033 3.632792411992358 0
23.59924139913003 17.53328401720907 0
11.37213166474014 14.35775909107597 0
22.26021495967089 20.17070272236187 0
20.9096607906196 3.509282512147085 0
10.94451561741225 23.77703428420553 0
23.61225066597749 6.027172093989586 0
12.10919125875198 12.07260478240917 0
11.37554934948064 18.41550490992623 0
21.75849852624187 11.21649479861013 0
19.76541610688636 19.45660099545583 0
21.58025088084902 18.12167153815291 0
14.20556216946438 3.204467413708986 0
11.77379781624437 15.57780230763566 0
13.72465995161077 9.72272717083682 0
12.70281754964504 6.962802119797534 0
22.35171536806624 12.49423565528301 0
11.95842301365364 23.54798597592942 0
22.37332019874756 7.386832297118268 0
22.42230006930902 9.776132376888064 0
12.05690010715723 11.53056045811562 0
12.57718119791115 23.06531451321477 0
23.03338407736232 10.12467362211837 0
19.77858685022072 20.93332082057393 0
11.73522781336084 14.90166458524249 0
11.02061747334353 13.59552783531436 0
14.78194481314223 20.27521595060626 0
10.85836478326877 12.12792962701509 0
11.97154681796011 7.85672096375988 0
14.22923799654478 16.59300467543389 0
23.87617890391433 19.42405470436372 0
11.41495917208425 6.271017189055218 0
11.03304156926546 6.401593528208211 0
24.05963805236237 7.422273337542373 0
13.309343630335 19.13786685650137 0
11.47629769412793 21.09469194846314 0
22.81154160232106 3.963927763683759 0
15.13644815257872 16.45044314623372 0
24.32461256022563 17.58662985707264 0
13.94017853696729 13.76166000060744 0
17.98006384517337 12.97713982583745 0
13.49507216629689 22.79007777851871 0
23.39770211254177 3.634212649674862 0
16.37950382542214 17.59871155164917 0
11.24941305323124 7.938689850417344 0
13.2709170147753 20.48645000183462 0
22.5717309182864 15.54794301727965 0
23.96887234945468 17.09168086890875 0
18.05502022361709 18.29763336953832 0
13.24503909000171 12.45322065651515 0
19.80897803660761 20.09710768603949 0
13.27213981589053 7.120994283644258 0
21.65946873495148 13.56677642535671 0
12.72346217249322 11.3100888423265 0
21.74167611597177 8.777977989877398 0
22.08503396412447 13.71496242925276 0
13.12236353515947 17.68005808018554 0
19.496816296438 16.49623150404595 0
22.0664770758104 15.02070957893495 0
24.26692129656945 18.65555989200958 0
11.19969801264963 19.54894767358281 0
15.22045906182031 20.69103330919151 0
13.19315786157745 9.309214844109277 0
12.19224700134613 3.961354864404885 0
13.13115640303871 10.57162054303939 0
13.52408728860998 19.8664310878734 0
13.89865234208195 22.57229565756199 0
11.19010632229545 9.126137341051223 0
17.74214060057119 19.53072419098454 0
10.90143837324891 17.49027228387876 0
14.55454230612945 20.80847765849642 0
22.74366757196507 19.33033559738773 0
14.48563088412823 19.96754831720354 0
16.80710070697654 17.0310993562213 0
15.243425037906 21.67539616241789 0
23.43907856203674 18.5192697591783 0
20.48190354424174 14.68918405242871 0
12.78884302748171 9.258350862596398 0
12.14882976511888 8.768433082017673 0
16.66768061242679 19.9750803565724 0
24.16131862469434 14.21353265355288 0
12.33768487167691 10.93070453758241 0
13.68019833084666 5.653077299010953 0
20.92547428582603 15.03922872311323 0
21.57287835847661 5.479690873396188 0
11.90277700123523 3.141798513661282 0
24.26657351000347 12.90016398671726 0
23.45214996701747 16.78586125045085 0
12.13636363235997 2.810223411807327 0
12.62825728832977 10.44124762396936 0
23.84467525465755 5.197772159822744 0
12.09393633308246 10.02690960629885 0
23.89078859331136 3.173629517853938 0
21.18510079105944 18.87661216930402 0
22.69790850891305 10.2434233590898 0
10.79609885470483 11.63439838879007 0
11.51531868888809 16.66003773607422 0
10.93531553863339 16.7895224750536 0
21.8638801020951 19.10119132009612 0
17.28269021038436 13.02203855497645 0
21.68124782325204 16.81411207121004 0
12.25430950133057 19.84141290581924 0
13.33359330646337 4.164651627477944 0
11.058648783524 20.94193788725132 0
22.49332652358483 13.75330272890376 0
10.63317477919986 24.23432401613892 0
20.65630235903883 6.672035970100563 0
22.11435438829659 6.468465722501106 0
10.78556468076371 10.85161933898618 0
14.257385533062 7.683549858874017 0
14.63434405656714 12.91345152357457 0
18.65814973253514 21.59101639362506 0
13.61495341818748 6.016827000471398 0
19.3217100025619 13.80395664674541 0
21.24686185331625 17.89975664783312 0
20.83070562863212 7.965546779466236 0
10.78083949251248 22.73462048850118 0
20.99163034535784 18.55997386573211 0
21.97615184623137 19.79235768545181 0
14.3465596761227 18.28510259637808 0
14.40134656527407 6.257336999126189 0
13.87654417082173 18.23261567683908 0
21.09485376546192 3.17157580354322 0
11.6787469964515 4.158131861978946 0
23.7806849416929 7.536790131754798 0
16.9650020680664 21.53320353336266 0
10.36937626559432 23.73223046767695 0
16.12491331778563 20.31473511078593 0
22.242762969085 15.69658851667109 0
20.57562222382076 11.83011431528233 0
23.13269999105826 19.73224429829652 0
23.06727857873322 8.784643076959187 0
21.24048889569988 17.51990414826332 0
20.93775867018425 9.822154986248176 0
15.74775232099609 21.26774287555978 0
14.1483165043328 22.91845284660686 0
17.60879968900374 16.6368562212514 0
14.45429366360581 8.42436923893716 0
13.87269536664091 17.35354122299263 0
11.49452746866295 17.84004006989896 0
20.55423663166032 15.50736975794329 0
11.29033480453666 4.582464985546115 0
22.55653692897624 14.77880154318947 0
17.54730025281161 17.14318430932532 0
20.83678120843085 17.75869088422876 0
11.39164427144839 13.49823401251911 0
22.9006881047057 11.04954944181962 0
22.33884616989647 8.917172564149604 0
23.42673626493019 15.62633737724179 0
24.45420862376655 13.22898911510854 0
20.7384400717246 15.9783099170633 0
23.70604188400269 4.553952393100248 0
22.65304807016794 12.02424138358152 0
11.66409698973878 5.430449375325932 0
17.34769567301326 18.33204245546333 0
22.13713848094683 3.545470739328112 0
22.38586581639566 16.43512706610489 0
24.31716438541092 16.04474133557531 0
11.96877733879491 12.44184017168414 0
22.10527013831984 11.99337084775388 0
21.30414186320678 11.57344262380576 0
23.37181117403472 5.549705917282441 0
23.90408008895732 9.031366803258466 0
18.62050513621295 16.37407160340701 0
10.97012089167331 12.39892702800177 0
19.82142856787083 12.98405612181365 0
11.36590236835448 22.52362865987697 0
17.88283261615297 13.34754481112354 0
13.75922874315559 12.36910968236076 0
13.54752146591248 8.080698578062416 0
17.44164963496835 13.89008620859283 0
14.2039377987624 5.8370431857825 0
11.00438245612453 24.22417833912509 0
21.24146154992594 6.959981675776852 0
22.07473467878221 16.34119037054664 0
14.42764756930744 10.76944517889813 0
12.92934465656409 22.51286328182659 0
17.75718891592601 20.90991730237161 0
23.48803647149814 19.4416727551737 0
11.10314444702657 5.196763120259924 0
21.07872692559755 20.5704077695006 0
10.83618728828558 14.67073244611008 0
10.8298369041399 19.95438702802944 0
13.50965713597774 16.26911456358069 0
21.07156094248811 6.640854699929644 0
11.45167795300115 20.05209775171579 0
22.15204337795711 11.03878627099496 0
14.28260252905589 9.884480812941238 0
21.81253787116283 7.750644882618956 0
13.75966875515873 20.49360410887699 0
12.50100274189708 2.827268729303824 0
21.3745270162755 7.856585569704845 0
23.72508221399106 12.50796608249476 0
15.13377862720598 18.15755209068084 0
23.89247970422797 6.721190234416323 0
12.16741635699538 9.6365765116054 0
13.85757368442996 10.84112037122319 0
11.91521078728062 20.37786460008109 0
22.6487969561235 11.0845376075478 0
18.75169086521105 14.0596511401029 0
23.13449111728508 19.2073469071793 0
10.83968326774644 8.67208377985095 0
11.71651282958128 18.9400680392071 0
21.10217051746775 11.87322474225505 0
12.52412229562518 23.59320230236056 0
13.25344675845476 7.661916806658823 0
21.17647074317778 13.58628534954291 0
23.04110393710956 11.33957435901565 0
15.87958928834025 13.02774768679079 0
21.5112490011265 4.88816767608578 0
12.68570437785483 10.09613116721818 0
19.10627797331354 21.19194864194136 0
21.44767376771386 16.18959194220128 0
23.44314038189499 9.831746114510217 0
13.97548518790363 6.974604702906862 0
23.44767674153877 13.33366062533785 0
14.22837091191541 12.52419345901795 0
21.24448296894862 11.03919820431608 0
12.55653438866773 20.39165020790391 0
13.28068827850881 22.50841838705283 0
12.90547913950533 10.82673234955276 0
15.49320916379935 17.46640599513255 0
19.51045473097214 12.8342608436049 0
24.37482879865472 11.84403849960809 0
20.75977771232557 7.085486420483813 0
17.1336787828825 20.79051578552316 0
13.59595789759651 11.36986775315043 0
20.65161920973227 18.75467449494165 0
14.07381453786722 5.036981598826125 0
12.066644087978 22.65601146741773 0
24.15679920954761 13.5511720301771 0
13.64788527016749 10.17627675194319 0
10.8753912904056 2.883847412667295 0
20.83015646276171 6.167409765228223 0
13.90527747385212 3.17146653482101 0
11.03777213875741 8.242360474645503 0
11.69230997520139 13.82905520089194 0
20.57124107852037 18.33165411849554 0
24.06511561609269 5.751069503363038 0
13.76613742620018 21.67029650648574 0
22.48278884471928 12.89465278291195 0
14.66186664391297 22.90753037878458 0
11.8357454303676 19.98786959555209 0
13.21299179037517 5.299224180160993 0
10.95346798215382 5.637287863323852 0
21.27596427655015 10.18699253976181 0
22.9170857998754 12.46462404063361 0
12.40529814355089 5.966349106159313 0
10.64063171510335 23.26927485277077 0
16.69134809683542 18.32688726196933 0
22.31325989672468 18.56180973817493 0
18.13199391758239 18.97046264854154 0
11.07882357617789 6.986547258735643 0
21.60459544172228 20.60924089087704 0
20.24839441513092 20.76113864574353 0
12.43595486658553 17.35874569455883 0
18.32017670063122 13.89343365893288 0
10.65260353116356 20.21792587162067 0
10.96323799997085 20.2675931486767 0
12.50431093823106 18.81271197832807 0
17.03728765686711 19.46208244190926 0
11.92585521037513 14.34520619605738 0
20.75687627859458 13.35487677785642 0
14.0700176302864 6.364081991329082 0
12.88099838321272 19.35541999960883 0
24.43305263796503 12.56476539572784 0
12.75096424356828 14.02902033897633 0
21.52598909090822 19.3713999409894 0
20.38998448488364 13.08558396616015 0
23.71079484947565 14.4430414655599 0
18.96716178516983 16.7592134430481 0
17.88368653368599 22.03795743798617 0
12.37130773972707 13.73430022492964 0
24.42215306996643 18.1692108613081 0
24.51283325727683 19.07093036062135 0
24.06616089440305 3.518970721145986 0
12.14185579715008 7.202962287880497 0
12.65345322013745 22.31710430458563 0
13.17797998306983 13.67493482759999 0
16.5736871698248 21.64618859042253 0
11.98923743707121 6.07127743422298 0
18.85355422900524 12.9624903908972 0
22.94641474349336 13.50904739345602 0
11.73752522882539 22.08163404271949 0
13.02659997352862 12.10135437939563 0
21.96169471651949 5.993438610017293 0
10.64133571490823 18.79262181861973 0
18.12343122341609 19.38743883465776 0
17.08792751692383 20.4002270627448 0
16.71193793650095 20.87752129567421 0
13.98856468519825 7.405809111456488 0
11.29752505726333 18.86397150474212 0
24.24246689179169 16.47158799191942 0
13.36034592222089 18.5082311369845 0
23.28210567470985 14.55371021791198 0
11.5164032444342 12.45103809715296 0
14.72579077996234 21.83128702092279 0
10.64433379330692 17.87167574578796 0
23.62148657286811 11.2125033327243 0
13.11375164082954 9.673465916744 0
14.49412976466066 12.19813611480902 0
12.50724731722678 9.096637095502823 0
20.89875836895827 19.96172921616295 0
14.22506855755446 5.375817184545536 0
19.97386046371714 20.49207795939365 0
17.0858015445162 22.02088264617369 0
19.0931349466147 20.89492061907587 0
13.18038496941963 18.08162864436197 0
20.93856486387202 20.97726001589274 0
20.65836098757515 10.87461152625925 0
13.32001347311438 4.64125613414722 0
20.73708874131724 8.502484883969567 0
14.07218109064098 18.9487350710234 0
12.56164893509008 12.56356874531279 0
13.80417583486801 6.617732711522748 0
20.52608334131705 9.764857956720533 0
24.13730293526055 2.878302279912078 0
12.83709557366338 3.93116136768546 0
22.30690563654797 7.712082847279015 0
23.35305723438429 14.21907666272996 0
16.45144088254715 13.12429434978326 0
20.58978660484846 8.80455924031129 0
12.07184240625967 15.20964776455066 0
22.34010368018506 6.940024042460509 0
13.01285327762508 6.036032369363388 0
18.16359391656599 20.71793486659737 0
22.16086854630603 3.933662109964296 0
15.03282245611992 13.46602308412201 0
21.484621963799 9.675139588964228 0
13.10375057633607 3.14586379135141 0
10.44073036520378 18.55149609654336 0
16.70952902226792 18.83627521354384 0
10.98862954461305 16.06075177369813 0
11.26896255014048 15.674296252219 0
12.87147468128886 20.24248038287913 0
10.75991036363625 18.31022489110355 0
18.25885310956595 16.76075946189636 0
24.22614629024864 17.89918778627054 0
23.78813035734769 18.63501169045436 0
14.22254973841046 17.78055091653387 0
15.99993897858304 20.86795906734649 0
18.10853817656489 16.01602575423088 0
15.16617079337171 13.06611171577711 0
20.69320211270747 16.49368843847631 0
15.51940220172914 22.58606827411811 0
22.03645146026183 14.07259950637129 0
13.76902973182104 8.337441669895437 0
21.41682523382655 18.53968232238399 0
21.86188023523959 9.719698122306395 0
14.3070538999942 7.264264909804258 0
20.86742673470802 19.03599380970534 0
20.95692074352853 10.28992660430594 0
20.65003564366535 21.18046463186651 0
11.55093836020755 2.949801810322375 0
18.07782790075354 21.70760370875138 0
15.08319521911763 17.22618900892412 0
20.75745387117893 17.15176626372965 0
17.93689499942181 17.5105975938179 0
10.81099154075277 15.75941985661637 0
23.54762730196371 10.27424633597225 0
13.9654027085177 4.260883120561045 0
22.85362885049472 3.548692849178487 0
24.13881295266457 10.96756815339845 0
24.32760039754595 11.32430892248757 0
20.99934957201439 3.915017633129119 0
10.74093644201918 10.48033723513978 0
11.3814926592405 8.673507256248406 0
12.49976715737191 11.65813804476727 0
13.9568738223215 3.931805091118469 0
21.19988525113121 5.58503229014952 0
14.0953019682617 3.513319051328408 0
13.4718863339837 22.1782814262825 0
21.85328114771634 15.43209236316654 0
23.37415886755971 20.21945216159189 0
13.12516429660712 8.47822038856328 0
23.95823719120939 3.929551934357457 0
11.03486229420838 3.917212097132522 0
22.67007764985371 7.806194087963856 0
11.21966656145405 17.2260184036505 0
10.77044646557421 24.47043030987342 0
11.59701894354601 8.044690329281687 0
24.06960660390153 8.058133325349393 0
22.69042622209456 9.328774562246455 0
21.03030287737353 15.58077478569175 0
23.80110658287846 15.84829485071716 0
16.58704410965593 19.33634292874775 0
14.35848554930375 11.80371714118413 0
10.96341747327264 14.9637041904172 0
11.88914980179134 16.0705388563877 0
13.82996555632586 22.09046830410597 0
14.31072066551728 4.838389331790112 0
12.46964337134204 22.60109656037754 0
23.70223159325135 4.213310180754005 0
21.20178622798004 20.23655334621147 0
24.15989770460967 10.43121386834954 0
21.27980169620225 19.7465282443238 0
19.43858084755628 19.95834661297247 0
21.5589012804648 12.24271670052718 0
15.98156523644489 16.18858617817249 0
24.08296508111091 6.25244628471191 0
20.65850378531013 10.31310308463061 0
18.93376277280179 20.35633753852927 0
13.11676197522972 22.88363554270191 0
24.36437257523001 13.84429847171134 0
11.5755415110158 23.46949814213766 0
21.93087591543151 20.16710505526022 0
10.75504032870617 5.989519095046554 0
17.5269955302037 21.1548692300558 0
14.75402242044091 18.41801783532832 0
20.3363759401353 19.75597849432797 0
21.1653506550518 19.29477695280929 0
19.43195404509601 19.26141066965127 0
10.90400628106097 10.1249084413796 0
11.70617450745412 24.164097446365 0
10.77644549850944 22.10899709529713 0
14.04026667158195 16.09270849961405 0
24.48412531522923 11.59474940595142 0
11.65686643038971 10.30530197994201 0
14.16757569072629 20.31657868445304 0
15.26374297837952 13.79704645135543 0
23.2397413188719 13.63249570264823 0
24.48450174033931 15.43273510544855 0
19.43718975699127 13.50283502834741 0
24.16582387129144 9.482055539305556 0
22.70037308531516 8.969078513647723 0
20.51618637373148 7.25327658908453 0
20.01637730755901 13.96784937963432 0
13.77457395761922 23.25554009700535 0
23.01301113341696 4.260295116993726 0
18.41916817833627 13.03664624275589 0
11.86379062960082 23.926796322977 0
22.2043528121848 6.199190379256697 0
11.02385064889842 21.69896830573618 0
18.79488165430423 20.08124235187064 0
14.15165216215306 21.81252045636766 0
21.90921521003518 8.26230759273889 0
24.37681217564572 10.69790282248971 0
23.84481786045628 16.70978276306202 0
10.43552734800041 23.00610775845411 0
10.80573741691498 14.10772961292774 0
19.96514544172333 19.73800858156628 0
11.01080867731902 18.61272690797206 0
20.4344308721837 10.55867386968229 0
15.82870436276492 18.96543789402775 0
11.23158916993832 21.35706063997375 0
20.97727738696332 14.49338342483061 0
16.42857142937082 13.87244898555863 0
19.882449349182 16.09163343115819 0
24.35484505601693 15.09254014243431 0
13.67636788615503 15.88565601574846 0
16.16493490637692 18.76661560128976 0
10.53169803621976 13.93908389264593 0
23.36093697044269 13.00097673664471 0
24.59159602103863 15.79126580318687 0
13.36239239186957 13.27171622011493 0
12.85720620754015 12.7085107858894 0
22.80639871633117 20.16100287431384 0
13.85116881206371 8.654945142548065 0
15.73415970298395 22.35035156340129 0
13.68803588965423 4.901569618441311 0
11.79224433707359 9.553211894613407 0
23.39738347829032 12.50007123299092 0
16.07971551846796 19.92335435055425 0
13.53276495354758 11.69966514073628 0
13.3011292642898 5.580128095071079 0
23.33572050424182 8.990631779010702 0
22.06232361958545 4.255374714272859 0
24.15739419364727 8.580837048604428 0
19.92001359331574 21.36075024727419 0
10.76750107823081 16.5852246233304 0
16.31898421367072 18.01075885781157 0
22.91093804838449 7.273655662692185 0
10.98141639833439 23.38995533199189 0
10.70982399315817 9.190366140296842 0
11.40992443296907 24.19899179449381 0
21.83444602071216 6.292839769931748 0
22.54984134614066 20.42266207674665 0
10.5539796067888 19.12464667857886 0
15.64564085404271 16.48538052677848 0
22.9457895029964 8.239496892146612 0
22.7112572929639 6.836668133359259 0
23.07814462987174 15.64268362988213 0
11.34516272967343 5.49870375609222 0
20.64383569451342 9.405783311920638 0
16.75845868293067 22.26112562479409 0
23.68212651631197 13.19314854669939 0
15.42891570328754 16.9183622695659 0
10.91366437355348 7.792911731505055 0
14.10761882357635 23.27967651292323 0
11.04708770456176 6.705704391804725 0
11.22114397196261 13.96677649988446 0
22.29276814287142 3.162997079191658 0
13.38032602256017 9.012467749798555 0
22.9234147927571 16.54951770198157 0
19.90750211027807 18.05288082149194 0
16.743112743913 20.28034591592394 0
17.66605071087379 18.75201727116215 0
13.4056178147595 21.10464504840987 0
11.21855407419499 10.06417983802622 0
23.33058435799924 4.166214508338766 0
22.60855483325585 18.39165461529743 0
10.67764374018127 7.569474753008747 0
11.99269922186394 4.256454185349082 0
10.74934318983481 16.30472323639954 0
23.17309473788339 2.780678780048557 0
14.97311528147756 19.12102727680114 0
10.55566134243525 16.884411086249 0
21.50104667140361 14.97960024864371 0
10.88418171095127 20.56656450184005 0
21.66411449340923 4.163795298802521 0
21.15123166057917 6.235503532588366 0
14.4853956097666 22.04385625867744 0
11.41752983392632 21.6252878947916 0
21.15107597162004 14.06036866512446 0
19.56077738281817 20.46175279471868 0
24.42379195753667 9.620601699670068 0
23.08077720357646 16.8532218189232 0
10.78079229567497 13.11920304472435 0
21.83698289141429 12.26865078972742 0
22.1012166702807 14.61246639986145 0
22.20221637667807 15.36495932518002 0
11.75120289009289 9.97877368893636 0
17.29220162633706 19.82580307159097 0
18.4391448013849 17.62412234776108 0
23.27015881370725 6.44299808000609 0
16.21589099917892 21.34738785566509 0
14.54115680440958 19.35105293708607 0
21.28923893491333 14.67056919734488 0
11.59773405821299 11.3045479293715 0
23.25053189266352 10.99208753599693 0
23.31671053876588 16.39754727165241 0
24.14004762921194 7.156103358440119 0
23.37956766620366 11.65475425165717 0
10.63195204458185 8.90516609686294 0
21.96339527783724 7.06667970267696 0
20.85371866195638 5.669889167702476 0
24.60612386707749 17.25421838349483 0
13.27522059551181 7.955177533156732 0
23.51117250662154 7.879462324051938 0
15.86935450219876 22.72169992088735 0
13.60092538974345 17.81783933806884 0
14.59675873145922 16.12732936026352 0
20.44382715267379 9.168189128015621 0
13.68093051163704 10.53044135477426 0
14.12569210836562 12.12789187882336 0
21.70493548040494 7.301060499629788 0
10.51462386998228 22.29047828193125 0
22.49116060446531 3.777318894216156 0
21.36270580864499 9.121006188165804 0
11.6529682989111 5.989945377577481 0
16.72561192187991 17.87700499658278 0
15.19831499501783 22.84829883157781 0
12.24201148487782 18.55550120577612 0
18.29227483760144 13.4282846813149 0
24.26940973356589 4.623245881168939 0
21.46426730634508 6.425285600214632 0
11.28124406049741 14.78619215410433 0
12.89396740297414 7.197417090795151 0
13.49782920446138 23.50042347262386 0
12.36772067251595 18.18030108606347 0
13.57329907903415 12.71892497940443 0
13.51170978960722 5.148185663206283 0
15.61342683128625 20.79356864719674 0
24.02352081962546 13.18080765817566 0
14.98560975616328 19.93464157224412 0
21.94194492443764 18.20977769178441 0
11.23604943579193 13.12948395073985 0
19.6077173749496 18.8732418467863 0
21.54880911010109 2.950114738912765 0
17.32704679991765 21.75381917654529 0
12.84562620698969 23.68958897440099 0
14.18813341246367 4.484789759896223 0
12.90322733228698 17.30817016403671 0
15.14869207045886 22.20818074195981 0
15.32319802710474 20.06999128777991 0
14.5045652997568 20.43912848026667 0
20.45603548716202 19.42794258377329 0
14.90605830016623 23.06069224351426 0
14.34620970435292 8.678947401382743 0
24.26908558679168 6.75074129360755 0
24.08435378861691 4.33942708701245 0
10.46604960071545 21.20853391523521 0
24.39795730850253 9.984868720853493 0
21.55305550718122 10.85796285601938 0
14.46674856675767 9.050692973021016 0
23.4874725854857 6.750769373151424 0
16.40911628721642 16.75256012712574 0
24.28760042996242 3.757496491989006 0
22.09495322968053 9.3961316087156 0
11.60723609936969 21.38860930703809 0
12.82225754989819 20.69674961660217 0
20.22002942612808 19.12087177110507 0
22.13499436982909 16.7419905948825 0
22.99209995568325 16.2646325698688 0
11.91679454722989 6.960757069655999 0
21.75065135281393 16.46211285173865 0
22.71569673669356 3.16667558110467 0
24.07928013436874 4.903746836183017 0
11.16795157704357 22.79166920355351 0
24.08852051704697 6.523014976355628 0
16.41815235091115 22.44622998795194 0
22.74355821078997 13.20564538192937 0
17.53627597393038 21.98222870161234 0
13.59846060972524 16.83983426078604 0
10.66340871151088 23.93940098567267 0
23.52549583917184 14.77876000432117 0
20.87044547672666 4.88291300552916 0
11.28577818453846 3.537133182505235 0
21.84303317923585 17.06704469067289 0
13.55522119387449 3.906322476441662 0
11.72524899127974 5.127709378311778 0
23.67126978420174 17.02415725981452 0
23.60874873414132 8.920597534241885 0
11.84991729343477 16.56657509954719 0
13.55949394389015 13.95145593156604 0
13.34586580043198 21.79762832163957 0
20.69845100250163 5.191043356939531 0
24.28442342963648 5.98529964084093 0
21.25616212367878 17.09242571603119 0
10.64858455913889 17.23093203227912 0
22.52850123499201 15.13455573988989 0
12.06077046874077 23.0848404109612 0
14.49039403262011 23.14660834334495 0
13.42538618243166 9.582409409489035 0
23.94802851908198 10.66036083277733 0
23.71757774336555 9.504422660569153 0
12.12316828675975 18.96962979378842 0
23.70610475478217 7.102616789600184 0
11.64055921838854 20.6911688635835 0
24.43593907309863 16.91498295531089 0
11.39934263517514 8.323282550609887 0
19.87821222745957 16.82331029571386 0
12.02998098415272 17.47872135432529 0
14.12848761129613 19.34692551125659 0
21.61217114753153 8.098059208261583 0
19.58201524887764 21.32971185123453 0
21.58378123271871 10.38861873873713 0
12.42786449662356 15.99327757075196 0
11.66872776250016 11.63061484821564 0
12.81917617118652 16.10994472180585 0
23.54587250939486 15.17682125756332 0
11.11362412089969 17.99787206333777 0
11.84515770055939 18.36420781479744 0
11.49526861390554 22.76967144018987 0
16.2019355700786 12.84050249654628 0
21.70826709439032 4.562838197926764 0
24.66946137388458 18.38535588299472 0
14.62762063845238 21.17874442106543 0
14.56814281942415 22.50488505385915 0
12.13150896877917 10.49786793899156 0
20.42063163702232 16.86821763992142 0
11.64544825636966 8.939259238514019 0
22.82351895118573 20.44085651517192 0
18.93506389816928 21.41973630891422 0
19.81096493128303 17.54960017342113 0
16.08942131605814 22.07623299616599 0
23.66689544381023 11.96871832441715 0
13.1747885421185 2.782488781311592 0
21.16990612004344 9.43866788086731 0
20.54311698111345 7.811602347387998 0
13.93411356596917 5.988459348135775 0
22.71838825796593 11.32973166302732 0
13.12918649130025 8.783348706956826 0
10.63301725264698 19.45277906224825 0
21.87666773494879 15.99135669773594 0
15.899324831192 17.65798295418665 0
10.59851803618325 14.37068519902484 0
22.49922348092849 2.828633204372856 0
10.4628768331176 16.47784885263071 0
17.48846320257874 20.60534988521499 0
23.25139600079867 18.89165002405619 0
14.2849587483539 9.338262532256671 0
24.18898848193299 3.209859105465197 0
19.72185580398103 18.57021274091132 0
12.1786741330246 6.677772680837316 0
24.3180437137618 8.248881276110168 0
11.26979719870855 7.272989681653748 0
11.25398275448433 23.63160415314183 0
24.38222923383185 14.58382387330575 0
22.10639954500781 18.84236011643722 0
23.65113254989458 10.49432327786655 0
14.80920499261392 13.14479512947984 0
23.12204750628685 15.96553760412604 0
24.60566812531587 18.75295464368523 0
23.42132188756707 7.345094917402367 0
17.58708258763458 19.15280444408822 0
20.27764908185055 21.17787179594953 0
22.60282064031932 7.162261300870712 0
20.36750232763352 14.23394671223629 0
13.39079656594134 17.31582344750944 0
19.64468293742115 13.79092565218765 0
14.02698231177131 10.05517616525933 0
20.46206706149205 8.449517509662165 0
13.66278295043356 9.303473617933635 0
10.55383306148665 10.7142516489616 0
24.26126944975309 5.218524714949808 0
12.09664127693562 13.40018640719051 0
14.63380295085213 16.98661190526196 0
14.25575302238923 4.115178629393585 0
12.23638400143049 23.84983058304776 0
12.32931561476055 10.26510695881968 0
20.48305367084978 11.27102768198983 0
17.65774804073878 12.80089785230248 0
18.887165592702 19.2133356723819 0
21.32724673709437 12.39427489138903 0
11.34649204438771 10.84892244353753 0
21.06721428152508 12.50029853018631 0
21.47506558780417 20.36179667434887 0
23.34494173053465 17.94954517835994 0
19.61955070195727 13.21935777818111 0
20.8828089341222 5.409938571646166 0
20.67156468167998 4.0557864835034 0
20.4710660959108 12.63425739587247 0
11.22303492137879 2.833888634945177 0
22.19412547414815 8.635707727495985 0
19.49262952529001 18.25058087879099 0
21.59822063996028 17.6900264669848 0
11.5271905140184 9.285265062432325 0
19.1117664308174 18.22708977414791 0
13.67100167206501 7.196412467962022 0
20.45154782683652 12.20074829613741 0
22.87606638421029 9.752810290958973 0
13.9251692788 13.41099122412709 0
22.27312134890443 18.25923474512478 0
24.28887835324871 4.076814521722724 0
17.73835518914827 18.40161215674061 0
21.38870153228259 11.82111545776649 0
23.92357397527587 9.331272980463453 0
11.32848111409834 17.53664304611583 0
14.57480264122965 9.81045248883243 0
23.8556386055523 10.968967247081 0
10.3957374853615 24.47230100470199 0
22.48161071623646 8.539529826514006 0
23.40240586797724 3.316018263907575 0
18.73411904746748 18.42246629842194 0
23.07233385207389 20.01384118495163 0
21.83558226722302 17.89490182460462 0
20.33627680421259 13.6091216736471 0
20.67282655075833 19.71016301313451 0
13.23757916879851 12.92422475187612 0
23.71324914142096 5.655802254332585 0
24.56324771925715 14.30577437331322 0
10.38609144545073 21.57458673117368 0
20.7515007819575 7.514047043538225 0
10.64987394392988 8.432159627634482 0
22.43796786507722 11.84944844377732 0
14.42639222348136 13.98131321066721 0
10.92519203110578 4.793945089582132 0
12.31331483048263 22.87611989950356 0
14.40171624281092 11.05202010154928 0
14.14070538613008 13.15709165314017 0
19.60548947395537 14.12063804990881 0
21.46878371140272 12.97076214556778 0
11.55617581790859 4.89278333610658 0
14.34675635139532 15.80500946496939 0
11.81882791094911 21.02214812884977 0
22.74760604450831 19.74290948099717 0
21.53361492315309 9.98252876438973 0
14.77977499479575 19.56734167857449 0
19.38816107750971 20.79156277928619 0
23.93775505153812 13.8743031721302 0
10.67923140919888 23.57386031465366 0
10.37344963700499 19.40841604509093 0
14.35241699195564 10.5472349535133 0
20.9613655015006 19.61695438516818 0
22.0573239395788 20.51134534288487 0
23.44927822386371 9.571100838117252 0
10.72337347778714 22.44624578405087 0
16.88394884885808 19.16664557729286 0
12.86526061092458 6.62519196834882 0
10.40613867733177 22.58023763833487 0
13.30087468683338 11.15730776537248 0
20.54240911038342 20.06340364182228 0
12.38074385735514 12.30057186853794 0
21.53085805417417 7.523692980842363 0
21.57436447729716 5.788027369684333 0
13.45201033315574 2.949546066748165 0
10.64774904759913 4.863319152205445 0
18.37197014065744 18.64788606235115 0
22.14483345988903 10.66204432151023 0
17.46521947136638 13.42129834321541 0
20.35045190379831 11.63227310873277 0
10.49294117478034 19.77183753594036 0
11.03396528528502 22.42449126626907 0
21.86321394601752 20.74079782168638 0
22.15727942639211 10.27685948635979 0
10.70539626010204 15.15511045711632 0
20.60415044050945 4.860699991138919 0
16.21890190391422 19.14044573818326 0
12.21656225356883 20.22359375964956 0
24.13680447399163 9.139214607833896 0
11.06191111804305 7.529297519523092 0
21.86750334313942 14.35248366885844 0
16.8902229282627 21.14695070724427 0
20.41283529243583 13.91848844078217 0
12.69609078571826 23.34877539115361 0
14.92410045807333 14.11015105922125 0
21.45897708341354 13.27881639271547 0
19.4017045075947 21.08529159633595 0
21.38388392320926 8.768622292700684 0
13.94492658246783 12.78092157348861 0
21.54540994632834 19.00556273101606 0
17.07825017059879 18.62807712879015 0
20.84538252815988 4.316029856600055 0
14.05315160334981 9.746608799184886 0
12.56251450100964 20.03965193057223 0
13.47640648180637 21.38866671485484 0
12.00286596735945 8.54061859401729 0
23.0692736354582 5.637780072638328 0
13.70928431585304 3.521604469148125 0
24.04601341733463 18.36330576948488 0
12.7136942871681 7.941419064995122 0
24.13163659398595 19.86822771990994 0
11.57594967820279 7.77647022132318 0
19.82073891251497 12.71277867603504 0
17.92057795891661 13.71082779404279 0
13.65666379383863 18.78150835477135 0
22.72038366878805 5.778690769885177 0
10.84116846612848 7.301798133977869 0
13.1711378902921 14.10926595001774 0
11.13430848713299 16.46961746631914 0
11.44712700547434 12.84571768214195 0
14.39229658356155 6.579139163009467 0
12.7269273417734 5.798615790920603 0
14.687500867507 21.51006587306234 0
10.92223523357 3.534191090487909 0
24.71361408088266 16.9066943523539 0
10.56248282919982 11.48078927799948 0
12.50551889804756 7.252401443633605 0
22.96558151862608 18.31537000782866 0
22.71109872963459 10.53439403824287 0
17.05874442239196 13.26169686509717 0
12.29025101428181 4.284299351685085 0
10.6932234703907 12.53039909179196 0
24.37508546146894 7.909442206661634 0
16.86073147696559 12.96249038891501 0
12.28466421707088 3.163355370733702 0
20.26147572227499 12.43088201649875 0
17.31037575207926 16.15638498600082 0
20.92348134284547 11.65397993543401 0
22.43727411096797 6.660624104839991 0
13.81270409821891 22.92208103910425 0
24.024786385623 19.08578245771046 0
12.16297128392305 20.68185021459959 0
16.43416175413949 15.95554017435669 0
12.70885082514595 6.09754014076659 0
21.88225237731646 9.117194263240297 0
11.26890195187126 20.24626955702781 0
20.79436398291837 16.80579792681117 0
15.01410487464974 15.91035441260779 0
12.75737715086791 13.534933365977 0
17.84310109856253 21.34719594647535 0
19.11696512066813 12.78227244108257 0
11.5678186872046 18.14357012096296 0
22.65799703375458 9.935957226415463 0
16.73158273287407 13.7778991087021 0
23.50324193992321 12.73876211837311 0
14.46360092421916 10.20425205099296 0
11.39732971913513 22.21828177974642 0
24.18569365590454 7.667279749659525 0
23.4278130713959 19.82902091226006 0
12.68906231823905 17.84058293057499 0
12.61651867515542 10.75360465699944 0
21.7291167940118 18.41867543710384 0
10.55065846568516 16.05594866445905 0
14.3942121189864 5.627191342134827 0
22.80727522206885 11.66073832651831 0
21.41137270501355 13.80888341262957 0
22.39804820490944 12.15640001792918 0
14.12874396888543 7.939663687167368 0
12.52927171120986 6.72635958160405 0
21.00392410680053 5.912588673338853 0
10.90803517500626 4.347309593990307 0
23.16912923011816 8.463564715773298 0
13.16481561213804 20.91846433534557 0
12.8580147414467 10.56761689273343 0
23.6061465537966 16.49009836781918 0
11.71930240207809 23.71252341343258 0
16.1420930281805 13.20010329531859 0
22.48218201900898 18.9813031170815 0
18.94952490873417 21.73493840979249 0
10.26763624281671 22.28401084272945 0
20.68347613646122 3.740459235909938 0
22.18387441015637 11.3460191929411 0
14.40587402481998 18.67527912734444 0
22.39221120555001 5.953312832672843 0
20.11915550469404 12.7979853634838 0
21.83078435137843 3.854448889623043 0
23.2594735919694 5.251657393069348 0
14.50507881986977 19.01607210010033 0
22.42665375766282 10.40825802666692 0
14.65114453897954 11.26983952576643 0
20.36073476081379 16.19531628655139 0
12.86347381963351 18.94327365411358 0
24.41035948169441 7.063573068188008 0
10.4436447618426 20.49549777086076 0
12.84504537974806 23.0792604948489 0
12.38135980441237 10.63179543861987 0
11.78042028429911 12.17739942323989 0
13.84901216070965 7.952422399705354 0
20.49716757495183 6.987874077280728 0
12.41117562976256 8.846752987472351 0
20.89921396952904 12.7414597019395 0
14.6557392394045 11.61111100291981 0
22.68912983026053 10.82673611270698 0
23.32403968475065 5.870682356082522 0
14.36194666817994 11.41295334376552 0
12.14883896479272 3.544542118539541 0
11.22539510866532 11.66526059234886 0
21.62763326847078 19.70153174507833 0
23.1787620551451 12.32758447802179 0
13.4451988684712 23.12868992692724 0
12.1501516857854 8.198617507326187 0
14.94216960696893 21.65611742432161 0
24.32366725389432 15.74254025160894 0
12.72837773665764 8.361724706877132 0
15.486920463122 17.90981613994477 0
17.73287659447734 16.24039747643518 0
12.86282650067802 3.542746334046185 0
22.29950057426949 14.00211762513883 0
13.59426246850851 21.94240034302451 0
12.09691535818509 16.95892899836199 0
13.65582054036076 4.240496399766977 0
23.28145595806032 4.583414643752399 0
19.65351214946072 21.57053219900953 0
23.64877093482191 17.84935045495598 0
23.21834673019582 12.65314354729385 0
23.07533510831678 20.33713354801631 0
17.32062439486631 17.97271527533948 0
11.0649731278339 18.3340821930849 0
14.57305642218404 9.460258476890406 0
24.59281733710645 19.71452571402206 0
14.22730537939946 20.67481475206302 0
11.59369128229162 18.66725293056912 0
13.4895970133806 7.787621854708116 0
21.6109462112884 11.60919590989997 0
13.60139714399648 13.51147191222189 0
23.00111151406279 9.147838504153333 0
10.78297017774804 6.70553401538862 0
24.60331632031596 16.22530718121047 0
10.87846124424085 12.85722456320998 0
18.52676929126962 20.78517808382881 0
16.92676402449339 15.90744703195852 0
10.76592107069761 11.23653438902236 0
23.84338908547334 15.24386367840404 0
24.3506262167388 8.90018732006994 0
10.68718919143041 6.33727161707675 0
22.17105802752836 5.686460777968414 0
24.7645357138933 19.08630292367079 0
19.30287508622194 21.5152090900248 0
23.3375580417281 17.22814922449356 0
22.176519887561 9.671361940890678 0
14.25951411996861 21.05033546571008 0
12.7678571431917 15.77064812858935 0
23.77740814091516 8.655596640585976 0
20.63102593812074 5.90651096409288 0
10.64353644822472 13.51293737757454 0
21.63283097667918 20.87371305795613 0
23.09833461807114 18.5864113399594 0
12.64843000600215 16.83253654646266 0
20.8429704187868 6.437709059128849 0
23.39750533968197 19.17469056943727 0
11.78848926385411 12.792460643615 0
17.71024133297846 17.98512357701308 0
13.85857913774204 23.50755563737382 0
11.76217140445573 7.582286264913899 0
11.57149577744846 20.32972006693665 0
16.7453420882619 19.71110400089159 0
14.43082861369082 8.053012149165767 0
10.89049796172098 19.62768149942062 0
13.07737912385499 13.32193684685637 0
22.02028597411041 12.4896695627018 0
16.59715941050183 12.7828031925008 0
12.29445684012436 23.35742356699996 0
20.09160393898467 19.43594118550129 0
13.63363618140513 19.48195458088249 0
14.00273541370689 9.470441622273672 0
23.97425650292557 20.07837804131534 0
14.70106420455893 16.58090715666767 0
17.66702159055881 19.85604198954204 0
18.96920760827102 17.59023945977968 0
21.65847537030491 14.0221032104942 0
23.24874725071553 8.117826320268856 0
14.72960739885334 17.97272946662532 0
19.86141148825163 16.47225045955887 0
15.69096890512741 19.72512262914748 0
16.30078984619044 18.41671665081262 0
11.2991781808281 6.654024771399729 0
16.03238095026155 14.003022605189 0
11.72593799961318 4.570075534712794 0
16.83981600354019 20.59315824476096 0
15.5158889138047 15.9739995565417 0
12.31491017407446 7.561677736097005 0
23.73373029059137 15.52023523527287 0
13.43487575650522 12.05901315781733 0
13.19306612634987 23.65317804285569 0
11.40144142546808 10.30304868101275 0
12.36911745305752 9.355949546542462 0
10.67708090859252 21.5162199723997 0
24.32918429599349 3.429384892842964 0
11.88901182712459 5.690999685267615 0
21.39063521832322 5.226648858715316 0
16.14313472292381 19.5377087509611 0
16.96627131093164 14.04672706222914 0
21.3396956219116 20.57540290535331 0
22.23258406360051 14.28800192218197 0
15.3993444526218 21.40487578683902 0
21.7224807811256 14.73391208598466 0
21.92633367895896 19.4254929440717 0
14.00436477111098 11.57285917966179 0
21.75186257615999 4.855271472460076 0
12.01720290608666 11.10525751942134 0
17.02749442057102 22.38340060171594 0
12.13578440089589 19.43232530892414 0
14.3754921808131 5.121666195538578 0
11.0254684112026 10.99619852827509 0
20.77194104070645 20.37256544140073 0
15.34348099929873 21.06896920691725 0
11.71479698727649 21.73246723015028 0
20.86063013907528 2.879877586429527 0
10.59194888250558 11.87108324139498 0
14.13941893402214 2.879866175945516 0
14.47493884623879 13.18640851993925 0
23.48379169880174 4.39574848908034 0
20.54308288480546 17.51659327756644 0
24.4665617720075 11.025039318944 0
12.27786945679626 14.16769959658757 0
10.71135596990817 8.132474561763484 0
22.98713679094331 10.43123786699928 0
22.87386204502361 19.06159897493862 0
22.53540299554788 15.82856373297413 0
13.15244202581372 10.90346591299892 0
21.25824418052182 12.72825398733614 0
19.14269804509918 17.17593397881098 0
24.63290328318212 16.59858152265488 0
22.87387326198587 6.514573073281912 0
20.24060665714219 18.2371285967608 0
16.27990821078844 21.76357393689943 0
21.21206524451343 2.833814854831246 0
11.87818602844479 11.88109889228694 0
14.30295264264942 17.3261390019022 0
11.21941792315684 23.94317249425542 0
21.37329702298246 3.167080764021089 0
15.98137168958739 15.79216742156127 0
22.87390707721028 14.54866974758187 0
14.31954273597893 2.687104885896375 0
11.74951389076758 16.87956896570153 0
15.52517232885715 12.84958088775027 0
15.47131059911857 19.31974029275336 0
11.02164446899718 14.37837718603802 0
11.46302450463586 19.32017904487125 0
18.4175640102382 21.78918174920858 0
10.70026986346301 7.013292006274655 0
18.4593299081258 19.12481358084312 0
21.37499744723637 7.247996646351361 0
22.71919226438878 4.286894241652988 0
14.07648462893842 11.85860781677377 0
12.36866899704027 11.26467615597052 0
21.32909777831481 20.86582684705675 0
19.36149348476029 17.44124844350413 0
19.50340499622077 19.62543557756159 0
22.94264836235083 9.478222742095626 0
20.7189352885731 13.02163004562754 0
22.56588770052479 18.70007023607176 0
20.5844922185624 6.275283297223654 0
17.51591009047497 17.5842097707546 0
11.47570696801599 19.73735548666338 0
17.2019611146112 21.18251614005223 0
11.97299110480072 13.88459506553088 0
23.71461961026784 6.362626026166923 0
24.43346634597163 10.33034682359693 0
10.63368771929249 9.47162826752715 0
21.89879968149648 10.40457620753727 0
21.54146189576943 6.123123627188037 0
12.38507537290974 7.88117079170505 0
11.07183228004502 8.526300083299617 0
23.92425051815121 8.33976038458848 0
17.17357429024281 16.72817790195774 0
10.46975839143593 18.15300367210609 0
23.97742338894787 17.44563477766403 0
13.0941866187004 22.20048540195319 0
24.1193581888066 15.87607655376046 0
13.55096328628731 6.859229456177417 0
24.04836755732206 16.18695182727117 0
14.07156455124881 18.58464816527127 0
20.41132218751276 10.17542947386171 0
24.67034538351174 17.57759735716709 0
24.1811711222032 11.57398544136807 0
16.77332206718739 17.44310117463165 0
12.86363636054736 2.817034048458382 0
20.8648730805837 11.10400115727333 0
23.18778486786577 14.87999502537824 0
22.13636363671252 2.816796401960589 0
14.31102316374256 12.87198885610743 0
14.52891599775895 7.740457044748098 0
11.9534211301785 9.783481199579404 0
11.01915530483585 11.46446088608416 0
12.5110319827838 3.768084718166228 0
18.28536198495983 21.41057901473624 0
23.30234302831848 10.48752384668932 0
18.7814631886968 21.05196060690027 0
15.61236036979499 21.66122717181778 0
12.18862411573944 22.25980425469589 0
21.85199152730189 11.86591939533647 0
23.40873774184328 8.700628333473858 0
18.65806389671057 13.26320067949678 0
14.62292182343434 12.5637052619921 0
11.76745730290524 22.86976171601702 0
23.53975856484583 18.77119533473153 0
21.58064611727633 7.026383674398045 0
14.06021443039815 16.99272736196339 0
14.58755233557641 8.761247390243243 0
13.92895153420466 21.3122333637604 0
23.30058954290924 17.63664165375611 0
21.28538725516515 3.518649220058521 0
21.71545930320353 5.172691720267547 0
12.20679852162426 5.702915051234154 0
22.86363635983382 2.811528535495415 0
14.26384351615905 13.55758432188443 0
22.366226305702 16.09824158617004 0
13.24768044861248 6.72233585012575 0
24.4067400071869 12.16245971372183 0
12.84907952571223 11.60954246775819 0
23.6551041757665 11.66411283851672 0
14.29521789298003 9.618417455396548 0
13.83766130733544 20.11038367126622 0
20.54860272633368 19.06746636237215 0
24.06883544188491 8.822733724468865 0
20.57274567463651 8.154829157190926 0
22.95380896641 7.016190696701397 0
12.53663397745842 19.60659276820758 0
10.55911688390267 15.4752385311146 0
15.42999003164983 20.40926143244842 0
23.69362730323967 3.519771965807002 0
14.81406955269461 22.1619726385052 0
15.48573625013651 13.35815496250913 0
11.84903460017145 10.55191232141614 0
12.4517481515806 9.885045669064422 0
23.87113148034907 16.39331679710635 0
24.57996653753549 17.84658580259665 0
22.1484885324462 9.102380463326453 0
13.19036770904621 3.497344298936924 0
21.76469250944799 20.40819096970013 0
13.42013450044464 10.38309605814602 0
20.99567977684925 8.666378322026127 0
13.31301502110633 11.47141269254762 0
22.39337441108022 9.225759212143686 0
19.02919465481257 13.41873138235614 0
12.95309408342863 4.271817589890331 0
22.93802265441435 12.07984927970232 0
16.4312205043691 19.76460591857646 0
22.42973396531247 14.50771165803715 0
11.00916556951228 13.3166531173265 0
20.94715975816873 8.272355848355705 0
11.76576184553851 23.20941401915671 0
13.4127779876041 3.319070357557659 0
22.15017940175666 13.09322276615371 0
23.61496503362685 3.166317213013876 0
18.74999998662868 12.70836442437949 0
21.58657840913463 3.319200850723065 0
10.66994629177104 7.840332126783066 0
22.03940201195292 13.36788092673865 0
13.37809933484078 9.89085173580359 0
11.20391004332392 9.473298821534675 0
18.76723592405926 18.83964596723291 0
21.15587645915024 15.96586377487203 0
16.99324528535632 19.97392418347507 0
20.98438302619724 6.91280089284196 0
19.99381181009673 18.85910735178082 0
13.76006246150317 19.13939807488704 0
20.26509136045013 15.87503312585308 0
23.33712609168901 11.38164211039552 0
22.35004225574574 19.80906286254271 0
24.28598282256034 19.22688384702951 0
23.96657019459941 19.66761519874458 0
24.32102080763543 2.685721403362611 0
23.98981351510014 11.24048034945911 0
11.35850584079829 20.82250496425629 0
11.96196553714875 6.433632348769443 0
21.18850432615778 4.89957407044259 0
11.55604989752799 3.316826282117347 0
22.83849820027485 8.549216773592256 0
22.12533341694784 9.94429620365186 0
10.56286288602882 12.8492463851734 0
23.4187700482879 11.87797457913391 0
10.48581107112288 17.50726493199075 0
11.63963777758649 14.5501534428575 0
21.41221478444432 3.90960255189519 0
20.18113307943126 20.09313322664158 0
21.07483161675446 12.20496566636204 0
12.92154929329938 10.30621572732101 0
21.64266099131148 8.460903025398864 0
23.69563359182258 20.12000793187869 0
17.31593918303524 22.29408563506957 0
15.09193240248259 20.328713178508 0
13.1956433365295 19.6232835749867 0
22.05159639199594 6.745783108347247 0
22.41221972266847 10.0944363220415 0
14.36334422820308 6.905322712932279 0
20.28623867663105 11.91834142923179 0
24.6309361388515 19.36242903598368 0
20.34731196329673 10.89800547208623 0
24.19321784489104 14.85530229055914 0
10.95088463406805 8.022938195608376 0
18.13277720707691 20.32342211075835 0
20.98973476367875 10.83483809972987 0
10.86503674610641 23.05417655725796 0
12.97877976146624 7.746560558848575 0
11.82625534813953 19.26446887194663 0
22.81398881647057 15.75884705232894 0
23.87292694246038 10.2771957964631 0
17.94206864413239 16.99821913828809 0
12.11328286872759 14.69712600991364 0
12.35266097182641 8.511890926420955 0
23.56410284141479 3.907832178661509 0
19.12687140616328 16.44199241938106 0
12.89552111138807 9.516219436820705 0
20.65011704565738 3.41609879901565 0
13.62675529914126 3.16650703970398 0
11.43407759843384 3.910592228721717 0
12.55009278949052 4.115743641790705 0
16.01793419226928 16.5299779217976 0
24.05599808923702 14.57565925009883 0
13.78893463460286 2.833661118655972 0
20.79443782976043 3.204467412837371 0
14.34633663638102 3.425729443751282 0
24.07644186673184 12.65069166443277 0
18.58303005334564 21.29354477058468 0
21.76803525831926 7.496634176631563 0
11.54818235008684 15.23963253556336 0
22.45361384039445 4.11489082369653 0
18.14358486931601 13.19740389025794 0
23.77907842673347 2.834106441016353 0
22.14083187185621 12.2710725502929 0
20.37761417017856 9.469749027693439 0
10.81584483927195 3.210782557552752 0
24.40788724980149 9.26767127943711 0
20.7532165616368 10.0727490507039 0
23.72045656763866 13.52776149811515 0
19.34403417357952 16.88149461343014 0
22.13346374806505 8.02567328754531 0
14.61728051125075 10.53008536121479 0
19.54102034661045 15.8906802810822 0
11.12282903542072 8.814406810808476 0
14.14183675100514 19.95290459631035 0
21.36828243826699 15.35275885428751 0
23.34515745613766 10.0918763616236 0
15.18507404123115 12.75033107774204 0
14.92138312919743 20.92737276890382 0
21.92542367975897 8.553114107240727 0
14.22083736706585 22.58919443936574 0
21.4516765621086 6.743089881193339 0
13.39928773461222 6.193606722384255 0
10.49776657881405 13.21088223611667 0
11.74814878443068 6.275442475886433 0
13.98558212484257 7.716390339119194 0
23.47155689927471 16.00887428137822 0
12.22105072400922 12.68040789877174 0
18.01467564728846 19.65986188436732 0
13.84114652148032 11.20120775759855 0
22.64403890192987 12.58051213626801 0
19.17833205686764 14.13429950697294 0
10.73594967686347 3.822375823023889 0
12.70787173719184 3.160178472848942 0
24.00333013567762 11.91233097282726 0
21.27477809639629 18.2182374805399 0
14.29114725146486 3.761978643053366 0
21.8254472308041 2.782756719602487 0
18.16936726278113 17.92141107832225 0
14.10327453079213 6.687370484217915 0
12.85309011789373 6.304818917138039 0
23.63075592166613 18.22174516090494 0
20.71003739220446 9.131408562551462 0
11.47276718166715 6.966677954189366 0
23.48037728156492 12.20231864665656 0
17.69382229905974 21.70462352975753 0
13.43580597185627 7.455180065904605 0
13.5404281277942 20.83631027507641 0
16.20447455865217 22.66885256246465 0
12.51044080562224 20.68865625977642 0
23.7692116712743 12.22428496697978 0
23.00217676795214 19.46934715769182 0
10.37762265895904 22.01147944157657 0
14.43281021017823 5.922596600274523 0
10.69054422862641 9.865244056286862 0
24.55479174163389 14.86799215135754 0
13.1691720415133 3.859472688529245 0
13.08466772700314 16.4757970055814 0
18.48172252742325 19.99185275302247 0
11.71671739267904 22.48573762722392 0
20.63047409749232 11.55875539512021 0
10.34880544752625 23.38156679244649 0
24.150141149904 16.80882114079127 0
13.63015588711542 11.06322382966301 0
12.21625209913642 6.306183218048132 0
23.8409718049024 7.848283708253796 0
24.4339628249319 8.552231132538154 0
21.09926823586767 16.33188324951309 0
18.34684734363695 12.73903449149991 0
16.28464225422475 13.50797194154154 0
12.6487847437401 11.0294983631028 0
11.00202979621762 10.72613324561082 0
10.34977174153546 24.09477849223586 0
24.24385206478471 17.1836613305404 0
23.16392458042374 3.851504837391894 0
21.05710499401058 7.752673127982058 0
13.20871029956915 15.93152250219371 0
13.78134078275994 8.971111024665566 0
11.82710670673099 2.780364747158197 0
23.20503248415266 15.32055660105117 0
16.3816124536009 20.98348637229952 0
13.01085831428474 6.917350298382011 0
11.83998307521974 3.848488951211698 0
17.85714285031339 14.06498105623528 0
17.64072423634522 13.13902318219911 0
16.74705877545525 21.92471035472634 0
11.53188199723218 10.61631956210241 0
14.19860766709674 10.79819658830021 0
15.10845633168912 18.61680825791128 0
17.99866410704004 18.646238844206 0
17.41032299116661 20.90647515698443 0
18.63885038501307 15.88191427618296 0
12.74802960576395 22.80352780572053 0
16.06738464150225 17.30029256862867 0
14.85604626469074 13.76418335519747 0
11.15966879585401 23.10067390558453 0
12.52813913286367 23.8818763823191 0
15.47745187943653 18.37361760473684 0
20.68046045604972 2.687105628395036 0
11.10094592315307 6.029796244279827 0
23.61779719474902 9.224764114880424 0
12.75757339749439 8.90839106299373 0
20.82280010625207 10.57734164133198 0
10.55029251975949 14.82483588703071 0
24.34616480326073 7.358829921253166 0
12.4490393528594 13.32873650251633 0
20.78054153428364 20.68270532758896 0
13.59000293110762 22.44426790508432 0
17.84575758271145 20.57928201490843 0
10.57933968877328 12.21988540009623 0
24.32509721018864 5.60577221641912 0
22.75511856613609 6.140836501069392 0
11.31202305688835 4.216667731324675 0
21.25027098446062 4.261883474322376 0
13.81787082748502 5.302237974308905 0
15.83995243722346 18.57593497470729 0
14.70017799212314 11.96145390749836 0
15.55218045964445 22.88805182934192 0
23.81275809093183 4.84533298880399 0
11.79862591757007 13.55327502886496 0
24.53872897400829 13.57761744416641 0
22.03301647425733 8.855644668383077 0
15.3214880789132 19.72384295250486 0
20.87975186026716 9.306120574010967 0
18.05789874816396 21.08164820700633 0
10.37783571265758 20.87197418589954 0
20.82476858293267 12.02954707251661 0
12.87030876469832 8.640693513327918 0
17.42127811143502 19.47655631051427 0
15.75361872855542 20.11840479273391 0
11.57401545654634 15.8871267551014 0
10.89926996007215 15.44151356257895 0
17.67638606930404 15.89181187803691 0
18.81423089837114 19.72308060621638 0
15.51107451687194 14.12681162897224 0
13.01705331614827 9.983808074763852 0
14.01271355837847 4.741451035616121 0
12.79341333042271 12.35731707613671 0
17.02680767526854 18.15059764955038 0
11.93269437928469 10.27675126757548 0
23.92711996863056 9.651781223614408 0
22.71685364109739 7.509177835004628 0
17.30951622056869 12.70626016574502 0
23.91210392408439 6.005735967234161 0
24.16073857171033 9.787188005365774 0
11.06184943980978 9.811306776556386 0
15.11721484617055 17.69364204333762 0
14.65327064615316 10.90271831827111 0
24.39963842657139 19.90713054193345 0
22.33268402848651 20.60299710169664 0
21.8754392899786 10.91927575255938 0
10.34470991716556 20.10604730593073 0
14.47276123148461 21.72694032229627 0
13.50538478175343 20.19325604465533 0
21.61796609514879 9.025122542842471 0
17.37916475276457 20.16282643469255 0
13.36885363396143 5.879082149851678 0
12.3291554393845 6.963842530568167 0
18.31988997372702 17.14961108298431 0
10.96914389476874 9.305419976387082 0
18.4076889579288 18.23835681716168 0
22.57021231866174 20.01496289627415 0
20.68399857991572 4.58668646129035 0
21.86598615078365 5.605325514264629 0
16.32498344462822 16.37039488017752 0
11.98201943104887 19.73295271415735 0
20.30641526373937 18.69374101529725 0
11.70132271829345 17.5877958929044 0
16.41381231845117 20.14006996034479 0
15.26326669692261 22.45528085582663 0
23.1801201928681 3.489298495280457 0
20.60037086998187 5.543136077905533 0
23.10550234136601 11.73207028762993 0
24.28748007103467 18.9286881908586 0
16.67196806831305 13.42979870806988 0
13.33393989820848 4.983019609145727 0
23.73761626005638 17.2904685469171 0
14.48081390742322 7.49449755214407 0
23.19027756245529 9.74218773696183 0
16.40122108942308 17.17098473707303 0
10.56224187923059 10.99336286932653 0
11.62645929565815 11.02169943786625 0
20.17273423190726 17.63463442496736 0
12.08676316311039 10.7811149167134 0
11.84632569183579 11.34458812520115 0
21.10394019310672 8.031095359675554 0
10.81152077880965 13.80569749402641 0
22.84569002185512 14.85727725088247 0
21.80691432809738 3.501001704764093 0
22.18510814803674 8.343299864609545 0
13.72755062690071 6.289176658811135 0
12.18586647554461 11.82753072471312 0
17.60430048796353 22.24471970079107 0
22.62584529851219 16.70473386549976 0
10.69709891641979 4.580368286420107 0
10.71527606076893 4.089575384529945 0
15.64034453088858 13.77068856694206 0
12.01444120918355 7.484432029325665 0
11.37783804885472 8.93320273103178 0
22.70838277697635 8.292071039365325 0
13.51754163556504 5.414333467406087 0
10.93037829018052 17.10575794626001 0
22.67196014019856 13.49651287337313 0
10.72529861745637 21.05954981074544 0
23.71335323425844 8.106198106559136 0
13.92092722111643 14.13888582856814 0
24.55755594688847 12.89556364143575 0
22.73468457120184 18.14681288957483 0
24.34290800956219 6.353604234254388 0
12.13253090418379 15.6702532998652 0
24.13419728283933 15.24199173635881 0
18.21672477433439 21.99331221738961 0
13.01059084171606 5.646488388109214 0
12.8432607308264 11.86773378595652 0
11.34465503110255 11.39790425245683 0
22.18338956445646 11.71480273790947 0
23.01773381358667 6.263644112793786 0
19.19148645582659 18.90426037175049 0
12.79376096408458 9.788571222702258 0
22.38507918283295 9.515945204052901 0
22.88401150086879 7.997241859373476 0
11.57989208180071 5.69193234800571 0
23.36274361954931 7.626156759546511 0
17.14368692890955 17.26555096249467 0
20.37948450977028 15.10979266428567 0
21.03969345900162 7.203132538296188 0
14.83568685149585 20.58226983226658 0
20.53799910680615 20.63378695387331 0
22.8374612563257 13.78446710888323 0
13.50455011305142 18.1600786990636 0
22.21346265444685 7.173280438758748 0
20.85840058353775 9.553619488397608 0
13.18577017470814 20.02907076476398 0
21.74207630387838 6.566002777189497 0
22.65133966888821 9.618977846210898 0
15.71638360374565 17.16243126397682 0
18.61423402275165 16.80323135370405 0
23.4090990543464 7.082770377243831 0
13.84667329043363 16.50490601689016 0
10.46641144282489 15.75650849638356 0
11.64832815699948 14.16244280419421 0
11.14921336496262 19.92941680086594 0
11.79916576606954 8.259465657892488 0
22.41010144704081 10.92918785840881 0
14.8965543306574 12.79580630773507 0
24.03776906108866 5.47793004327888 0
20.68865060403177 18.04633672547094 0
13.18541336860739 21.20943483296894 0
12.632539329121 16.40562648011623 0
14.21247109874335 6.073592130256605 0
13.40045248639144 8.323215680063607 0
18.68666519532577 21.84761808770089 0
12.21730858426132 9.04278650901654 0
17.87327274050666 19.16611833922394 0
14.90434873934248 22.76866056959206 0
20.90391686106481 17.43779114595365 0
11.91371858134393 18.68806770535422 0
23.73159391798033 14.10562546393929 0
14.40272823345197 22.80187259168876 0
19.05387163283503 17.90205510274716 0
23.12043219782324 6.686363736332057 0
23.67347700912996 9.755352158011467 0
13.13941071080311 6.398591335590224 0
19.10511403206887 20.01838337209513 0
11.42802759834158 5.179462974036728 0
23.5361850985534 5.320405644889392 0
10.59774255181667 10.21506568016992 0
14.10880637334378 8.510676356845305 0
23.98647155414376 17.75117572686725 0
13.65905902777055 21.1087552186587 0
23.04572531081827 14.30612865282502 0
21.7859655405129 15.1083664129668 0
11.49515448719463 10.08047512801599 0
10.90328723408462 18.91854988617558 0
10.64824888122274 5.596124307627724 0
23.99036872629722 4.653141037253728 0
21.10594288056934 11.33583333971717 0
22.14206932823945 19.15720200267743 0
23.23160773616351 18.2116284823711 0
24.01420368411947 18.80713960737768 0
14.03861263365771 5.617798655578692 0
24.59560740405459 14.03359866003408 0
19.82306956222422 19.13505577154637 0
24.68615352072484 18.09843773833809 0
19.13638382494419 20.59466593132595 0
24.62257770761147 15.10990348031872 0
11.55684079790892 16.34220479172754 0
11.28744527821313 23.33334307671883 0
13.04552910811742 11.39804448482126 0
12.49437286493554 12.89624611388993 0
15.88258939573185 12.73371586312623 0
16.96428571286854 12.70836442144616 0
23.36546282535964 6.157447772533393 0
13.18495546109346 18.79136407890559 0
13.01682721919537 9.06644135848939 0
21.44481632647735 11.262677539501 0
14.32488227233145 19.64698574558447 0
21.86684699419865 8.034171242791185 0
11.36096707241425 21.91738704895292 0
20.71111494020217 14.29039425963012 0
18.99824486746857 13.82155120508053 0
21.23842943261633 9.862750993114615 0
12.28898771451811 17.74545362925786 0
15.04496515180254 21.91036186401116 0
13.0911418739738 7.454047854461867 0
12.96276197941719 11.10418961969579 0
24.40249795148462 18.44737259570917 0
23.16843513707303 7.1884729063469 0
14.76577167370979 12.30815553464432 0
23.95746553764518 6.965684375112746 0
21.41583183366278 16.62654322031199 0
23.11140057140087 7.458478490382509 0
22.29218728744959 14.81349880078748 0
21.02705334144407 4.586582492840173 0
12.37123769645405 11.98204685289376 0
24.13154911835273 10.13836206764336 0
21.5030480901091 4.393552230775127 0
22.85476795256369 15.42816526556822 0
20.82990349251315 13.67118281382643 0
22.65860798885593 12.30107315129167 0
21.34134401450935 12.08739946564592 0
15.46065359302306 22.2566171510344 0
14.99668524607899 16.83250269733068 0
16.52164798723916 14.20570822952649 0
18.00492018441207 16.47117390487733 0
24.35616119430454 4.890822890707051 0
24.03064923104399 12.90568846075233 0
10.38874552295849 17.2027611107774 0
11.33677348094171 11.12846971887645 0
18.03571428190872 12.69818993561667 0
22.67068066812385 16.35178753440978 0
10.90542440711708 8.990693168359114 0
10.69327941225523 2.697320701374738 0
11.94029080722924 8.877986483406081 0
11.50176071437242 4.381835028390633 0
11.82540391559975 3.475554987495358 0
15.39564386282451 21.92921719593971 0
14.03353130975758 21.56282217906727 0
22.43064841958368 11.21078193668702 0
22.01183881864463 18.51517904350001 0
23.62986309356385 10.0270234418215 0
21.03245793690321 10.04691483482689 0
10.39489177120396 18.88689837110933 0
19.69336068765937 19.82785839599146 0
POLYGONS 3834 15336
3 808 708 1576
3 313 492 1456
3 787 615 1310
3 401 559 1469
3 46 47 1572
3 1270 96 1717
3 618 1178 1121
3 1181 512 1954
3 804 596 1416
3 168 1062 1532
3 613 615 833
3 316 847 1674
3 235 236 1180
3 1319 86 1729
3 383 834 621
3 1456 652 1751
3 725 412 1037
3 708 1213 1576
3 817 1181 1954
3 817 974 1181
3 1647 442 1638
3 442 1293 1638
3 428 419 439
3 376 560 883
3 260 924 1193
3 789 440 344
3 375 1094 1149
3 703 421 1139
3 860 1145 1922
3 944 825 1282
3 559 401 1619
3 1122 691 1337
3 681 1351 1185
3 860 364 1145
3 1225 29 1796
3 912 566 1069
3 473 1402 1132
3 1351 412 1185
3 1094 404 1149
3 834 382 621
3 883 560 1831
3 725 508 1185
3 313 1456 1751
3 170 171 1161
3 1199 319 1810
3 86 87 1729
3 358 872 414
3 47 791 1572
3 521 589 481
3 235 1180 846
3 596 804 1642
3 1592 1345 1848
3 666 599 1098
3 453 612 1502
3 319 906 992
3 589 521 1514
3 374 1082 842
3 642 1134 1487
3 829 791 1135
3 448 959 1824
3 259 260 1193
3 1101 316 1674
3 633 449 1347
3 300 664 1807
3 750 298 1807
3 318 173 1726
3 93 94 684
3 1209 462 988
3 720 1503 957
3 7 223 1425
3 475 690 1811
3 577 1001 1739
3 373 320 1148
3 549 839 1475
3 546 549 1475
3 880 794 1038
3 412 690 1037
3 1152 328 1042
3 738 469 1823
3 654 697 1333
3 1100 474 1110
3 361 1157 971
3 91 847 1207
3 890 544 1008
3 1467 515 1289
3 10 1247 1483
3 482 12 1417
3 635 1241 1366
3 222 7 1425
3 355 1355 801
3 96 97 1717
3 334 700 756
3 1540 358 414
3 1310 615 1578
3 698 1467 1289
3 523 1191 1604
3 457 804 1416
3 777 275 1596
3 812 682 343
3 554 361 1544
3 396 429 1459
3 654 1333 2000
3 167 168 1532
3 449 633 1891
3 201 717 910
3 939 577 570
3 566 520 1069
3 786 651 1433
3 141 142 1195
3 848 1345 1592
3 988 483 1167
3 1265 438 1787
3 517 1253 1008
3 1152 374 822
3 1355 550 801
3 516 588 1348
3 503 680 1377
3 906 319 859
3 619 799 1809
3 1132 1402 1938
3 1001 577 1021
3 1191 1534 1604
3 799 1096 1687
3 1923 405 1944
3 724 897 1254
3 615 613 1578
3 897 574 1254
3 320 373 1125
3 291 292 835
3 429 770 1921
3 328 1152 1847
3 405 871 1944
3 381 662 1488
3 700 334 1291
3 676 751 1276
3 1078 117 1424
3 877 644 634
3 933 984 1543
3 987 1024 1010
3 791 563 1135
3 1629 913 821
3 1134 337 1438
3 501 652 1392
3 148 149 815
3 678 1049 1745
3 647 267 1494
3 745 1272 1547
3 1237 718 1949
3 1122 1337 1249
3 362 598 549
3 358 1415 1126
3 662 543 1488
3 432 939 1007
3 493 750 1047
3 664 458 1274
3 337 1696 1934
3 1280 54 1827
3 561 1211 1657
3 1206 327 1396
3 365 863 1269
3 262 263 666
3 522 874 1307
3 750 493 693
3 458 664 1497
3 712 1337 1283
3 863 578 1269
3 720 1265 1787
3 1019 773 1531
3 769 869 1627
3 835 292 1815
3 359 1237 1949
3 15 960 1724
3 1209 988 1167
3 510 734 439
3 825 944 1480
3 546 700 1291
3 978 246 1094
3 512 812 343
3 651 786 1577
3 459 926 908
3 475 1811 1243
3 1642 11 1714
3 673 738 385
3 1241 673 385
3 612 497 899
3 30 31 620
3 1438 337 1934
3 367 1360 1239
3 625 959 1431
3 327 1206 1214
3 312 1406 1568
3 1060 1011 1434
3 959 448 1431
3 1024 581 1010
3 652 501 1267
3 352 773 1019
3 1303 862 1103
3 173 174 1726
3 440 1060 1434
3 1156 461 986
3 1627 869 1708
3 1360 1896 1643
3 274 1574 771
3 1406 522 1568
3 61 62 1327
3 1810 319 1490
3 858 1608 1681
3 54 55 1827
3 1058 1068 1688
3 717 1615 1758
3 32 932 1785
3 1202 1765 2002
3 719 782 1163
3 1086 594 1089
3 815 149 1186
3 1615 342 1758
3 372 417 1149
3 1312 746 1170
3 315 1231 920
3 864 862 1303
3 858 498 1608
3 1360 646 1239
3 1049 678 1004
3 1233 353 949
3 646 1360 1643
3 90 91 1207
3 799 619 1063
3 267 647 1104
3 1165 1078 1424
3 576 606 1880
3 874 522 1966
3 865 883 1831
3 706 311 1158
3 405 812 871
3 825 879 1282
3 870 1319 1101
3 1113 563 1679
3 402 612 899
3 520 1058 1688
3 1424 1223 1618
3 1134 1438 1487
3 1482 447 1793
3 584 1091 1189
3 556 793 1710
3 982 921 1335
3 939 432 1021
3 990 422 1296
3 645 482 1417
3 798 517 1008
3 1355 749 1066
3 1215 516 1348
3 1082 374 1340
3 793 556 1117
3 789 652 1456
3 627 1152 2025
3 550 1355 1066
3 384 1197 905
3 528 758 1387
3 423 350 1435
3 1096 799 1063
3 453 1502 2001
3 822 374 842
3 429 396 1170
3 462 1209 1212
3 103 104 1065
3 348 1211 1145
3 880 1038 1550
3 1231 762 756
3 438 1265 1525
3 870 1101 1713
3 1115 511 1648
3 361 785 1544
3 368 503 1377
3 599 1225 1796
3 1123 786 1528
3 629 982 1335
3 1476 488 1367
3 762 1206 1556
3 393 855 1041
3 619 433 1063
3 51 1358 1162
3 599 666 873
3 1046 1136 1053
3 950 1250 1229
3 780 829 935
3 726 89 1207
3 347 1165 1470
3 1136 449 1053
3 499 666 1098
3 1226 641 1208
3 516 1215 1902
3 1276 42 1256
3 1178 618 1946
3 1249 18 1083
3 718 600 1661
3 497 612 1666
3 1337 712 1773
3 770 429 1088
3 628 834 1019
3 1010 281 1917
3 758 477 1387
3 1152 627 1955
3 419 428 1246
3 298 750 693
3 664 300 1497
3 1401 490 1591
3 906 1778 1869
3 1187 347 1470
3 758 528 1689
3 841 484 1295
3 1547 1272 1658
3 561 1657 1883
3 1250 624 1229
3 833 615 1034
3 328 1293 1042
3 417 372 1595
3 767 1304 831
3 546 428 1655
3 175 810 1726
3 1091 584 1842
3 528 1469 1689
3 1129 517 962
3 717 201 1615
3 792 478 1617
3 1263 509 1364
3 803 1195 1695
3 1765 1202 1419
3 329 999 1812
3 1195 803 1584
3 89 90 1207
3 789 473 1392
3 777 1596 1783
3 15 272 960
3 428 546 1291
3 834 628 1056
3 1415 749 1126
3 1247 635 1483
3 1778 399 1869
3 352 619 773
3 1064 258 1820
3 226 227 867
3 492 1060 1315
3 338 1263 1364
3 829 780 824
3 668 1086 1089
3 1206 1396 1556
3 276 18 1249
3 1306 491 1872
3 119 120 1351
3 491 1425 1872
3 511 1115 1467
3 1450 1011 1646
3 314 739 1130
3 657 835 1815
3 652 789 1392
3 568 408 1500
3 488 1598 1367
3 672 624 1775
3 333 1479 1542
3 648 990 1296
3 363 890 1008
3 618 1032 1946
3 587 841 1295
3 174 175 1726
3 350 423 895
3 257 258 1064
3 515 1467 1242
3 588 516 1522
3 855 530 1041
3 408 568 1407
3 1259 497 1873
3 612 453 1666
3 36 1236 1776
3 1165 1424 1618
3 1046 355 753
3 508 1187 1470
3 355 787 2017
3 269 11 1642
3 677 1097 1781
3 941 551 1736
3 959 625 1598
3 809 977 1955
3 1513 166 1532
3 577 939 1021
3 606 576 1154
3 1332 630 1571
3 1765 569 2002
3 557 1401 1591
3 1337 691 1283
3 567 480 1571
3 424 1336 524
3 697 654 1220
3 1606 733 1300
3 649 393 1041
3 999 1020 1383
3 474 1100 1673
3 835 657 2048
3 278 1202 2002
3 433 619 1561
3 98 1515 1717
3 1502 592 2001
3 431 345 1952
3 344 440 658
3 926 445 908
3 374 1152 1042
3 866 622 1158
3 615 787 1953
3 1011 1060 1646
3 1467 1115 1242
3 804 269 1642
3 1542 1479 1846
3 473 789 344
3 452 792 1023
3 456 709 914
3 54 1280 1625
3 150 151 1622
3 600 718 1394
3 1097 398 1781
3 540 622 1014
3 405 1226 1913
3 450 1114 1911
3 812 512 1865
3 958 576 1880
3 516 1902 1740
3 690 412 1811
3 900 80 1998
3 657 830 2048
3 1244 331 1294
3 480 1332 1571
3 889 402 887
3 706 1158 1089
3 736 595 1283
3 345 598 1952
3 246 247 1094
3 1191 411 1534
3 612 402 1403
3 1622 151 1153
3 1187 508 1117
3 1279 1273 1566
3 628 417 1595
3 1606 1300 1993
3 508 725 1656
3 833 411 1477
3 208 1172 1235
3 1135 563 1222
3 698 1193 1467
3 490 1412 1591
3 725 466 1656
3 32 33 932
3 435 914 1732
3 361 971 1997
3 662 381 1038
3 478 792 1670
3 1197 384 1857
3 900 738 1823
3 1202 278 1607
3 632 833 1034
3 597 451 1002
3 1503 381 957
3 590 1540 414
3 711 314 1077
3 940 1482 1793
3 556 1187 1117
3 761 889 904
3 195 196 1076
3 1160 57 945
3 448 1824 1260
3 1139 421 2040
3 360 1032 1476
3 710 662 1038
3 166 167 1532
3 461 951 1801
3 820 649 1041
3 1193 511 1467
3 480 567 1080
3 1158 668 1089
3 1273 1279 1384
3 338 1168 1788
3 337 1134 1099
3 97 98 1717
3 843 603 784
3 723 1115 1601
3 641 1226 918
3 355 1046 1053
3 1304 436 831
3 685 682 1128
3 1514 64 1321
3 1115 723 1242
3 152 1237 1153
3 1121 1025 527
3 464 1273 1384
3 984 933 1910
3 1333 443 2000
3 1165 347 1078
3 688 1121 1079
3 577 877 634
3 618 1121 527
3 738 673 976
3 421 703 1673
3 1172 208 1779
3 796 889 887
3 466 725 1637
3 525 324 1481
3 563 791 1679
3 700 1007 2042
3 739 314 845
3 412 725 1185
3 453 1373 565
3 200 201 910
3 680 503 1874
3 888 930 1118
3 930 856 1118
3 1032 360 1946
3 299 300 1807
3 298 299 1807
3 427 941 1386
3 1073 1025 2033
3 70 71 967
3 109 110 1316
3 469 738 976
3 336 1197 1857
3 685 359 1268
3 486 734 1754
3 613 833 1477
3 502 1135 1347
3 314 711 1699
3 1412 811 1591
3 526 525 1481
3 435 431 914
3 362 734 1095
3 1624 403 1299
3 79 80 900
3 700 546 1361
3 268 10 1483
3 202 203 759
3 1134 642 1803
3 1905 1505 1908
3 1312 1170 1285
3 672 424 524
3 56 1160 1827
3 319 1199 1795
3 1180 349 846
3 551 397 1736
3 552 1013 2036
3 1335 921 1405
3 417 628 1019
3 551 1125 1733
3 885 723 1596
3 170 1161 1586
3 749 1415 1453
3 325 354 1473
3 634 644 1664
3 116 117 1078
3 913 1629 1920
3 786 1123 1786
3 543 1233 949
3 740 486 1754
3 1161 171 1611
3 1142 376 1005
3 329 1542 999
3 1057 724 1732
3 1456 492 1315
3 88 726 1729
3 1323 278 2002
3 1035 523 909
3 576 958 1924
3 1250 453 565
3 734 486 1095
3 595 1624 1299
3 346 798 1682
3 1293 442 1685
3 695 72 1238
3 72 695 1027
3 642 1176 975
3 627 809 1955
3 1020 999 1252
3 861 514 1551
3 1792 534 2053
3 684 94 1583
3 949 353 2013
3 548 1293 1685
3 743 825 1480
3 192 193 1439
3 694 672 1775
3 754 1016 1660
3 1623 974 1984
3 571 444 1491
3 1211 348 954
3 274 16 1109
3 1276 1157 1463
3 440 789 1315
3 633 1135 1222
3 44 45 824
3 1323 332 994
3 93 684 582
3 517 1129 1292
3 274 1109 1574
3 87 88 1729
3 843 111 1901
3 12 273 1417
3 411 833 1534
3 1057 1732 979
3 311 706 1659
3 836 1629 821
3 795 571 1491
3 145 146 809
3 815 805 1638
3 328 815 1638
3 584 482 1842
3 311 866 1158
3 486 740 1420
3 165 1513 1718
3 1515 99 506
3 682 812 1734
3 762 1231 460
3 1459 522 1307
3 1129 1443 1292
3 704 583 1194
3 1198 419 1526
3 754 422 1852
3 538 981 1285
3 676 1276 1463
3 1011 1450 1747
3 119 1351 1223
3 792 452 1224
3 741 774 1610
3 1120 1507 1702
3 503 368 1429
3 497 970 1873
3 164 165 1718
3 99 100 506
3 838 1045 1893
3 461 1156 868
3 1387 355 2017
3 366 1211 954
3 1025 1073 1388
3 1013 552 1501
3 68 1778 1990
3 192 1439 1790
3 360 1865 2035
3 1157 1276 1256
3 277 19 1084
3 535 1335 1405
3 1226 405 1923
3 1461 754 1660
3 966 499 1255
3 742 966 1255
3 1114 450 2041
3 63 64 1514
3 1187 556 986
3 810 176 1166
3 1259 230 1278
3 1902 707 1740
3 763 788 813
3 1327 62 1833
3 792 1617 1665
3 1195 142 1695
3 1152 822 2025
3 749 1453 1066
3 1735 121 1871
3 609 1237 1799
3 619 352 1287
3 411 1191 849
3 503 1429 2019
3 563 1113 1925
3 1122 434 1460
3 422 1179 1852
3 708 843 784
3 871 812 1865
3 1274 661 1309
3 442 685 1128
3 1233 543 1054
3 1443 705 1292
3 547 861 1551
3 1085 1890 1620
3 986 461 1801
3 252 1116 1071
3 1459 429 1921
3 517 1180 962
3 1389 40 1875
3 462 1212 1983
3 822 842 1251
3 44 824 2066
3 1628 1142 1005
3 974 1529 1984
3 758 403 1624
3 690 438 1037
3 751 676 752
3 628 1511 1056
3 1067 471 1628
3 1157 361 1463
3 443 1195 1584
3 41 42 1276
3 1762 470 1884
3 798 544 1682
3 1163 782 1879
3 574 897 2005
3 1135 502 1423
3 1247 10 1104
3 176 177 1166
3 1007 413 2042
3 689 348 1491
3 804 457 953
3 1180 517 748
3 807 949 2013
3 375 978 1094
3 549 598 1413
3 775 430 1641
3 324 1088 1767
3 360 871 1865
3 1237 359 1799
3 451 597 1927
3 354 325 1698
3 602 859 1795
3 377 1505 1905
3 667 678 1745
3 492 313 1190
3 488 1448 1598
3 776 456 914
3 691 736 1283
3 1176 420 1703
3 479 683 1426
3 465 861 1937
3 1017 470 1762
3 250 251 1045
3 320 850 1518
3 877 577 1739
3 1226 1208 1913
3 1617 1026 1665
3 932 742 1785
3 1019 834 1804
3 324 1168 1088
3 1223 681 1618
3 914 709 1732
3 410 1305 1568
3 1511 408 1742
3 1235 574 2005
3 1783 1601 1137
3 1168 338 1364
3 759 203 1930
3 507 827 1723
3 1486 410 1568
3 664 1274 1309
3 514 861 1915
3 1114 636 1911
3 1088 429 1767
3 685 442 1909
3 859 319 1795
3 1145 364 2057
3 262 666 968
3 1609 271 1887
3 419 1198 891
3 37 38 1075
3 1185 508 1298
3 984 496 1543
3 1112 850 1342
3 364 1301 2057
3 1125 373 1733
3 794 710 1038
3 1276 751 1875
3 68 69 1778
3 1253 517 1292
3 76 1312 995
3 323 1050 1723
3 312 1305 1409
3 742 932 1700
3 987 1010 1917
3 1389 751 1002
3 1305 317 1409
3 843 708 1692
3 1168 324 1672
3 595 736 1889
3 666 263 873
3 682 685 1268
3 359 685 1799
3 622 540 1524
3 544 798 1008
3 613 1378 1578
3 8 269 804
3 1176 642 1750
3 814 1329 1898
3 1172 574 1235
3 270 1382 1302
3 574 763 1981
3 775 923 1652
3 1598 1448 1106
3 775 1641 1599
3 122 123 1385
3 763 337 1099
3 517 798 748
3 850 320 1144
3 923 1792 1652
3 932 610 1700
3 451 1389 1002
3 620 31 1785
3 988 462 1148
3 525 526 1823
3 738 900 1998
3 409 1024 1750
3 141 1195 1275
3 348 689 954
3 55 56 1827
3 401 1469 1127
3 1866 593 2015
3 1241 385 1271
3 353 1233 1464
3 1360 367 1155
3 1211 561 1922
3 345 431 1994
3 555 1511 1742
3 593 1329 2015
3 971 780 1997
3 583 704 1684
3 914 431 1952
3 409 878 1577
3 522 1406 1966
3 1353 189 1328
3 885 1596 771
3 325 336 1782
3 1353 875 1789
3 336 325 1752
3 683 912 1426
3 923 534 1792
3 1236 459 1776
3 331 1233 1054
3 594 1086 1102
3 103 1065 1192
3 690 475 1753
3 760 766 1344
3 438 690 1787
3 618 1353 1789
3 1156 986 2018
3 343 682 1722
3 17 274 771
3 77 78 1432
3 1191 523 1472
3 1022 1905 1908
3 1024 1176 1750
3 589 1402 481
3 788 763 1099
3 931 541 1105
3 347 1187 1801
3 1898 1329 1325
3 535 896 713
3 1491 348 1976
3 1060 492 639
3 1282 879 1496
3 827 323 1723
3 660 1277 1352
3 332 1164 1523
3 861 547 1616
3 1706 755 1520
3 1114 540 1014
3 977 809 1728
3 281 23 1917
3 204 205 643
3 1890 721 1620
3 592 761 1295
3 431 435 813
3 372 1149 952
3 469 525 1823
3 361 554 1463
3 1360 701 1896
3 778 543 1861
3 1065 104 884
3 1025 1121 2033
3 718 1237 919
3 751 1389 1875
3 1482 940 2047
3 773 619 1809
3 1238 729 1569
3 554 1544 1560
3 1415 485 1453
3 1896 701 1665
3 1272 745 1813
3 293 294 397
3 1231 315 460
3 25 941 1736
3 594 380 1112
3 1169 961 1570
3 1234 500 1399
3 791 47 1679
3 574 1172 1716
3 20 281 1444
3 669 1735 1871
3 662 710 1294
3 668 1158 1613
3 1358 997 1162
3 1211 366 1657
3 1195 443 1784
3 941 427 1478
3 787 355 801
3 278 1323 1931
3 887 674 1510
3 482 645 1842
3 370 1462 631
3 420 1176 1087
3 1521 729 1238
3 317 1031 1974
3 327 1214 1850
3 904 889 1258
3 305 306 1240
3 1109 865 1574
3 1164 694 1523
3 833 632 1534
3 396 538 1285
3 857 199 910
3 499 966 1171
3 484 592 1295
3 896 670 713
3 519 1450 1646
3 1197 336 1547
3 879 1644 1496
3 51 52 1358
3 324 525 1748
3 1121 688 2033
3 1786 1123 1797
3 763 574 1716
3 601 406 1334
3 702 447 1629
3 1529 974 1334
3 630 637 1571
3 1290 913 1858
3 581 931 1105
3 491 524 1667
3 212 1433 947
3 1194 1143 1863
3 580 643 1057
3 1213 708 784
3 1351 681 1223
3 370 631 1991
3 774 1494 1610
3 624 1250 1775
3 416 1112 1342
3 776 914 1952
3 1279 467 1676
3 524 1336 1667
3 1079 1018 1563
3 230 1259 1873
3 1250 950 1885
3 1503 720 1753
3 1077 503 2019
3 337 763 1716
3 226 867 1686
3 1135 633 1347
3 722 797 1838
3 643 724 1057
3 974 817 1334
3 400 1746 1914
3 56 57 1160
3 1045 838 1841
3 966 742 1700
3 1237 152 919
3 415 1592 1848
3 1877 539 1956
3 1045 471 1893
3 1382 655 1302
3 126 127 1541
3 497 1259 899
3 210 211 915
3 482 584 1989
3 897 724 1844
3 723 885 1242
3 624 672 1354
3 111 843 1692
3 1113 1000 1925
3 30 620 1796
3 1544 369 1560
3 406 1529 1334
3 1293 548 1878
3 710 794 1600
3 340 1303 1103
3 314 1699 1826
3 111 112 1901
3 733 928 883
3 861 465 2038
3 295 26 570
3 543 949 1861
3 585 1194 1863
3 1214 623 1850
3 395 672 524
3 366 954 1015
3 812 405 1734
3 278 20 1607
3 650 668 1613
3 772 760 1344
3 785 696 1544
3 629 560 1744
3 1180 236 962
3 598 345 1413
3 542 1272 1813
3 796 887 1510
3 598 362 1926
3 1608 378 1681
3 190 191 1169
3 875 1169 1570
3 334 1396 1526
3 1336 424 2003
3 560 629 1335
3 380 22 1210
3 1237 609 1153
3 423 1698 1782
3 1429 654 2019
3 541 1786 1797
3 53 54 1625
3 793 1656 1859
3 1032 618 1789
3 858 1297 1205
3 660 1092 1277
3 275 777 1512
3 734 510 1754
3 1839 389 1480
3 1026 1896 1665
3 1116 735 1071
3 452 1023 1593
3 872 358 1222
3 477 1507 1120
3 1574 670 771
3 1062 168 1761
3 1746 606 1914
3 540 1114 2041
3 689 444 1631
3 635 1247 357
3 424 832 2003
3 1023 321 1593
3 1050 518 1723
3 798 346 748
3 96 1270 1151
3 666 499 1535
3 543 662 1054
3 1022 1132 1938
3 585 689 1631
3 794 880 1840
3 1050 675 1543
3 535 560 1335
3 759 342 1615
3 655 1234 1399
3 539 828 1956
3 551 941 1478
3 453 1250 1666
3 349 1180 748
3 845 314 1826
3 610 932 1264
3 511 898 1648
3 734 362 1650
3 1127 1469 1663
3 603 843 1901
3 673 1241 357
3 1241 635 357
3 594 1112 2034
3 1060 440 1315
3 728 864 1303
3 498 616 1608
3 746 1312 1546
3 364 860 1124
3 580 759 1930
3 1062 351 1653
3 264 1225 873
3 928 376 883
3 600 678 1661
3 872 563 1925
3 302 1482 2047
3 1439 961 1790
3 427 837 1144
3 926 459 1492
3 1843 1190 1562
3 502 785 935
3 735 1142 1978
3 823 1270 1649
3 1076 196 1564
3 531 1035 1343
3 109 1316 614
3 1206 762 1380
3 413 1007 2023
3 45 46 1572
3 449 1136 1347
3 877 311 1659
3 1692 708 1763
3 173 318 998
3 830 1705 2048
3 804 953 1899
3 560 376 1744
3 161 1297 1886
3 222 1425 1694
3 918 1226 1675
3 1366 1241 1918
3 852 827 826
3 1125 551 1478
3 668 650 1086
3 805 815 1186
3 304 1290 1858
3 684 1757 1330
3 49 50 1000
3 986 556 2018
3 933 1160 945
3 1154 576 2004
3 1698 325 1782
3 868 317 1974
3 1000 591 1925
3 1155 367 2062
3 723 1601 1783
3 75 76 995
3 847 91 1802
3 660 1783 1137
3 761 592 1502
3 1865 965 2035
3 941 1664 1386
3 1097 632 1183
3 1453 398 1066
3 549 546 1655
3 1273 371 1566
3 1088 1168 1881
3 1233 331 948
3 351 1062 1761
3 678 667 1661
3 70 967 1565
3 985 1161 1090
3 1142 471 1978
3 1035 531 1472
3 1270 823 1151
3 331 1244 1216
3 432 1007 1475
3 1538 788 1585
3 86 1319 1756
3 724 643 1844
3 1240 306 1929
3 586 769 1627
3 447 702 1372
3 992 906 1869
3 202 759 1615
3 525 469 1043
3 1074 180 1048
3 509 1263 1805
3 523 1035 1472
3 842 467 1251
3 1593 516 1740
3 1004 365 1567
3 778 487 1488
3 1705 630 2048
3 407 318 1227
3 1529 406 1835
3 151 152 1153
3 811 1412 1780
3 807 1267 1861
3 1244 1294 1587
3 1197 1658 1941
3 536 1627 1708
3 1757 490 1330
3 639 519 1646
3 805 1622 1647
3 1319 316 1101
3 571 556 1710
3 423 927 895
3 1622 609 1647
3 190 1169 1328
3 402 889 1403
3 1512 777 2022
3 630 1332 1411
3 1316 757 614
3 12 482 1382
3 1687 1096 1916
3 649 820 1381
3 637 630 1705
3 58 59 1450
3 645 1417 1517
3 1444 281 1010
3 182 183 1189
3 847 579 1674
3 802 674 1552
3 1060 639 1646
3 560 535 1831
3 314 1130 1077
3 898 472 1171
3 485 1415 1107
3 839 549 1413
3 477 758 1624
3 233 802 1552
3 297 298 693
3 300 301 1497
3 393 985 1090
3 1474 470 1017
3 290 1332 1436
3 819 423 1435
3 1196 133 2053
3 1101 494 1713
3 27 1706 1520
3 485 882 1131
3 620 1785 1255
3 946 709 456
3 1297 858 1837
3 1007 939 2023
3 265 28 1225
3 230 231 1278
3 882 507 1933
3 398 1097 1183
3 204 643 1930
3 233 234 802
3 1263 338 1764
3 1130 371 1077
3 1085 1468 2006
3 318 407 998
3 689 585 1589
3 1084 19 1773
3 403 758 1689
3 626 380 1210
3 1035 285 1343
3 1316 1692 1763
3 343 1039 1028
3 721 731 611
3 770 1088 1881
3 824 45 1572
3 893 1563 1867
3 946 1420 1350
3 530 855 1798
3 1158 622 1613
3 28 29 1225
3 994 332 1557
3 308 27 760
3 1254 435 1732
3 1267 465 1861
3 1596 723 1783
3 941 25 1664
3 999 392 1812
3 850 1112 1979
3 444 689 1491
3 841 611 1759
3 652 1267 1751
3 434 597 1002
3 686 955 1768
3 638 626 608
3 388 896 1405
3 731 489 611
3 1838 797 2004
3 145 809 1579
3 496 1050 1543
3 519 984 1910
3 1297 161 1205
3 579 847 1802
3 199 857 1519
3 1337 276 1249
3 1425 491 1694
3 1483 635 2058
3 847 316 1207
3 867 227 1421
3 885 670 1816
3 386 1542 1846
3 28 265 0
3 489 638 608
3 400 808 1576
3 592 484 1173
3 1701 410 2028
3 528 1387 2017
3 1109 16 1300
3 809 146 1728
3 264 265 1225
3 113 114 1462
3 1277 445 1352
3 1433 651 947
3 1577 878 1575
3 467 1279 1566
3 951 461 840
3 360 1476 1944
3 379 1474 1017
3 856 857 1670
3 238 239 1443
3 1312 76 1546
3 1067 1628 2027
3 570 577 1948
3 1432 78 1440
3 766 760 1520
3 772 1464 948
3 208 209 1779
3 763 813 1981
3 397 294 1736
3 889 761 1403
3 1265 720 1639
3 1730 194 1009
3 61 1327 1677
3 1139 1003 960
3 1476 1032 1928
3 1460 434 1341
3 189 190 1328
3 342 759 1720
3 543 778 1488
3 438 558 1637
3 1006 1512 2022
3 639 730 984
3 857 856 1519
3 1084 712 828
3 1121 1178 1961
3 488 1476 1928
3 711 1077 2019
3 154 155 600
3 896 535 1405
3 406 601 925
3 332 1323 1452
3 514 1505 1551
3 924 511 1193
3 1272 542 1884
3 397 551 1709
3 1596 17 771
3 1401 557 1806
3 291 835 1856
3 1563 1018 2016
3 959 1598 1106
3 539 1084 828
3 989 383 1892
3 365 1004 1365
3 625 918 1675
3 1126 449 1891
3 1149 404 952
3 1316 110 1692
3 355 1387 753
3 811 1642 1714
3 434 1122 1671
3 670 885 771
3 1213 545 1576
3 993 1417 922
3 862 854 1416
3 832 424 1602
3 1015 954 1589
3 577 634 1948
3 410 1051 2028
3 784 603 1749
3 476 980 972
3 869 1074 886
3 616 498 1718
3 864 728 506
3 398 1453 1781
3 744 1373 1173
3 698 1064 1820
3 520 566 1058
3 1304 553 2003
3 1068 1058 1846
3 387 686 1720
3 862 864 1760
3 1529 1835 1940
3 741 338 1788
3 370 840 1393
3 769 586 1166
3 791 829 1572
3 774 741 1788
3 870 1366 1919
3 1012 341 1597
3 478 1758 1617
3 596 1642 1780
3 518 816 1723
3 946 486 1420
3 960 1003 1381
3 1074 869 1218
3 1012 419 891
3 1037 438 1637
3 378 1608 1653
3 825 743 1296
3 982 629 1116
3 834 383 1804
3 565 1373 1523
3 382 834 1056
3 392 999 1383
3 1130 739 1251
3 25 634 1664
3 1190 766 1562
3 312 1409 1707
3 975 1176 1703
3 653 1012 1597
3 1594 1147 1721
3 827 356 826
3 1103 862 1416
3 533 1240 1929
3 978 799 1506
3 457 1065 1860
3 1084 539 1368
3 1303 340 1649
3 1293 328 1638
3 743 964 1044
3 960 820 1724
3 793 1117 1656
3 1824 1119 1260
3 302 303 1482
3 1332 480 1436
3 1168 1672 1788
3 611 489 1759
3 832 1304 2003
3 837 644 1791
3 1658 326 1941
3 816 507 1723
3 498 858 1376
3 1097 677 1962
3 1373 332 1523
3 840 663 1393
3 757 1316 1763
3 1541 127 2014
3 10 267 1104
3 207 208 1235
3 1642 811 1780
3 756 700 2042
3 688 1073 2033
3 1401 579 1330
3 1656 466 1859
3 1409 455 1707
3 1065 457 854
3 1353 618 527
3 820 960 1381
3 195 1076 1009
3 589 1514 1321
3 439 734 1650
3 1074 645 886
3 1034 550 1183
3 316 1319 1729
3 389 964 1480
3 467 842 1676
3 407 855 1090
3 9 266 1317
3 158 159 1110
3 1231 756 2042
3 1430 772 948
3 250 1045 1841
3 819 415 1848
3 1366 870 1836
3 783 719 1287
3 189 1353 1828
3 823 1412 1757
3 696 1120 1702
3 1144 837 1342
3 649 351 985
3 521 1327 1833
3 990 745 1977
3 490 1401 1330
3 1079 1121 1961
3 1231 2042 1288
3 786 931 1632
3 1145 1211 1922
3 566 912 1738
3 1385 123 1397
3 1816 515 1242
3 1024 987 1087
3 1344 353 1464
3 741 9 1317
3 855 393 1090
3 1031 317 1701
3 338 741 1339
3 272 1139 960
3 8 804 1899
3 851 637 1705
3 1039 343 1722
3 869 769 1081
3 1882 830 1960
3 519 639 984
3 37 1075 1236
3 610 1264 1261
3 1324 588 1522
3 397 657 1815
3 682 1734 2021
3 1681 1003 1837
3 1412 490 1757
3 221 222 1694
3 683 479 1771
3 219 220 1177
3 996 617 1806
3 393 649 985
3 415 819 1435
3 783 383 1484
3 232 233 1552
3 1116 629 1982
3 931 786 1786
3 1417 273 922
3 422 990 1179
3 861 1616 1937
3 1483 617 996
3 1254 574 1981
3 467 1130 1251
3 19 276 1337
3 634 25 1948
3 1541 702 1629
3 672 395 1354
3 417 1019 1531
3 1811 669 1243
3 1505 575 1551
3 866 1739 1995
3 632 1034 1183
3 503 1077 1874
3 1049 1004 1567
3 885 1816 1242
3 379 1882 1960
3 285 1035 1248
3 1373 453 2001
3 439 419 1465
3 132 133 1196
3 601 1334 1690
3 286 287 1485
3 345 1538 1645
3 827 507 1854
3 13 1379 1441
3 215 216 1030
3 643 580 1930
3 1528 786 1433
3 1432 746 1546
3 635 1366 1836
3 1327 521 658
3 143 144 936
3 557 996 1806
3 932 33 1264
3 418 1240 1612
3 1469 559 1689
3 199 200 910
3 671 819 1848
3 1613 420 2054
3 1319 870 1756
3 529 1122 1249
3 827 852 1855
3 1042 1293 1878
3 719 1561 1287
3 334 1526 1246
3 638 330 1518
3 294 25 1736
3 541 931 1786
3 570 26 1182
3 500 1234 1867
3 927 423 1782
3 1068 1853 1626
3 1351 120 1735
3 1028 1039 1603
3 1785 742 1255
3 14 271 1609
3 1086 280 1102
3 1100 1110 1281
3 330 988 1906
3 889 796 1258
3 785 361 1997
3 1131 1133 1972
3 1122 529 1671
3 876 918 1431
3 830 657 1960
3 1143 1194 1391
3 993 922 1798
3 49 1000 2051
3 73 74 1521
3 430 775 1346
3 255 256 1052
3 610 1092 1700
3 1041 530 1724
3 578 1609 1887
3 311 877 1739
3 964 537 1044
3 1538 636 1645
3 641 918 1640
3 242 243 765
3 1538 1585 1911
3 918 876 1640
3 637 851 1559
3 419 1012 1465
3 789 1456 1315
3 809 627 1731
3 799 978 1809
3 317 868 1409
3 1563 893 1093
3 1225 599 873
3 1280 323 1855
3 206 897 1844
3 1332 290 1856
3 1006 938 1083
3 922 530 1798
3 853 1593 1740
3 1837 1003 2040
3 644 877 1659
3 352 1019 1804
3 710 1600 1587
3 454 597 938
3 1764 818 1986
3 1584 711 2000
3 964 389 1159
3 939 570 2023
3 1008 1253 2008
3 978 375 1809
3 437 1213 784
3 186 187 1073
3 571 795 1825
3 866 311 1739
3 792 1224 1670
3 550 1034 801
3 688 1079 1563
3 1268 359 1548
3 1627 536 1227
3 246 978 1506
3 1044 335 1862
3 936 144 1579
3 383 621 1892
3 1706 518 1680
3 1501 552 1995
3 1585 1134 1803
3 1269 779 1567
3 494 1101 1674
3 1794 714 2029
3 920 26 1245
3 1880 818 1936
3 980 715 849
3 1314 590 414
3 755 1706 1680
3 650 1613 2054
3 1579 809 1731
3 832 569 1765
3 1781 1133 1800
3 84 1366 1918
3 22 380 1102
3 946 387 979
3 686 1768 1774
3 1355 355 1053
3 761 904 1295
3 39 40 1389
3 483 988 1530
3 268 1483 996
3 745 990 1813
3 1085 1662 1890
3 539 1771 1368
3 782 719 1484
3 1781 1453 1972
3 182 1189 2049
3 323 1280 881
3 691 1122 1460
3 912 683 1619
3 1250 565 1775
3 288 289 1338
3 436 1765 1419
3 590 1314 2010
3 387 1720 2050
3 423 819 1698
3 1329 814 1466
3 408 1511 1500
3 875 1353 1328
3 1778 906 1990
3 1076 1564 2039
3 1444 495 1607
3 581 1444 1010
3 13 270 1311
3 752 1965 1341
3 1862 335 1422
3 988 330 1530
3 805 1647 1638
3 495 1444 1900
3 686 342 1720
3 450 1585 1803
3 379 764 1527
3 385 738 1998
3 709 946 979
3 928 733 2061
3 836 1175 1968
3 440 1327 658
3 942 915 1934
3 514 1915 1533
3 1686 867 1354
3 1123 1528 1320
3 526 1432 1440
3 9 741 1610
3 1379 779 1441
3 818 1746 1986
3 412 1351 1257
3 1092 610 1277
3 1356 714 1794
3 563 872 1222
3 284 909 943
3 1366 84 1919
3 1132 514 1533
3 1072 1078 394
3 180 1074 1218
3 323 827 1855
3 597 529 938
3 557 1591 1714
3 701 1360 1155
3 356 1854 2010
3 601 969 925
3 537 964 1159
3 772 1430 1108
3 35 36 1776
3 332 1373 1557
3 148 815 1036
3 293 397 1815
3 915 426 1934
3 1327 440 1434
3 1594 705 1147
3 1107 1415 1540
3 1468 504 2006
3 569 832 1602
3 1437 602 1509
3 1177 220 1442
3 512 343 1954
3 197 198 930
3 905 1197 1941
3 1571 637 1947
3 931 581 1370
3 317 1305 1701
3 1653 1608 1536
3 1481 324 1767
3 1379 406 925
3 340 1103 1780
3 1297 1837 2037
3 1538 345 1994
3 677 1781 1800
3 1210 505 608
3 1234 732 1867
3 958 1880 1936
3 495 1573 1992
3 961 1448 1570
3 363 1008 2008
3 969 779 925
3 1317 266 1936
3 1780 1412 1635
3 1406 312 1707
3 779 969 1567
3 238 1443 1418
3 760 27 1520
3 1004 727 1365
3 1222 358 1891
3 270 12 1382
3 106 797 1508
3 670 1574 713
3 1681 378 1381
3 215 1030 1320
3 201 202 1615
3 1139 272 1504
3 904 587 1295
3 1402 589 1590
3 1303 1649 1712
3 20 1444 1607
3 897 206 2005
3 410 1322 1051
3 1430 533 1108
3 765 243 1916
3 1574 865 713
3 1103 596 1780
3 383 989 1484
3 445 1277 908
3 1419 495 1992
3 649 1381 1912
3 1696 942 1934
3 1291 334 1246
3 507 882 1854
3 749 1355 2026
3 545 1213 1770
3 295 570 1948
3 841 587 611
3 473 1132 1533
3 1240 533 1612
3 1194 583 1391
3 898 425 1648
3 1003 1681 1381
3 446 1437 1509
3 1210 22 1230
3 644 1659 1791
3 1415 358 1540
3 1798 855 1894
3 1373 744 1557
3 1131 882 1933
3 865 1109 1414
3 1758 1150 1617
3 471 1142 1628
3 997 1358 826
3 1322 509 1051
3 1829 313 2013
3 917 1730 1009
3 981 538 1697
3 1075 38 1849
3 967 71 1027
3 795 1491 1976
3 485 1131 1972
3 687 1477 1870
3 406 1379 1835
3 797 106 1359
3 1494 774 1043
3 779 1379 925
3 1240 418 1818
3 424 672 1455
3 759 580 1720
3 626 1210 608
3 229 970 1146
3 1075 454 1492
3 1825 795 1395
3 657 397 1709
3 611 587 844
3 888 1118 1704
3 1147 605 1721
3 1112 626 1979
3 1127 806 1383
3 454 926 1492
3 23 280 1086
3 1311 270 1302
3 504 905 2006
3 376 928 1005
3 1600 604 1587
3 731 1890 1530
3 819 671 1832
3 672 694 1455
3 953 1055 1899
3 956 1479 1496
3 1159 715 1959
3 1068 1479 1853
3 1358 852 826
3 1392 473 1533
3 69 70 1565
3 631 1072 1991
3 659 1380 460
3 1593 853 1174
3 452 1593 1174
3 33 34 1264
3 1485 531 1343
3 1631 704 1194
3 1045 251 1071
3 903 1232 1266
3 938 529 1083
3 534 1196 2053
3 1563 500 1867
3 180 181 1048
3 1854 882 2010
3 309 24 816
3 595 1507 1624
3 674 887 1498
3 1006 926 938
3 25 295 1948
3 47 48 1679
3 1511 555 1056
3 1376 163 1711
3 923 775 1599
3 425 898 2011
3 845 894 1731
3 1148 462 1553
3 531 1485 972
3 62 63 1833
3 351 649 1912
3 1189 1091 2049
3 471 1067 1893
3 1742 408 1141
3 1296 743 1862
3 58 1450 945
3 1412 823 1635
3 472 898 1371
3 950 970 1885
3 990 648 1219
3 882 485 1107
3 236 237 962
3 1672 324 1748
3 1402 473 481
3 1474 379 1527
3 1741 836 1968
3 920 1231 1288
3 228 229 1146
3 1329 593 1325
3 1267 807 1751
3 1059 279 1217
3 1699 711 1584
3 578 863 1495
3 973 1923 1944
3 476 1080 1903
3 645 1074 1999
3 894 936 1579
3 210 915 2009
3 1213 437 1770
3 139 1214 1331
3 102 103 1192
3 280 22 1102
3 1896 310 1643
3 1252 566 2020
3 927 1857 1987
3 752 676 1965
3 1056 555 1626
3 1409 868 1851
3 1214 139 1693
3 876 1431 1555
3 516 1593 1522
3 1694 491 1667
3 1379 13 1311
3 984 730 1964
3 855 407 1894
3 1159 389 1410
3 1396 334 1556
3 721 611 844
3 334 756 1556
3 1485 892 972
3 1387 477 753
3 81 82 385
3 631 115 1605
3 140 141 1275
3 1857 384 1987
3 970 497 1885
3 77 1432 1546
3 579 1401 2059
3 1439 193 1730
3 659 460 1203
3 1450 59 1747
3 1401 1806 2059
3 1576 545 1614
3 253 254 982
3 178 1081 1493
3 1475 1007 1361
3 471 1045 1978
3 768 1177 1442
3 94 95 1583
3 921 1052 1405
3 432 1501 1021
3 980 531 972
3 1488 487 957
3 169 170 1586
3 122 1385 1871
3 1479 333 1496
3 802 234 846
3 26 920 1182
3 898 511 1371
3 905 1061 2006
3 733 1109 1300
3 908 1277 1261
3 1769 1096 1063
3 289 290 1436
3 1853 382 1626
3 307 308 1313
3 896 388 1390
3 1161 1611 1090
3 781 336 1752
3 542 1457 1762
3 22 279 1230
3 333 1542 937
3 1817 1159 1959
3 410 1486 1322
3 395 1686 1354
3 600 155 1558
3 1000 1113 2051
3 137 138 716
3 808 757 1763
3 1396 327 1200
3 797 722 1508
3 154 600 1394
3 1778 69 1565
3 65 1437 1321
3 399 1565 1883
3 1627 1227 1651
3 1306 224 1471
3 737 958 1936
3 421 1673 2037
3 1565 967 1883
3 1443 1129 1418
3 582 684 1330
3 1486 770 1322
3 275 17 1596
3 1437 446 1590
3 1564 888 2039
3 1304 767 2030
3 589 1437 1590
3 266 737 1936
3 26 296 1245
3 1160 933 1543
3 731 721 1890
3 1030 1123 1320
3 128 129 1138
3 486 946 456
3 1837 421 2037
3 1410 687 1870
3 712 1084 1773
3 36 37 1236
3 162 163 1376
3 1380 762 460
3 892 1485 1537
3 887 1201 1498
3 376 1142 1744
3 632 1097 1604
3 315 920 1184
3 1033 838 952
3 29 30 1796
3 1586 1161 985
3 1448 488 1570
3 1507 477 1624
3 799 1687 1506
3 171 172 1611
3 999 386 1252
3 110 111 1692
3 1438 426 1487
3 715 1159 1410
3 522 1459 1921
3 422 825 1296
3 79 900 1440
3 395 1306 1471
3 1078 347 394
3 1385 1397 1400
3 674 802 1830
3 918 625 1431
3 466 558 1684
3 1108 307 1313
3 1724 530 1549
3 1345 848 1769
3 894 1579 1731
3 1058 386 1846
3 1713 494 1806
3 675 1050 881
3 326 1212 391
3 953 722 1838
3 680 1967 2062
3 1142 735 1982
3 729 538 1124
3 92 93 582
3 272 14 1504
3 1376 858 1205
3 1444 1105 1900
3 665 1154 2004
3 928 390 1876
3 510 439 1465
3 695 1238 1569
3 381 1488 957
3 1334 817 1690
3 380 626 1112
3 364 1124 1966
3 349 802 846
3 1212 1209 391
3 433 1769 1063
3 924 260 907
3 454 1075 1927
3 441 1623 1984
3 684 1583 1757
3 1164 332 1452
3 366 992 1869
3 845 1731 2065
3 441 1079 1961
3 538 874 1124
3 836 1541 1629
3 325 1473 1752
3 617 1713 1806
3 859 67 1990
3 1040 1776 908
3 813 435 1981
3 1457 851 1762
3 1542 329 937
3 1109 733 1414
3 283 284 943
3 63 1514 1833
3 104 105 884
3 1344 766 1829
3 1020 1127 1383
3 597 454 1927
3 539 683 1771
3 1095 486 456
3 1629 447 1920
3 675 1160 1543
3 536 1708 1798
3 816 518 1706
3 1501 1001 1021
3 158 1110 1895
3 2042 413 1288
3 305 1240 1290
3 23 1086 1917
3 1639 487 2012
3 1096 765 1916
3 248 249 1033
3 716 659 1203
3 1112 416 2034
3 779 1269 1887
3 85 86 1756
3 1776 459 908
3 227 228 1421
3 1160 675 1827
3 390 928 2061
3 1444 581 1105
3 638 489 1970
3 433 1345 1769
3 1110 159 1281
3 178 179 1081
3 348 1145 2057
3 194 195 1009
3 871 360 1944
3 279 1059 1230
3 1486 522 1921
3 1662 1085 2006
3 609 1622 1153
3 500 1563 2016
3 1300 16 1971
3 1189 183 1834
3 930 198 1519
3 879 825 1262
3 936 894 1826
3 362 1095 1926
3 1758 478 1581
3 1023 792 1665
3 1817 476 1903
3 1078 1072 1605
3 1708 993 1798
3 1485 287 1537
3 803 936 1826
3 567 1571 1947
3 1016 754 1852
3 339 904 1258
3 487 1616 2012
3 277 1084 1368
3 785 502 1427
3 1782 336 1857
3 320 1125 1144
3 973 1476 1367
3 1787 690 1753
3 702 1541 2014
3 416 837 1791
3 926 454 938
3 1420 955 1350
3 1086 650 1917
3 341 1012 891
3 701 1023 1665
3 1300 991 1993
3 534 923 1725
3 636 1114 2036
3 616 1513 1532
3 1739 1001 1995
3 1713 617 1836
3 605 1545 1592
3 1306 395 1668
3 1462 114 631
3 1443 239 1374
3 428 1291 1246
3 724 1254 1732
3 746 1432 983
3 1515 728 1717
3 493 1047 1599
3 863 474 1495
3 43 44 2066
3 1055 953 1838
3 1064 698 1289
3 1274 458 1325
3 545 1805 1614
3 160 161 1886
3 825 422 1262
3 1133 1131 1447
3 688 1563 1093
3 1031 663 1974
3 626 638 1979
3 498 1376 1711
3 693 2024 1755
3 949 807 1861
3 756 762 1556
3 1393 663 1428
3 856 930 1519
3 1050 496 1680
3 815 328 1766
3 1073 187 1388
3 1301 572 2057
3 575 1505 1907
3 879 754 1461
3 316 726 1207
3 623 1214 1693
3 437 1393 1428
3 285 286 1343
3 114 115 631
3 1164 424 1455
3 1505 377 1907
3 271 13 1441
3 460 315 1203
3 808 400 1914
3 1003 1139 2040
3 1072 631 1605
3 353 1344 1829
3 186 1073 1932
3 426 878 1487
3 1081 769 1493
3 1641 493 1599
3 1208 641 1845
3 1050 323 881
3 255 1052 1458
3 670 896 1816
3 1469 528 1663
3 1059 505 1230
3 1476 973 1944
3 696 785 1427
3 810 586 1726
3 558 438 1525
3 591 1314 414
3 976 647 1945
3 859 602 1188
3 1349 1497 2047
3 968 666 1535
3 1117 508 1656
3 751 752 1002
3 694 1164 1455
3 252 253 1116
3 714 558 1525
3 1437 65 1904
3 2024 607 1755
3 765 1096 1769
3 783 352 1804
3 900 526 1440
3 321 1023 640
3 829 1135 1423
3 257 1064 1489
3 1177 768 1897
3 404 1033 952
3 971 43 2066
3 442 1128 1685
3 502 1136 1427
3 935 785 1997
3 1611 407 1090
3 351 1586 985
3 1000 50 1162
3 251 252 1071
3 557 1714 1326
3 915 942 2009
3 322 1028 1603
3 121 122 1871
3 1128 929 1685
3 458 1898 1325
3 1023 701 640
3 643 205 1844
3 1457 542 1219
3 602 1437 1904
3 657 764 1960
3 915 211 947
3 529 1249 1083
3 1542 386 999
3 1047 923 1599
3 1079 441 1984
3 703 1139 1504
3 776 1095 456
3 487 778 1937
3 553 1177 1897
3 715 980 1959
3 746 1481 1767
3 648 1457 1219
3 1214 1206 1331
3 593 1274 1325
3 828 712 1299
3 472 924 907
3 1940 468 2016
3 848 765 1769
3 496 984 1964
3 1682 903 1266
3 147 148 1036
3 1682 544 934
3 903 1682 934
3 326 1658 1228
3 353 1829 2013
3 579 582 1330
3 1583 823 1757
3 1125 427 1144
3 224 1306 1872
3 992 366 1996
3 279 21 1217
3 1280 1827 881
3 1425 223 1872
3 921 982 1458
3 1123 1030 1797
3 1432 526 983
3 782 989 1660
3 940 1349 2047
3 95 96 1151
3 101 1760 1719
3 1670 857 1581
3 168 169 1761
3 475 1503 1753
3 905 504 1554
3 108 109 614
3 702 1138 1372
3 1052 921 1458
3 961 1439 1621
3 1114 552 2036
3 1012 653 1727
3 993 1708 886
3 101 102 1760
3 2039 463 1868
3 213 214 1528
3 428 439 1650
3 384 905 1554
3 679 736 1460
3 570 1182 2023
3 930 888 1564
3 1128 682 2021
3 1441 779 1887
3 126 1541 1741
3 642 878 1750
3 197 930 1564
3 534 661 1808
3 1771 479 1993
3 1164 569 1602
3 760 772 1313
3 382 1056 1626
3 1513 616 1718
3 728 1515 506
3 1029 863 1365
3 1018 1079 1984
3 319 992 1490
3 802 349 1830
3 642 975 1803
3 172 173 998
3 309 816 1706
3 837 416 1342
3 764 657 1709
3 354 1163 1879
3 390 1606 1446
3 140 1275 1693
3 462 1474 1553
3 91 92 1802
3 445 926 2022
3 330 638 1970
3 1890 483 1530
3 491 1306 1668
3 1756 870 1919
3 1472 531 2046
3 426 1438 1934
3 869 1081 1218
3 72 73 1238
3 764 379 1960
3 1594 415 1435
3 1314 356 2010
3 447 1482 1920
3 1190 313 1829
3 112 113 1588
3 1058 566 1252
3 212 213 1433
3 1827 675 881
3 1417 993 1517
3 76 77 1546
3 480 1338 1436
3 727 1449 1365
3 683 539 1877
3 143 936 1695
3 60 61 1677
3 403 828 1299
3 256 257 1489
3 1075 1849 1927
3 736 691 1460
3 989 573 1660
3 152 153 919
3 801 1034 1953
3 842 1082 1445
3 1380 4 1331
3 383 783 1804
3 1124 860 1569
3 980 476 1959
3 726 316 1729
3 936 803 1695
3 693 493 2024
3 1437 589 1321
3 352 783 1287
3 1052 388 1405
3 74 75 1654
3 244 245 1687
3 225 226 1686
3 443 1584 2000
3 1545 848 1592
3 944 1839 1480
3 458 1497 1349
3 863 365 1365
3 1631 444 1942
3 526 900 1823
3 120 121 1735
3 729 1124 1569
3 704 1631 1942
3 241 1545 1975
3 1606 479 1446
3 838 1033 1841
3 188 189 1828
3 926 1006 2022
3 586 810 1166
3 350 1594 1435
3 1577 786 1632
3 374 1042 1878
3 1449 1029 1365
3 988 1148 1906
3 1791 706 2034
3 1183 550 1066
3 184 1111 1834
3 375 773 1809
3 556 571 2018
3 754 879 1262
3 569 1164 1452
3 184 185 1111
3 1840 125 2032
3 1294 710 1587
3 71 72 1027
3 261 262 968
3 1511 628 1500
3 67 859 1188
3 198 199 1519
3 136 137 1346
3 531 980 2046
3 1431 448 1555
3 1700 1092 1819
3 142 143 1695
3 909 523 1962
3 408 1318 1141
3 909 284 1248
3 1836 617 2058
3 211 212 947
3 1604 1097 1962
3 193 194 1730
3 1705 830 1882
3 772 1344 1464
3 124 125 1840
3 656 1448 1621
3 444 571 1710
3 430 716 1203
3 129 130 1466
3 105 106 1508
3 1448 961 1621
3 1448 656 1106
3 388 1064 1289
3 585 1631 1194
3 373 1148 1553
3 1397 880 1400
3 259 1193 1820
3 356 827 1854
3 402 899 1636
3 422 754 1262
3 4 139 1331
3 455 1825 1395
3 1176 1024 1087
3 1586 351 1761
3 380 594 1102
3 1111 893 1867
3 686 387 1350
3 1354 867 1229
3 282 283 1800
3 823 1583 1151
3 1077 371 1874
3 452 1118 1224
3 156 157 1449
3 1544 696 1702
3 286 1485 1343
3 465 778 1861
3 955 686 1350
3 1965 679 1341
3 523 1604 1962
3 136 1346 1652
3 518 1050 1680
3 336 781 1547
3 81 385 1998
3 617 1483 2058
3 67 68 1990
3 392 1378 902
3 218 219 1140
3 385 82 1271
3 1136 502 1347
3 1118 856 1224
3 1704 1118 1174
3 424 1164 1602
3 677 909 1962
3 878 426 1575
3 733 883 1414
3 755 1964 1562
3 205 206 1844
3 1217 744 2063
3 522 1486 1568
3 526 1481 983
3 468 1399 2016
3 396 1459 1307
3 253 982 1116
3 1473 1016 1852
3 851 1017 1762
3 982 254 1458
3 735 1116 1982
3 1179 990 1977
3 64 65 1321
3 927 1782 1857
3 1340 374 1878
3 732 1111 1867
3 217 218 2007
3 1124 874 1966
3 564 1742 1141
3 1466 130 2015
3 304 305 1290
3 661 534 1725
3 778 465 1937
3 1314 997 826
3 1479 956 1853
3 647 976 1988
3 508 1470 1298
3 848 1545 1935
3 1338 289 1436
3 1573 532 1992
3 1206 1380 1331
3 1173 1373 2001
3 290 291 1856
3 1264 1040 1261
3 1345 433 901
3 106 107 1359
3 624 1354 1229
3 388 1052 1489
3 1310 528 2017
3 1192 1065 854
3 1545 241 1935
3 511 924 1371
3 1033 249 1841
3 426 915 1408
3 705 1594 800
3 219 1177 1140
3 1462 370 1363
3 951 840 1991
3 1591 811 1714
3 840 370 1991
3 398 1183 1066
3 1849 451 1927
3 260 261 907
3 362 549 1655
3 603 1462 1363
3 224 225 1471
3 906 859 1990
3 924 472 1371
3 1232 796 1266
3 425 1601 1648
3 1518 330 1906
3 78 79 1440
3 1470 1165 1618
3 970 229 1873
3 1059 1217 2063
3 1285 981 995
3 898 1171 2011
3 1007 700 1361
3 1312 1285 995
3 139 140 1693
3 562 1473 1852
3 1481 746 983
3 565 694 1775
3 1338 892 1537
3 1201 402 1636
3 820 1041 1724
3 662 1294 1054
3 1192 862 1760
3 387 946 1350
3 1559 335 1947
3 245 246 1506
3 123 124 1397
3 1503 475 1400
3 407 1611 998
3 880 1503 1400
3 1633 767 831
3 532 1573 1797
3 476 972 1715
3 240 241 1975
3 766 1190 1829
3 27 309 1706
3 1318 408 1407
3 1760 864 1719
3 1020 1252 2020
3 1378 613 902
3 514 1132 1908
3 1474 462 1983
3 1132 1022 1908
3 113 1462 1588
3 532 1633 831
3 1850 623 1333
3 38 39 1849
3 708 808 1763
3 1138 814 1372
3 1658 1272 1228
3 1494 267 1610
3 694 565 1523
3 637 1559 1947
3 582 579 1802
3 866 552 1014
3 470 1474 1983
3 1633 217 2007
3 1932 1073 1093
3 478 1670 1581
3 303 304 1858
3 768 1694 1667
3 916 607 1641
3 1111 732 1834
3 1573 541 1797
3 781 745 1547
3 622 866 1014
3 1771 991 1368
3 3 126 1741
3 1305 312 1568
3 816 24 1933
3 1457 648 1422
3 469 976 1945
3 736 679 1560
3 1377 680 2062
3 1810 377 1905
3 1199 1810 1905
3 851 1457 1559
3 1094 247 1772
3 505 1059 1357
3 1462 603 1588
3 671 1345 901
3 473 344 481
3 1179 562 1852
3 1187 986 1801
3 273 15 1549
3 862 1192 854
3 484 841 1357
3 787 1310 2017
3 748 346 1951
3 1236 1075 1492
3 75 995 1654
3 1294 331 1054
3 333 1282 1496
3 1099 1134 1585
3 644 837 1386
3 911 1810 1490
3 687 1410 1821
3 1385 1400 1243
3 788 1099 1585
3 1410 389 1821
3 346 1510 1951
3 993 886 1517
3 1534 632 1604
3 258 259 1820
3 1594 350 800
3 308 760 1313
3 474 1673 1495
3 909 677 943
3 1479 1068 1846
3 1913 1208 1743
3 929 1913 1743
3 1625 1280 1855
3 863 1029 1204
3 11 268 1326
3 1453 485 1972
3 288 1338 1537
3 57 58 945
3 216 217 1580
3 102 1192 1760
3 559 1877 1956
3 837 427 1386
3 716 138 1308
3 1052 256 1489
3 73 1521 1238
3 1901 112 1588
3 765 848 1935
3 524 491 1668
3 266 8 737
3 83 84 1918
3 730 639 1843
3 369 1507 1889
3 1304 832 1765
3 495 1419 1607
3 878 642 1487
3 581 1024 1370
3 435 1254 1981
3 824 780 2066
3 1507 369 1702
3 660 1352 1783
3 659 716 1308
3 1044 537 1582
3 841 505 1357
3 639 492 1843
3 1583 95 1151
3 878 409 1750
3 528 1310 1663
3 1419 1202 1607
3 1130 467 1566
3 18 275 1512
3 529 597 1671
3 169 1586 1761
3 1653 351 1912
3 1400 475 1243
3 1030 532 1797
3 1035 909 1248
3 474 863 1204
3 416 1791 2034
3 757 808 1914
3 773 375 1531
3 369 736 1560
3 823 1649 1635
3 1699 803 1826
3 239 240 1374
3 108 614 1777
3 371 1130 1566
3 1507 595 1889
3 600 1558 1454
3 621 382 1853
3 149 150 1186
3 1015 585 1863
3 545 1051 1805
3 1807 664 1309
3 1475 839 1286
3 128 1138 2014
3 911 1015 1863
3 1126 749 2026
3 1076 2039 1868
3 379 1017 1882
3 1017 851 1882
3 940 1793 1898
3 60 1677 1747
3 50 51 1162
3 1175 604 1968
3 241 242 1935
3 1528 214 1320
3 472 968 1535
3 1345 671 1848
3 505 1210 1230
3 229 230 1873
3 997 1314 963
3 1673 703 1495
3 1758 342 1774
3 1352 777 1783
3 770 1486 1921
3 31 32 1785
3 156 1449 1558
3 1340 548 1845
3 1051 509 1805
3 788 1538 1994
3 1616 487 1937
3 1494 1043 1945
3 1957 601 1690
3 1895 1110 1204
3 678 600 1454
3 1526 419 1246
3 790 1628 1005
3 647 1494 1945
3 1150 1758 1774
3 904 339 844
3 427 1125 1478
3 1673 1100 2037
3 342 686 1774
3 535 713 1831
3 347 1801 394
3 569 1452 2002
3 628 1595 1500
3 116 1078 1605
3 217 1633 1580
3 1561 619 1287
3 1449 727 1558
3 433 1561 901
3 1170 396 1285
3 1686 395 1471
3 806 1378 1383
3 716 430 1346
3 1314 591 963
3 1801 951 394
3 1450 519 1910
3 597 434 1671
3 587 904 844
3 356 1314 826
3 1275 623 1693
3 1733 764 1709
3 1136 1046 1980
3 263 264 873
3 1064 388 1489
3 248 1033 1772
3 395 524 1668
3 956 621 1853
3 150 1622 1186
3 1541 836 1741
3 1421 228 1146
3 1193 698 1820
3 244 1687 1916
3 922 273 1549
3 1034 615 1953
3 297 693 1755
3 1601 1115 1648
3 616 1532 1536
3 1449 157 1895
3 1707 455 1395
3 1503 880 1550
3 1170 746 1767
3 1532 1062 1536
3 1095 776 1926
3 572 1707 1395
3 1138 702 2014
3 137 716 1346
3 1191 1472 2046
3 1677 1011 1747
3 648 1296 1862
3 1177 553 2030
3 1526 1396 1200
3 118 119 1223
3 1497 301 2047
3 1717 728 1712
3 551 1733 1709
3 780 935 1997
3 407 1227 1894
3 1270 1717 1712
3 1611 172 998
3 536 1798 1894
3 1732 709 979
3 1551 575 1794
3 1061 905 1941
3 576 1838 2004
3 507 816 1933
3 425 1092 1137
3 584 1189 1969
3 1198 1526 1200
3 1513 165 1822
3 99 1515 1539
3 699 1031 1701
3 1628 790 2027
3 404 1094 1772
3 726 88 2056
3 65 66 1904
3 432 1475 1286
3 1065 884 1860
3 268 996 1326
3 89 726 2056
3 502 935 1423
3 1510 346 1266
3 880 1397 1840
3 1644 573 1892
3 318 1726 1651
3 1138 129 1466
3 1512 1006 1083
3 442 1647 1909
3 505 841 1759
3 1674 579 2059
3 92 582 1802
3 874 538 1307
3 19 1337 1773
3 722 884 1508
3 1169 875 1328
3 725 1037 1637
3 814 1138 1466
3 547 1551 1794
3 1726 586 1651
3 532 831 1992
3 292 293 1815
3 538 396 1307
3 436 1304 1765
3 1092 660 1137
3 532 1030 1580
3 1473 354 1879
3 935 829 1423
3 267 9 1610
3 1915 501 1533
3 1505 514 1908
3 553 1304 2030
3 796 1510 1266
3 555 1742 1950
3 1806 494 2059
3 794 1840 2032
3 728 1303 1712
3 1029 1449 1895
3 1038 381 1550
3 306 307 1929
3 552 866 1995
3 956 1644 1892
3 1521 74 1654
3 1608 616 1536
3 719 783 1484
3 247 248 1772
3 166 1513 1822
3 1515 98 1539
3 558 714 1369
3 806 1310 1578
3 1033 404 1772
3 671 1163 1832
3 489 731 1970
3 358 1126 1891
3 344 521 481
3 732 1234 1969
3 894 845 1826
3 552 1114 1014
3 1612 533 1216
3 1657 366 1869
3 1282 333 937
3 363 895 1987
3 1474 1527 1553
3 1641 607 2024
3 810 175 1669
3 429 1170 1767
3 1510 1830 1951
3 1092 425 1819
3 144 145 1579
3 1338 480 1888
3 388 1289 1390
3 620 1255 1098
3 1659 706 1791
3 176 810 1669
3 1582 537 1903
3 729 1521 1697
3 875 1570 1928
3 1600 3 1968
3 537 1159 1817
3 369 1544 1702
3 183 184 1834
3 1131 24 1447
3 18 1512 1083
3 41 1276 1875
3 381 1503 1550
3 730 1843 1562
3 1255 499 1098
3 161 162 1205
3 777 1352 2022
3 1234 584 1969
3 354 1698 1832
3 384 890 1987
3 1053 449 2026
3 1110 474 1204
3 1967 692 2062
3 66 67 1188
3 887 402 1201
3 681 1185 1298
3 558 466 1637
3 717 1758 1581
3 1964 730 1562
3 1552 674 1498
3 743 1044 1862
3 1382 482 1989
3 1040 908 1261
3 249 250 1841
3 1595 372 2060
3 1016 1473 1879
3 840 461 1974
3 179 180 1218
3 1698 819 1832
3 1529 1018 1984
3 1018 1529 1940
3 636 1538 1911
3 232 1552 1451
3 1595 568 1500
3 1133 1781 1972
3 1625 852 1963
3 1482 303 1858
3 612 1403 1502
3 890 384 1554
3 1754 510 2043
3 705 1443 1147
3 976 673 1988
3 483 1662 1167
3 895 927 1987
3 1380 659 1308
3 340 1780 1635
3 1662 1061 1167
3 196 197 1564
3 651 1577 1575
3 84 85 1919
3 4 1380 1308
3 1597 368 1939
3 940 1898 1349
3 231 232 1451
3 1317 818 1339
3 661 1047 1309
3 1073 688 1093
3 731 330 1970
3 573 989 1892
3 375 1149 1531
3 1024 409 1370
3 1039 1268 1548
3 533 1430 1216
3 1381 378 1912
3 509 1322 1881
3 954 689 1589
3 1510 674 1830
3 501 1392 1533
3 1346 775 1652
3 969 601 1957
3 1545 605 1975
3 663 840 1974
3 1672 774 1788
3 913 1290 1818
3 944 1282 937
3 1640 876 1943
3 1080 476 1715
3 24 282 1447
3 331 1430 948
3 437 784 1749
3 892 1338 1888
3 953 457 1860
3 155 156 1558
3 1688 555 1950
3 1163 354 1832
3 213 1528 1433
3 584 1234 1989
3 521 344 658
3 568 1595 2060
3 968 472 907
3 209 210 2009
3 330 731 1530
3 970 950 1146
3 980 849 2046
3 39 1389 1849
3 1329 1466 2015
3 118 1223 1424
3 1274 593 1808
3 1452 1323 2002
3 510 1362 2043
3 1593 321 1522
3 468 1311 1302
3 1111 185 1932
3 1552 747 1451
3 1561 719 1814
3 1275 1195 1784
3 1001 1501 1995
3 964 743 1480
3 1477 687 902
3 868 1156 1851
3 1613 622 1524
3 586 1627 1651
3 1163 671 1814
3 1403 761 1502
3 1149 417 1531
3 1182 920 1288
3 1477 411 1870
3 1520 755 1562
3 206 207 2005
3 1172 1779 1696
3 1030 216 1580
3 499 1171 1535
3 1197 1547 1658
3 1789 875 1928
3 1779 942 1696
3 876 1958 1943
3 1196 534 1808
3 893 1111 1932
3 1684 558 1369
3 497 1666 1885
3 479 1426 1446
3 335 1044 1582
3 1473 562 1752
3 1619 683 1877
3 559 1619 1877
3 223 224 1872
3 1234 655 1989
3 699 1701 2028
3 1633 532 1580
3 1399 468 1302
3 1883 967 2055
3 1666 1250 1885
3 387 1057 979
3 346 1682 1266
3 883 865 1414
3 1644 879 1461
3 1355 1053 2026
3 40 41 1875
3 655 1399 1302
3 599 1796 1098
3 945 1450 1910
3 134 135 1792
3 59 60 1747
3 153 154 1394
3 1426 564 1446
3 544 890 2067
3 1430 331 1216
3 818 1764 1339
3 1677 1327 1434
3 1318 390 1141
3 1212 326 1228
3 1796 620 1098
3 131 132 1866
3 890 363 1987
3 590 1107 1540
3 1189 1834 1969
3 752 434 1002
3 852 1358 1963
3 1244 1612 1216
3 234 235 846
3 115 116 1605
3 884 722 1860
3 996 557 1326
3 591 1000 963
3 366 1015 1996
3 466 1684 1859
3 146 147 1728
3 1679 48 2051
3 52 53 1963
3 962 237 1418
3 1684 704 1859
3 1426 912 1069
3 191 192 1790
3 633 1222 1891
3 1770 437 1428
3 530 922 1549
3 850 1144 1342
3 307 1108 1929
3 1612 1244 1516
3 1199 2052 1509
3 561 1883 2055
3 157 158 1895
3 284 285 1248
3 884 105 1508
3 1606 390 2061
3 242 765 1935
3 504 934 2067
3 390 1318 1876
3 3 1600 2032
3 1171 966 2011
3 1845 548 1743
3 858 1681 1837
3 821 913 1818
3 365 1269 1567
3 1148 320 1906
3 548 1340 1878
3 829 824 1572
3 368 1377 1939
3 1377 367 1939
3 1716 1172 1696
3 803 1699 1584
3 653 1597 1939
3 697 1850 1333
3 1879 782 1660
3 699 1770 1428
3 991 1771 1993
3 1284 656 1621
3 747 1552 1498
3 1080 567 1903
3 772 1108 1313
3 449 1126 2026
3 991 1300 1971
3 1378 806 1578
3 1559 1457 1422
3 1704 853 2064
3 1082 1340 1634
3 2041 975 1703
3 43 971 1256
3 463 1704 2064
3 187 188 1388
3 1283 595 1299
3 653 1239 1362
3 464 1324 1398
3 852 1625 1855
3 107 108 1777
3 818 1317 1936
3 1925 591 414
3 541 1573 1900
3 613 1477 902
3 349 748 1951
3 296 297 1755
3 271 1441 1887
3 573 1461 1660
3 676 1463 1965
3 337 1716 1696
3 125 3 2032
3 203 204 1930
3 185 186 1932
3 1708 869 886
3 1777 614 1973
3 1013 1501 1286
3 301 302 2047
3 547 1794 2029
3 1318 790 1876
3 623 1275 1784
3 1277 610 1261
3 1129 962 1418
3 1664 644 1386
3 1800 1133 1447
3 1118 452 1174
3 540 2041 1703
3 580 1057 2050
3 1016 1879 1660
3 1439 1284 1621
3 1647 609 1909
3 797 1359 2004
3 1800 283 943
3 1598 625 1367
3 661 1274 1808
3 1359 665 2004
3 400 1576 1614
3 923 1047 1725
3 1154 757 1914
3 42 43 1256
3 1047 750 1309
3 542 1762 1884
3 335 1559 1422
3 1057 387 2050
3 870 1713 1836
3 403 1689 1956
3 24 1131 1933
3 53 1625 1963
3 604 1600 1968
3 828 403 1956
3 418 1612 1516
3 5 166 1822
3 98 2 1539
3 1200 327 1683
3 720 957 1639
3 480 1080 1888
3 1622 805 1186
3 585 1015 1589
3 673 357 1988
3 872 1925 414
3 739 845 2065
3 1746 818 1880
3 16 277 1971
3 1657 399 1883
3 623 1784 1333
3 243 244 1916
3 1501 432 1286
3 851 1705 1882
3 420 1613 1524
3 608 505 1759
3 399 1657 1869
3 159 160 1281
3 1113 1679 2051
3 971 1157 1256
3 1208 1845 1743
3 1269 578 1887
3 1463 554 1965
3 957 487 1639
3 287 288 1537
3 1554 504 2067
3 329 1812 1821
3 1514 521 1833
3 849 715 1870
3 413 1182 1288
3 1689 559 1956
3 117 118 1424
3 727 1004 1454
3 1 89 2056
3 370 1393 1363
3 1224 856 1670
3 849 1191 2046
3 1004 678 1454
3 80 81 1998
3 1397 124 1840
3 606 1154 1914
3 744 994 1557
3 88 1 2056
3 1707 572 1301
3 34 35 1375
3 1182 413 2023
3 1140 1177 2030
3 1279 1676 1691
3 719 1163 1814
3 411 849 1870
3 21 278 1931
3 1310 806 1663
3 177 178 1493
3 545 1770 2028
3 1290 1240 1818
3 6 176 1669
3 806 1127 1663
3 415 1594 1721
3 1322 770 1881
3 1264 34 1375
3 163 164 1711
3 100 101 1719
3 1378 392 1383
3 1108 533 1929
3 82 83 1271
3 538 729 1697
3 1601 425 1137
3 220 221 1442
3 912 1619 1738
3 214 215 1320
3 679 1460 1341
3 781 562 1977
3 492 1190 1843
3 592 1173 2001
3 254 255 1458
3 1406 1707 1301
3 944 937 1839
3 175 6 1669
3 899 1259 1636
3 357 1247 1988
3 937 329 1839
3 546 1475 1361
3 320 1518 1906
3 882 1107 2010
3 1015 911 1996
3 165 5 1822
3 2 99 1539
3 181 182 2049
3 736 369 1889
3 138 4 1308
3 147 1036 1728
3 1364 509 1881
3 1803 975 2041
3 1036 977 1728
3 1600 794 2032
3 692 640 1155
3 132 1196 1866
3 489 608 1759
3 796 1232 1258
3 573 1644 1461
3 390 1446 1141
3 1040 1264 1375
3 237 238 1418
3 1792 135 1652
3 1573 495 1900
3 1305 410 1701
3 722 953 1860
3 640 701 1155
3 562 1179 1977
3 135 136 1652
3 733 1606 2061
3 1358 52 1963
3 1198 1200 1683
3 127 128 2014
3 1812 687 1821
3 1171 472 1535
3 48 49 2051
3 1068 1626 1688
3 1764 338 1339
3 130 131 2015
3 131 1866 2015
3 399 1778 1565
3 409 1577 1632
3 721 844 1620
3 134 1792 2053
3 567 1582 1903
3 965 1865 1181
3 1865 512 1181
3 1047 661 1725
3 1662 483 1890
3 1324 464 1384
3 588 1324 1384
3 1379 1311 1835
3 1443 1374 1147
3 1393 437 1749
3 715 1410 1870
3 282 1800 1447
3 1311 468 1835
3 1263 1764 1986
3 434 752 1341
3 836 821 1175
3 1351 1735 1257
3 1616 547 2012
3 1795 1199 1509
3 1212 470 1983
3 1888 1080 1715
3 1619 401 1738
3 479 1606 1993
3 790 1318 1407
3 421 1837 2040
3 1413 345 1499
3 1324 321 1398
3 1835 468 1940
3 133 134 2053
3 373 1527 1733
3 371 1273 1874
3 1292 705 800
3 1821 389 1839
3 1676 842 1445
3 692 1155 2062
3 1013 1286 1499
3 654 1429 1220
3 461 868 1974
3 780 971 2066
3 1273 680 1874
3 929 1128 2021
3 813 788 1994
3 1446 564 1141
3 1279 1691 1384
3 564 1426 1069
3 605 1592 1721
3 934 504 1468
3 1527 764 1733
3 844 339 1620
3 854 457 1416
3 459 1236 1492
3 1169 191 1790
3 322 1957 1690
3 1744 1142 1982
3 994 744 1217
3 1018 1940 2016
3 1644 956 1496
3 653 1362 1727
3 893 1932 1093
3 1429 341 1220
3 1232 903 1070
3 1286 839 1499
3 430 916 1641
3 2027 568 2060
3 162 1376 1205
3 1704 463 2039
3 1585 450 1911
3 1558 727 1454
3 987 1917 2054
3 21 994 1217
3 596 1103 1416
3 221 1694 1442
3 1527 373 1553
3 1253 1292 800
3 767 1633 2007
3 621 956 1892
3 329 1821 1839
3 477 1120 753
3 1694 768 1442
3 364 1966 1301
3 345 1645 1499
3 1265 1639 2012
3 575 1907 1391
3 1150 1768 1678
3 436 1419 1992
3 1119 1221 1864
3 207 1235 2005
3 1730 917 1284
3 1966 1406 1301
3 713 865 1831
3 1221 917 1864
3 446 1938 1590
3 1938 1402 1590
3 1676 513 1691
3 1768 310 1678
3 1429 368 1597
3 817 1028 1690
3 714 1356 1369
3 1356 583 1369
3 1120 1046 753
3 638 1518 1979
3 1028 322 1690
3 1119 1824 1221
3 513 1676 1445
3 1824 656 1221
3 1389 451 1849
3 1251 739 2025
3 1067 2027 2060
3 822 1251 2025
3 609 1799 1909
3 218 1140 2007
3 339 1232 1070
3 377 1630 1907
3 464 1398 1967
3 916 430 1203
3 606 1746 1880
3 961 1169 1790
3 787 801 1953
3 315 916 1203
3 1810 911 1630
3 548 1685 1743
3 465 1267 2038
3 1043 469 1945
3 1022 1938 2052
3 1630 1143 1907
3 1685 929 1743
3 1464 1233 948
3 1427 1136 1980
3 1793 814 1898
3 1570 488 1928
3 790 1005 1876
3 1923 973 1675
3 1742 564 1950
3 1273 464 1967
3 321 1324 1522
3 1070 903 1468
3 1907 1143 1391
3 1734 405 1913
3 929 1734 1913
3 1518 850 1979
3 969 1049 1567
3 821 418 1175
3 1896 1026 1678
3 321 640 1398
3 593 1196 1808
3 989 782 1484
3 1029 1895 1204
3 680 1273 1967
3 867 1421 1229
3 1005 928 1876
3 1680 496 1964
3 1011 1677 1434
3 1267 501 2038
3 386 1058 1252
3 737 1055 1924
3 188 1828 1388
3 1062 1653 1536
3 1649 1270 1712
3 1649 340 1635
3 1259 1278 1636
3 1828 1025 1388
3 310 1896 1678
3 1421 950 1229
3 977 1036 1766
3 1768 1150 1774
3 1051 545 2028
3 378 1653 1912
3 958 737 1924
3 687 1812 902
3 1917 650 2054
3 1032 1789 1928
3 1156 1825 1851
3 919 153 1394
3 1278 747 1636
3 1348 513 1958
3 933 945 1910
3 1825 455 1851
3 1915 861 2038
3 1215 1348 1958
3 1061 1662 2006
3 1745 1049 1957
3 901 1561 1814
3 322 1745 1957
3 1691 588 1384
3 1356 575 1391
3 747 1201 1636
3 966 1700 1819
3 712 1283 1299
3 1697 1521 1654
3 1609 578 1495
3 1278 231 1451
3 583 1684 1369
3 703 1609 1495
3 671 901 1814
3 972 892 1715
3 1834 732 1969
3 470 1212 1228
3 718 919 1394
3 463 1864 1868
3 1081 179 1218
3 1105 541 1900
3 981 1697 1654
3 640 692 1398
3 85 1756 1919
3 566 1738 2020
3 774 1672 1748
3 1196 593 1866
3 1926 776 1952
3 339 1070 1620
3 1905 1022 2052
3 1770 699 2028
3 1227 318 1651
3 952 838 2045
3 814 1793 1372
3 1779 209 2009
3 1745 322 1603
3 1587 604 1516
3 1000 1162 963
3 903 934 1468
3 677 1800 943
3 562 781 1752
3 920 1245 1184
3 853 1704 1174
3 876 1555 1958
3 1738 401 2020
3 911 1863 1630
3 1555 1215 1958
3 261 968 907
3 667 1745 1603
3 598 1926 1952
3 377 1810 1630
3 663 1031 1428
3 793 1859 1942
3 225 1686 1471
3 1168 1364 1881
3 614 757 1973
3 455 1409 1851
3 1922 561 1737
3 741 1317 1339
3 1227 536 1894
3 1404 955 1420
3 583 1356 1391
3 1805 1263 1614
3 860 1922 1737
3 740 1404 1420
3 1799 685 1909
3 1085 1070 1468
3 494 1674 2059
3 1074 1048 1999
3 1847 1152 1955
3 915 947 1408
3 1813 990 1219
3 3 1741 1968
3 1031 699 1428
3 667 1603 1548
3 607 1245 1755
3 1838 576 1924
3 1793 447 1372
3 35 1776 1375
3 1603 1039 1548
3 755 1680 1964
3 1687 245 1506
3 1812 392 902
3 537 1817 1903
3 310 1768 1404
3 564 1069 1950
3 1374 605 1147
3 450 1803 2041
3 1645 636 2036
3 744 1173 2063
3 1735 669 1257
3 973 1367 1675
3 1768 955 1404
3 720 1787 1753
3 605 1374 1975
3 1055 737 1899
3 1776 1040 1375
3 164 1718 1711
3 506 100 1719
3 327 1850 1683
3 745 781 1977
3 1107 590 2010
3 1055 1838 1924
3 916 315 1184
3 888 1704 2039
3 542 1813 1219
3 1828 1353 527
3 1025 1828 527
3 418 821 1818
3 1272 1884 1228
3 350 895 2008
3 629 1744 1982
3 769 1166 1493
3 950 1421 1146
3 1439 1730 1284
3 1140 767 2007
3 1013 1645 2036
3 917 1221 1284
3 1244 1587 1516
3 1734 929 2021
3 1884 470 1228
3 838 1893 2045
3 1592 415 1721
3 766 1520 1562
3 1166 177 1493
3 1323 994 1931
3 635 1836 2058
3 1374 240 1975
3 359 1949 1548
3 431 813 1994
3 655 1382 1989
3 1036 815 1766
3 575 1356 1794
3 706 1089 2034
3 886 645 1517
3 895 363 2008
3 1398 692 1967
3 1720 580 2050
3 1886 1297 2037
3 737 8 1899
3 1949 667 1548
3 1100 1886 2037
3 994 21 1931
3 401 1127 2020
3 15 1724 1549
3 1850 697 1683
3 2052 446 1509
3 1714 11 1326
3 1863 1143 1630
3 1847 977 1766
3 1859 704 1942
3 2045 1067 2060
3 1188 602 1904
3 66 1188 1904
3 1824 959 1106
3 1858 913 1920
3 831 436 1992
3 656 1824 1106
3 1902 1215 1555
3 448 1902 1555
3 1127 1020 2020
3 277 1368 1971
3 1049 969 1957
3 1239 646 1362
3 1718 498 1711
3 864 506 1719
3 740 1754 2043
3 1289 515 1390
3 525 1043 1748
3 604 1175 1516
3 648 1862 1422
3 767 1140 2030
3 750 1807 1309
3 1368 991 1971
3 1232 339 1258
3 1027 695 2055
3 341 1429 1597
3 607 916 1184
3 696 1427 1980
3 310 1404 1643
3 1043 774 1748
3 513 1348 1691
3 83 1918 1271
3 1348 588 1691
3 1404 740 1643
3 372 2045 2060
3 1640 1082 1634
3 335 1582 1947
3 641 1640 1634
3 1482 1858 1920
3 476 1817 1959
3 1609 703 1504
3 1399 500 2016
3 1626 555 1688
3 1154 665 1973
3 1045 1071 1978
3 1614 1263 1986
3 757 1154 1973
3 1082 1640 1943
3 1071 735 1978
3 857 910 1581
3 1740 707 2064
3 910 717 1581
3 1162 997 963
3 1746 400 1986
3 934 544 2067
3 1991 1072 394
3 1918 1241 1271
3 1332 1856 1411
3 1120 696 1980
3 951 1991 394
3 1965 554 1560
3 1340 1845 1634
3 679 1965 1560
3 1582 567 1947
3 966 1819 2011
3 1845 641 1634
3 1784 443 1333
3 1245 296 1755
3 603 1901 1588
3 1087 987 2054
3 1683 697 2044
3 682 1268 1722
3 1173 484 2063
3 1816 896 1390
3 515 1816 1390
3 1091 1842 1999
3 14 1609 1504
3 1048 181 2049
3 343 1028 1954
3 1902 448 1260
3 707 1902 1260
3 1221 656 1284
3 1819 425 2011
3 947 651 1408
3 995 981 1654
3 1028 817 1954
3 1026 1617 1678
3 917 1009 1868
3 1268 1039 1722
3 571 1825 2018
3 967 1027 2055
3 1617 1150 1678
3 667 1949 1661
3 646 1643 2043
3 647 1988 1104
3 1988 1247 1104
3 1985 707 1260
3 1825 1156 2018
3 1119 1985 1260
3 1830 349 1951
3 1643 740 2043
3 697 1220 2044
3 107 1777 1359
3 160 1886 1281
3 400 1614 1986
3 1245 607 1184
3 1842 645 1999
3 1119 1864 1985
3 977 1847 1955
3 520 1688 1950
3 1864 463 1985
3 1091 1048 2049
3 1731 627 2065
3 1048 1091 1999
3 1046 1120 1980
3 1239 653 1939
3 1352 445 2022
3 911 1490 1996
3 1069 520 1950
3 1070 1085 1620
3 1465 1012 1727
3 651 1575 1408
3 313 1751 2013
3 1650 362 1655
3 428 1650 1655
3 1777 665 1359
3 1362 646 2043
3 1009 1076 1868
3 1886 1100 1281
3 669 1871 1243
3 1575 426 1408
3 1871 1385 1243
3 420 1087 2054
3 372 952 2045
3 1407 568 2027
3 1175 418 1516
3 974 1623 1181
3 669 1811 1257
3 891 1198 2044
3 1226 1923 1675
3 367 1239 1939
3 484 1357 2063
3 1357 1059 2063
3 942 1779 2009
3 665 1777 1973
3 1961 1178 2031
3 1710 793 1942
3 681 1298 1618
3 441 1961 2031
3 2012 547 2029
3 1198 1683 2044
3 1298 1470 1618
3 1811 412 1257
3 367 1377 2062
3 1938 446 2052
3 328 1847 1766
3 1946 360 2035
3 965 1623 2031
3 1623 965 1181
3 1265 2012 2029
3 1623 441 2031
3 1178 1946 2035
3 707 1985 2064
3 1893 1067 2045
3 853 1740 2064
3 714 1525 2029
3 1445 1082 1943
3 1253 800 2008
3 839 1413 1499
3 603 1363 1749
3 890 1554 2067
3 1856 835 1411
3 1525 1265 2029
3 1490 992 1996
3 1949 718 1661
3 1363 1393 1749
3 1864 917 1868
3 800 350 2008
3 695 1737 2055
3 1751 807 2013
3 1201 747 1498
3 795 1976 1395
3 1336 2003 1897
3 2003 553 1897
3 341 891 2044
3 1976 572 1395
3 1089 594 2034
3 493 1641 2024
3 2000 711 2019
3 1645 1013 1499
3 1958 513 1943
3 654 2000 2019
3 747 1278 1451
3 1898 458 1349
3 1362 510 1727
3 1897 768 1667
3 1941 326 391
3 2025 739 2065
3 602 1795 1509
3 501 1915 2038
3 1199 1905 2052
3 1336 1897 1667
3 790 1407 2027
3 892 1888 1715
3 1167 1061 391
3 1061 1941 391
3 1976 348 2057
3 931 1370 1632
3 444 1710 1942
3 1370 409 1632
3 2031 1178 2035
3 965 2031 2035
3 1220 341 2044
3 1367 625 1675
3 1209 1167 391
3 513 1445 1943
3 420 1524 1703
3 510 1465 1727
3 1524 540 1703
3 860 1737 1569
3 572 1976 2057
3 1737 695 1569
3 1985 463 2064
3 1737 561 2055
3 627 2025 2065
3 2048 630 1411
3 835 2048 1411
CELL_DATA 3834
SCALARS Von_Mises float 1
LOOKUP_TABLE default
34489957.34337333 38019317.451304324 30618935.105162058 34366389.46848178 10123547.386261953 5321492.545720063 38034945.36397772 41188885.25234764 8581480.072838064 5327576.714166258 28026570.217859566 3326334.1546628047 46878458.5307213 4913793.131968611 26071737.600879584 39272157.34941742 32605207.373177502 35994903.91546281 43328731.38332104 43281102.0341162 33747575.8359785 34168126.527745634 37224473.527569816 18640954.75741599 10466762.029690705 36547629.06851978 24055611.90965683 18876823.60063598 38204830.7020716 23514341.33561088 32820311.286592018 43755390.37119746 31807751.238128234 37936472.14895242 463919.1672516321 26823802.29637494 37375817.849364616 31858300.19520568 25129001.432389773 22640946.06266271 17681803.325501595 32907585.548729315 40380282.70197741 20242707.75143671 37857349.432202995 6037745.472427504 9791028.8607789 12044043.3167254 37472789.81179064 40486526.3039756 9684361.139514908 33509786.630094692 2102347.5536462483 9493045.476714766 38293692.43382055 37395987.8678705 33015187.76541258 11191560.816713495 13961014.330310907 36420636.79880357 15193727.70426393 3852756.091836388 20683705.05776783 10264156.512371514 9203445.524008023 5212981.731620995 20178985.079706833 35930692.773630396 33534544.08713186 635312.3613835903 30956122.587190196 13485730.723356782 46547929.04339831 27786785.093563966 30487461.561846815 30151847.8576917 31849808.641894743 33125077.195366606 31356563.698245168 31372768.315060686 18220486.26080479 20182037.272094496 5153446.725225076 28000653.104225196 13959679.440341882 9567393.325651981 9957422.339970564 17203230.371104013 1298994.9629617375 30250971.35797371 7176516.427835292 53536910.20768169 15265406.690257037 30342337.01240854 10509216.739880068 24575008.466761563 11276110.391031636 30164424.761044662 39120756.72154196 25868748.052916497 39978888.046493776 32331033.098613955 7172407.120739602 19737621.247458152 42081677.155235864 38882134.94671107 27538489.95638111 23054052.366636258 38941389.34321517 33300307.474203847 33877001.03507903 33769880.29619587 34632479.88486774 32781929.520861562 29743250.171845734 33554804.68394102 31755627.977899354 38932833.89159481 28515564.484277606 37801720.182987876 17965450.247916084 24324208.282845095 30436202.868790336 37779554.1787509 35138601.43213746 28578626.368764512 32721557.821777076 63721401.30691731 30265678.552458506 41018213.3696594 33186572.33423574 38739656.00782697 34580741.65579761 46316629.607021466 19942395.324389316 31923241.09533589 32389653.3440113 24770813.243299816 31161797.740221854 10881869.689020341 11703049.183636919 20487380.979071416 38559784.59066152 32950916.920708194 37097813.1344776 51450274.333122745 29625992.413216494 32502187.89850657 48265804.92529226 29569972.109179266 21483271.828515045 38241791.226165965 34853712.615633905 23499879.815358363 15316668.5843691 25500790.16653894 24098056.12192937 38440945.60684773 64596384.88050934 31744185.26414429 2786499.62572779 39095439.4969372 14085710.946160516 10338671.559704803 52257310.194038376 36335935.054624096 33197886.467271626 26819668.974252418 7897750.957831891 34936153.20904233 33724364.68303299 40096146.894615 31153009.010089606 34839378.10698943 24807209.593537766 42220984.92928493 25897066.835522845 39744772.35892999 23535482.39465848 11928833.63985254 30946202.561192606 39535648.40274327 25148538.057250716 19439761.14019637 13787365.630133308 2072618.8199645057 20508370.213970028 32600017.82543698 36224511.9503388 51815303.162292145 38782820.5211296 34039729.54826671 36365471.13226876 12989740.99765961 39319952.050065234 24353705.047303338 5566722.892616262 6981753.3601605715 34753994.49639681 34580433.49226619 5716501.555936228 33032082.32033395 24718359.440497987 38998898.48205655 36309114.19825693 37629078.17204107 5608019.926892156 26451468.966208722 25166148.53337042 41040491.525614314 5077517.477982603 20559457.969457623 27871944.79725941 17078701.929694228 33036926.18160891 38149236.37103687 23090388.997142006 37189029.06017524 94607902.15940437 7629275.625381034 7502695.152721526 33201158.677153394 33449836.73254864 44480385.74602937 33880688.81999433 6827728.564039488 30615396.941238422 44995848.19502324 32073842.545932725 33914079.008511364 38729649.25512657 16099594.34669853 11433517.380893946 38305861.4368378 23349108.657306626 7796467.851013892 5328852.957905826 15370160.31128351 25517906.801983386 31704951.382914897 13832541.589742366 10340555.648195669 19252254.491064582 34464914.70679934 5628652.80244005 29782929.142138295 24664262.62792491 23017601.2622951 30274040.269876044 28101043.363457054 34596689.93019125 33805293.023386635 34518226.90529352 37918301.11422696 32719721.320096817 29228696.03996842 26533715.727851346 35538080.39498005 32758032.571156982 32312296.498024713 12062051.321843775 33151115.841077503 39220458.40768575 39359036.807470545 15782961.024877468 37736390.33686205 30412546.02515574 66623449.26238211 33841798.56304149 5849289.279436652 9745851.784762029 24136300.63319826 31027066.397404864 1059540.2053200863 22603079.58557408 10220117.053331096 37580667.903939314 70319643.90875009 18725952.07255068 28041392.249107674 8739611.87462493 2164104.7939598984 28664699.575279735 9124630.070827072 16574927.820199901 2628034.521299196 32822333.72097504 24995917.932144906 1719523.4830417826 35587435.71101435 34630411.522792384 19002392.66180223 38731817.426380396 43219043.24866291 31148955.294948723 10438101.049190992 54378174.7079766 42278857.18725733 24306681.86010565 70717419.41953261 35081730.45204521 32857950.491080415 42801344.73763072 8636605.902800689 10306668.235751934 18450042.965828113 38902225.02643948 32784904.554024674 35933259.92134854 6137749.572044489 29066492.156447403 38318040.52826219 8743627.75251508 28197454.536917537 33666584.426093094 23267921.808495503 8424127.46383565 35982065.640598744 2508842.6902465867 21645593.724077385 35325123.80214692 41407030.39774227 40783391.569296055 36069807.276522 44508177.766542606 33630841.04459367 14752851.20258161 25922799.8255618 33211712.36215616 2699579.7750709667 37489098.13729104 4158560.3642780334 24717503.134783644 38678182.95900152 23773417.67023336 22263674.50863461 22062146.24482858 39075305.78699504 28204998.538450506 13441003.211871956 2514072.4797469294 35550715.157489374 47598141.951232836 16970819.845441565 15116442.367508553 61624697.97723022 58383360.412550524 1910594.0803838605 31006883.791263707 560940.9616939824 14704555.089417504 32446104.61173202 31500288.944701478 40344776.66201355 38170134.19677284 21814209.55752205 37347856.76412124 11455304.103944868 23487293.64296379 27234169.750985876 30266327.846617643 38323387.135580294 10453622.873322492 2851831.977340495 29181528.1531712 19885863.08501905 16224183.418732993 34201483.734216906 18994033.20869523 22569844.957036454 19809245.41148802 12924948.672105184 12806062.786050778 32165758.956986636 31726394.35762288 33206558.530435957 32210981.172747 24707131.83517426 27757368.426150743 85511129.68697147 36853960.62106883 33202743.90719728 2617938.4274351727 24973391.628791597 32692604.263098184 23732631.5062068 19393791.129237466 18916167.60341601 52465823.63863493 20954377.90995045 7479261.338381719 34351237.209216826 19284867.15102186 19192891.215035427 27893106.578142483 20926857.188648593 32794457.058506187 31324782.14405446 30363059.750430692 2618094.4075087155 8300742.096077683 23570085.679960396 35708262.96369822 14858262.025581708 33334640.32513685 6335486.123762851 30507027.38735115 31734673.967299074 14952145.521965524 16710503.981039442 25575737.441552278 37088955.68294133 36320595.244362175 28005311.264160894 18948190.98879517 32475912.579891402 30251022.482899383 28997575.6405926 4502764.6909846105 37059453.730923355 9203804.780311514 40175268.125085264 40442756.3619082 35248205.52423699 31738834.502246216 25246781.02420872 33362076.137611818 35914702.55330224 22449102.43596604 17940376.401380736 11055743.761414265 43536919.703024745 22718891.768625036 28757347.864658803 24165426.43103653 11844054.46864494 32705403.55209848 33386282.25867294 31772318.28457265 24010889.593874253 26494812.471286397 32902399.232026506 25235637.940893035 37582445.07112844 14279760.959889354 14510769.960112209 19020614.978750132 33705717.360671625 8181990.457763647 27898056.4159369 20365667.8078246 34727325.706238806 37584049.6725777 30286076.819777377 28940741.359079406 22872181.45456756 28382855.034041885 20171504.465870455 32551526.86542883 10247610.088508276 30895918.293832984 7090812.31781435 33876794.085250385 12078043.220853997 40667398.97058625 27717792.47785562 36532629.055715375 11320179.884350056 38241312.854941316 33290190.762030534 3004808.7180236266 33731189.44314229 17980493.455174997 11239254.858340476 21195942.57182644 11001962.00539331 31850788.947578672 48375530.82341349 15621214.636986773 3010215.8095645527 32279857.595966086 15142712.374416232 35867222.692733355 29012039.871343154 8808176.91508875 36177576.55851631 38198397.0929903 16678480.165619606 32480274.06819046 36917078.7439215 32535497.70151438 27912578.195100404 30351954.95327803 32293761.893059865 38096728.642187774 11774106.604243038 37794331.93487698 24021432.898414653 14866170.514022656 35808033.60580289 19419419.49159095 33247997.43575079 39503072.64974337 10743243.669045884 44285121.83238271 31334640.205288943 32020281.11365021 19984778.805781454 44054600.46226299 31308377.79513192 38949102.68334144 38867884.912969165 38765176.559505604 10494242.584825879 10494242.584825879 74638460.72632082 35478851.71565528 40451893.32353692 26957212.15043497 32424866.356097296 27743490.713215202 35552797.979393356 32797783.40649306 26756256.022661194 20317888.063122977 30748304.959827922 17907424.6053886 38297379.08441766 26666527.637614034 31507377.134469774 42541358.36188186 25397118.036280196 38957363.69890694 17621909.71814921 44778310.37575536 7795894.806378137 37206545.47624663 38217394.45436565 12691526.71760441 25211700.173997704 38226077.38039702 40841842.682377756 75718656.62364046 11699247.618261572 5444325.07400473 23746644.962618954 70009474.14756827 29371075.4084904 13807371.780651385 25849354.200049736 27149665.4404917 34319889.53548227 31779052.022292815 7230408.412399409 23650095.602765832 41437374.29470531 32914949.15210205 13796504.307110686 18644205.83676676 24564280.73926074 35523666.870091274 36739581.84672818 2736814.181620622 55711589.07392092 22088123.383059017 31899980.109791286 15201875.983294018 30690463.85758444 41579488.67445686 30072654.544929177 34298581.270502366 39230292.02159872 39607034.45059718 5248704.2921159575 32962445.593856018 26195339.41291336 37243357.5233142 52893418.777050994 13786083.316829776 44352307.95885152 34668008.108432434 23010488.10993391 39329075.51703489 18960169.47881827 26731467.772349373 43399702.449247465 35609477.264132366 37188603.29626975 18153305.012248825 19916537.05152426 36140841.17990595 15180224.519594604 16229746.915556792 41033756.23785311 13742988.234271197 35385820.14306565 4184585.2286570114 2379924.970269788 31282312.119408716 17785900.167914852 25853999.54023979 32110266.938607443 11941608.317041745 14600038.490430247 36273947.66202473 33774689.957137294 33237696.815522663 33449339.406624272 20327390.831814878 6883143.4647013005 31568429.744721007 2835590.8068662477 2845066.221991156 37933398.48250018 77831097.90681697 39675398.011246786 41581006.41285232 35294126.53014777 43712265.7151074 26582431.277837783 38104436.976967454 21866014.462705687 31333834.904154412 31449182.823205277 36076931.37573995 58002545.01189047 33060455.321511336 32304667.576295767 11434906.95310973 2231693.6847107643 2237482.625039058 20203931.499580324 35561550.78749398 32880237.812222626 37851486.7221354 34225207.84560122 14855379.32387651 39603606.869663075 38451104.61174777 39683164.982975334 19376200.002240937 61834671.690783486 6590992.009460752 36968121.98413908 24165855.417004034 1023175.2007272956 2518015.8708835403 3140226.8899149443 38821610.998443924 34398235.76238533 2820745.4240833516 26203778.4784997 35610836.33593713 21023008.28537843 36493996.87958069 36443936.59213778 34562260.80432508 32579536.22001332 28382626.739894953 30465474.923054993 33121989.893740196 25771235.67470745 23271566.689807836 30756809.05938553 8182383.740511806 34482227.37843402 24755133.999919713 33277083.941400018 39461971.984392576 21951244.159635276 34978053.00137689 41904047.456601106 36492877.7775919 37178419.59272124 23863321.109256614 34421576.43902072 8485377.0208875 40205083.41470753 39303104.789890766 17410089.69706308 35770089.39396983 32308694.382489976 16814908.514547553 20063557.09425301 46826138.4626681 38688769.00685447 32845894.54939937 21891705.367717344 22929726.553060777 19525318.80819253 22372120.284232214 31111636.88946004 18121962.658903494 30921052.059703134 26678782.491096992 26682822.357120972 35855065.859573714 16812465.44848979 31590173.2326833 2285846.897289849 50194143.98087835 36613998.6484584 19793370.212949593 35498278.517342865 42703424.33667272 29006211.330108814 24976049.369877137 57830407.27733026 42380190.02699315 39648714.660289064 34071316.10293095 15764777.060448902 28266288.959258836 39059301.10886455 37136141.47793136 35090694.560072735 40102635.8642266 37302323.49839296 29901490.986480035 43538608.02135289 11636641.261514781 29187228.18553957 38753827.240940556 37451829.57863477 15967408.66226822 35755556.349991046 14216489.010417314 35966757.934580974 34839770.19905267 5974210.880830846 24113711.459678404 43289413.2107943 31933491.602703154 30178404.016852964 39283439.42455943 23111908.670808356 37802189.87356936 4451223.084102446 47334568.65273283 41594205.72007051 11963625.597837264 39932853.58717372 15296699.623547927 38065566.793742195 7432230.916775235 40966473.80686312 34802221.63812173 38403976.63584106 37970934.26078366 4052464.4021375347 47771729.938015446 41165954.921298146 12630705.747868832 32279161.89265061 27059459.75804725 35840912.132483006 37709794.6198373 53501413.31129245 31339257.56902653 19135049.864550695 40584829.88569155 35772324.32851613 37668151.48551722 18710510.085286114 37845207.33900802 4420140.831995302 27397365.604178384 19344730.48057194 37821767.21659419 31395948.78452826 45992743.07340015 38489754.814342916 1369035.0065781956 36319926.94562053 34555159.88872582 7765385.378314123 31418797.343176592 28216243.32805534 14500354.569060843 3186946.1978635183 20374705.631241277 33156560.46511932 53004807.64185794 26205839.475531247 53206691.67603821 37306730.684441626 40415542.463574946 29999114.738149498 23230249.8910688 35250893.03456059 49548316.14809113 62205368.1077891 6429891.89152789 17108534.5834 3199319.2439687075 40922795.39885055 33988957.04683293 26880669.990629278 2411860.892654647 34716467.44367709 36970546.057003945 28328365.051485207 31522032.327252176 32501961.207857113 20392182.016470037 44828100.39440634 33486772.172144286 38006027.17955558 22284792.75078934 22898302.74064265 27003416.72423609 18487968.56403102 35380239.593208626 24733386.281333398 12943143.202301264 39017713.773842305 37461175.15845033 21873373.61991679 29297403.10449713 37540736.208056964 26092375.332288023 28242405.213012267 43915862.7192298 13099988.293645352 39454039.752109535 16848906.610741828 13587479.49423146 31861764.045749508 55046235.90845034 32544998.870889574 37596058.53139552 35363378.174555175 37860232.8998889 24489090.098742295 32969567.473618023 21936716.108401272 37500554.35998667 7560454.144540275 37169998.71328083 19698900.33670644 19297480.10000211 33527911.385367192 20980688.20807884 3349164.2883796226 36670272.881030545 32953650.32895888 25145436.237822533 11496121.987908585 6501426.573029364 28229445.988021202 37078634.15942405 29395419.944070213 3450534.485216186 33353500.56527043 39912424.01716427 44194838.007079594 19420338.882871788 8042586.9955217885 23661304.937776383 23425767.49146059 37064176.418000996 22921180.379168026 34312901.93769813 39558906.38908382 16743127.520951226 36319503.62037851 32409183.88731031 17076062.483141117 6110162.485107907 25706279.360366926 38600356.55460367 28673891.480568837 24718458.146323487 33858116.6990505 26918971.663389474 55803804.29783695 68613246.24212822 131109379.11172213 21433782.590999555 38062248.60076963 35908781.38226226 7291183.190580657 31326674.929493282 30591320.969299845 30609353.78563 36174404.76921549 13356401.041040199 11081714.011911374 37719951.90284729 31996761.122442678 91688224.56129314 31115409.46578446 67429888.24994071 24729107.14216339 16374441.323744873 32347831.215179484 17885267.37740957 38952471.81628885 36237932.31324775 42935197.44065118 17139690.406216256 16788134.79765838 16004658.117489936 22124740.271485828 25941902.967529863 38689997.510216564 41728752.49727804 2803664.4607210667 8498965.216742305 4429951.434695844 30921240.468482617 28633004.09378673 23093772.066567633 15747266.218440693 42754084.79439122 36381139.38311948 18479741.6220313 29401363.626759537 47293512.58417615 10510556.951810269 45315138.725086644 25356372.4180016 6219171.572033531 17624519.206531253 3212802.5978801996 30985777.69401044 36330144.52159333 38834326.74234351 33542000.04460629 31351841.789654203 33030292.96292915 52692167.67957407 14888801.179369953 27277970.308548942 26642252.926517185 32410466.82665156 8105045.107833677 40123424.97730506 17288890.50003512 11821035.120722912 32159764.848335013 31163170.03352234 22753020.04296636 2741154.8847887306 18562235.0455303 18824771.014016528 35727353.264187716 45734761.44501019 39199001.59129557 29239821.55448169 16890473.719920583 3268140.3686511354 31427570.8927769 31989867.582981225 41243645.62910542 17349099.806421835 47603149.84505952 28141152.704142917 13499400.198645838 39203668.93218838 25098864.77938607 36809409.478618495 16658047.767972264 9482159.316480879 30748732.145524234 2698987.5975590805 1319308.438927562 30215993.993656322 48483272.78258064 34058574.01840011 31711455.959915962 4436136.695397063 31192729.35035533 30437338.56393768 20391666.9552853 38438054.54447417 46923228.080107644 42019531.22734393 36586599.738357 38511416.64783313 6639352.216957328 37100594.29072722 38423904.64532886 52854593.26106059 18625284.320477545 54000651.556989595 26904834.528021656 15271866.294079015 41842247.251153134 25792017.326497715 30409585.691758122 23531390.948126834 26270248.918526806 4916623.197606481 38348975.688322335 37479071.07960143 53095763.33847784 8625491.674055472 12063265.034799071 11168019.341191255 32784123.491609246 29544460.108465396 32069569.185541082 20913451.159667883 24330940.348411772 34461010.91448992 37692358.26574265 13399749.20461836 6913811.835821712 5767190.78397925 31957074.08082015 23556545.787079815 35145284.75205572 12260580.877318239 34930253.79817396 13767793.792155113 34091029.93466947 6643845.525785517 10205297.865297373 36093217.786164284 782165.6506165195 35740458.45631336 16979588.5953364 13532894.01978111 34903996.9375059 14416738.738494765 29157344.570646577 10188877.836329557 4133579.62495369 38165617.61164583 37395676.642478295 36492812.125864804 26756385.245601993 24315833.188033868 11819683.960600795 41321582.81011458 41050905.44069952 41187462.54074698 88966969.28027128 11201562.34701259 35480003.036096536 32066223.83055426 8380047.464073943 9643748.545873033 32713023.436885316 32448601.002847996 31950103.834876727 22085471.491028056 19635595.692248683 26608401.384390682 34356618.074547075 3084745.4122476415 3046292.79275036 37178990.77260804 38401595.99279222 40998275.77470271 7256060.483356899 628661.7520872892 19715097.46941067 32599079.243766207 7965817.037862878 6261514.454055286 38534370.60356027 48523129.34299321 13967003.152906371 39170015.099422954 21935241.79652971 16906083.907084253 7274353.556925402 39777778.57900334 19316911.470482264 27555523.12191716 85129807.21250941 48457723.04999855 13475151.0539015 24453973.74750496 16963123.09176789 31615018.846529704 10163520.907104027 30717530.542163223 17749661.209565945 17122933.480800044 15971139.911501992 302917.1030566263 36146946.94488266 16576843.37017825 7401555.768885637 74929603.99151498 15422558.010539368 33176036.952418234 6581361.073319943 11825540.593283733 4418961.651697268 34596935.43716613 27162438.192709252 28002280.70121676 28472637.817081243 36281454.08820459 4006829.2351982547 32092748.99104185 5497643.289249451 37199454.053623416 10108912.004176388 4214112.439062249 10628955.454864912 40804399.244197346 90759375.23559827 28453142.374123085 28179267.3880497 34223836.77127983 31635177.554550834 45217231.7698959 43016658.48938556 7151420.54194305 33181953.08795119 39598989.01190138 11858805.267845366 16473122.544457419 21024514.082519 7161286.231243908 36473079.81275859 29434246.285461597 14685732.650247414 9666677.718828598 39826927.91799743 22280984.987677444 3272145.02226596 16431216.566675842 38704872.96680411 41037684.5492466 37933592.60324759 16831487.080511604 44574081.39765632 21653492.80150638 32219841.803762577 35257276.188904695 34065724.12994131 37792059.40836318 29515332.77046635 7225524.741725067 50330933.685006715 31812178.814130217 14486561.82721368 41261798.896652296 35089969.62809266 27991053.512993876 4731797.658424879 16915502.74699612 30696305.737346116 33295399.574722257 3127900.113288566 35127265.233326316 31161320.452566855 33302742.223182317 37672732.037034966 14576414.920791427 8956622.001632402 24859757.95968498 27688777.326172158 37130076.97944681 34728563.44981446 14708933.358541328 27155533.03728419 31348738.622886274 11054648.943213094 24057626.49357201 18586824.897326097 6640842.159521623 33283296.82298261 33642518.714463465 13739704.301051794 30777023.036147047 5430864.66116584 21111200.846186772 26274162.597980153 37669575.37769281 35230307.938829236 34398.184479335556 8790225.183084728 17007316.643092453 34545405.63090671 22804138.6643812 30326304.74000571 47406100.13945972 4888331.621904541 53430491.37949121 22555698.472948804 2807866.0790712456 32234250.341455348 11649471.088574253 36017738.886358075 87968.27240232931 26174294.286449887 8350609.776575228 28095735.381881695 41273629.382442184 42467792.747477934 47641583.58074512 31023277.083804626 23205240.51909613 7064515.714512684 36402242.91455639 59108878.59817236 38881386.972671 11477410.64331016 19557395.001894888 29662083.867554292 40365088.82197048 18171135.079063285 42668870.49637764 14757859.21523207 33273808.27529628 31935634.452314846 14712752.016358467 9013285.105044842 333132.8125303573 42442077.11193497 51480764.87639661 30840252.615839142 39815933.16028608 18190815.113004647 168776322.24114355 25046701.489143606 28600203.704302926 36359813.9765183 11281182.263841186 40106336.70469342 20607191.73628907 34870933.75102123 14862395.795953121 3306505.7870079 16511489.562051514 24545224.93283141 33669657.913593166 21149654.047006857 29624274.65309361 12676936.653230166 6870441.441733534 40793287.34576388 62879476.952764675 1104408.7261222554 11587625.4412551 5464356.799554211 6381822.299988577 12270563.288295252 24067556.93025547 51345.39282490036 15680719.176204378 37607913.3999651 7713546.148595057 39000051.54086807 33205087.217429608 13742200.134934703 33358337.084926505 201002.10309100192 31856188.10094542 13701406.77653946 32228366.454213463 17321746.681372866 31565516.970570363 34017436.39508762 38662373.90702222 42374975.22592196 39281926.578326434 46913573.03232648 35840168.74557847 20312350.92567456 13402477.877697315 31908572.47799785 52446721.57295103 46178742.857573666 40575472.32280387 26321073.363486726 76891597.93921706 13849600.847715003 34493985.041766725 39168618.21438672 34513377.489180624 7751918.419357314 37938836.45931292 28066022.5023105 37482896.22864235 37892456.15554985 38675003.592052944 33362445.622867506 16153768.100899005 30607931.11375905 40140291.441879936 48707579.61578177 39545939.17171071 37740070.96453498 30208681.564373624 27523821.929553207 4556749.008615344 49416318.87907494 44913177.746393524 37369054.6793411 13632325.30501348 29399999.860334236 61674385.9532021 51500603.8918972 14584210.520170297 27958031.084640328 42187098.83494255 36906216.540961035 47880306.558926165 25064314.29181177 31814429.21319581 36342883.88563119 22176943.45207649 21355873.370184284 29174490.238092016 32202303.504886925 18756002.13105607 26784818.174436614 36324937.180444814 37084465.7923676 9004376.361310706 12306877.964144893 13372301.065417552 37259725.2728666 33262010.427010506 40830224.08849886 33493485.04067131 20136842.13531407 12624143.267598316 4946949.239189803 4980161.993271845 30269032.42631292 21744198.26357672 14497459.02503802 25341325.15634874 8455289.1964312 24205588.193500467 34921345.09833622 6852390.0378631 48029725.15948218 53068112.4267643 34020807.261908054 5122147.346370796 11865933.483678095 50942134.03755349 14159713.302033555 35257414.10052138 38154379.21930421 5406346.796398439 15314000.574516702 33513499.168549653 4935486.669548607 14235773.451334551 37211094.99425931 33299669.81315283 1458165.297890045 24151275.561409142 9901952.168009603 23243718.320143588 20198136.220509343 24256553.724402163 26885855.7427831 31708244.039279874 101492009.87007482 41976147.4282114 37982056.67244977 3907286.577971844 34228938.28964839 36480369.78119161 5885865.740654083 9406297.573176617 28646615.567039303 27601510.285260156 17474073.75000063 47379626.12030891 1533623.8345634504 33499379.206217475 22654095.21639019 19196342.304977212 33717685.98753447 36845426.50127291 4039189.029072141 20415225.779460154 47279090.778435096 11772377.481285948 8852210.142397637 37093999.685688086 32256273.23201858 4956531.512246965 6889630.282285894 26559288.982553028 28952556.441078734 34288881.560363695 30989977.134746335 21364872.82280179 69620383.48819785 41889895.063229024 18525446.27161694 51300406.49772893 35902697.7454104 13896593.961995922 33784296.248206794 36971800.46571276 13636680.99428432 36939783.61781719 18999155.601525526 39425629.72199115 38327220.66128036 32438840.40815524 15201163.73363709 29545349.721657593 5625403.16680295 22572819.741404846 32392232.006503996 14018339.846395303 60995281.371977165 16692931.132197645 60392586.061947785 42357680.18896064 16830865.25839865 33342208.14041633 12584468.008446524 25799683.860352512 36289996.34651863 13786395.423441445 30739341.091580167 44523547.234271206 13781201.53860433 35806169.248881444 26705083.00396883 12848457.51139349 39564715.653335154 65564872.63392479 14527815.510262856 37875270.3153417 29293434.43817698 28958121.943591405 13315364.964773923 20699671.031915095 47915970.137896486 56815590.25081126 12976096.290009836 37606863.07863194 51345931.82512417 19351666.182587683 16122555.342697324 29237914.250875093 38216575.07279765 7202128.054680669 35149311.75278978 28115413.334130745 13523971.112231666 9006638.68179881 33235017.537113342 40326552.594234295 36828805.10542106 8038673.07550027 12749669.333874913 3465659.114558158 31294639.411722388 4486221.212525676 4705158.067040772 12811375.03175731 30348574.217540458 24422358.164044324 38841925.265335076 11392018.589266459 23467406.055925757 13929898.343216585 25666830.209268402 37290222.42732749 9005867.099656506 32070222.273084022 31558133.796313994 61678932.19755437 42016156.33928753 17794783.8682522 10810744.842794754 24253804.984865107 30391734.618038587 36568540.11313932 7915108.406836888 28111119.671804946 30381987.8131622 37982291.936300874 26976186.74448171 41948942.42162125 19560756.554261144 15810650.126002263 38456456.34435061 45236109.640797205 45684075.64757737 17970464.50044034 19386122.35286146 4056528.722742908 55865294.37961206 22471579.708607893 40210045.50042233 30698157.605904285 34986788.749175146 15576850.229598349 36589379.90755627 35712770.14307979 13061546.450555444 8326265.51669841 23410515.94463729 35140245.79002381 43621523.92951513 29157508.49888026 25234680.885485467 7179174.876260276 31939225.14294835 14859714.224940805 33705490.24930392 27817571.82997963 49209848.733378954 31953444.360718224 80545794.75290355 17700650.021743774 113354246.50270915 34039688.68090797 28443996.103999436 24064573.219017714 30889974.611077458 38780129.50092401 3021122.603404878 69561559.65154096 31922868.331410404 18834633.34810196 38993175.24654385 17601047.40760246 22065997.97325152 30333196.21805015 27223659.02618227 35249596.50095947 43052681.35410481 36033539.15367926 4684318.663371091 1835416.943728659 39493094.6830429 56889990.7547697 13248168.290414752 5832028.982161351 27119221.42502301 42536014.06275252 7028681.7261724975 22817071.78038016 12485165.693060799 34967724.56225298 39389423.411176816 13268909.90330691 35212121.37849767 27548243.897904657 37589172.58602869 36999967.446044855 32950101.59655741 29930531.26890294 36668867.04923735 33290677.06685851 583695.4719286925 16139162.199450856 40056910.647792846 22572547.752735667 13393625.897771427 13000989.01653323 35359532.72434814 9925084.166846154 17036636.032197 26882080.310743276 33079987.190463472 18251145.525633723 48434142.10866486 30078456.202825524 22840953.779043727 48431375.70878307 30513954.430338517 25796286.371881597 35223308.549502276 32210691.968925565 35819438.503726445 9967750.865889555 37678412.13368012 29566126.371435076 37464088.58955796 36006497.34875741 1513118.2789809052 30306933.03189964 23287770.189788852 33989856.788475975 23141752.382745486 23319658.520340532 9088995.607766591 8853563.0091344 41425690.97552689 899768.0098691765 35303030.67918159 138347381.5693818 51416100.60151517 21530634.24182706 6343242.890677919 31669942.46736611 21786749.072317787 33363825.145180933 14148709.359994639 28999224.30486428 17174160.49757187 15898689.54180838 33258350.61439557 35674674.912379466 29681315.06938774 12094308.562976366 14741211.767505346 29702498.75970007 14161968.171498882 28577665.71822211 23493743.413992614 42528081.93813165 26141135.704812754 28868291.46298503 19360827.325826906 19551437.230711874 38596506.182302006 32492603.30904374 15314322.195357548 18876731.277144343 11500058.60813286 7250960.8745889 37141785.95894729 29765818.769606203 24015716.249999363 22326340.5769788 36980405.07268741 39660472.66130614 39729829.020240754 4561739.479956746 14823307.486629058 60812677.63623896 25776920.708658393 25167534.8923664 29904047.33198247 33631143.50789742 19946328.57284574 38231475.38221911 10107775.530135596 49790736.725492336 22616048.88430511 31126709.080546048 20507541.53357129 22599687.722413316 35919103.14373051 30565278.563035503 37989967.01154855 6119392.02368679 27622138.400007308 33362370.257052124 56000529.62205301 58942750.19278525 45357977.567245215 31134484.708191287 7503771.874669899 35732192.13925745 11215747.682922022 21207888.93611133 13611304.511567814 37599708.401324354 32402465.38996723 13360013.912924103 13390256.651758457 16754858.411354091 27025769.75678134 32838808.384610206 4217429.343771226 46997975.37026236 21528994.787465762 37303852.482024334 13583384.200202174 32006133.45019164 33206005.479147486 50966147.16519902 23463813.048247784 34627122.17700183 35986927.30908271 16015662.701791117 27044141.209813707 17632789.98401241 38741459.771542296 862159.4251219984 41340341.688349344 41879240.89005558 30950881.77961954 24021201.62388562 11409306.72812631 37776722.63704837 3549411.8896077313 40159947.96077624 53831239.967287 1582636.3846479265 15990343.254867261 16043484.86057057 29077774.296514798 1224740.3747742772 31500190.496209662 42460289.08435307 11257339.930176089 37571117.14874832 32041909.013883524 49225608.08179248 67243497.7466594 8955587.706298484 37919880.70418792 44706971.30581208 42644748.89923018 86391326.72155933 29377257.12329413 16997359.65657042 66663348.40838056 18414974.64993144 5770653.203148691 1685298.0704653587 24395657.210401826 44440345.21112419 13070688.636402104 11180216.60876464 37879420.667704724 3592822.6875858353 11618120.387489172 39657335.225898325 40846493.56035952 37059748.1107028 34971861.36463702 10517639.43363356 2937906.002888109 25956341.152104974 10779026.400325919 10530904.481408522 8800300.138194254 26472059.78959991 48370702.9853487 2948314.920160678 26934250.865921177 37487494.203009 20750360.617561 9645579.497287124 37934784.04814173 24431552.875709526 36019465.47060486 5436726.65121771 3560471.230353193 38196951.99941653 3160192.7085777456 20974100.396156784 15082604.27314318 8791711.980056217 24560055.353046518 15133872.052103387 13680634.98134424 36141402.46495588 18963304.926590864 6648140.826185377 43108539.155802794 44117739.426048964 39163815.34787229 38638674.750113085 14906498.262162728 39597601.46435675 36390570.46925192 30842989.506749883 24230506.99498237 51771869.1455213 21038296.352678563 50616109.10238299 51036143.65774345 20867236.67693796 12372937.684411725 39393300.02675693 10956422.032135932 11541433.306548068 13102564.998068972 36498510.87595263 58749595.35199888 15595185.39831971 37760145.90060509 37809271.75805597 22581597.10437545 29595394.188408095 15149342.360721849 32918272.12888007 67240082.80284521 25978698.53734907 21256904.082558468 30722210.863210034 24693079.080179807 31104428.819899514 16161091.327489605 25092321.325815998 23308533.78600789 21764945.472755108 24525006.954007402 12122019.833690912 37731871.11863156 40662589.50481072 32529416.27425106 79825800.92090812 36305290.17187621 36243893.08582207 11386657.371860694 19023490.009465564 35903263.16449065 11552809.304624619 21635547.432282187 23569243.568956014 42679064.79387385 36192864.70437644 16409895.540532062 4651492.934881852 3725582.004526028 40016318.04333584 26983985.940757148 17102051.683826238 8146680.921739275 6065770.246029159 23550342.05002751 7347195.833575575 52144983.94335854 4467996.300989009 32796133.802588627 44676803.89124289 19221657.423021954 37873235.33572595 7606035.60818528 20565393.361006852 19716198.535380255 22298583.712875918 23913989.733897552 29553673.6913578 7641571.964786075 8534729.352771517 8290195.072296016 25233801.089826763 13648170.833865775 47557073.56075849 43710771.93537757 37665329.0077068 41453084.485221036 19556203.043935895 68565839.48001982 13725946.204482414 27768557.310060404 40699864.741361946 16705155.423434975 31554572.95827601 26557130.318857383 37985046.088381134 20446616.700516313 17205519.481557768 33977319.565973796 33989096.37823776 35596840.00257076 34373601.734981425 14061391.464481914 40466975.76324578 34187945.53894452 27242199.88839522 29698933.472652853 23580189.27932129 23828232.998698313 36560904.15526814 37384815.824310176 35430059.84875645 34480093.10356488 3594642.9300082773 56957286.9987549 28260701.498718403 7636000.143185857 22304549.408865713 61539788.00822805 15745501.638053503 59436464.96982645 18702039.975836862 33961157.74939971 18638238.78757993 32187255.588583067 42949740.074838914 26931769.574494228 12841242.298621876 35474705.99079599 7343253.452493202 38872595.781616524 60275368.44196729 32376723.37352711 8722173.639903786 39811616.941454664 1612975.627031791 7591825.881496328 34477768.66394654 16871975.045086022 1244606.8323873985 18340380.274588432 2207384.7976766243 24479938.77053793 19504561.467034277 35599933.27135292 18365949.500448484 29844282.94660826 25418705.350911174 40574594.46797771 146971448.70071024 9036902.521843856 29530209.9287081 24198067.518452782 11920324.537502937 31297694.964606993 20686970.97193291 23721240.440561604 38087135.59218739 5379053.824914026 15794573.784749422 29385868.511015315 28592548.65041788 30687944.082578946 24519561.922878228 20626556.243365128 41567580.989353 3981201.1534987465 27877992.35887452 842722.9105504142 107933520.54516734 31049038.506193716 51633491.9304352 20939793.619490575 30130197.40045141 39682094.59938625 38745107.953621276 38931579.889145225 3607975.8001785805 2493972.2622950715 47549260.06360906 18689980.683546208 39623626.329585 42159706.277454205 15725122.61017354 41479387.963619575 27265655.018500216 37896529.78876522 38748599.79467771 6103599.406991534 38295940.14127904 56078495.1721269 48706007.256954625 27289060.09630065 22558983.722637795 21961863.260996286 27027351.190817438 29884746.72590246 13813699.80177523 23842392.745950826 53611430.7022878 12911679.49238254 11008399.642952757 64854014.14871719 18399017.235184807 21553074.88494302 18576760.5159241 26295013.68831701 72223296.56626381 20061649.17929654 459217.52508005017 15786675.510289077 37691358.822727405 36839836.13594497 32832597.323634245 18416097.762560055 26866782.475958604 29243508.460108444 18142794.45993346 22286562.737073768 39942767.18797624 25650992.77160711 30691996.605511937 1377887.2596697605 32768182.85979736 29185276.188958704 29734446.470534135 36139314.41084059 34047207.809721515 32808039.920367192 32178640.950243793 35094363.73104115 33025856.2440287 26236655.159832355 1232841.5278569611 20514612.817247406 34885687.13776003 22596089.611136474 32128245.545764945 14462259.426117854 38432799.748664536 18308138.903209336 16884585.879254907 11045835.57334968 20377385.15828004 26370821.45532752 22521143.944951355 34904389.61781625 39226959.429604374 35540699.932209924 44457387.95948703 24905050.228571266 38252673.46648587 35908801.08827684 32919124.349493355 33174519.40945852 9496985.067608057 15951371.404190289 43207013.02329536 15759849.575727133 34893473.89444665 38123959.2952575 32228796.02003158 40129839.04428369 38677651.88837831 13609003.144539211 27985903.069540936 2519759.9673495726 39725680.13078263 11872587.99651905 26538298.4948256 31669954.108382914 24669425.90522613 15200738.624808693 22350782.53415432 37273622.29948413 16069393.510267586 47299554.6841201 28360678.05773327 15526602.325199809 36529738.12812007 31803804.70137499 12429251.798428472 23029429.610023957 1293444.8746188409 12317652.261871452 14871236.28405103 20524284.27266044 56986208.21818483 15200103.19196192 48023574.06811784 35861856.17189222 35323416.1611742 23108704.27474525 70775047.12950246 23744896.310206495 48516558.91278567 11179828.565246658 13268415.541621625 6642326.6419237945 25973437.50842525 19452255.388435896 10309929.39433799 23095886.708194282 30387909.920159232 17837572.681822002 11581242.678735968 37301265.18239985 40237839.429657094 38638285.06920772 29206511.78229308 40388399.51486662 27227741.91829422 32823694.885638524 37368532.216405846 40848875.450785466 22826407.73780016 40632068.87413727 26182890.25851595 32908688.72330406 30056761.045992848 37932468.1318054 34634928.84595726 20401931.82449646 32259378.828672834 2653397.1694569397 18071617.399186164 32707722.684847448 23419750.035780113 24536354.258892473 15940409.373342931 36271625.18275347 59547531.08341983 22219023.462018274 28067590.262637343 48059517.09185586 37619838.27293832 31952176.466477536 18937865.026257213 26450835.548703995 12886299.515929779 34522290.87471455 27585738.73338952 37659469.27514785 34971409.01741344 26819541.550081495 43937609.92963718 8850462.695539955 2291155.4050495573 10146529.200620174 8327607.904975071 37791184.88321168 4940275.134787843 32310202.02747261 41428907.05867075 41321668.97642187 31610899.555072416 36540739.67049864 2280214.6767628817 29979439.362259455 25635563.766045924 18210615.984480567 19194977.967726 14437615.736595595 20260910.290488258 40317994.45144535 15605545.364974095 24669379.255384352 37276165.99334792 36444098.55063334 35809402.787606575 25845432.914138228 7774060.087308067 15053719.673959358 41317841.81544593 71527205.36808963 35451760.70124243 40300287.875684485 23969711.475857418 33200523.527757857 34600746.58633172 37768777.7087005 36941896.36412376 24369100.6063967 2063887.4503060929 30639272.88054699 34897754.72118752 18515995.105959173 31965262.647363707 17739236.434039585 36788175.70146716 64961144.98807572 77668194.58871292 35121883.35180809 6152294.859958803 32328120.87943483 48569480.96174094 31743819.675948076 12248148.824735682 8170469.464123604 38026563.54221342 35404722.99873058 15962590.346788587 5699655.349431616 13179250.043017143 32969792.63626508 8229210.841978451 37882024.3350145 25187397.610976838 2261283.6194221578 34284587.35592899 2948516.9756084466 38813139.557067126 39021944.19754969 7636901.139456652 4452069.259862784 33713274.79919824 20884229.362947695 23729537.867778827 6656052.225094523 34363573.881223485 39329337.07571153 36145892.834073186 34823739.74481504 24271062.532507826 30302263.30144054 33858108.66010068 17025297.14049971 11856184.178446436 2033747.6467769046 22419788.461746298 17817580.298296727 35290399.41113489 24435290.371807262 19683332.214230515 10547078.930756843 10500808.74652468 4774342.2947760895 12134231.199553428 32659794.381923422 30986990.636883616 40672216.321964666 30395674.679651394 35387505.44059013 16719960.05662083 33723751.3456514 39570980.33862244 28273581.53676263 38544298.365310155 44187692.757257015 31694152.264206283 25167712.095260225 25788825.718037747 35864868.35423605 42136896.2602905 10017368.728215287 28326133.690095905 37844980.6511891 4833315.370581554 21034417.124097813 38449617.06687404 27980389.736420132 64566704.673406705 21281229.718865085 47921624.93237799 8650793.772781948 48290845.27168407 34063643.45909482 24515798.542308833 26099958.303388696 33091699.73145815 28189059.830340263 23725499.53987437 30856422.395406637 44802814.71265588 10515364.101005774 10509214.01838375 65788146.38353936 441306.7288209393 37756367.40401545 37936535.764516406 20438784.698055856 340801.0581267895 4349326.233379195 21937106.377506614 35470924.36818062 25858777.200889323 8940004.268266296 13305645.402408827 7341980.828840466 39107288.6570336 13291764.484277 30865180.164029863 27116694.000154376 24065187.812200543 17677679.97480464 6031137.230347462 38079709.00989794 10709006.754526414 35255746.79722211 8031459.000247901 10883851.185745485 38575361.70858783 36127868.71495371 36731043.582380034 29217592.7898296 35759816.8568987 59157035.24098181 40086667.79056266 36932595.73906238 50686494.713878594 18561584.22528305 2374336.467215878 40062302.37791343 31586706.519523453 30658004.080205426 22170663.8103949 43588009.1594626 22892954.470456123 1982195.7294405801 1984445.0723643575 28041803.306430575 42929731.76202061 38340505.798713684 35446093.46113362 4584725.734562767 13160201.32200179 12950467.396614559 37503511.4421983 48063144.924477 27220371.45002134 22161924.250813983 35050058.61604679 44273013.43300963 13101304.374571115 13918011.330147771 24139301.588444702 26761903.48088138 1704411.2039589994 12033937.057432927 20648991.512304973 22534873.10127997 11737131.600184398 40138466.571830235 41444713.42157435 34625993.900680594 1212502.1291028121 5143255.875294931 41560909.580185324 31276909.666758485 27056110.863175616 39045728.14927834 23039450.011125293 6864991.720943581 35575844.83960382 19953999.185422122 27698701.85109304 36852435.9558375 34624842.78659234 34790441.22882356 43199274.42364693 18859768.66345014 13974380.163734557 38858472.28933931 24562342.630039524 31057056.504031084 30153939.36800445 33504467.86824057 70740109.98782782 26799771.09683468 38297648.617485106 19854325.816779025 1979074.0087871426 34102162.00562786 19611356.253550448 38183981.50958503 28085327.703981195 5207420.635657489 38642889.68148109 34695737.62403893 3065408.475461169 31824406.166924786 36951015.67417904 22402965.335128278 10342679.049543992 29756225.038502365 35727029.82265844 33433912.896579422 30697117.15881726 38791947.58331416 35132550.75094852 40029951.61881423 25497851.440955624 21304789.689116336 36452734.698792815 12056234.497807112 2123390.1387199755 31366764.072155017 20652115.605853382 33565223.84324313 24728830.182331704 37352321.27957208 16218044.480815466 28851877.308416866 25511621.052524123 28105451.438448574 35191452.516830854 24895537.823898327 22959127.461954437 24767487.038033027 24326293.21565852 33665715.730374455 40383293.116181575 6056456.368438115 24114557.866440777 39649884.86410336 42929925.836366646 98419433.09486133 20955739.170832627 35546499.66007624 2223656.8585331193 37908901.83539789 23600374.936246004 22986810.732494473 21218992.56851962 10662214.478328496 40502519.99380225 26307427.950002007 39792234.81398214 35117438.298705004 46293890.84717108 29028084.324643083 37640159.648974285 35535435.94147641 58807091.75126446 28794531.202406786 16395946.286424061 38047922.04587036 37517989.98123203 8703348.51044905 35831321.17173714 55343818.98686974 29004604.529848125 13345940.995661031 6067015.077647037 14662799.033509366 23377656.844285052 60790489.968999736 36566718.45276238 8824516.564193804 12450649.942551184 37819397.94645188 31402787.529059533 35660267.299519315 5794960.562798786 25249172.071364574 12454323.73614065 31291282.40448956 37574731.153813854 21147760.76469165 28659192.33011657 18488488.076945595 40271214.11189666 33814864.69022837 28094862.100119885 24346167.11595455 71650946.12794028 23931610.5576649 27102902.861555945 23413603.341210295 6910160.064290186 40660327.39729346 26666542.173108745 2637695.3372198944 19455029.855751947 21415243.517007407 37923625.083945975 37727692.58427112 17723788.460923072 23680154.554201122 21050002.171010178 20278071.012825433 32409396.120733503 43860817.558199696 22170717.495429453 39923153.63341663 35800550.40491549 45209275.79513426 39306387.21852599 3924952.869637368 27396970.555983435 29776087.822018396 4489690.466080053 13886409.251763789 28309842.215484682 39872559.212003455 28206580.183351167 33514920.2177045 28012820.530655727 3813824.30749366 38626249.7645172 23825395.587293085 29015859.635031965 8611677.913775414 33657506.39382838 38650555.52071802 4404734.038265275 24774155.57602172 28496915.544581294 32562462.850900974 37869811.439439215 20169792.927417316 11601979.421643596 67384480.44793563 13691156.855334802 25590197.31829691 11283700.077121213 32484826.339136492 17756958.164482225 10141495.80693168 7259449.733691598 33308412.54231542 15061799.005382974 39030519.81558424 9317851.261874666 18302267.93598282 26878636.191873398 34329552.844710134 2191595.735270711 33000616.239331312 33762311.751776405 29460983.21756175 33162237.82077669 29816276.146803804 16975555.263987288 10851944.472128227 30068747.606879804 32432789.81088753 3311367.524654477 39120585.609575756 8795446.46237264 22981906.365163457 7033497.547705332 31351804.14474286 29395967.228782818 32209374.923576478 18957872.29828363 13264832.414100027 38218584.790363476 4915987.163133941 39282653.757323585 37006022.44661179 44177740.63171422 25514810.154657744 36965487.69811158 14981292.957520576 18298487.448126078 20758270.117606897 29577979.836207185 37448738.36905871 11550202.925354915 33226270.23804523 24618737.04249654 31997090.255384654 29515293.63684518 30772733.645432364 12446886.771251542 29395707.806189854 7015944.911470181 16365087.474663943 19169576.71872638 44703551.47211666 46815917.23162131 11581166.364273002 20480297.058288466 8072297.783613934 28679968.57051284 27429000.826769322 37748226.40770499 39963335.14857376 37473115.110254854 31912647.54077075 10799633.730575915 31815209.393687036 12874851.656075947 33332526.20241393 18880461.110748593 30766088.876719233 67086385.62971221 25023594.2730363 25774018.609264184 12323089.003971042 5856448.081437142 42594967.77941684 5938087.008964537 32719648.15584693 38292653.47581489 653040.4530227205 1588216.1629866718 52857746.19908388 25816618.586532347 16126810.203115966 28647665.50050461 6198494.302475701 37805185.5125506 33281523.676644664 38771594.34574425 6087836.843146226 25432288.544078577 32866754.677116353 32230307.521114502 31420456.387216825 37467659.47424043 37399222.604239166 26503158.460788265 24456599.215881947 6275198.456267294 32230532.785801616 30108532.426542062 36971369.24682637 27288239.511389945 33591547.415575914 25521586.482770033 11657614.847269721 5347609.501652009 32020197.745933685 32171289.193173334 13888945.119873833 38005033.4814172 39555858.941209026 23273203.32217367 16504872.160502477 39761156.22124756 37435171.13303257 23488754.292809937 29847638.74256186 16875975.670267466 23576376.580133986 27000894.36198802 10377011.873883294 26569945.260504395 19600722.196409505 34599564.57426941 45544154.556764856 19241417.07843922 24361328.068996176 24788314.21659106 35979366.08225602 35849741.928653635 20083829.29021068 23086295.372759182 25633524.338365074 29319402.05587806 18702068.672654416 30422882.57849468 11908817.365798587 10527914.127250101 36712888.671236865 70766000.99427846 81738912.26307388 10634518.825126732 39057836.14087011 31628721.04793007 38149312.79339475 5362400.284369055 69701920.52219684 16542953.270310542 31982525.61474966 36046100.835893564 12372809.225445127 10025664.446889093 13734384.767884687 4617895.635305993 27338840.00891702 16712399.124905346 32659726.312511645 7346723.926447613 78149030.98722932 22201296.02418234 3700757.1215335773 35782623.93894653 11415462.84627347 8676519.051363083 32190430.201591156 20411881.6655145 31838503.427788615 7229934.183332212 25059243.76794965 11424654.117716337 6860595.427889131 29855222.667566676 15701811.759469045 21211969.395781912 23233096.159135293 27365468.05309888 34128467.282670856 23876065.69523357 34480728.128518574 6964086.486142633 32308996.304670766 46410499.78336221 24737901.291303046 30981178.743931442 37115080.69182118 28672625.89760257 25229108.353120465 32697743.97992408 36720664.13354461 41599398.25331663 11478785.601590618 23052424.28212135 22718263.791042257 37143693.30556352 25489280.724297266 38539170.81899902 34695446.55503248 35526168.0410324 12984695.645761704 33146629.12614451 11224631.254242482 23766682.440486357 42069190.31462773 26608630.009110235 5643797.768834391 31633494.265587978 18912488.87555155 20608948.431329586 3971427.7123777387 23649819.716474 38483782.19972999 5110956.552582515 41525956.82073436 4957359.620535513 25716368.894392695 34406460.56923136 41822963.23425843 19357665.245396987 37573470.94106199 42734832.49521849 44279525.421500936 18932341.193067506 30221649.999535047 44114129.89922605 19941833.813534275 41981352.11527777 36497677.89185796 17055852.611065965 73855081.7659724 16325870.35304511 35828774.66518198 12445243.825209277 32810545.450402144 30074028.45075652 21390562.000455476 32144115.765566822 12753129.118064674 27323520.499311242 25156732.940074716 27982203.342207547 38499114.60178883 4596286.144899421 28666691.52818575 78432310.88297844 2739845.5133833103 33628121.02919326 29162450.760962803 24624715.35638835 13830857.427308954 2699961.27442907 37051926.91443235 59153304.585402705 27392415.309941202 787338.03576972 12931725.935461577 21623515.02470084 7444439.759959455 23822833.98388158 32944100.567593426 21458215.7978706 10164125.076652877 13261169.204745237 32735403.64172135 27445212.870506708 30087669.36045213 9670769.422153896 9175091.695542678 2574968.005427789 22576551.247650336 37203869.71290325 31010064.152043268 38800031.927871265 6384165.2874826705 29572078.317298755 37263937.928932816 22079163.14731691 74503113.65248251 22165501.612409625 33604885.50956015 24235442.772963848 4531522.185289302 53380716.51872342 31242426.117634065 8885624.19368212 2574030.5677885734 56829642.62466201 19876526.352328107 6888256.089855928 6373173.746171673 11433749.42740527 6364752.857506752 32876877.471335337 36643573.10884403 26511375.718959842 25244868.069118835 3090968.253626271 1255586.6280783091 24318389.652331267 46049998.484520845 416783.34535701765 418385.1386147729 37323557.218187176 20902068.43263636 24383281.348108575 364545.15094207646 40184471.84051698 27017234.1498621 15332089.093499824 27141676.957042705 367836.6362652153 18468210.219530426 27613235.508401576 28402144.79998414 25389334.3357315 6316557.426838367 24717525.00793026 21554430.99206721 34038606.87676234 2183446.368809409 6577839.185429008 11343178.776917448 38797868.31356555 58477254.5284679 17034147.385145772 37962849.56437369 32777243.037117187 23559860.0438344 36341800.63876865 2544638.639086766 9425971.51065301 40098660.72077364 38784978.84997644 10230011.358984873 3761359.34302346 16969812.04800042 27194702.03234599 18681822.229032464 63919408.86709484 38093410.15322899 37163317.67230211 5875858.616006239 22705453.10548361 24147453.514484704 6326090.823561306 27627215.98559747 3047559.554284045 22642517.550094686 31372191.31987873 24825551.713403225 7745419.049156095 23599554.0719076 38476892.27996217 3059624.0574231204 28285273.269132428 27007816.105356432 464528.92152324837 464684.4632280237 34821293.77687371 29831768.734988138 23670134.494497143 27476294.20839648 21414483.756181788 18448442.424082253 36982864.693606965 25752131.34081316 32156791.60276255 4248962.098318747 33677766.38871387 38406920.92974763 24583846.56686708 30703204.52412392 49617421.27614498 29841825.66523865 450584.6606158564 39793567.89493659 30219762.668279514 2211416.3220465104 34642780.68620047 19552422.08381721 11837284.204906205 1146032.111280149 19870957.44128252 387916.2266344553 21599150.02850654 38401976.511495486 37809520.48148885 23930945.829158787 22028583.96789207 32030153.891295694 20712535.332148634 48474748.812032126 11284411.282983504 17934675.58460527 32052635.00805714 34912943.97916726 2365530.1734287054 14392039.06787458 13357109.908330759 24920651.202556625 27859532.782840364 29541478.04930864 26283233.055771884 21721124.3788491 31998050.851090576 40576608.36159296 20699339.463697083 32287428.945759308 34096375.29179764 39405024.3698092 29782077.626429707 26661089.097785626 23872229.718487877 22280186.86002198 10570553.676756645 20045285.771640148 22046380.892092627 25671364.918137908 34865973.71746024 15201085.453104898 29105842.46013553 43677884.10809152 47340861.39880883 13408657.263544418 31383050.937936347 23177250.89212201 33868065.26586151 17393500.704660285 3327341.1400314234 13053195.734736796 26598597.561696026 33926347.34677595 40051330.914378576 28841600.07082275 27705594.75309283 27587171.822001588 66523253.76355511 6295270.7121594325 30257105.533659134 41398307.596073985 19123058.137555853 15238742.69837427 82320746.75663939 32866113.897661753 9718401.100637047 33849162.040124856 54103552.961260505 25925894.875228588 33578471.41894856 22524426.982242063 24349956.08093014 26057292.03620366 7619040.042614889 36861726.14032144 33193074.018764384 6055226.116070064 42868137.3770151 36929913.80616449 28415485.875967138 38376471.52818893 74121242.03874443 44511376.64387101 38883021.938335866 35178922.091670305 49067952.9560946 13640313.18667108 23772689.18618891 34264072.45966211 19534038.624692507 32193743.503265236 38729940.96241008 33673103.50553076 19136642.432763193 14981836.534025036 24242943.891230084 24134782.365837786 29357884.923526183 29148480.754794892 27511578.42380587 36445461.00416352 21298274.551162034 7553350.051081442 41471763.57216319 30763625.342322465 12314747.978230536 21198086.700376187 15643578.046190491 27103319.581709955 31689727.93009912 29804135.629666444 32471890.226038616 33327974.632350292 33894112.85861272 53574413.118520364 29469480.70827513 31365225.031815063 28272968.512451623 34672029.92146157 14789921.611944525 23651694.419343486 25590891.85988446 35641809.59352637 13737177.729212714 3033553.4558658022 30159301.930528592 9560487.945647191 24433410.652697787 73035775.37017097 24689948.551136527 33973893.38054839 43369168.09132574 33550477.949647807 14957080.321257876 3041190.795883104 30485268.993426923 37577271.93961679 30062485.78176917 34485698.530408576 37847551.328090526 28808739.392682996 34840583.860949345 11275849.514477065 24417631.877983797 23341275.377010617 27915175.748377696 33079911.698413942 35973249.3247131 2456663.2495027413 30196536.954346452 38867787.552394435 10276761.60069441 52539479.55493801 38905839.951274365 9972869.35110191 34047921.721270345 24840221.247193795 18600480.182840977 25572288.94309211 27263872.43383796 16287333.248660196 42399201.8252909 477574.1990907668 30398090.29344044 68101621.75532232 33070261.426730663 29301626.32357642 25684142.476531003 28275549.772385325 38159820.62923325 49322202.69247684 35401889.22982252 21757952.81962138 32622740.00791673 1543110.8322385142 37777477.39640531 27396660.52142857 14501537.633959481 21569926.055284437 21947217.65668933 12579524.45128021 30878607.006944623 46552976.17650779 31849229.88619972 18704540.464273434 21240328.81171394 2288349.190937915 37777773.67422887 34637002.32532316 33422947.167706326 3573374.2154354886 21607499.21283719 44182603.24870376 34581904.16083281 28163423.505317893 39011510.02463281 17943255.657484327 36387057.4484304 21381211.56200977 36344834.17903748 33105248.38228776 31012861.76078364 37663270.759848624 38949603.54494437 17747671.6937881 19615086.033052977 18057789.402350955 22783680.26769866 36640178.11028989 27436287.56196145 21388193.466641456 33447550.143503346 2207713.246731668 35083577.30351381 10824399.76831267 12070089.250531679 39982714.619472 42939186.55723051 34346930.347943045 14513741.095205095 32541576.903111063 32051360.466301598 28958947.98929633 30880399.747320943 33382012.12716151 34995632.14693785 26305310.701155122 36750491.6463006 32673486.3500723 38088244.81162796 26207879.393511254 20616507.843593605 43412785.555963784 23233365.051427916 31065772.568013478 29589031.43872603 27824109.298346195 36645312.63562572 33981920.617851526 3764702.801613562 18822228.66372442 37552726.15446344 34531249.31350241 44033572.05859918 33537730.74054945 32945170.238809295 12840838.439660044 20386381.402150422 53400799.16391799 3820918.2325871936 17861954.199152082 26162788.197429277 32684172.75946176 15115645.945934057 66974739.86518761 26033754.53701412 22601254.276853092 27588379.38650379 27236503.18035838 45522323.62520072 28490573.050855182 10850321.033819025 24916030.90442678 18349757.32889973 7604580.536595069 36055192.24077545 20840434.93636436 30733296.79484101 8998556.379381208 41268362.01733281 67388683.55597049 32866184.447687376 36519072.11979182 4594625.680488605 36081847.58163684 25526937.393754333 38154789.76697014 33622207.88993627 20245941.067675784 23534870.55826847 36985069.33989493 24750518.043786015 24680947.981645927 38699229.41244189 37036657.15700535 30798432.234810773 18453418.96368148 16538057.662331749 32929659.258305427 24334241.54836259 36339814.142267756 10793433.552626206 38597944.746257074 40048821.236559026 16381486.160138512 33522799.019318715 43125880.01336231 26763170.07871194 461743.49237024796 464590.64267040964 48260747.951213606 33663669.24220207 19162651.119950745 32989906.68360135 36726590.28090534 19831496.52931504 10129063.697834708 32258777.03967565 43326152.88213136 61187605.343073435 38992279.81418648 32884297.670206565 37832940.19347972 20067136.541981943 30208150.425025348 13496034.239012003 5711995.53363844 38496520.67447648 15833758.268997163 5720818.919228266 19065671.05469283 35158392.56875025 37396100.54256858 25776666.54029709 35567039.40242102 18132569.35033191 25907789.995188814 24119126.65141229 37431619.99594563 22647096.118684698 66623248.000399224 38470432.46879179 31493641.749259472 29516752.02350326 413620.0822844697 33157897.46716571 38154871.694445826 21909509.621424045 33352214.09692874 21224143.638033655 27334699.859484524 34031218.74518252 38177799.12516284 379542.9496162038 37587455.35081829 13716188.680946212 54991919.06677482 2104646.981590883 32295504.96827264 26459898.90043406 23206223.690927424 53118491.85423946 31661395.85576085 6042776.465581723 38748968.730091214 12514137.169441853 351783.4339645429 30128916.440760635 33160975.698467746 43670797.00791492 11601591.054845989 5788305.0540100625 5824336.059708373 27658688.067050997 28274139.854565606 17475689.207200333 38632035.82916869 1057366.8487102531 6113786.651946107 29293902.337085925 31738198.881821834 31134231.707671177 28351461.92637261 36626550.61741022 13356771.539283657 7330726.455727376 38113096.54695147 24027569.000703655 409039.18480213627 20127979.85995355 24851311.710277118 23607351.183357492 34049620.76642855 43574895.19340316 13238304.224488705 37144040.97659066 385703.0407867145 386578.5736271698 17183632.772361297 37583612.79953632 129099585.87857512 33301451.078134272 45651139.239310265 673461.761432535 33214571.206194643 27040889.32573874 32654096.288150318 35960150.05501044 10158346.140411196 19167497.0740357 23505498.13962977 23290043.35988441 10376642.892056743 49015159.4616709 62791927.79447018 9955161.375535885 39343367.423640504 16899315.065794583 33742650.63987114 25594853.709887672 85417152.5298083 23661943.76412546 15033675.699479338 44551453.64704268 28428523.52722696 25048873.2000019 6100904.747595284 208292.23799326565 24471951.03641509 51827456.648477145 32702529.520810492 32513510.797697395 39645327.086931966 12790335.352390392 20136868.309863403 52188357.1428533 21676817.897063322 41123667.562537365 41754124.8788257 26673318.578106318 27532960.2683782 32333799.164655544 33282747.290870253 55026656.86100981 41469511.50203742 34465869.08611527 22443611.37686315 27616961.553307563 53849851.73825097 47103772.98150444 27233514.173444454 17636570.956702527 31296862.170680117 36629631.32552072 38324488.00995626 37607948.25449791 19623104.618229456 32513789.99275106 23602305.874144733 22139321.963831507 16302483.565733716 20918379.84509243 33017563.521068107 48931456.17809388 55174859.99879335 59465791.234920874 30865409.257409442 37179750.820223816 22969658.915592924 32892928.472031884 33016041.366373695 18530010.756009605 32205945.17968452 35229565.857561104 18577791.659920238 31671133.543862727 36562274.94011525 20017495.332928266 22904852.283973433 32768084.291695263 24880975.921451714 35383657.34686906 24107364.557040703 48741810.020800345 17093332.164598815 16307096.443057938 13087740.088023461 38353830.75179966 41449483.209925145 16047874.039677689 24075369.906351127 43190891.29832177 25461983.33306011 33453336.56168539 33105828.4467314 33927059.934892766 23239611.100501895 22675947.4107149 43813416.52731808 21809932.525390103 10866097.535071887 37568542.5148995 7179849.758735109 29281578.46022806 36946791.46580816 52168860.74326149 7843672.8280399125 1501755.4940050726 46274802.71967447 34038816.6684506 8531996.465878682 25017956.99531018 24399644.61507591 33327544.01564651 205653.07622046937 38310064.40101164 17622608.09917067 34705944.66534256 36190032.00847193 34827122.223741904 10593432.071034046 37757569.382990055 37994727.8827675 38348256.45112683 38143759.838301525 14291943.865104625 37736025.58809555 38102729.42989496 37289567.52955807 33140772.761677902 35414558.28580272 32069091.709510364 42993947.030977264 35046315.97834631 35520569.98516365 30782362.773660827 25899043.50821759 41789225.81310481 37087186.9678219 33104437.98551052 37672155.058351465 16058920.555162251 31982382.71436143 20769273.231594887 32424773.641556557 34056756.34993735 4227267.961482373 19176235.48023513 37129923.02850222 32347539.24740667 62954606.33224526 41515929.60798419 37978084.1586387 30650233.34080205 55011400.13073622 37398832.139678665 34783901.09717455 39484639.09702608 40966928.65741226 37735222.641629174 36504471.022836104 35738125.72009751 43103939.03518738 25705042.390145365 14467592.637384837 37598791.306286186 21509666.399851706 37193636.27401542 23579027.63481443 31895495.33546795 33917571.115165494 21785648.062209036 36619177.498329 36972237.58223709 36897875.593967356 37362423.090966776 39108094.56289275 19808043.518972673 35221712.279924326 33463669.59953851 29866813.035287652 26058952.767462227 23965850.356849585 31600709.3283359 5729445.582307816 19836137.182213485 24887135.87859487 33102614.957563654 39128634.73570782 25083612.43143602 27413996.685698785 35182377.47079142 4186217.7757793493 4178342.772501353 4877523.88357979 18911164.33620896 35738563.30445251 33694438.52695235 8196917.524050803 33230575.554290786 36344593.83365844 39495056.74187575 4817863.080262611 41992190.24046103 24967694.6708714 43623483.92374972 37891020.4213922 36161720.81284989 30685606.703207582 25186219.984710503 33950456.97527915 27790670.49141076 36181846.85639315 38313092.12700871 33944864.454188526 25372763.020036552 37748631.07764501 29692166.88801815 41133153.48710034 32724778.65097918 36291992.59543948 20008416.68649374 2088280.9315160557 47256349.0174567 38757761.41680727 35006499.62606536 31205912.37233152 34794980.56723609 20402332.237901065 28868531.606545843 19236520.97574515 26764777.482994534 34342694.01153066 30881547.509451948 37693490.08095876 11287168.454169571 17234612.216191012 38344460.53811361 32908609.32136889 12120577.290397884 29264474.390832774 48154268.75243068 36874086.0382688 25904120.633733343 21061591.23569312 37345913.07334969 37795615.356455185 4067612.3026079102 21867216.375157405 16874027.48965313 35645652.00241552 38487879.81870826 30824849.186304975 2747100.949636119 25918468.063882757 24172786.729929604 26066969.329621892 81801498.5793412 36536920.37487373 34614278.13727066 29710524.173650607 36848125.44958237 34776584.70591678 6693684.057409564 37718530.124760225 27136118.132219862 36974686.461157545 35781347.21853525 34404258.564124785 825751.1253139935 44760609.88494361 27714355.649318855 36990077.854472525 38562321.90605743 53777317.091939345 4939423.122005557 32935417.158955574 35488001.93123594 42883013.037474245 38162048.57447698 34091111.4348195 34303949.387726985 24732246.947820783 4960322.65117278 15028124.635720512 33031455.025335014 31186942.258376677 28402592.954579487 24777760.473277055 37028051.59062694 36427665.98231373 31526153.69866082 28809049.3714941 10293040.626598716 12227709.120574312 38187264.578760184 26388000.219358325 30311647.2661168 26313572.665985644 21056206.57336674 33768055.70200914 25525861.81478544 38867143.30762166 4655807.8735587625 14306048.364084544 13019076.360923039 30710800.28561832 37295931.99609214 34530280.04893964 33066878.891543943 41505009.62953647 27033268.371538766 12687599.299162922 5804030.939331602 5775016.934416217 42091099.96449997 27091480.96623663 7281265.973923292 28130319.271059047 69888514.46887697 38743927.5184033 27865779.858179204 37156314.93051285 36047873.52116663 17961757.77166663 31585837.443503547 32884657.120797765 15134941.176356334 4385754.561529867 7294263.334773556 38777697.598821044 3512755.1942505226 15144941.835038615 38341749.79173745 32186426.177679174 36485028.83626497 34382355.82232112 18739651.306333307 36200500.66954521 50938470.26313698 6018736.53009407 60616084.35437663 15747440.667533292 40468553.612362824 34662187.51937639 21172534.134116106 39875094.39628015 33156510.419539966 35825459.76138202 16525681.792831069 15876299.249805156 28837475.609761458 32665072.200359706 37158632.33049756 13844431.223621674 40345105.872285075 35237760.7993031 17857007.307330817 41686984.85027244 30863891.29454753 47644773.9739558 37680478.24864368 38147138.89232619 47978883.2575092 36897260.66003611 33154328.115241103 35194146.80211724 20783323.873549335 39586938.28638845 39498582.866354816 37121631.68865034 6277633.217783191 8641032.386466207 37072196.93466985 34975696.152634196 35695200.68374219 28559707.664036542 54147268.94168252 42077905.00371349 33188796.58782118 4209525.883569931 4311195.778010347 32740922.381868705 9786672.193423435 43708510.125586115 27726288.034211263 25426307.81788366 5554662.305049506 12015120.845057251 49895405.063180804 19812022.489833534 39008922.86592515 33589433.4123383 49801798.78444105 27545738.511894386 33861858.93225439 45290069.74206231 33178721.58301648 18059686.104171593 33705115.04662553 33040659.47332772 22362781.559698265 34158880.06504106 23852283.13552771 34989182.50954158 5185943.6563626295 20945476.394477364 26852598.465752553 43217560.99856661 23916830.04395736 26088705.541879546 16992687.221197642 43884350.202525385 29964590.607850496 34209102.689445466 12587426.871043002 40420313.28144671 35987850.513009086 40867526.01946565 3924722.1701277075 40392860.568292685 25201098.722418074 32969641.58345004 17529018.083762657 26295498.62056133 28243106.899068452 33047047.7224322 26826862.54710847 34606387.80705051 31017831.522796646 22360945.767585833 2130429.8652749695 34601753.81333494 31564288.04480207 42671277.0981303 31691227.574539226 27869022.14787302 37924522.11865666 37791041.14824874 10127052.305703448 8515238.206444835 15268576.888732916 17512081.639748756 23903521.765304826 18277621.8797577 40480142.49976901 35808331.56892979 36228272.74911137 37661609.963439815 455881.22207845544 25197835.294347852 38074877.568574324 41851598.94904614 34732738.05978639 38501442.02130026 38129309.13193437 35754935.67841787 39598885.632252835 36513941.83564884 33774235.42811732 32660512.03246418 40062506.69008724 17559386.136419598 36212564.1571474 35335796.77350204 36977574.15846229 30728990.53265637 33650624.827716775 35066175.51278888 22584984.757095817 16809647.916244626 41859049.61856779 74244789.93364762 19144480.956549812 37031824.612694725 33061349.429922815 25024650.57293432 37701012.4772428 17543654.238759313 32654591.05570018 18800169.123502426 30508729.385629527 33190568.514193486 12387880.804201523 37632062.9926144 24507814.31329357 20536631.200413525 34502268.85865517 25565922.014924414 41401158.724382795 32881788.812834587 34267705.65800567 22076101.3177368 33743770.944127165 39493333.51575741 16169869.02272162 30393625.84252022 20371916.48318983 29924844.570100125 21233588.780162916 20755631.457887474 21268883.153796352 24585885.56271524 44041083.01919625 30978401.735739987 39452081.29787638 36916551.53691781 33024666.582859006 4416639.635734296 7580849.531563192 34622999.492117025 26292847.14627662 39870821.54249283 35109094.65647272 31971884.625910785 41344787.073034875 35579617.87675156 41097040.335552506 32404533.12491066 31126784.522716817 32561010.630456857 37557680.8652658 33200271.21029261 39506419.863733165 41886729.26846194 41951881.76484836 35238870.370435685 41697315.06317223 39163276.000053 36723853.00062682 20533488.44080629 36305320.93099797 35070370.62883491 33398286.844900873 34387928.27666369 22482402.659408554 33100020.755553387 28704187.77626725 25900737.519218653 34693123.266796306 37752413.662757225 33238022.084060498 33637910.48054016 38522116.28307469 31530219.956255898 39098823.510312565 42344625.01643761 26156789.453673337 36676860.24940002 8462120.524427067 5413322.77089482 37192064.32488423 37116834.971227534 14926819.182091894 33778601.4867277 31344774.583490364 18125688.89342353 33672367.12007051 30340826.580602273 26047953.520040963 15074966.439222075 34108577.47732692 4434989.849020577 29601481.136838038 32106546.324931677 38204965.042508505 38576204.40139736 37850018.14210936 4342837.967522594 20943092.562592372 18926475.356500063 28071157.419165317 31900209.619263686 37353621.10096963 15957305.066617034 35062095.209519126 8586885.757571762 40359449.294199385 40447100.33692788 35735538.29824379 36917683.03729212 34555759.02832984 33721765.544322744 15954146.127894312 35334258.81806791 7720346.683529501 38665468.31858358 37147520.97621559 38525131.078259066 36828865.778684266 38468946.95349765 32430826.419925623 27190260.89177649 30820985.250773482