# vtk DataFile Version 2.0
Really cool data
ASCII
DATASET POLYDATA
POINTS 2242 float
10.0 25.0 0
9.999999999999998 2.5 0
15.0 2.5 0
15.0 12.5 0
20.0 12.5 0
20.0 2.5 0
25.0 2.5 0
25.0 20.0 0
13.015625 5.0 0
12.5 5.515625 0
11.984375 5.0 0
12.5 4.484375 0
23.015625 5.0 0
22.5 5.515625 0
21.984375 5.0 0
22.5 4.484375 0
13.015625 21.5 0
12.5 22.015625 0
11.984375 21.5 0
12.5 20.984375 0
23.015625 17.5 0
22.5 18.015625 0
21.984375 17.5 0
22.5 16.984375 0
12.5 15.5 0
20.0 15.5 0
20.0 14.5 0
12.5 14.5 0
10.0 24.63709677361402 0
10.0 24.27419354592701 0
10.0 23.91129031775874 0
9.999999999999996 23.54838709246676 0
10.0 23.18548386794702 0
10.0 22.82258064299358 0
10.0 22.45967741670554 0
10.0 22.09677418897655 0
10.0 21.73387095986818 0
10.0 21.37096773248194 0
9.999999999999998 21.00806450811888 0
10.0 20.6451612807928 0
10.0 20.28225805407666 0
9.999999999999998 19.9193548266023 0
10.0 19.5564515987474 0
9.999999999999998 19.19354837138494 0
10.0 18.83064514499617 0
10.0 18.46774191704055 0
10.0 18.10483869087001 0
10.0 17.74193546347678 0
10.0 17.37903223681661 0
10.0 17.01612900940379 0
10.0 16.65322578413419 0
10.0 16.29032255642479 0
9.999999999999998 15.92741932834607 0
9.999999999999998 15.56451610131936 0
10.0 15.20161287375545 0
9.999999999999998 14.83870964642377 0
9.999999999999998 14.47580642010495 0
10.0 14.11290319369939 0
10.0 13.74999996694269 0
9.999999999999998 13.38709674181718 0
9.999999999999998 13.02419351686376 0
9.999999999999998 12.66129029367583 0
9.999999999999998 12.29838706999966 0
9.999999999999998 11.93548384555825 0
10.0 11.57258062117281 0
9.999999999999998 11.20967739572134 0
10.0 10.84677417031325 0
9.999999999999998 10.48387094675739 0
10.0 10.12096772123179 0
9.999999999999998 9.75806449698064 0
10.0 9.395161271231192 0
9.999999999999998 9.032258046482013 0
10.0 8.669354822118947 0
10.0 8.306451597138944 0
9.999999999999998 7.94354837200364 0
9.999999999999998 7.580645146620729 0
9.999999999999998 7.217741922905391 0
9.999999999999996 6.854838700199402 0
9.999999999999998 6.491935475456518 0
9.999999999999998 6.129032249693084 0
9.999999999999998 5.766129024955096 0
9.999999999999998 5.403225801332082 0
9.999999999999996 5.040322577682138 0
9.999999999999998 4.677419353225353 0
9.999999999999996 4.314516127429037 0
9.999999999999996 3.951612901263398 0
10.0 3.588709677867029 0
9.999999999999998 3.225806452333023 0
9.999999999999998 2.862903226670315 0
10.35714285661005 2.5 0
10.71428571213589 2.5 0
11.07142857046827 2.5 0
11.42857142735092 2.5 0
11.7857142850142 2.5 0
12.14285714287573 2.5 0
12.49999999995663 2.5 0
12.85714285391503 2.5 0
13.21428571211111 2.5 0
13.57142856468173 2.5 0
13.92857141917294 2.5 0
14.28571427871344 2.5 0
14.64285713891684 2.5 0
15.0 2.857142857852235 0
15.0 3.21428571521503 0
15.0 3.571428572726516 0
15.0 3.928571430603533 0
15.0 4.285714287978719 0
15.0 4.642857145514987 0
15.0 5.000000002580401 0
15.0 5.357142861368146 0
15.0 5.714285719647869 0
15.0 6.071428578485179 0
15.0 6.428571437049889 0
15.0 6.785714296048281 0
15.0 7.142857154135942 0
15.0 7.500000011102228 0
15.0 7.857142866965729 0
15.0 8.214285723560286 0
15.0 8.571428580253976 0
15.0 8.92857143590683 0
15.0 9.285714290295818 0
15.0 9.642857145775196 0
15.0 10.00000000179977 0
15.0 10.35714285775001 0
15.0 10.71428571439413 0
15.0 11.07142857145955 0
15.0 11.42857142775673 0
15.0 11.78571428532397 0
15.0 12.14285714320719 0
15.3571428591223 12.5 0
15.71428571719138 12.5 0
16.07142857423201 12.5 0
16.42857142974857 12.5 0
16.7857142846084 12.5 0
17.14285714112862 12.5 0
17.49999999772317 12.5 0
17.85714285297952 12.5 0
18.21428571083795 12.5 0
18.57142855939082 12.5 0
18.92857141386655 12.5 0
19.28571427430228 12.5 0
19.64285713574168 12.5 0
20.0 12.14285714165368 0
20.0 11.78571428436058 0
20.0 11.42857142737726 0
20.0 11.07142856955135 0
20.0 10.71428571316279 0
20.0 10.35714285484745 0
20.0 9.999999995955926 0
20.0 9.642857135639455 0
20.0 9.285714276871845 0
20.0 8.928571418674213 0
20.0 8.57142856231663 0
20.0 8.214285703660536 0
20.0 7.857142844508807 0
20.0 7.499999985406642 0
20.0 7.142857130003156 0
20.0 6.785714275659092 0
20.0 6.428571419530735 0
20.0 6.071428563699761 0
20.0 5.714285706611115 0
20.0 5.357142850049079 0
20.0 4.999999993527312 0
20.0 4.642857137101577 0
20.0 4.285714282125578 0
20.0 3.928571425551149 0
20.0 3.571428569906041 0
20.0 3.214285713520577 0
20.0 2.857142857692707 0
20.35714285650163 2.5 0
20.71428571178895 2.5 0
21.07142856795603 2.5 0
21.42857142687388 2.5 0
21.78571428441634 2.5 0
22.14285713997626 2.5 0
22.50000000002168 2.5 0
22.85714285703133 2.5 0
23.21428571221953 2.5 0
23.57142856194335 2.5 0
23.9285714186928 2.5 0
24.28571427764782 2.5 0
24.64285713873408 2.5 0
25.0 2.864583333579086 0
25.0 3.229166667418379 0
25.0 3.593750001170938 0
25.0 3.958333335039145 0
25.0 4.322916669051911 0
25.0 4.6875000031225 0
25.0 5.052083336528115 0
25.0 5.416666669875903 0
25.0 5.781250004033231 0
25.0 6.14583333738102 0
25.0 6.510416671422698 0
25.0 6.875000005290905 0
25.0 7.239583339506053 0
25.0 7.604166674125976 0
25.0 7.968750007979722 0
25.0 8.33333334199249 0
25.0 8.697916675860695 0
25.0 9.062500009671076 0
25.0 9.427083343134518 0
25.0 9.791666678332678 0
25.0 10.15625001249001 0
25.0 10.52083334768817 0
25.0 10.8854166811516 0
25.0 11.25000001496198 0
25.0 11.61458334738459 0
25.0 11.97916667946025 0
25.0 12.34375001292369 0
25.0 12.70833334511499 0
25.0 13.07291667765324 0
25.0 13.43750001088538 0
25.0 13.80208334365493 0
25.0 14.16666667353327 0
25.0 14.53125000442354 0
25.0 14.89583333573303 0
25.0 15.26041666500421 0
25.0 15.62499999488256 0
25.0 15.98958332836045 0
25.0 16.35416666104326 0
25.0 16.71874999219373 0
25.0 17.08333332471754 0
25.0 17.44791665847009 0
25.0 17.81249999193352 0
25.0 18.17708332505002 0
25.0 18.54166665810869 0
25.0 18.9062499938851 0
25.0 19.2708333296615 0
25.0 19.63541666578485 0
24.65909090697006 20.11363636434331 0
24.31818181387862 20.22727272870713 0
23.97727272112545 20.34090909295818 0
23.63636362933978 20.45454545688674 0
23.29545454074166 20.56818181975278 0
22.95454545175678 20.68181818274774 0
22.61363635870555 20.79545454709815 0
22.27272726938004 20.90909091020665 0
21.93181817642107 21.02272727452631 0
21.59090908415283 21.13636363861572 0
21.24999999070893 21.25000000309703 0
20.909090898365 21.36363636721167 0
20.5681818062032 21.4772727312656 0
20.22727271532826 21.59090909489058 0
19.88636362288735 21.70454545903755 0
19.54545453222531 21.81818182259157 0
19.20454544067146 21.93181818644285 0
18.86363634917439 22.0454545502752 0
18.52272726008306 22.15909091330565 0
18.18181816691119 22.27272727769627 0
17.84090907624678 22.38636364125107 0
17.49999998161302 22.500000006129 0
17.15909089129634 22.61363636956789 0
16.81818180107666 22.72727273297446 0
16.47727271035784 22.84090909654739 0
16.13636362113641 22.9545454596212 0
15.79545453028867 23.06818182323711 0
15.4545454400335 23.18181818665549 0
15.11363634812483 23.29545455062506 0
14.77272725866684 23.40909091377772 0
14.43181816866006 23.52272727711332 0
14.09090907805834 23.63636364064723 0
13.74999998745307 23.75000000418231 0
13.40909089754563 23.86363636748479 0
13.06818180839043 23.97727273053652 0
12.72727271853859 24.09090909382047 0
12.38636362812021 24.20454545729326 0
12.04545453791708 24.31818182069431 0
11.70454544876188 24.43181818374604 0
11.36363635991656 24.54545454669448 0
11.02272727049761 24.65909090983413 0
10.68181818161208 24.77272727279597 0
10.34090909059876 24.88636363646708 0
12.86460193220061 5.364601935898014 0
12.13539806564783 5.364601933746452 0
12.13539806779939 4.635398064101986 0
12.86460193435217 4.635398066253548 0
22.86460193304701 5.364601935051613 0
22.13539806478868 5.364601932887309 0
22.13539806695299 4.635398064948387 0
22.86460193521132 4.635398067112691 0
12.86460193226812 21.86460193583051 0
12.13539806566697 21.86460193376559 0
12.13539806773188 21.13539806416949 0
12.86460193433303 21.13539806623441 0
22.86460193292542 17.86460193517321 0
22.13539806482679 17.86460193292542 0
22.13539806707458 17.13539806482679 0
22.86460193517321 17.13539806707458 0
13.0357142863834 15.5 0
13.57142857334916 15.5 0
14.10714285783675 15.5 0
14.64285714470339 15.5 0
15.17857143070267 15.5 0
15.71428571720997 15.5 0
16.25000000702564 15.5 0
16.78571428904744 15.5 0
17.32142857412979 15.5 0
17.8571428511085 15.5 0
18.39285713616606 15.5 0
18.92857142211578 15.5 0
19.46428571101452 15.5 0
20.0 14.99999999601014 0
19.46428571160309 14.5 0
18.92857142040583 14.5 0
18.39285713577575 14.5 0
17.85714284336419 14.5 0
17.32142855637984 14.5 0
16.7857142655791 14.5 0
16.2499999775787 14.5 0
15.71428569556309 14.5 0
15.17857141150299 14.5 0
14.64285712475407 14.5 0
14.10714284117721 14.5 0
13.57142856006613 14.5 0
13.03571428124737 14.5 0
12.5 14.99999999867727 0
15.41980665501261 20.41849193247834 0
12.74938305731336 7.704838830014981 0
13.41868502526956 18.72278235416465 0
20.56318324480378 15.05033313885141 0
11.30429764785485 14.42126388473336 0
23.00144715065937 3.382087466442355 0
24.58122313803725 9.0514954930442 0
17.2019611146112 21.18251614005223 0
21.46826800364537 16.7058838493587 0
15.40536736833206 21.40453599718661 0
11.6560455233812 8.263768405332604 0
23.25324747581664 5.343721306183667 0
20.93856486387202 20.97726001589274 0
14.63109428348787 19.2692925174914 0
22.78217763033484 9.40609260271339 0
22.2500047291525 7.705045178504822 0
23.4361340074204 19.83029490508527 0
20.78054153428364 20.68270532758896 0
24.64256136076269 3.278777724555763 0
23.03362118254289 12.29491697362919 0
11.21926106630527 7.225833725255179 0
21.07374114521554 13.96297876780058 0
13.39109013747239 21.71189103889487 0
22.2282982904073 10.71161414545826 0
13.127456852534 2.790459218432689 0
12.17746595128304 7.802063322126698 0
23.34239471673601 8.2647858423186 0
10.37050070275211 22.55125738861871 0
18.96774335351016 17.58813541546175 0
20.55283624870124 14.39333547253263 0
20.25146421364067 10.18519978283979 0
24.66655112183221 14.24048800864031 0
23.88759716911574 19.37808617933865 0
19.95414478277097 13.95594812886754 0
23.17781066038578 4.670603899924226 0
20.31510967314858 14.73396991695932 0
21.60195191973278 10.34677095407434 0
20.98886424812216 2.905311131086751 0
18.81423089837114 19.72308060621638 0
12.66342956186402 16.28223509129086 0
24.5941054660351 19.70668810768257 0
14.81339447901161 22.16721986083046 0
14.17314304091881 9.115776889183143 0
24.01573615800802 17.35273653604738 0
14.56586829267885 22.50792701824763 0
11.27071373077175 2.770349887974871 0
21.64205692730605 3.657211574867568 0
19.96514544172333 19.73800858156628 0
13.38325988274683 7.870787832773904 0
10.67580156279415 7.848513373427697 0
23.48660078790351 4.051679177825655 0
22.80473509264991 13.40780875974273 0
23.93307870931873 10.47239840708124 0
20.18113307943126 20.09313322664158 0
20.2530960609856 12.43462713366654 0
21.6163857117452 7.870473753509135 0
12.84422219866041 8.395191575255716 0
10.73971920459884 9.766010246479803 0
17.47310688711849 20.56732780974763 0
10.98995090262851 2.905999113077929 0
12.21063394065552 9.412167741663907 0
23.3179034289597 9.540249261657541 0
11.64320825860617 3.653809730384197 0
10.30116583484144 24.02992213910947 0
21.47271548021125 12.68880258753739 0
13.07366423597799 22.1962807888257 0
21.97335487835227 7.854137833612079 0
22.15522138518615 8.395140548588728 0
10.89449900848895 13.59824932051614 0
23.97279477109737 15.19478934089208 0
21.58127427836274 10.75662008773534 0
20.8446011133816 17.76189728823248 0
23.47843165596472 14.15180183365094 0
10.28536024121287 13.20226364571999 0
12.34669168644953 17.97919933303627 0
23.24985315634763 10.75090142246485 0
24.02836823237681 13.5231716097069 0
19.56077738281817 20.46175279471868 0
24.61014376125706 15.41347492316043 0
24.70579538189371 8.266454294177898 0
20.96166095937449 15.05332071394419 0
21.0897490249079 12.52544098729599 0
23.27040213738967 18.86261985123594 0
21.89533198179537 15.18516911606484 0
13.11685672309373 22.8896778682853 0
11.25239557660427 12.28769737540932 0
14.64358863077907 4.456583105429522 0
10.83536730138735 23.03757693695845 0
12.92438280554894 20.14917041765733 0
20.34996913300263 4.006330070997106 0
11.68480966942388 11.24338737891779 0
22.83674139634404 7.478294211935427 0
20.35629048190163 4.456427159253398 0
23.9390816387266 5.055961558792685 0
10.76644125013489 20.56732910611589 0
14.24687774128304 4.46441554116771 0
13.40404875341311 10.30375239896408 0
11.12359349553609 20.44033852847337 0
23.6824295271049 12.54670085362942 0
10.30453353944807 10.69682848030145 0
16.25257691985473 19.52136312466589 0
10.96072647659538 18.23828453238994 0
15.48594057603947 19.34788271506269 0
22.35427582600348 19.80386114588913 0
22.02838413048246 14.70577288264167 0
21.21115816389798 11.2952361754953 0
17.22004438390705 16.55735702385909 0
21.62142726459616 6.553771013417709 0
24.63954671956925 5.621198980864397 0
11.86369036353403 23.91456927985836 0
24.73370993881735 17.56568714544504 0
11.02449381440413 21.65110051715775 0
21.00389970016083 10.81772982221127 0
12.02132694036423 14.67026710232373 0
24.67557643429441 3.840654806077681 0
11.22636976177513 20.03561645410703 0
22.79397917253338 4.204632962422946 0
13.96480671845632 3.298125180454966 0
23.9289963430859 8.661418243049658 0
10.36564144205062 5.607930641888723 0
13.10837773874982 4.367848161057301 0
11.74058227382594 8.929416449855463 0
23.65554344996335 15.32591959084415 0
11.60036217417777 10.80929417286474 0
11.35638579113429 22.1885332253929 0
22.9222545635586 14.82181232434115 0
10.37061452481858 14.30799225075083 0
13.50652843636691 12.07519129486966 0
15.66312492445024 18.3432258331481 0
11.44767793622074 18.73278560782843 0
11.7186171868651 12.8255183966262 0
17.59582309783938 17.16126334921019 0
13.3813529573281 7.200965820984029 0
14.72301719629841 6.674715319005085 0
11.21394362747045 16.22306679423633 0
10.72437939012245 12.06217930520615 0
24.26347984495168 6.213019813233124 0
11.70229719593491 21.23659495863279 0
21.61866423437252 7.200961448620967 0
24.03396573652447 18.77884541919683 0
21.2337377346536 4.8835872201031 0
20.27698507784187 6.674678257052987 0
24.14240643366024 19.86136581141282 0
12.43216271079529 19.60618769125954 0
12.34131656847561 2.745198212278302 0
23.41415091328233 11.57636472574383 0
23.24423229959318 8.934907308951923 0
10.68767662568851 22.41562882920626 0
22.20490713222039 3.238334879304631 0
13.89055272460955 12.69998665559054 0
22.25077243895266 8.024785728010858 0
19.1117664308174 18.22708977414791 0
12.27582193310436 22.29143542585764 0
22.70898103772342 19.32547940335096 0
10.80870926450901 20.87105421727734 0
20.24060670494397 18.23712898499451 0
14.45204814788216 13.73169125652026 0
24.63367865984953 13.23692681964256 0
12.19417457393149 19.3216252556524 0
12.27914027076068 10.36265488568696 0
24.03707515570189 13.82814328907537 0
24.09832252795884 15.91663982504906 0
21.52925202823253 18.99872219442369 0
17.65774804073878 12.80089785230248 0
12.39617942999802 16.02152973238985 0
16.84508778493574 20.59482822785625 0
10.86763595365407 16.24310017232011 0
23.60104596961745 9.432579022079697 0
16.49576761294579 17.97486978755778 0
10.59657281122351 13.06240837254216 0
15.99989676614446 18.65431266036538 0
24.71061752362665 18.37728954614113 0
12.27099744708196 9.746847185274522 0
17.69382229905974 21.70462352975753 0
23.29932711128178 17.20485191032773 0
10.29801756053957 12.47992318363008 0
21.91876976290108 8.595419119962843 0
22.58951309441229 13.03813750964265 0
22.66026141070741 10.89344800014571 0
12.61116966388404 2.802027004904047 0
16.45434758703497 16.94662119450041 0
23.29137238477147 6.045439846212414 0
10.89115480705613 11.04315050713785 0
23.5287356148425 12.90175565413035 0
22.47622153267161 12.15686399724129 0
12.03846091561195 11.41004583543956 0
20.77744101645723 13.14848774773955 0
10.75294766826456 21.88164979366704 0
24.67792256726214 9.58859946139986 0
23.69835013120203 20.11937645058832 0
11.56530865659488 17.61441625869357 0
10.34949503075287 21.15665147692907 0
21.05304983099044 7.468619360692772 0
10.36645381805056 15.00841646236167 0
17.84310109856253 21.34719594647535 0
13.95356959093575 5.429402205627733 0
22.55700416842329 20.41921633132512 0
20.9445977343059 3.916229950726755 0
10.2948564110638 16.08787093928461 0
21.30572568462745 9.212457345334304 0
11.01850523825896 18.79666528849146 0
10.40469441220727 22.99255980087772 0
11.70872699789103 6.04505856387819 0
12.06594887955338 2.891392726191285 0
11.52933034810885 14.64494488243492 0
23.13154721507067 14.12484536396321 0
13.603335077114 5.563076010829206 0
21.1880570346805 9.5902855269346 0
16.03258913976966 14.01400139829208 0
15.39365407584344 16.89596270087313 0
12.77998970435356 6.856230868923586 0
14.34025390452882 10.80161393237612 0
15.64869950379037 19.75960768395989 0
10.75022287426731 6.916353016212615 0
14.53959093561801 20.08820649463754 0
13.91046276038867 21.95528271888376 0
14.67125686200384 18.0117195667437 0
18.96671710138677 16.75857445971539 0
24.08576258446229 10.70801280624584 0
11.79508282329077 13.60242535382567 0
13.35190942978346 15.97328363048319 0
21.94189823860057 18.20978064858889 0
21.28805192245146 8.33510827941268 0
11.00112660225001 10.78780158731706 0
14.69203333708576 10.23163602379451 0
11.00937649344738 10.48826812759605 0
20.3324111106892 16.90472386336337 0
17.5269955302037 21.1548692300558 0
11.08265643948588 6.169765691889688 0
11.96356734635115 3.681503237785315 0
17.60430048796353 22.24471970079107 0
11.36300493772966 5.563213315550441 0
14.25759385933235 13.34585383845895 0
16.11155137297659 13.22896290400479 0
22.96450227566152 12.59457524149822 0
20.69132891188453 2.795255655699214 0
18.21672477433439 21.99331221738961 0
11.59361372559673 7.844369441782451 0
10.43721639943021 24.53585536016415 0
20.66168307919648 8.304871873522703 0
23.9161138012577 6.171744713421106 0
21.70957366233944 12.96513001088784 0
11.11267998843473 12.78546793828675 0
10.3265990151706 9.629650096422264 0
13.91702418629602 16.78813982055574 0
15.10992214072275 20.33100122329508 0
23.40496415070341 7.84511571207288 0
10.59259216875011 23.90983156215913 0
10.67753028635678 16.81504827972842 0
11.09575783571724 9.758910110844585 0
17.21793890355222 18.01848564569082 0
23.08785030189943 20.3303470423564 0
23.27816951772722 16.40216168907311 0
14.73914710174181 9.171171306823549 0
24.19319678323354 6.975350820612171 0
14.63418145410154 5.566189274601687 0
10.31651487322059 17.90470902003632 0
20.75310909490862 4.464422851687922 0
20.36580863034963 5.566181741449386 0
10.35316036541311 4.465440241200028 0
19.92001359331574 21.36075024727419 0
22.64029644857601 15.09628088563401 0
10.94158699554506 12.44255231681353 0
20.8874796860453 3.572925419000081 0
22.79231614076151 3.837084188436924 0
20.99004700226851 18.55826112604593 0
10.31449190947937 12.10649307166847 0
24.16431372025449 4.424397961046942 0
14.13868971570891 3.605543878318204 0
13.36683489544554 4.936668341238587 0
14.1050456865765 6.07539642597294 0
22.59737031609024 12.67356234475016 0
20.89495699746511 6.075339734917465 0
18.42630062116186 19.04761268807485 0
11.91061131704242 12.06473746454951 0
21.11432764268445 12.18035647883184 0
10.27921851574217 8.77624763711872 0
21.007180937965 3.188383312469099 0
23.43670304416357 11.00986260058399 0
10.69237124015291 2.795305118067676 0
24.65963934685321 11.42780409990456 0
22.26968837655918 12.40948608617471 0
20.21821287635126 3.749999997728596 0
24.58387658128141 5.002135192199611 0
19.10511403206887 20.01838337209513 0
23.32211329337029 17.58513230896974 0
22.13295545296638 11.29544859585982 0
22.60371466178633 8.825887874348748 0
19.43195404509601 19.26141066965127 0
13.61413505339404 18.2275199617564 0
14.82552878477594 13.91278902645999 0
20.86742673470802 19.03599380970534 0
17.64899734036936 19.00730041602547 0
14.07365296346279 10.53465572903994 0
18.48172252742325 19.99185275302247 0
14.29518526955157 20.95446084506635 0
18.75169086521105 14.0596511401029 0
24.64342860740019 18.733836439869 0
22.99823572000055 14.53112394679757 0
23.72375027370811 11.08184905586116 0
14.75262871187712 9.916247171155002 0
13.68038166379769 21.28850439927586 0
20.65658991734131 16.67116128339507 0
10.9712688705124 5.106545299227571 0
10.34607899857672 5.151722788995287 0
10.89548231451594 3.564517566185871 0
23.65388698704055 14.69424759403871 0
23.85111053992506 15.5649476267117 0
24.14583002706122 3.605870575703918 0
22.4153079730335 9.909957313563092 0
22.06465490968723 2.891439068204118 0
21.4057192199916 18.52753279175316 0
13.39163260875532 9.96609011476758 0
21.59315724495111 17.6867487159388 0
16.21590508267768 21.34732886935485 0
10.76594231228879 5.665072091444745 0
10.88683289907162 14.28424962010843 0
24.33880366176381 11.31068117644594 0
10.67278120301896 23.56413117102137 0
20.45603548716202 19.42794258377329 0
10.28330058879557 21.50354931776783 0
21.48657367230228 13.36952512598929 0
11.19389211730974 17.54226677248268 0
23.63691733739781 5.56323601539008 0
21.01606562470528 14.31724157171344 0
21.5539373593244 4.06609137363404 0
10.38740111611088 19.99844248176328 0
11.94201367566448 17.47022959106612 0
19.59578811383069 14.12789607981745 0
23.59796288137607 16.49039842142738 0
11.13356531072794 22.76372934197587 0
24.31885583481457 7.877217884099436 0
13.1456339156823 19.50756544823783 0
13.32926761851865 19.22915054409297 0
13.86746874671264 19.96672193112063 0
24.7361271566462 18.0954886686334 0
14.12914582248722 2.87139118996993 0
16.5736871698248 21.64618859042253 0
22.78826793136834 16.83163883145775 0
10.88411109181458 15.03118157547172 0
22.01419392478544 12.93793286517774 0
24.12826255880178 2.872250520448807 0
11.55373187784996 4.060494344365708 0
18.44617215638284 17.55839797633049 0
10.30895310459185 18.27249480117849 0
16.96627131093164 14.04672706222914 0
13.17479794221203 12.17026584874571 0
13.45057756197968 13.31087174122607 0
16.71193793650095 20.87752129567421 0
14.17736562756496 9.47004926610245 0
21.92693542977092 19.42468510019569 0
10.38474563173138 15.72331483722092 0
14.19175525161073 11.61857201990724 0
17.85714285031339 14.06498105623528 0
23.10128177217901 9.306141695109016 0
21.85237236543959 4.333229457371803 0
15.35473847190727 21.07083735120798 0
18.78972892939478 18.8246645387723 0
24.22838374806439 16.80907340879649 0
21.18076350015019 17.08617066393604 0
13.61972097724268 3.310368285878655 0
20.3337484201811 10.52664993846153 0
23.59110911805391 5.920130614434425 0
20.93770938641516 5.064359168107083 0
13.51575840179052 12.86633013810221 0
21.04640909373467 5.42933967296569 0
11.85194080032033 4.32911386310861 0
22.74486250901609 13.81132355793926 0
20.29496682987369 9.485135369998975 0
10.28380063962457 17.19758062311019 0
13.49744059718967 23.50031683096259 0
13.11615433428635 11.71838956830758 0
20.91631703480977 8.026728091539752 0
20.57124195126051 18.33166120666685 0
15.26339082680314 22.45506720946868 0
14.74772463629884 9.414946267700016 0
24.3382550338662 10.78919781155839 0
12.19252678499703 23.2451438173604 0
10.79824832265508 4.488385266027059 0
22.11340259627173 13.51995368675602 0
14.28961292386134 20.61064216876782 0
13.50868343260619 5.889070345019874 0
21.28514567867601 14.93255276877817 0
10.24823761615803 11.74810000709198 0
23.61752672100084 3.310005472415357 0
22.73396017372631 10.38119555497974 0
24.66223878162593 10.70729340685936 0
19.30287508622194 21.5152090900248 0
24.62174953139488 7.29864727540057 0
19.60273433569442 13.2289628977933 0
11.03859043273743 5.435566434674567 0
21.93087591543151 20.16710505526022 0
23.14213730987364 4.347226185122224 0
24.25491350682351 12.59022126406759 0
18.93506389816928 21.41973630891422 0
13.43540166724021 17.47156441713127 0
16.41815235091115 22.44622998795194 0
24.30091813651361 14.87704504350686 0
23.93837339632692 5.425388592548505 0
19.51045473097214 12.8342608436049 0
24.68066223019092 17.24400094434788 0
11.40874728900181 5.920029862138854 0
10.67376144866974 21.09588334958004 0
15.73415970298395 22.35035156340129 0
12.22857382095032 23.85897328952694 0
14.6682924879118 13.17752567908208 0
11.84715438842091 21.81531514982618 0
11.29755069166348 9.445558119983858 0
15.82023824643229 19.04007972873737 0
11.17927187069465 19.34184480270059 0
16.19329551709706 19.12895377157757 0
11.76515413018856 6.477347469406154 0
11.58729867517573 4.876721579572473 0
15.13316478257022 15.92663116943713 0
14.3434531256744 10.26784597567607 0
11.58948123549265 8.547716798413216 0
20.54240911038342 20.06340364182228 0
22.67526568688205 16.32525275563743 0
13.44077973068478 8.23502279725479 0
16.20383097827453 12.83426084464109 0
18.93376277280179 20.35633753852927 0
21.58817787191159 4.874844923271771 0
16.20447455865217 22.66885256246465 0
15.76479140749747 20.0831111453711 0
22.57221020975811 16.64329982729128 0
23.23524644992809 6.477709940657365 0
22.22928390170652 10.42421711942771 0
11.79902686462654 19.37940318234747 0
21.53333316063869 11.19604009871921 0
12.83478667879438 11.18372188591488 0
21.55881269198955 8.235137443658585 0
20.77804189608862 6.848755150061494 0
12.36858133222779 20.64818023574022 0
15.86935450219876 22.72169992088735 0
13.79884681176705 9.659813533526975 0
13.82997160570831 12.10119951533672 0
10.59716126482055 12.62191121692671 0
11.81158748367574 23.34007576750735 0
21.76473592095856 20.40815897169733 0
13.40459678774377 2.798601941547488 0
11.38480612086406 11.43363556985799 0
12.79558968259584 4.205517751626521 0
22.60225060814809 18.39855512752509 0
15.05177740227917 19.1804120204816 0
23.40408792316244 2.79848239641958 0
18.61423402275165 16.80323135370405 0
21.72225450713556 18.41222226296352 0
22.53827836632455 13.54890670191304 0
13.81162261912129 15.85315067351117 0
11.68096703465739 9.862589442617365 0
21.1653506550518 19.29477695280929 0
15.69957412722488 16.52291876900773 0
21.43608536822928 15.69092654156547 0
15.57719924794711 12.83092285723411 0
21.59724502022523 7.549664582288363 0
22.73781036792281 9.746620772913953 0
20.25676562143633 8.6632548003508 0
18.4175640102382 21.78918174920858 0
16.96428571286855 12.70836442144615 0
15.22989614460295 12.78432131423178 0
10.89232318795575 17.35832366564825 0
13.13700238934401 20.82330708182442 0
20.82734633327834 9.115599115440364 0
12.06920648360251 5.764728585948948 0
10.58024552631391 17.80256681661315 0
22.93088327921737 5.764791993424745 0
10.3695993312082 7.288278838617561 0
17.64072423634522 13.13902318219911 0
12.84647840854213 23.68932394820454 0
16.41523263657634 20.12262470247146 0
23.09735755691536 16.84324804105516 0
13.46132923728462 4.067389145241246 0
13.24965622745654 20.09713086257512 0
21.20178622798004 20.23655334621147 0
14.12837975287644 18.5893854363636 0
11.33129489331034 14.8920888656273 0
22.03460855622189 15.49648456247102 0
12.75122254935759 18.99441949367834 0
22.14226509706932 19.15622579473296 0
12.0808751109545 19.94751180985699 0
20.30820855698284 3.324212547496974 0
14.70471575245142 3.352777999232766 0
12.0020354596102 9.945651548804829 0
21.52407226657781 3.305658487246108 0
22.64419855655209 3.190411504238349 0
21.32909777831481 20.86582684705675 0
11.75738369954017 20.06782526148826 0
23.3580805298602 13.89507554434063 0
17.15653920440739 19.4525160454544 0
20.35196470560598 14.03200250599091 0
13.74466196636608 2.740647773567415 0
22.77433712330041 11.25061308046348 0
15.55218045964445 22.88805182934192 0
19.63050276243276 13.78796847084087 0
19.13118145188595 16.42063627888211 0
10.34035803233148 16.87707359122619 0
22.07810611165785 13.91091161183073 0
10.31409040627963 3.329179091325748 0
13.82979203406349 11.42393537748229 0
23.4319174477343 13.5424751125947 0
14.25175814367279 11.0695934339586 0
13.57132993133361 20.6801529317034 0
24.21047432996939 9.120583104402277 0
24.26964455810755 17.879654603885 0
19.43858084755628 19.95834661297247 0
21.22818996585362 16.37366636347072 0
14.25489385271351 8.563251626063758 0
16.44877073813052 15.98272103235764 0
13.96405465910559 9.985510003302448 0
14.22299161994221 16.03052644417636 0
22.75434402716978 6.931643829617586 0
12.75429390233186 7.316093515817313 0
11.85278402411065 6.905771367082129 0
11.93572204912359 22.16989001909616 0
20.62772772631227 11.45109857225373 0
12.58724452293798 9.861331168090803 0
22.34011210867659 2.745385974793494 0
22.2456236700413 7.316029871294838 0
10.98884272858124 22.41341845802431 0
17.94288864891044 16.94928296197076 0
21.56788510188286 16.2067664947593 0
13.97759948731403 21.18746496345402 0
15.03211351656639 21.91203290158848 0
19.02796565218306 13.41953916958794 0
10.99258376879846 21.19710276109098 0
24.69569419738674 14.84347518036249 0
14.31812795222709 12.64127996763697 0
12.74869593362719 8.024845423600986 0
11.25130373212398 10.71334123069637 0
22.83230143867065 20.43466699181435 0
10.27444452878941 13.97304768720489 0
24.14957295511664 13.13438053220126 0
18.65788832490635 13.26331607767276 0
11.24431141744321 6.576383470743638 0
24.43829143206371 18.42743856146213 0
11.31710826051144 16.66903100690429 0
14.22414273800394 5.62784234593534 0
24.70615790035001 12.10623304980359 0
23.3879001526502 4.89790981534636 0
16.94095806815567 19.7540730656847 0
12.55936514697304 11.85191823783394 0
23.75415902851932 6.572044856409786 0
13.03087812925531 3.68772705901526 0
19.04715445751249 17.90244931190548 0
12.11648186883545 12.82762275728487 0
10.37943976063377 13.69706615601926 0
14.73867059961007 11.67694861167768 0
16.85378540117582 17.76465671734997 0
21.23035975722149 14.57332871679401 0
12.50824528240863 20.02644026998214 0
21.73678492202956 14.13075048111759 0
21.80289784172909 16.92689787970764 0
12.07194224695291 15.02869045233586 0
23.87666068624573 8.96622116566856 0
13.71155253203353 8.334993295888093 0
10.29537984262423 8.251440218101234 0
24.39233490334671 9.668055153412705 0
13.89128356658052 8.59460579430095 0
10.98984436778762 13.89296395207612 0
14.41057871306461 12.07900789517186 0
20.24839441513092 20.76113864574353 0
21.10851749183086 8.594702578473518 0
10.57440012059297 8.820609754544314 0
13.2823061566615 22.53256347419399 0
23.4994579946059 6.522561833995637 0
14.86468975263864 18.38002153855597 0
14.6917509528696 8.340135988762851 0
14.00251396797612 18.19243954020163 0
12.64626579589865 3.190168122553427 0
23.14690797154298 18.53022344698825 0
12.81564455996573 12.86496304788649 0
10.78453974379033 11.74583193733852 0
14.65299948710266 5.12023566737636 0
20.34698186568447 5.120222185397702 0
15.64707032968918 13.20088525824121 0
14.69305629802075 7.215778220794552 0
20.69725900091408 3.830324839720332 0
20.30696125308738 7.215739452823072 0
13.09766128321934 19.86123808035082 0
24.23669080126393 5.658909910413358 0
14.10761882357635 23.27967651292323 0
14.3338987270689 17.80092503974249 0
22.16711168345046 4.226019947429362 0
17.88368653368599 22.03795743798617 0
21.98354928002436 10.88128942975296 0
12.16768669124297 4.223677686760745 0
19.11696512066813 12.78227244108257 0
13.08081783078138 8.595335205325284 0
10.32247221571437 11.40496222812898 0
16.54081670468989 19.75859054900841 0
24.17249634640904 11.82532447940934 0
18.7814631886968 21.05196060690027 0
14.87959548524359 16.65795395104508 0
15.61243773255217 21.6603348244209 0
16.90138048342604 15.91142205196317 0
20.32783801248775 10.94882475765376 0
23.67706752637708 17.07971687951347 0
22.15884641042105 16.72039835963471 0
21.99079425138713 10.28365342391695 0
11.63028294995155 22.76076373377816 0
19.78953967177239 17.49534209788916 0
12.52810094877665 23.88229941396757 0
24.66160961182065 10.34082121019875 0
22.9556185197083 13.11957880790035 0
21.24899572604787 17.89833473283489 0
14.57399265294768 17.34488404188991 0
14.68746611474122 21.47691168747082 0
21.05065287490495 9.961135807441707 0
12.22280560542225 22.90042217644556 0
12.28974461211644 10.77762343841731 0
20.18162814863849 12.80088972259598 0
18.05789874816396 21.08164820700633 0
24.7205412775111 4.18348180930163 0
10.27818599628211 9.310259377258323 0
10.84824840062224 5.948610929984549 0
11.74622334713528 5.343776100761935 0
11.32253460744637 8.439046867339417 0
24.12527627539099 18.34217900550045 0
12.47756374676674 12.56324878895913 0
16.1036586031696 17.29721942119824 0
12.26875640515867 18.39467282028282 0
23.82628592940301 9.963540936145137 0
20.8370775095279 16.24361053910734 0
22.27311906402501 18.2606009639775 0
11.47884540503585 19.43490591754102 0
24.72989466090656 16.59487388367194 0
10.76274250110293 24.44233164023098 0
16.29289000654222 16.52293310731961 0
16.74705877545525 21.92471035472634 0
11.47664845827385 10.12314348853472 0
10.68186181351414 18.84956556224158 0
24.64028368279897 17.83645084526331 0
21.24282191420339 4.519798977371607 0
21.83403098806618 17.89239133098484 0
13.00366855579384 3.383687465998163 0
20.77194104070645 20.37256544140073 0
23.6741087530725 8.441083227737234 0
22.99713147230645 16.24632042658594 0
10.22760308826608 22.25199135038228 0
18.29227483760144 13.4282846813149 0
17.46521947136638 13.42129834321541 0
13.15432634219661 6.035319812648677 0
11.8195435688961 4.649949988017145 0
13.25368257282132 5.339955618818012 0
21.73988527174223 5.331080742915226 0
19.13063188261807 17.17313473326286 0
19.72185580398103 18.57021274091132 0
20.29302101429662 11.56304234327072 0
14.89040810929556 20.58907268533883 0
22.07209821959047 16.23443769260616 0
14.649795518862 4.00646368698272 0
24.16289582422056 9.502324942577733 0
13.73735925326162 7.11293734410931 0
21.26257255091669 7.112908498292883 0
23.80211282457604 7.202684717068051 0
20.74518859921499 8.56322605025328 0
10.32320922450583 18.66278553597336 0
10.27924074710803 15.37088258463213 0
13.74951349726277 17.24235213453943 0
11.21784929154892 4.905696815095084 0
10.94171835998803 13.17792539925785 0
24.09839976410957 10.21731860549171 0
11.23349862052283 23.63053871290837 0
20.77586665989987 5.627800157708744 0
11.7248376223398 16.79383780701205 0
10.34747589031239 3.984395521784491 0
13.35268063797942 11.03159829049486 0
10.82377835253929 15.70665601587764 0
21.86321394601752 20.74079782168638 0
22.43197409130648 14.45713805196613 0
20.30641530917566 18.69374138431908 0
19.99381181009673 18.85910735178082 0
10.94679947253208 15.98152124412147 0
22.54790036904141 11.85339373024571 0
13.9454145022879 19.27746773694452 0
21.24252794387019 7.734580678038743 0
10.27505332460214 19.39404068788691 0
12.34383734960416 7.270646847983289 0
18.12343122341609 19.38743883465776 0
12.79353247784171 3.838087842552224 0
11.70753125077255 24.16198121610866 0
15.56028011856972 15.96723176283093 0
19.4017045075947 21.08529159633595 0
16.86617304619378 18.73751100302705 0
13.73414928611141 20.9936416445286 0
14.33738525497868 3.862700009464377 0
23.66248194066511 17.84824286533966 0
12.7641474902011 17.41855422018143 0
21.16608097660876 3.408515479760686 0
17.23900076366338 18.71393220807111 0
12.01392843939645 18.16531056027238 0
23.96413040627819 3.298427412618933 0
11.42655355603581 24.21291935579287 0
19.82142856787083 12.70908998313477 0
12.39691253464698 8.825345682728566 0
14.74332573096461 8.663277575341134 0
24.25849535165133 4.945659910597664 0
11.69100974039858 22.40184537333245 0
24.72269272748037 13.57795090158339 0
16.12491331778563 20.31473511078593 0
10.28629266958935 6.686937339579791 0
17.31593918303524 22.29408563506957 0
14.06226680014663 5.064436545997043 0
14.74779894444472 5.899602219342156 0
11.66318585238525 12.40834224252524 0
12.78718173315774 10.79470320147029 0
21.62770923154601 19.70145523178957 0
12.07237347201623 15.38772147549226 0
16.66948933883571 13.43183323197478 0
11.05331797590809 7.50428406090442 0
11.18325176074509 7.800694297188803 0
12.30382763172557 6.358474836694265 0
24.15050836486267 5.951291816202861 0
22.43769232225302 14.09170258807832 0
11.5693343639371 13.30031067429666 0
22.6964211197599 6.358505658385067 0
11.62725018387197 15.99725508522959 0
18.32358257455402 17.12704095442284 0
16.08942160336616 22.07623179282582 0
23.14985200523583 12.85821494975526 0
13.77023766521261 14.0571062498037 0
11.17029409839178 3.408447072218657 0
14.22195273896954 6.848821578899528 0
24.1701581607007 14.44955453189745 0
24.64517662792452 19.35875139101033 0
12.23132850456808 13.44436404321502 0
18.13277720707691 20.32342211075835 0
14.07729048594294 3.907164159015473 0
19.0931349466147 20.89492061907587 0
23.9448095673754 7.503798254229944 0
11.63950732789637 15.52712663752896 0
16.48527220845512 18.45291248243518 0
24.07144603438043 3.910130822250417 0
18.52676929126962 20.78517808382881 0
23.12426863409375 13.43988780118998 0
24.65932540969815 7.883171734224653 0
24.06174405172869 8.053859400993426 0
13.74083361195254 6.066403304111396 0
11.47173604483092 13.87671317095829 0
14.90605830016623 23.06069224351426 0
21.25911174033143 6.066310359953563 0
11.22068851722642 4.572344309635623 0
14.78433374414557 8.036534842465962 0
20.25956646384492 7.758723773830299 0
20.30821985508594 8.34014097708061 0
20.2156528824151 8.036537324223293 0
11.21571706695287 10.26058492278379 0
17.44073176425639 19.33190270562755 0
10.94569543424529 3.9355411728737 0
14.78317504662121 10.53678213745035 0
22.99263650965706 10.26212043188824 0
21.43468852606721 12.09604850189812 0
14.9635913070777 19.92803023292004 0
12.28891500579017 11.19318464371929 0
15.98506018153893 15.80719325267311 0
24.44517157612531 15.69454798727177 0
10.33734388490535 7.864344422199556 0
12.04491059286887 16.27384279490467 0
11.00919941519579 3.188939388258456 0
12.94312324203154 18.59288725026813 0
15.61570809954578 20.79420706453714 0
14.49039403262011 23.14660834334495 0
20.69061123332187 18.04717841467876 0
24.75919346981804 12.88840461820024 0
14.70047727856579 11.96982053331622 0
15.04818278483848 17.86402570987085 0
13.22319267710784 12.63952069664011 0
21.35769590868027 11.76270967283356 0
24.71093775290799 6.693698410869308 0
20.08703217737846 13.24202806090683 0
18.28536198495983 21.41057901473624 0
14.92627665350384 17.48036040677746 0
23.75195101828129 18.22052555719036 0
10.27145336871248 14.65692011103876 0
10.72321261501059 10.29185493172811 0
11.84363627772917 19.74455256521975 0
13.72249429564663 13.56688525605601 0
17.55509303414842 17.56740601387754 0
23.29120010590834 14.84350736742092 0
12.14066881389563 14.20461435570971 0
12.77541516471604 23.32666641155686 0
16.88056560660002 17.26860398881505 0
10.84362529877161 19.46800036653245 0
20.71092622705959 11.0807341699176 0
10.77185490670345 19.81193665619662 0
17.67357955525088 19.87416192228833 0
21.72113089522545 11.43115073181115 0
23.54651365947454 18.72957651028974 0
24.25079901330435 8.571283465425617 0
12.57866382285484 13.67404563820335 0
19.94205313669602 17.10707201357217 0
20.53592812091674 17.52090787966455 0
11.6208428106455 21.63012153679308 0
14.40272823345197 22.80187259168876 0
20.54860273390639 19.06746642387579 0
13.96440392554629 11.09246348149916 0
13.79027109770798 22.93632404287577 0
14.09701820590425 21.44794875740882 0
15.89285714571177 12.70908998539814 0
21.396104341424 5.562245549892241 0
13.08482277173162 16.69334266559535 0
11.57656180431883 18.21888702662427 0
11.63950145641944 9.565807578936516 0
23.42082623496266 12.23195609658395 0
24.0588689217197 16.27011396431486 0
20.8755057239706 10.55699504913031 0
20.9613655015006 19.61695438516818 0
13.0322672000554 13.49912579365132 0
19.42964346110953 13.5079719393016 0
24.37109799540374 10.18124647771456 0
14.36829341424524 14.11726578082784 0
14.74621409773253 11.16947987269195 0
22.8218545724388 7.802005146052554 0
10.79721391078056 9.110498614109034 0
11.74416591456077 10.4376240706086 0
21.26987249604624 2.769949176791697 0
14.22083736706585 22.58919443936574 0
13.7572842009912 7.734683084154241 0
15.54254371834469 17.90271825672712 0
12.1596739765097 11.76952049436936 0
10.2294276962316 7.010274364715155 0
11.52623776838707 3.304700922566138 0
16.69798152675694 20.34527874350437 0
23.25663345020122 9.834781698539203 0
10.24138211146593 22.00015807241482 0
12.69999074885354 17.83369442735804 0
18.16231142914658 17.92270904607054 0
23.98766739836023 12.4060980604942 0
21.84561600518023 6.035175341183271 0
22.10646696945214 18.84231102453729 0
10.31829999863651 23.37662454756103 0
22.60857650103942 2.802535193618171 0
18.94952490873417 21.73493840979249 0
21.58215502283247 9.9959043085086 0
17.87926055300116 18.67690797372293 0
12.75311859313376 20.76131945052184 0
14.0835307884182 8.026650086773813 0
24.68925397866748 16.20348435498701 0
13.41223176070035 23.15875964427777 0
20.20595391348321 15.92117586489364 0
14.69525483030293 12.63920388856018 0
23.50516599840504 10.07810016806008 0
10.93871877127603 8.03804033060007 0
24.31087531523209 17.17667282382806 0
22.22013960944322 6.855914972136942 0
11.20672380465948 19.03737741343283 0
23.33455635527325 15.25370435767166 0
11.38773505030747 11.80884460797415 0
12.22618059577595 8.16900452189195 0
11.39058926525359 20.68413542430991 0
11.77168143424593 18.95954616060764 0
13.21741784905242 9.479802121074504 0
20.67282655075833 19.71016301313451 0
18.34684734363695 12.73903449149991 0
11.8780870442664 9.297829983219751 0
16.26035070534681 13.52791027580961 0
22.77340648537963 8.16916636753108 0
14.49433288689287 22.10442860768028 0
21.81929695641274 9.47610420541765 0
14.46510601682894 18.71585649633201 0
11.71894486570256 23.68300346162123 0
20.17273423190726 17.63463442496736 0
23.63548324851937 15.86892867950806 0
12.68674050035081 22.25055981762783 0
16.38161527030065 20.98347457503747 0
24.73705154062882 9.299581494421366 0
11.31796467069508 21.05924018704523 0
21.72319141633933 15.56169241696828 0
14.15659382872456 11.98589896045923 0
22.56741513981019 18.69931599848546 0
16.59732058466815 12.78227243978777 0
13.70512198685772 4.832700907019774 0
14.78463969311729 6.964285725092101 0
13.636685807768 19.51591248782013 0
11.33824093893474 21.82511505973721 0
20.64447364983552 10.46652989527173 0
13.09899544931043 17.29669348297801 0
23.11186744294401 11.75834462147971 0
21.68438652265429 14.93502336193409 0
18.63371348185971 15.8756037759147 0
13.37843239312328 6.553899375045175 0
15.50264157473453 13.49953175916476 0
11.07848141185767 8.661960508940025 0
22.80788372761097 11.61206409418799 0
21.19033055716303 12.82998849476596 0
13.81193553630769 10.8063754737213 0
15.03561076068663 13.43007714911053 0
17.32704679991765 21.75381917654529 0
12.77204693616701 22.80922117213389 0
24.70952795376026 5.292401817205912 0
23.14437931704586 18.19739786400406 0
20.4084897624828 15.45422383294676 0
17.65309030594189 15.88073401970547 0
22.44446530618613 16.13841281822227 0
23.07605774955018 20.00155466522376 0
13.39237655036927 17.90406710181773 0
23.7144240733654 4.812346115723236 0
20.81914332213095 11.98382216870736 0
20.65003564366535 21.18046463186651 0
21.47506558780417 20.36179667434887 0
14.12150082276246 12.97729318017349 0
16.8902229282627 21.14695070724427 0
20.25904882174838 11.89971309788839 0
19.50340499622077 19.62543557756159 0
15.53512802600216 14.13942092503223 0
10.7302852346282 6.207232045898039 0
13.19207032907793 23.65293272081659 0
23.1476122614224 6.906109117361212 0
23.84427488505185 11.3067979074751 0
24.76490012541267 7.036540284431341 0
11.34877148564122 9.079535723595853 0
19.19523529004918 18.90176346700705 0
22.35047364305691 15.42229157145116 0
17.84419061174612 20.57540221128931 0
24.71365837911624 15.76930487778953 0
15.1614869407044 18.6261637842622 0
21.91967977295278 11.81995282566296 0
20.81396596075271 9.45948855445942 0
20.26799368670907 9.174496942690443 0
12.81550529174824 15.90275604903184 0
14.27931904030081 19.42085673831388 0
10.2278482516313 9.95460322661174 0
23.12641538585418 2.790203148608775 0
13.38905750945086 21.38995426645705 0
23.64829624751111 12.03896729928995 0
14.38888209357727 7.205254186617866 0
20.25220017924788 5.899599440701759 0
12.79079138515661 10.46360997079827 0
20.09160393898467 19.43594118550129 0
14.66515829074432 21.12013594968776 0
12.06621446723933 8.798324635244224 0
10.25981069651804 5.955746431475329 0
24.74450821623637 5.968129747385429 0
23.31316546255871 11.27856586634417 0
11.82637628160331 20.41977664761584 0
22.94473066434444 8.807461714986015 0
13.02624913358092 7.85433205263265 0
18.74999998662868 12.70836442437949 0
11.08987725535976 8.949119290508229 0
14.69057298987638 10.84422198328131 0
21.49118456020425 5.888842037147019 0
24.75914851533109 11.06770834805686 0
13.78940713551208 4.536773035350667 0
23.40847804563861 8.549396872433405 0
21.29055834168752 10.1842012296745 0
22.33619016412699 20.60096525534082 0
17.3095162205687 12.70626016574502 0
22.57150387551834 20.0057790671076 0
21.96201252552874 3.681529760826518 0
10.23784634002873 19.72658026698415 0
13.40259916269134 7.549959298670622 0
13.45012721440152 9.02132467158295 0
21.81974986271078 4.651468698912169 0
13.9126276384123 20.42044745207072 0
23.87649203056581 9.651386143268464 0
20.70286683382388 13.7303949461936 0
14.90434873934248 22.76866056959206 0
17.4028921434196 20.19518501694253 0
21.69670698434463 17.35368220784615 0
13.65232179942883 9.209106370377413 0
18.3842074701778 18.31821954191836 0
14.97388801729827 20.92127787952558 0
16.22544785779182 17.76750151193091 0
13.16913362175135 4.680003490967964 0
24.73681299172769 4.493155377255242 0
11.10409006301942 11.27800837755199 0
16.27991136748331 21.76356071562636 0
10.25708621553784 20.8203999307065 0
20.8595869752833 11.67274519590689 0
11.59612148882641 7.536941202803161 0
13.32184391956421 14.17450442574114 0
24.41597261663299 19.92848577741287 0
12.72056654127537 12.21317836572017 0
12.2088796402343 3.239357150433286 0
13.85770998860221 18.88152655281464 0
22.23939914453045 11.67308025400235 0
13.44217654473957 16.53367913019542 0
11.98498309941375 16.62622871333019 0
15.72443090563573 17.24301351954054 0
20.74622558477402 10.03273785616111 0
23.00617795533157 19.45817363048448 0
11.16109691666458 23.99206829223396 0
23.74449344356335 2.740730683178029 0
19.35330950266497 17.43269143658377 0
20.9803053322483 15.72842245653235 0
24.75998849549077 15.09738782086242 0
22.36321346738403 14.81745418187301 0
10.57952364484084 19.24792280696679 0
17.0572096955828 13.24540146586465 0
12.58763707736604 11.31006908538047 0
13.75925728921474 22.25713176523449 0
14.78178712299759 3.750000001665025 0
22.94943342038714 9.941890317770168 0
14.25241310026201 19.84313452253084 0
12.48130327477277 17.04969843638558 0
21.54442538259123 9.037117324218015 0
24.7788089148232 13.98437500859404 0
20.90946411718089 17.38724879091007 0
24.27988298332276 15.24042001130274 0
13.94679173637429 7.468608863260685 0
19.97361910542067 16.34019465851496 0
10.23427986109992 4.836646400817366 0
20.21538162106969 6.964285702831127 0
14.94461154004182 21.64018230568725 0
10.94900275025554 15.40986036880827 0
23.52003756562492 13.19538940712141 0
13.81386232165726 10.26046163898673 0
20.23523674536618 4.80459828390534 0
14.76474196922004 4.804623513548292 0
14.74044098273603 7.758741140539884 0
22.89447762081703 19.05515424780647 0
12.16258448279629 7.478269782809325 0
19.37105166770885 16.80378673681304 0
14.0783862450694 16.42733461581901 0
23.58811047208359 9.071367411623791 0
10.74614285919515 8.574865850423958 0
22.84780786207412 15.70498066157811 0
12.99991438858509 10.26000738687518 0
23.95179232991991 12.07580301408724 0
12.24561417203631 6.931908152882402 0
21.0150060215508 11.1125086809283 0
16.87454706917969 19.08152481907901 0
23.81489762420209 7.804666644944367 0
22.49208320303543 11.21563312309924 0
21.65607463889305 12.45677658915637 0
14.3382546850695 8.304847358099517 0
11.13700073457288 23.11443515918117 0
21.86048039437318 14.43107900361539 0
23.77852833390148 13.052953127421 0
18.68666519532577 21.84761808770089 0
11.27045527622271 23.33976225843495 0
24.00162095474402 19.63936881725027 0
11.50035065652775 6.523431334833626 0
21.27421288369112 18.21743901252941 0
14.26067642567455 10.01439650576903 0
14.36068176394683 7.765390145577648 0
20.57901201088536 9.567312996838789 0
20.63926811931355 7.765394666599804 0
13.16767231769057 21.1817493680303 0
10.55253332052324 6.691490126282884 0
24.34094058234098 3.815225711346964 0
10.22803442311578 3.738871548532514 0
24.43473593832243 6.707204552602334 0
20.6111309694097 7.205220465530653 0
14.48040977016291 16.95914021040753 0
20.20662269932443 2.7560858263388 0
14.74923841882848 2.74930869988001 0
21.14657304564154 11.57856943066441 0
10.72056633152462 7.493832616789967 0
24.28461579201885 7.514685733670655 0
19.82306956222422 19.13505577154637 0
19.13638382494419 20.59466593132595 0
23.02809003986728 3.68515428571815 0
12.94119204715025 20.51679445335341 0
10.20664515262562 2.758336006964767 0
14.34319198407374 5.022632242855045 0
23.97857489862795 20.07315345445519 0
22.95127785269297 15.36227262692382 0
20.65673772555739 5.022593378698462 0
24.03117548876448 14.11094044253436 0
13.66019021206482 11.70782765702934 0
24.48081702684431 4.376300318595702 0
24.73625667182242 2.763870480926263 0
12.25287306281089 23.5307605953008 0
22.65542136740977 7.270792268838853 0
23.4029384912203 7.537246797041629 0
17.2882243941989 17.30846631277806 0
12.02380767977403 10.24381987417698 0
18.99778772243769 13.82181628246056 0
24.72520628942926 8.77760666775188 0
17.41258524928027 20.91008133703394 0
11.23428985174047 9.993397646816094 0
12.09856272197888 18.6812604599139 0
10.6830820442716 3.860722384907247 0
13.71084695613133 6.731853257722204 0
18.75920400150546 18.43431791468834 0
21.28908423452243 6.731795161457293 0
13.15230091003961 21.88524795585266 0
24.7887703961848 11.79045245461686 0
22.19103973925237 13.15602662175781 0
10.93091029768541 18.52189266434726 0
14.45700088334951 6.644501644587837 0
24.31827554646763 16.18082953979174 0
24.00539141012398 17.69889226428082 0
20.5430042453555 6.644445155850832 0
18.14358486931601 13.19740389025794 0
10.79927177530433 22.1827963166446 0
12.92818269957139 9.021243953270154 0
22.17266081740633 3.872181409590785 0
13.13364367387594 10.78639245943548 0
20.53799910680615 20.63378695387331 0
12.1815193093756 3.86636568031654 0
12.69731516902488 9.386866977053158 0
24.73963951578758 7.539600283509065 0
21.21892921435506 15.34961067535263 0
12.77718126726175 19.34375733023553 0
24.80203929412935 16.9010416584557 0
22.07183505342515 9.021427761303755 0
13.15111539966998 9.783169218928219 0
12.48677427575887 23.33052737912369 0
13.85857913774204 23.50755563737382 0
16.73140206746028 13.77804739761644 0
22.30897370732064 9.379221352867528 0
12.80171790259375 6.558465322069797 0
22.19835767259802 6.5585058300573 0
20.48921106143023 13.38321017838943 0
24.7936304595548 19.08310937138976 0
11.99918228293912 8.313372980996196 0
21.85135388493904 9.771979792208576 0
11.8908807657566 7.808880410338347 0
24.20519772953909 12.84894946672988 0
14.23322403631239 7.481057633683041 0
20.76671450983946 7.481039474566943 0
14.81278964654795 19.53099305992397 0
23.00055648284023 8.313736108005171 0
17.92057795891661 13.71082779404279 0
13.06202414529433 5.55143332274918 0
21.93637983541513 5.5491579041765 0
23.10823488701377 7.809118064104152 0
11.87236241000786 13.94653386691049 0
21.63283097667918 20.87371305795613 0
22.78418933319901 12.14377627787033 0
14.56377653642545 20.43296786657779 0
15.64560125021539 13.80914196624767 0
12.89390458364374 9.958598186170056 0
13.53901384604122 3.051046223152643 0
22.76884899652904 10.62645488925105 0
10.93173747170814 9.447551569511111 0
12.45142143756726 3.373031712438666 0
23.85223438269955 4.530615370504276 0
21.40472707479132 3.527839161660468 0
22.71108906522486 14.46616432120444 0
14.42724611241168 2.7309699281793 0
19.17646285225423 14.13563962479911 0
10.99497403016056 17.94033145801511 0
23.53777770261419 3.051498411362239 0
13.85432187874162 12.38856184907874 0
21.07493827291377 13.36498742212448 0
19.36434091379044 18.57099516490263 0
20.18947239826988 3.03571428560668 0
14.81052760206325 3.035714286533638 0
12.03451920509801 6.42722901054625 0
10.67722651977506 5.037849646654927 0
11.69886188272599 20.67067393269832 0
15.460877026808 22.25623258759008 0
18.20683300445242 18.66981230810312 0
12.52647396344901 8.294827833774287 0
10.19116592573635 3.044354839501668 0
10.84310998363568 24.10958369835994 0
24.77783741232418 3.025898785918065 0
16.84385921807227 16.82664586524486 0
21.42799734206524 13.83987499290733 0
22.48930363006218 3.691435763993741 0
16.52164918136375 14.20619097465082 0
22.0825718053634 9.963960931501166 0
18.00492018441207 16.47117390487733 0
13.09686370399687 6.370603771649916 0
22.96591165909243 6.42741767100528 0
11.40677163620006 3.527507266491384 0
13.09972279765914 11.31882189654044 0
21.27994975101644 10.78851248922375 0
12.48974695288778 3.69158063888033 0
11.85338353283155 20.94396200389585 0
11.90242294941573 10.76381542453275 0
12.97779068263202 18.10292479618913 0
24.31003763021764 19.21011554944833 0
22.47289137209949 8.294788021519183 0
13.59005957562691 22.57914398348611 0
24.43997192803626 2.730067404625054 0
24.79562491250726 8.521498535440267 0
23.41468768210256 19.16083437153958 0
13.20486284512285 8.370695225191126 0
24.75497123308778 4.778380764137759 0
10.25698176315381 7.525712093089996 0
10.65118772381534 7.176407944625694 0
24.31161468376158 18.91470603228218 0
12.49690097148566 7.773990142634715 0
10.20055039032178 8.500987237026248 0
21.7948088694298 8.370699387004569 0
18.58303005334564 21.29354477058468 0
23.7320038290106 13.60309676091966 0
22.50250327304926 7.774017502103677 0
18.03571428190872 12.69818993561667 0
13.18643367162001 9.185524474878864 0
15.94106934705263 19.65370707378361 0
21.42777344565071 13.06890752540868 0
20.57953536894268 12.84502544668821 0
12.84178117226299 23.06537026560091 0
20.73089338555697 12.53072376720523 0
13.97434014297907 6.671522710249775 0
21.81765654122233 9.177516679560133 0
21.02562925131066 6.671457093377923 0
22.95165580541527 10.77145001483863 0
13.134188528831 7.28251024044946 0
19.49686222487808 15.86655667641998 0
13.18809224542378 6.859687239905045 0
14.356171183816 6.173883085261162 0
20.64384324145334 6.173859779041981 0
21.86594036895536 7.282115555421177 0
12.45274044460667 14.02778442479855 0
11.9039465725918 5.547492777316734 0
24.35810390498844 7.206070373039472 0
21.81182459035505 6.859493594479846 0
15.33269273413682 19.76864234452628 0
24.40597104137827 8.816333519021235 0
23.09591864650323 5.547488061294533 0
22.80610536103007 18.17204796043925 0
21.75605885228367 13.45250921562641 0
23.49120160744122 16.17605146733332 0
15.39564386282451 21.92921719593971 0
11.33984152526164 6.959915205612567 0
17.45624412287352 19.60992374296691 0
21.3396956219116 20.57540290535331 0
23.66252848989016 10.44142342099731 0
19.65351214946072 21.57053219900953 0
10.51943381821153 11.62517055424266 0
23.73511167580195 11.5099590826388 0
23.49230326336176 18.13072348586418 0
23.1458122413133 12.04794946843438 0
24.74788866609985 3.537052543915366 0
15.0967382119256 14.18010610931761 0
22.01113016549563 18.5149339084666 0
12.28269606540907 13.12664895545692 0
22.44744725429399 3.37119812161418 0
12.57809982032173 8.57666352620824 0
24.29498559283253 13.73627861104143 0
23.66017471770027 6.960449462666038 0
21.50159149165876 2.743924882080231 0
24.3544593106234 11.56940269654021 0
23.71594274721557 16.80588139005973 0
17.64603972448688 16.29183206730076 0
13.58397378721376 21.92708281453227 0
12.72819083121224 16.65506288077485 0
14.23553458085145 4.787349012175513 0
20.76508086359651 4.786897980074516 0
22.42162768355761 8.576711068215136 0
21.9030320107695 6.370451976242286 0
10.25085600381798 13.46724349715753 0
11.50208248338294 2.743931190013449 0
10.73574046673418 10.03516802745872 0
19.69336068765937 19.82785839599146 0
18.01452950896625 19.65877229942361 0
10.25479490206967 24.3121860553804 0
22.49214766728282 10.28010960872946 0
12.08383795987935 17.74532570230615 0
13.56909932386911 9.481178858973266 0
17.02749442057102 22.38340060171594 0
20.17924723698201 11.2499999984643 0
20.20340026492391 17.28262483480205 0
20.98611061085128 8.31812290096104 0
10.73319938504685 11.3780257210189 0
14.93500399625426 17.12247106561058 0
13.08144011115792 11.02313622839234 0
21.27980169620225 19.7465282443238 0
11.90141756776325 8.559573292899566 0
21.5287441276731 6.886718534105622 0
21.55424808983071 8.61898520207679 0
12.73924516290132 6.255316468869953 0
10.55983761703457 5.944802076644135 0
11.51727965322947 19.73790321267485 0
14.70322165290308 17.69014509619911 0
14.07942723157115 7.19255324791429 0
13.10495606130092 7.572815097788824 0
14.32184789727208 5.304425190340178 0
20.74040088459131 14.07430276614448 0
12.62987802913188 18.28355631080273 0
15.88133174663142 19.34854075260639 0
23.78066795375382 3.724134196278607 0
19.05684105765545 18.60308228177223 0
22.49583340594475 11.5014325769376 0
24.45416659242979 4.657029911583325 0
14.13915813903316 22.2445029055744 0
23.45499692962203 6.7817901108212 0
21.24224527341064 8.035714274084688 0
11.26397625784572 8.113191172838242 0
15.04753295134839 21.33617344908555 0
24.08964696373587 11.48955691267635 0
12.48276389526307 8.032569718792283 0
19.23905127884857 20.2953130000198 0
22.26214426803996 20.16861605268365 0
14.1483165043328 22.91845284660686 0
19.53741817446356 16.39860991627262 0
17.19193151949672 17.64566548151875 0
23.6923169752626 13.90022054753564 0
14.52726461503511 11.40417397311478 0
10.65346619151334 13.94521120866172 0
20.35861948921961 16.36836996618242 0
11.39559057461587 5.225985278378106 0
16.06401115766619 18.12552083873315 0
22.11253896947133 14.23878883430955 0
18.55048421110073 20.41513092582193 0
13.86752405818942 5.782417565784809 0
16.7343129109661 20.04064429062355 0
11.2570630801837 18.43672201946997 0
22.85484012295481 18.74172928033576 0
20.3987318644363 20.40074108569517 0
10.6777506465673 5.324064572435344 0
11.99130166957667 23.56958814625944 0
13.94972247357928 20.78035549937169 0
21.15445457056773 13.10010634475957 0
16.54406313999703 21.24226553315605 0
17.7358970221984 20.27212824041047 0
22.44589244325626 13.27327138342289 0
23.14541976562564 19.72174106891319 0
23.28565911828171 3.164250770641396 0
18.38586423845069 21.07566329997227 0
14.10637262039818 13.7655314717141 0
20.83695056226914 9.763438330149269 0
23.2334224569073 13.18818863609246 0
21.26948841279303 17.46978377448145 0
13.75755318412228 8.035714295263006 0
23.45446570839491 18.44245989520808 0
22.33345723547914 19.43294272556878 0
20.84021139073802 12.27089517114815 0
12.72973247767013 3.521890268420144 0
23.73287692282494 8.114728202928037 0
12.04411433199366 12.43793663646807 0
10.89078847962937 4.803037658905152 0
13.41972538637292 9.277744820911456 0
23.19240480574669 10.08245034050657 0
21.90417597237628 3.291227054437136 0
22.21190978647702 8.797195200826046 0
22.26084042932025 6.255172876509609 0
11.88630398849593 3.968600858939486 0
13.69736624065591 10.53402420849086 0
23.99975962921866 17.01383886007559 0
16.51354594111556 18.89694298951066 0
18.41726896606052 19.57695078313294 0
22.72843780302069 3.521219176915755 0
10.60656407656286 9.414837679516026 0
20.55002591844418 11.80369303129204 0
22.74095190116622 14.17420037061039 0
18.71789448177942 17.18600829221294 0
21.17818638444001 16.03338780291572 0
11.05717006101356 22.04115494967852 0
13.79800826648516 13.13281754132534 0
10.67217890169133 21.46728746542022 0
23.37034125340108 11.91113095215562 0
15.93352766414548 16.90895340257915 0
11.2499999989096 3.743788445538038 0
23.35783505404543 17.90121226692 0
11.08541322242166 12.02340942738807 0
23.95449885373445 17.99479165849174 0
12.54300376347956 23.03485925883535 0
21.24041460602888 10.53571428400518 0
11.69287846810018 11.66688075395626 0
10.98694867810122 10.09007967390719 0
15.12310787411013 19.53694586998414 0
15.70275702321926 22.01060427496084 0
20.96203379896939 18.17771765837464 0
22.49984912493765 9.557700744095346 0
12.50091367394122 9.55829305496245 0
11.06471009224067 14.65255089901945 0
21.00339308052576 4.732731658771883 0
22.86607720215812 11.88847059122905 0
23.94735518277893 12.78813767272785 0
21.57924907599199 14.57742783365432 0
14.01593936333784 19.61695819315884 0
19.84887468899685 13.56745864704801 0
17.20829564293776 19.05639528042265 0
11.28200722924315 13.55418457662705 0
12.24449429998375 8.522109557445717 0
20.42550595166733 13.09192708535504 0
13.40047038799079 11.81161491671173 0
23.56063293372739 9.767823859231441 0
10.83381556182577 6.549534154586249 0
18.07782790075354 21.70760370875138 0
21.82235329221204 15.86401612042893 0
21.54877906477476 9.372243314436815 0
21.60316875560929 11.80652348692301 0
23.69245874155781 10.74198376564912 0
23.74338483556389 19.78675602205952 0
12.52345570059881 10.53011183053618 0
15.85604179797775 13.54443515365342 0
11.63237287162492 22.01491200055585 0
17.02208545153932 13.5883793562974 0
10.91019459427033 23.77033921053601 0
21.93177944814729 10.56736353872504 0
12.35832717441174 16.56459723865484 0
14.15472160302043 9.753603880898318 0
21.85812883458767 12.65945347244126 0
23.55342957035418 6.258702428094195 0
14.07611565246347 10.86226506209263 0
12.88835155146234 12.52021125378529 0
11.2950130263059 11.02822578301733 0
23.65991848664785 19.01509361989162 0
24.52701849339176 14.55751525088989 0
23.11000445769269 3.981498776142866 0
23.07902407934755 15.07812500036863 0
22.51682368210828 8.032581797290128 0
11.86509836708469 7.541430235088733 0
20.03141235009721 18.47519187611982 0
21.57992801993121 18.12146548526647 0
22.4936169640546 10.53571428400519 0
19.76541610688636 19.45660099545583 0
13.47117928350078 6.88677492987539 0
24.12100058631603 8.844850686085067 0
10.80899647625839 12.84274190526981 0
24.5103690290358 2.99309572311083 0
14.14109882859304 12.32142857160358 0
13.41737240126573 22.22461152292202 0
11.56312599233844 17.19758062311019 0
22.66903779378342 12.37570915736675 0
20.79009023653234 19.37157449941035 0
12.7877358914566 8.797271569735164 0
17.42639231104279 21.43603950405019 0
11.20356437040524 15.72228055047726 0
23.75031785596471 16.18417247001479 0
21.80167056571185 11.10496187195668 0
10.9247029138597 7.226118882970653 0
23.38603861374589 9.272954747607491 0
13.28781497395308 3.16514311882144 0
11.49798870886532 23.11915722900645 0
12.66227976091148 13.26217671670681 0
11.58906189073462 9.274261008609809 0
17.61074483884434 17.97062437300067 0
10.91448842824607 16.57768974970924 0
23.13413586330255 7.541384287953804 0
14.80450557565153 20.28613658408018 0
11.54523284699955 6.781502886861883 0
14.47124798210436 12.88833893829045 0
22.06968078527439 9.28580728234624 0
12.77643457914343 19.76386125764652 0
18.69220024875286 13.58837935758354 0
24.50738045432069 7.656205489515071 0
23.89852634027737 5.785404190261345 0
10.6111260266438 23.26431059728289 0
20.92054515989678 7.192533916305455 0
14.97494583636629 22.4874828974766 0
23.15113240479066 19.19770427736224 0
21.05033226451282 16.70574167028964 0
22.23142495073258 15.12045923081547 0
11.08231541707745 20.82661289445583 0
10.8562868643099 17.68400253061614 0
14.21760817567236 6.48955680706047 0
21.8947882317534 7.572485100517994 0
22.76398293645531 16.02260140872546 0
21.13244755531652 5.782331346969416 0
21.24585413615694 3.745854135839487 0
15.2551192907782 16.35621646722355 0
23.06865745026683 11.05206240669933 0
12.37950115825944 17.47837270734364 0
13.48388533256668 22.85479753240776 0
18.68921177368652 17.97873688786575 0
12.43704017975164 11.55552354228521 0
13.37509178367639 16.96817009017721 0
13.78104396675349 18.53714690405304 0
11.9063860853613 3.289238200188067 0
11.10159095508296 5.784975764059611 0
13.79163954636898 6.387899531506288 0
13.41977678898721 6.196943091186993 0
13.1466582256263 10.02587323078944 0
21.75390393570166 18.70432480142959 0
17.95364855196695 18.33078837625037 0
11.37977316690263 12.57908201907027 0
23.44660507275182 16.79414051917817 0
14.41591738091692 16.56134843477114 0
11.66173483090006 14.26785857409456 0
20.88985317212516 8.816020221564392 0
13.26630471719738 5.690262285558168 0
14.16092491931902 17.28004394857275 0
17.62280926063997 16.69549195749485 0
24.34592464957978 16.48658052112511 0
10.77431673250977 20.19405921333046 0
14.00101931898273 4.735765489748998 0
13.78521249459997 3.726180298612834 0
23.88435656730487 9.316925546062286 0
14.30378145192617 4.142245252125266 0
13.43519312750567 19.84199962299025 0
13.78593169425808 21.58392205755441 0
10.67319282683419 10.70283185671829 0
24.14367896712289 7.308589943833659 0
12.50865107068951 7.035853450635864 0
19.10627797331354 21.19194864194136 0
10.84676092414053 8.828432577688979 0
11.78420389665323 10.11702365911059 0
10.69063718215338 3.196005286862631 0
22.38447199265838 3.032955612145181 0
12.16252243787954 20.30966834282014 0
21.07872692559755 20.5704077695006 0
20.69539067600503 4.141189725003352 0
15.75637431012445 20.44203136599701 0
11.50905738878225 20.36586211616725 0
24.20950224361591 15.52999125281917 0
16.46270210606734 22.02979083868571 0
23.01426011398143 9.598176244009418 0
17.88283261615297 13.34754481112354 0
14.84150888354978 18.84131168433234 0
22.3831356529408 13.78219357987516 0
15.52515276800797 18.83634048331044 0
19.18771329390582 19.62296121373689 0
13.05680647880807 10.5463470538086 0
14.57479257626362 19.72601892535686 0
20.68782051646775 3.191987485225497 0
20.89875836895827 19.96172921616295 0
12.07336194960399 18.98363528012271 0
16.056050708174 22.43419916704964 0
21.39658642021208 5.226201372993152 0
20.67811671937947 5.304384387316691 0
24.01361299304548 4.722893593625502 0
18.79488165430423 20.08124235187064 0
23.32533308207761 12.56559114406061 0
13.08647922868089 19.01052055664526 0
13.66796223052737 11.06285865201923 0
24.4261119978447 9.368229164857178 0
12.33290453986502 10.04795899659696 0
20.63868050984811 10.74867491555443 0
10.96965054668309 8.380901876648938 0
12.92934465656409 22.51286328182659 0
10.89582186635786 19.15298565609614 0
21.58798400423424 20.06130247887923 0
10.56141689427797 12.3373588069677 0
23.49295569603046 15.59653915023524 0
13.25227722498102 20.4152474666902 0
22.49140200118416 7.035677364690908 0
23.98833902752352 14.76685633593088 0
23.10020127106085 13.73764019335417 0
19.38332598648746 17.81954563023159 0
13.55566435605557 12.43163265378413 0
10.62021040172667 15.36884965900757 0
14.70245206065909 13.51701616514042 0
20.91221148989265 11.36422336144849 0
18.82254400316108 20.68791951899497 0
22.18703478152144 12.00817982455509 0
14.6920704683931 21.841435397744 0
19.77858685022072 20.93332082057393 0
22.81223333601783 20.1537861443981 0
21.89678021245668 3.984471989101215 0
13.11246476904128 3.982653696508076 0
16.11470064718377 19.91801427533701 0
22.87400666445983 9.093029764668142 0
24.18760511629184 9.888770543463487 0
10.66324752489551 4.133064514346215 0
24.54712289121335 8.532181697418373 0
14.46268046785514 9.289486769313747 0
14.51633903934938 6.923787805741577 0
13.27050503131296 18.29981595114187 0
17.1336787828825 20.79051578552316 0
24.30445054231526 18.63589089429445 0
12.89664714335647 14.01707829789227 0
17.28269021038436 13.02203855497644 0
12.07743234971316 19.59628009611818 0
18.41916817833627 13.03664624275589 0
20.48367409307777 6.923706290698847 0
14.11005293492019 8.815903135291133 0
22.7557760435117 8.522523567651367 0
14.23736793933915 20.2400448525973 0
20.54479486636173 9.285694982920532 0
22.4470929887668 3.993047855486101 0
16.45620211116752 17.48873222740989 0
21.60459544172228 20.60924089087704 0
15.51940220172914 22.58606827411811 0
12.44982742361381 3.993467191872441 0
10.62825536867444 8.238620971606023 0
24.33476641575501 13.48484816235302 0
10.6124072408614 18.44846190926181 0
14.14885995624294 11.3297528897209 0
14.36336858669726 21.25935015262196 0
21.55489824175854 4.478999359618822 0
11.33810791289205 21.43428637532983 0
13.44280924085676 4.506286468540193 0
24.3694521002995 8.24999099914764 0
13.16920423972213 13.05379273640399 0
11.64568118153861 16.4419632515668 0
17.73485194426807 19.5071563335197 0
12.01493682231808 6.153941737179709 0
21.73366025178473 13.73329363191041 0
21.52598909090822 19.3713999409894 0
19.82142856787083 12.98405612181365 0
12.38660715610827 3.032571330296178 0
13.08608957300805 8.135112393497984 0
13.93800622993111 9.31611269740075 0
14.44302034895264 8.036339913416365 0
21.16941302524321 13.61917539897311 0
11.40784430169762 10.47152126697699 0
11.92734501906196 8.047658642355504 0
20.3363759401353 19.75597849432797 0
11.80480021296311 17.90040451586966 0
11.94585838527326 13.18791162083285 0
11.68815729293 15.04690515587069 0
15.89285714571177 12.98405612345444 0
19.49262952529001 18.25058087879099 0
21.33775244589151 9.930076809864127 0
23.09847277000284 8.560412698655215 0
21.91328862994572 8.134886112735789 0
17.75718891592601 20.90991730237161 0
21.84740284666615 10.04168046306487 0
20.55689521086956 8.036348934688096 0
22.6314467143511 15.47044218591164 0
13.43207475532495 21.06008742563565 0
15.23324512576627 20.68908532969716 0
20.38456806967599 17.91743750544106 0
24.46894927343727 12.88305839792281 0
11.95878598911273 9.642397445254367 0
21.58014827127528 6.196825276801046 0
11.48695839347139 23.87537969685043 0
11.38599340231154 8.768757354134486 0
12.50632536524723 6.64168194778895 0
12.47701024419029 22.62255247342656 0
23.94030130509135 16.58438798494859 0
24.38206085377982 17.56954585265831 0
15.28436641188992 18.18715512633808 0
14.31186714323855 3.257298850510441 0
24.27185683575965 19.53097070196881 0
20.84653318554339 15.39089930010798 0
14.45520170635519 5.89285714906653 0
15.33933523252397 17.42671327997293 0
12.57380109042673 11.06223594958987 0
11.39566621891391 22.5034025880723 0
22.87090131857591 2.9882825759829 0
21.18510079105944 18.87661216930402 0
22.15150508719466 9.609646880522135 0
14.60608726645784 6.285626712232528 0
13.6771750697512 10.01143852795147 0
14.46561110444943 11.79646283887667 0
13.8019328922222 8.948482151369385 0
18.1235158558357 19.94815362351931 0
13.8964895535549 22.57589693064551 0
17.06405363852571 20.30282379350218 0
11.14431044802752 11.5764665177304 0
20.78241218326945 6.489478958225377 0
10.92064254553632 7.756985682238265 0
23.8055314820834 14.34992801500965 0
18.07411248310597 18.99123080499877 0
11.66495839398158 5.716864488809601 0
23.07747097125162 11.44332773090468 0
24.16530403328426 6.552878806696272 0
14.07904572276303 10.21334593268218 0
19.32065328003702 13.80447424641377 0
21.29421041951329 11.0439857629432 0
12.47115461991103 19.17998953394574 0
11.99832040768607 22.60132677706697 0
10.73805912067639 22.71549303658415 0
20.55669156803598 20.906282249013 0
17.0858015445162 22.02088264617369 0
10.62507505859133 16.01250268769601 0
22.98520947170477 6.154108072985804 0
21.38628519253363 12.3763458178317 0
17.15081865005056 16.98134009474778 0
11.21334953479195 15.22033404320717 0
24.46425388682443 11.04228831760487 0
23.61551050177588 5.204026225770134 0
16.45144088254715 13.12429434978326 0
10.61502595877084 17.13628397455232 0
17.94761753232414 17.51122461632693 0
24.30954710043514 3.260102917421163 0
12.54097208494915 9.134363235150529 0
18.62050513621295 16.37407160340701 0
10.55041813015824 20.81863078824539 0
24.29177893683548 12.1938298153654 0
11.20469896859305 14.11608936996495 0
13.44542764381309 8.618850565614194 0
15.99341360109407 16.20050977492583 0
24.46574864934568 18.15189813774403 0
12.08891406624564 6.695763184498495 0
20.92543410286825 10.25590403350079 0
12.20306670237503 13.80029386911785 0
13.80420415746061 3.017968579439731 0
15.74784317943007 21.2673623306492 0
11.97201033610493 11.04778381679406 0
19.26284482588009 13.12429435086304 0
20.65161920973227 18.75467449494165 0
21.99323236470526 7.053037858417304 0
16.72748218209583 16.4538493636484 0
15.24468808242331 21.66193278592157 0
24.06407823742948 11.05802574091983 0
23.75901431011241 12.24818700155737 0
24.33627394980869 14.11113188619186 0
16.42857142937082 13.87244898555864 0
10.43515420973285 17.53844061068472 0
23.61227880092812 8.768653085456537 0
11.52121326331742 12.11779413123243 0
13.09231625455147 23.32026769724107 0
11.55619690798906 4.47495181900903 0
24.32825055229845 4.123436533791373 0
15.30160571259282 13.84832059509584 0
10.50872013034806 11.84893287763491 0
13.56026381564782 20.24476732886347 0
23.37637868716911 20.21755168680651 0
14.07458121002126 7.720025466378575 0
11.07193012017799 6.902719067701977 0
23.40777976306139 14.48764502745874 0
10.45424690386224 8.55430246542188 0
10.43676400781267 21.77610404510235 0
22.31107396058018 11.01899493254912 0
21.99332983066061 11.54148172617603 0
22.57322628600366 7.55511610484684 0
13.81968577868285 17.70886791915951 0
11.08718774027834 9.223990905086115 0
21.13734612033538 4.214728678927506 0
24.5238940584591 16.89724881576591 0
24.33580982538088 5.286666393947819 0
21.60798276917128 15.26177418494073 0
10.62019850069326 14.65367577555258 0
13.07955198428637 17.67990933625281 0
12.32670770189007 12.11268493284674 0
24.51171023435507 11.79364681426486 0
11.4467042314797 6.258491512322831 0
24.33951404032707 10.48536368400751 0
22.05768859626761 20.51107655966133 0
12.8036424320673 11.55567940539312 0
18.16359391656599 20.71793486659737 0
18.32017670063122 13.89343365893288 0
14.44346369762697 10.53578152793772 0
14.01369216940173 8.31805130436183 0
11.10671690163559 24.31984796372405 0
19.90750211027807 18.05288082149194 0
24.48359986367041 3.596035818911431 0
12.6162093583642 20.41194622591344 0
21.19793038999001 8.948619310582886 0
18.887165592702 19.2133356723819 0
20.39390797649977 6.285607123215456 0
23.01065801322549 10.5343833556322 0
21.31696798237362 3.033383443593511 0
16.75845868293067 22.26112562479409 0
11.31844941212731 3.033421096683592 0
10.40148832871688 6.347169752498087 0
10.38551791677808 20.47349159944635 0
14.40629139257011 18.32348044935009 0
13.60343111896656 5.226264774035318 0
17.26907553706247 16.12924565237158 0
21.81326620423882 16.55803422598171 0
11.39643711877201 9.7760562010095 0
12.03234911336282 15.7882635148968 0
12.12782061977053 9.091786135091676 0
10.51299157594162 19.60373532754757 0
21.0703063668265 6.899436700484911 0
21.2083015758463 6.387819496660541 0
22.907169954995 16.55187322186771 0
19.6077173749496 18.8732418467863 0
11.12228792809122 19.649576949687 0
21.70683126858373 2.916291790015949 0
15.19831499501783 22.84829883157781 0
19.80897803660761 20.09710768603949 0
13.14781365658553 8.872359272550536 0
14.53679561189724 9.68550182629177 0
21.97689628436869 19.7916078552219 0
23.5688449338292 11.31121186778902 0
16.43623121374458 20.58229810965575 0
24.02149539977306 8.385146795930556 0
10.45776688967709 9.079389792640109 0
13.34247688852415 13.76835103458642 0
22.84276343672398 12.8426466313893 0
11.32924128830768 7.547295094769376 0
13.00685669827766 7.053406502217587 0
10.48341728067804 7.63827427736406 0
15.32495744008891 13.12878099762889 0
20.9252665920494 7.719979216245631 0
11.49234211176518 19.16260571204751 0
23.6739628584564 17.47473677977687 0
14.26117305534763 21.76105785600488 0
24.54845464855059 13.81667248172939 0
24.07536979474627 7.762805661796531 0
15.34797607153283 20.07519057525591 0
20.54479995675506 5.892857135155434 0
24.43988615110631 5.954442041991268 0
12.84947536182519 9.610479029328337 0
10.49084716821687 6.957456368537676 0
10.41696061277505 11.04543439853805 0
15.98506817557935 21.70179140682604 0
20.43226369334348 11.2499999984643 0
16.97223872666497 18.32831761541711 0
10.9777106508372 23.37587321882616 0
21.36781103581615 14.223526551653 0
20.85635893524247 14.70720281588889 0
11.13774810459173 4.208697008607569 0
20.59894689183621 15.83791359450333 0
22.48050341432832 18.98013202579173 0
20.54389011034516 10.21265509314457 0
12.83585337197261 17.00039854754068 0
23.50401779161821 4.490785466640433 0
10.52531681939054 24.22308352127556 0
13.76785404318123 16.26899182632868 0
18.85355422900524 12.9624903908972 0
20.40438183516954 9.84280774666575 0
10.55213999340893 13.37224489753368 0
22.91929494703097 18.38405987549389 0
13.65227850508816 7.435960542195604 0
21.34761104159307 7.435909524694201 0
11.59653257431655 7.214670039572085 0
10.50972179297379 22.16212955264685 0
10.42627719665121 2.925225543144596 0
10.31898811065516 19.02468280999997 0
22.56109677482345 5.976919239263974 0
13.34098387233765 3.629403258208716 0
22.31467876972438 18.56334686009454 0
12.43902516854314 5.976916671282238 0
24.49410451881006 15.07373900005194 0
12.88368255595823 11.91578084726527 0
23.33494189793189 5.716837010518105 0
12.53223253591669 23.5928683133149 0
23.91375729965019 6.852365255780889 0
20.42522648911265 2.925226488885627 0
22.33123698060114 15.8044269980843 0
20.8049399839995 13.41443299472196 0
22.91152249239983 6.695955118091695 0
23.66962125783386 7.547692637645399 0
14.21987533114616 19.02775396838236 0
19.58201524887764 21.32971185123453 0
12.62901960321788 10.21072908300837 0
23.40303269304139 7.214794550494432 0
22.35352577578093 16.39267242620576 0
20.91624775204439 12.80999816346839 0
23.7582187192065 13.33367804365331 0
22.67355412968225 10.04783426476018 0
22.65022849760398 14.71754335447476 0
18.65814973253514 21.59101639362506 0
23.80294807661634 3.018200793445745 0
11.61325251813879 20.93082417664895 0
21.12316164641857 11.86789706371106 0
23.07198496161033 8.047967110337371 0
21.89923350325804 13.2099342683408 0
24.56836144446959 9.973958345411345 0
14.48694448188394 4.769831525841377 0
20.51303509903236 4.769824381428585 0
12.9303955752911 9.285599845349438 0
21.85192200485574 8.872400189638329 0
10.49736275315034 9.974453417663659 0
19.12033503984593 15.98695743067025 0
22.23336441125026 3.552831793087424 0
22.45992454400367 9.134395865674987 0
16.68439655328338 19.37029924319754 0
12.86350735895801 5.810913450722529 0
13.01894508194985 16.26722955560294 0
21.06194850099724 9.316239979270039 0
11.06683130517903 17.03501971215085 0
14.66186664391297 22.90753037878458 0
12.42619196729643 7.555107641197593 0
17.27551814618488 19.88388170794455 0
12.24729660260442 3.562622764048628 0
10.50024560358952 4.803877913711282 0
20.45219717600105 12.20325868886495 0
24.50255347243431 6.954147584120481 0
21.73367944769804 5.690164348082586 0
24.04126477440492 19.06085417013156 0
24.49146231584546 15.96806241747725 0
19.59309452497089 17.1479450968431 0
21.86396243631609 19.10105809757135 0
21.5449013806501 17.08799057059779 0
13.77457395761922 23.25554009700535 0
10.52079241145641 3.629700411525843 0
14.5285754814991 11.06136084547133 0
22.49394589121871 6.641460972454039 0
13.92535844737082 11.76990497233793 0
20.48263089584644 3.652083067597339 0
14.51736910245342 3.652083070880225 0
20.23913581961398 13.6534210162958 0
12.45753180745708 12.91116963924505 0
12.02349761674669 10.5224252679273 0
14.53431461040259 10.02124085811376 0
14.92752526883339 12.94325007292732 0
14.53437111650854 8.55003623421901 0
20.50020673730992 8.887368664986651 0
22.99706747625908 7.216826141860068 0
20.46562946748084 8.550047238500225 0
20.22002942612808 19.12087177110507 0
12.87344393494704 2.988551031794516 0
10.620766496305 18.10247030281327 0
24.60168764975202 6.359947140713436 0
23.62629988749061 15.01961747871003 0
17.53627597393038 21.98222870161234 0
14.62117373478711 20.7837044140451 0
24.53654081170699 19.06869372075295 0
13.63441832837376 19.12886992259808 0
14.54898018238358 7.534513892349187 0
20.45102638737692 7.534489222027349 0
16.86073147696559 12.96249038891501 0
17.44164963496835 13.89008620859283 0
13.85672644360188 4.231802705824303 0
16.9650020680664 21.53320353336266 0
23.80601585475958 10.23635069534939 0
20.71653943866291 17.09748434823585 0
11.85217104115012 18.4711072082359 0
20.45396166786711 12.58712105236178 0
13.41107378905354 10.73253136976578 0
20.27764908185055 21.17787179594953 0
11.90316682675829 22.99822855553852 0
22.30195556199339 12.78392060061387 0
23.86480333521416 4.202653715485267 0
13.92965329775316 6.899482376060384 0
23.25205581493767 15.95282670897841 0
21.83483894432113 12.22354945868666 0
10.34343512692782 23.72812851742032 0
10.46691514342657 16.44379528053371 0
23.36561517871902 10.43073565617124 0
17.499299062151 18.44013672546324 0
11.33406457474372 13.0411697856198 0
21.41562408967648 11.50860511459117 0
22.75260726141138 19.7329825895312 0
18.10629867495784 16.01698984549625 0
11.32271128469862 17.9615997909392 0
19.38816107750971 20.79156277928619 0
14.58911252499022 12.32142857160358 0
18.5234683473008 18.65411446365346 0
23.7776355078088 11.78726146540333 0
12.00248710516603 7.216832968331521 0
12.07542022988375 17.01186840578501 0
23.80126830546573 18.59813267482333 0
15.99993897858304 20.86795906734649 0
19.84314259510446 16.01505131875893 0
14.51145929640712 2.988635497098487 0
22.23906678895999 10.16684771573137 0
18.27954917250959 16.7556331209786 0
19.92930197762855 16.75272212664862 0
22.13655655743156 5.810784592820877 0
15.8793733036051 17.61925940463025 0
11.52111945390337 23.49076856690061 0
11.70696356165049 2.915884965408782 0
13.41798434888989 9.706203158016404 0
10.34801600739025 10.32005463577143 0
24.63086606402351 12.53012996338497 0
21.56163255733163 9.710226146627772 0
23.33850156698815 3.628032393193377 0
19.97386046371714 20.49207795939365 0
14.50072752087816 8.887809912967187 0
23.51113996003881 19.42800170262691 0
13.4096325916695 11.40040600073985 0
14.7356096578638 16.08795643481591 0
13.03949561458311 6.627230795762388 0
23.17453565653584 15.57010267037888 0
12.46486139142972 18.7330427134802 0
21.96043839084844 6.627060642147481 0
15.149908543288 22.20608700765187 0
17.98006384517337 12.97713982583745 0
10.38414914618858 12.84274190526981 0
12.01159628240713 20.70165415423546 0
POLYGONS 4176 16704
3 1717 2141 851
3 266 425 720
3 1642 2137 726
3 39 40 2033
3 2102 9 2138
3 13 2099 2220
3 1794 2024 748
3 2115 1688 475
3 1684 2227 523
3 1798 431 802
3 1821 2115 475
3 241 242 2191
3 2202 1770 446
3 1935 1566 1281
3 1832 521 683
3 2166 1202 721
3 2074 1786 498
3 2054 2214 1015
3 1668 2009 632
3 2211 1706 2095
3 2175 1831 385
3 2200 1686 391
3 7 229 356
3 1566 2074 498
3 1800 712 1034
3 1566 1935 887
3 2039 24 480
3 521 1647 683
3 1733 2169 2116
3 584 1781 433
3 2172 1727 950
3 2219 2152 1328
3 39 2033 1283
3 2066 1873 922
3 270 554 942
3 712 1812 1034
3 1781 676 433
3 2214 1797 1015
3 2024 1794 865
3 228 7 356
3 1656 284 601
3 265 266 720
3 1674 2162 349
3 1828 2196 2235
3 2184 1783 411
3 241 2191 1214
3 1925 1620 321
3 1840 2066 922
3 1086 510 927
3 2009 1668 655
3 1628 2052 666
3 575 84 981
3 1686 594 391
3 1750 1765 586
3 1848 2081 694
3 2043 1936 588
3 201 202 2128
3 1935 1657 887
3 306 2183 669
3 2018 304 669
3 1897 1833 2022
3 1684 523 515
3 1871 2173 417
3 385 713 1314
3 2033 40 642
3 1934 1608 855
3 820 2049 393
3 1728 646 915
3 1727 2172 340
3 2193 1696 597
3 2144 1934 855
3 50 51 2199
3 608 1675 1005
3 2137 1642 1337
3 2184 1876 787
3 1985 1959 776
3 1583 700 1007
3 1796 2005 573
3 385 1831 713
3 624 1583 1007
3 1620 1925 1238
3 115 2180 891
3 646 1924 915
3 2181 155 893
3 1682 510 1086
3 1657 1935 1163
3 1946 1811 2236
3 2022 1707 962
3 2231 1619 1296
3 1841 2207 393
3 2146 1633 1458
3 602 1585 1291
3 1570 1677 1246
3 2185 1950 944
3 1633 2146 694
3 694 2081 1057
3 1573 2102 2138
3 1950 2176 1017
3 431 1575 802
3 2156 1792 621
3 2099 1638 2220
3 1769 2201 1731
3 24 2039 1023
3 366 2086 708
3 1681 1996 529
3 297 298 2205
3 1861 1899 1251
3 787 1876 436
3 2160 1809 579
3 1918 2161 584
3 2152 2219 1106
3 2225 68 1237
3 268 269 2021
3 2201 608 1005
3 2011 1632 590
3 516 445 1161
3 1815 1586 1012
3 1749 1985 776
3 2107 1942 570
3 1878 1729 886
3 1586 1815 583
3 1739 2018 955
3 2183 1691 956
3 1688 925 475
3 925 2164 475
3 30 31 2198
3 2194 2086 366
3 43 44 2098
3 1597 2219 1328
3 1961 2023 624
3 1728 2192 753
3 15 1864 432
3 284 20 601
3 2066 1587 531
3 1784 1189 650
3 2166 2062 1202
3 2179 318 1290
3 2018 1739 612
3 1691 2183 661
3 282 2241 748
3 11 1868 757
3 630 653 1282
3 459 865 795
3 589 1939 1461
3 1938 1831 622
3 2205 298 1195
3 1897 2022 962
3 1677 1570 1423
3 2030 252 712
3 458 1919 1287
3 148 149 2090
3 1919 356 1287
3 516 1609 445
3 2052 1595 707
3 2003 1776 897
3 1864 15 898
3 67 68 2225
3 2209 589 1461
3 1792 2156 813
3 1616 653 630
3 1931 1860 358
3 2195 1577 968
3 1899 1861 1430
3 1887 1931 358
3 47 48 1985
3 1999 1652 503
3 1857 459 795
3 1993 1784 650
3 2109 1904 1332
3 1752 2109 1332
3 1743 2042 969
3 214 1702 347
3 2162 1674 1085
3 367 493 919
3 1868 11 901
3 1774 2025 778
3 2025 2140 778
3 32 517 1146
3 1709 494 339
3 2206 1609 417
3 1853 1934 374
3 1664 2075 1034
3 19 282 748
3 1695 2051 1350
3 2202 1676 976
3 1036 1622 1126
3 1782 483 1330
3 1950 2185 1203
3 1809 2160 796
3 2161 1918 797
3 1785 2066 531
3 494 2000 339
3 1860 2230 358
3 1756 1941 807
3 861 2091 384
3 2168 1774 778
3 1876 2184 1258
3 2006 1778 941
3 1826 2052 707
3 9 272 2138
3 1746 2187 618
3 535 1894 1041
3 566 2077 863
3 1652 427 503
3 1632 2011 934
3 277 13 2220
3 524 1689 1171
3 367 1618 493
3 1941 1756 1249
3 111 112 1928
3 896 2155 1112
3 158 159 2027
3 431 1779 1100
3 2023 1961 334
3 2229 1841 393
3 166 796 598
3 797 104 1307
3 2230 1860 822
3 1874 2005 641
3 2077 484 863
3 1831 1938 1039
3 1774 2168 971
3 318 2179 649
3 2173 1871 660
3 1921 586 852
3 1628 666 794
3 588 2070 979
3 1806 2026 604
3 359 2065 912
3 1745 2231 1296
3 1606 1838 1049
3 2172 96 340
3 1685 2203 1102
3 96 2172 495
3 2176 1950 1203
3 1717 851 980
3 1833 1897 467
3 2184 411 1258
3 176 1925 1147
3 1925 176 1238
3 586 1607 852
3 1954 1777 447
3 1753 588 979
3 280 381 1179
3 128 3 2208
3 291 2233 825
3 1596 896 1112
3 2185 1721 1203
3 2119 847 392
3 957 1775 697
3 1671 414 1143
3 1625 2154 1274
3 1722 1955 1046
3 2149 1144 1256
3 1601 861 384
3 1600 1872 816
3 1685 1102 1232
3 568 1771 786
3 1641 359 912
3 74 75 1072
3 1831 2175 622
3 2001 602 1291
3 1595 2052 419
3 2173 780 1450
3 1974 2214 630
3 1072 75 1489
3 573 2005 948
3 1922 1567 525
3 1811 1946 474
3 304 2018 612
3 2183 306 661
3 2215 1597 1510
3 869 1782 1330
3 1965 2012 853
3 1805 759 1231
3 232 233 1994
3 627 1768 478
3 1746 618 938
3 589 2209 673
3 1760 2016 856
3 65 66 2074
3 170 171 551
3 2005 1754 641
3 2202 446 1030
3 2012 1965 906
3 554 2087 942
3 2075 1664 909
3 1729 1878 1123
3 1908 473 847
3 2114 1841 576
3 695 1618 763
3 1989 2081 658
3 1781 2184 787
3 171 353 551
3 1844 787 436
3 2214 1974 1076
3 1616 2185 653
3 1765 1750 1505
3 1633 694 1057
3 473 1870 847
3 1703 366 708
3 1936 2043 1507
3 90 91 595
3 1591 1980 1319
3 1746 938 821
3 1963 2205 1195
3 1980 1591 325
3 195 1051 1409
3 2057 1855 1123
3 1983 2067 347
3 1594 820 393
3 1926 627 478
3 1778 2006 674
3 666 2153 794
3 1838 1606 736
3 1842 2204 1210
3 1585 602 1339
3 195 196 1051
3 1998 1869 1331
3 1917 881 1081
3 2222 1728 753
3 91 375 595
3 2221 1604 1134
3 784 264 917
3 1783 2184 1043
3 2016 2104 856
3 2052 1628 419
3 263 264 784
3 2219 1602 542
3 2051 2165 1350
3 40 41 642
3 2044 568 786
3 312 1036 1126
3 2196 1752 1332
3 1996 1681 849
3 2117 913 965
3 1873 2066 1113
3 2157 1600 816
3 1081 881 532
3 2015 1595 1261
3 2141 1717 638
3 1636 2047 626
3 2223 93 519
3 2046 431 1100
3 1729 1123 1105
3 83 575 1317
3 2204 1619 1210
3 2180 115 1325
3 341 1706 1327
3 2047 173 626
3 155 2181 1059
3 1860 873 822
3 32 33 517
3 2205 1963 1471
3 2081 1655 658
3 1702 214 841
3 1721 2185 323
3 347 2067 1312
3 1972 535 1041
3 1829 1993 817
3 1891 326 553
3 1604 444 1134
3 877 1774 971
3 1577 2195 1038
3 1683 2109 965
3 2187 1746 675
3 1942 2107 857
3 1729 2163 886
3 873 2020 822
3 2042 1743 747
3 1733 1128 407
3 78 79 2032
3 1575 2046 940
3 1681 529 1355
3 2167 2230 822
3 1963 2218 1471
3 2199 1951 482
3 417 2173 1450
3 2190 1807 412
3 2168 2170 971
3 1763 2223 519
3 737 456 948
3 2184 1781 1043
3 1123 1855 1105
3 1597 2134 1510
3 1569 1826 789
3 1565 877 971
3 517 33 343
3 252 253 712
3 913 2037 965
3 1776 2003 974
3 2052 1826 1022
3 570 1942 1358
3 208 209 2226
3 1974 2075 909
3 1202 1836 721
3 2204 1628 469
3 342 2126 562
3 2154 1625 675
3 2138 1775 957
3 709 1671 1143
3 111 1928 1019
3 2149 2220 1144
3 2027 159 1242
3 1997 1938 622
3 2026 1806 354
3 1874 737 948
3 406 1700 439
3 1629 2147 1213
3 1984 524 1171
3 1883 1569 766
3 2102 1573 1027
3 411 1780 1258
3 1638 2099 1031
3 2133 2225 1237
3 444 1805 1231
3 1813 681 679
3 511 2035 1018
3 2194 1990 583
3 1777 1954 422
3 2033 1964 1283
3 1891 553 1425
3 1583 2194 366
3 1860 1931 873
3 728 975 1057
3 1725 1996 336
3 106 107 402
3 163 164 408
3 1938 1599 1375
3 1996 1725 529
3 1975 406 439
3 1987 1661 590
3 1706 341 1425
3 2007 714 409
3 2172 950 884
3 2025 1774 877
3 2051 1695 665
3 2230 1850 358
3 1920 2082 1207
3 2005 1874 948
3 1281 1700 756
3 2082 1920 1300
3 1717 2212 643
3 1863 2168 778
3 1696 2193 656
3 1810 1569 789
3 1602 618 542
3 9 2102 779
3 2138 272 1432
3 2099 13 781
3 728 10 931
3 84 85 981
3 1012 2007 409
3 2056 1645 929
3 1787 970 570
3 191 192 2174
3 1989 728 1057
3 934 1699 886
3 2005 1796 513
3 2163 1729 1538
3 277 2220 1433
3 1955 1895 1046
3 56 57 442
3 2216 1918 652
3 2100 1781 787
3 305 306 669
3 304 305 669
3 50 2199 811
3 1128 1733 1434
3 1643 2026 354
3 1909 798 765
3 1956 1981 692
3 1696 2197 597
3 674 2006 1159
3 1742 517 403
3 2203 1685 1083
3 2201 2077 566
3 1925 321 800
3 83 84 575
3 970 2107 570
3 2210 1653 461
3 1758 400 879
3 1669 573 948
3 1750 1038 1505
3 2191 1949 1214
3 1112 2155 1154
3 1603 706 619
3 747 1936 1507
3 409 1957 1212
3 2192 1728 915
3 928 1990 430
3 2075 1974 630
3 286 1274 867
3 2128 202 918
3 1932 1617 1101
3 1955 1722 1320
3 2046 725 940
3 1940 779 518
3 2196 1828 1178
3 430 1990 1356
3 1038 1750 1397
3 2077 999 1047
3 1567 1922 1087
3 1936 747 1400
3 163 408 1323
3 517 1948 403
3 402 107 1324
3 1676 384 976
3 781 2105 497
3 1990 2194 1048
3 796 2160 598
3 2161 797 1307
3 290 291 825
3 1018 2035 1187
3 1611 2229 369
3 1813 679 456
3 660 46 572
3 1847 2128 1125
3 2092 1610 758
3 1754 2005 513
3 562 2126 1434
3 2060 827 526
3 1628 2083 469
3 1603 728 931
3 148 2090 346
3 1701 2150 348
3 1169 2239 1498
3 201 2128 504
3 2139 536 1292
3 827 1788 526
3 833 1978 1160
3 1714 1961 657
3 1947 2192 915
3 2192 1947 924
3 606 1836 1202
3 1187 1876 1258
3 1844 2100 787
3 2233 1772 825
3 1830 833 1160
3 768 1683 836
3 418 528 1519
3 1660 352 386
3 1869 1823 1331
3 1632 934 860
3 1841 2114 998
3 413 1779 431
3 1021 1568 745
3 2194 1583 1048
3 1700 406 756
3 1573 1913 1027
3 2110 1889 1271
3 314 27 1855
3 317 2143 827
3 1754 362 641
3 2158 1638 1031
3 400 1824 879
3 1702 1983 347
3 1641 674 1159
3 420 1605 985
3 2114 703 998
3 352 1693 386
3 33 34 343
3 1880 608 994
3 2081 1989 1057
3 1640 2190 412
3 284 1656 1206
3 2002 331 833
3 1582 528 418
3 54 55 509
3 1917 444 1231
3 1805 418 759
3 2228 1583 366
3 1867 2048 690
3 933 1854 455
3 585 1876 1187
3 52 667 514
3 329 2113 1175
3 586 1765 1053
3 2163 934 886
3 2043 588 1056
3 2226 209 1079
3 52 53 667
3 523 1623 1233
3 1758 1112 1154
3 1032 2039 1073
3 2081 1848 1064
3 1603 619 975
3 968 1711 1390
3 1966 1773 320
3 86 813 1357
3 1784 648 1189
3 1695 750 665
3 2235 2196 1332
3 1804 695 763
3 166 167 796
3 406 1975 501
3 103 104 797
3 2016 1760 1305
3 755 1727 340
3 2015 236 984
3 1571 969 1392
3 326 1590 553
3 1655 378 658
3 2147 1629 1504
3 2161 966 1001
3 1957 854 1212
3 2147 1646 1213
3 2185 1616 1217
3 1877 1849 1104
3 1595 512 1261
3 2046 1575 431
3 362 1843 641
3 2213 933 455
3 448 1711 968
3 1636 626 464
3 2033 1779 410
3 405 2160 892
3 1687 2231 348
3 956 1802 1431
3 1655 2081 1064
3 703 1789 998
3 2171 986 1110
3 258 1077 1055
3 2108 169 551
3 1571 454 969
3 2067 1870 1014
3 1271 1889 337
3 1841 2191 576
3 1983 1702 1039
3 345 1580 640
3 1833 467 859
3 1803 329 1175
3 1732 2199 482
3 1974 672 1076
3 1653 2210 1240
3 2238 1744 357
3 2086 2194 1445
3 1631 342 562
3 1703 2228 366
3 1564 2187 1107
3 1773 1966 1054
3 1142 1759 1276
3 2229 2049 369
3 374 1934 1273
3 2032 79 1247
3 1578 317 827
3 2191 1841 876
3 1800 2030 712
3 2089 1976 839
3 2097 89 595
3 2136 1637 603
3 1599 1938 388
3 1617 1932 1042
3 1651 548 1092
3 1568 1021 1405
3 2141 1959 564
3 785 1845 905
3 760 1620 1238
3 1763 519 1289
3 268 2021 1008
3 608 1939 994
3 331 1751 833
3 1951 2199 514
3 751 443 1376
3 93 94 519
3 1785 338 1239
3 1720 1962 1010
3 378 1639 658
3 86 87 813
3 2140 523 1233
3 659 1759 1142
3 1872 1600 668
3 256 257 2048
3 322 1820 818
3 2100 1727 676
3 750 1887 665
3 2212 1757 643
3 2211 2095 828
3 173 174 626
3 630 2214 1180
3 597 1718 587
3 517 1742 1146
3 1938 1997 388
3 2128 1847 872
3 1731 1960 1142
3 318 1762 1290
3 2080 345 640
3 847 2119 1344
3 2183 956 1431
3 2228 1620 700
3 2078 1692 634
3 1869 1998 871
3 2080 319 351
3 1731 2201 566
3 1742 2078 634
3 1619 2231 332
3 1766 957 697
3 1913 1970 1027
3 1981 534 692
3 2133 559 373
3 1144 1910 1256
3 2116 2169 1223
3 2199 51 514
3 1879 1032 1073
3 385 1799 623
3 2231 1701 348
3 1914 1659 924
3 1649 768 836
3 465 1715 842
3 2198 31 1146
3 2111 2158 1031
3 1953 380 397
3 2187 1564 542
3 1661 406 501
3 1672 2079 866
3 2207 1841 998
3 1770 2202 558
3 1781 2100 676
3 1991 606 1202
3 12 854 327
3 2193 597 587
3 779 1881 518
3 1776 560 1360
3 301 319 1207
3 1870 2067 1541
3 218 1153 1230
3 2098 44 972
3 1587 2066 1173
3 2049 2229 393
3 925 1688 1021
3 1952 781 497
3 1958 2182 1024
3 2089 1858 1253
3 662 1699 1288
3 1889 2110 1453
3 965 2109 1209
3 2089 839 848
3 286 22 1274
3 1914 1947 468
3 56 442 1089
3 1841 2229 876
3 1858 1169 1253
3 1635 2200 1066
3 2090 2084 346
3 60 61 2240
3 2022 1833 916
3 1189 648 649
3 2200 2028 1066
3 2066 1785 1113
3 1583 2228 700
3 847 1870 392
3 1752 2196 953
3 560 1772 1360
3 1262 1856 774
3 2102 1881 779
3 191 2174 1248
3 1647 521 614
3 1856 2182 774
3 1952 2099 781
3 1701 2213 455
3 345 2080 351
3 1779 2033 642
3 27 315 429
3 1924 834 440
3 1924 646 834
3 523 2140 515
3 1932 1643 610
3 1602 2082 938
3 2159 751 1376
3 216 217 394
3 1931 1887 1275
3 1643 1932 1557
3 1858 2239 1169
3 2066 1840 1173
3 575 2146 1317
3 2226 1908 709
3 1845 416 905
3 1855 2057 1286
3 1732 2141 564
3 440 1690 1013
3 1747 577 1228
3 1809 2108 551
3 17 280 1179
3 2197 1839 597
3 2137 416 726
3 2140 2025 515
3 1870 473 1014
3 2084 1971 1191
3 836 2037 324
3 1818 318 649
3 319 1920 1207
3 483 1726 1330
3 1024 2182 1304
3 1706 2211 1327
3 1645 2056 1129
3 2206 417 1450
3 2109 1683 792
3 208 2226 853
3 1987 1657 1163
3 1850 2051 665
3 986 1977 1110
3 2153 1883 478
3 1664 1034 719
3 445 2188 1166
3 429 1895 520
3 2150 1701 455
3 1849 1877 395
3 2134 300 1510
3 2097 1792 813
3 655 1668 791
3 524 1984 1469
3 653 2185 944
3 465 842 1216
3 1947 1914 924
3 299 300 2134
3 854 1957 327
3 2210 461 1532
3 71 2056 929
3 205 206 596
3 402 2129 411
3 2130 408 573
3 322 818 1520
3 1792 2097 595
3 73 74 871
3 25 2215 1510
3 2169 1733 407
3 571 1921 852
3 2070 574 979
3 2056 71 592
3 2074 66 415
3 1923 925 1021
3 1785 1239 617
3 789 1795 951
3 99 100 652
3 1985 48 685
3 766 1569 1122
3 1778 1915 1120
3 2061 782 1364
3 1779 413 410
3 2021 269 942
3 486 1642 726
3 99 652 806
3 1928 1921 1019
3 2108 1809 796
3 1918 2216 797
3 2070 2027 1242
3 596 206 1394
3 1973 652 433
3 2210 1592 906
3 43 2098 992
3 179 180 657
3 1661 501 1135
3 2212 1717 980
3 1654 767 943
3 445 1609 1117
3 2009 442 632
3 1692 2078 978
3 652 1918 433
3 2233 291 729
3 1364 782 1490
3 2050 1720 903
3 1768 2153 478
3 2026 1643 589
3 232 1994 505
3 1961 1714 334
3 210 211 473
3 1102 2001 1232
3 2078 1742 403
3 1798 413 431
3 2123 657 1007
3 1955 655 791
3 2189 2147 1504
3 2173 660 572
3 169 2108 1361
3 128 2208 1080
3 30 2198 379
3 179 657 1298
3 536 2088 1292
3 934 2163 860
3 398 1745 1326
3 1915 1778 674
3 2141 1732 851
3 2077 2201 1005
3 2084 2090 1295
3 1637 2132 492
3 1766 1765 1196
3 1619 2204 1296
3 2065 359 1399
3 1699 662 1082
3 74 1072 871
3 1951 667 983
3 2090 1623 1295
3 509 55 1089
3 657 1961 1007
3 1931 1967 873
3 2043 1910 423
3 356 1919 1040
3 1888 882 1341
3 65 2074 904
3 37 38 507
3 420 985 1302
3 2109 1752 1209
3 1652 1999 636
3 1060 1903 555
3 1610 398 1326
3 1769 1731 1142
3 427 1652 840
3 2048 1867 808
3 1915 1723 1120
3 1166 2188 1388
3 1002 2065 1399
3 1572 2025 877
3 1621 1086 927
3 1325 1888 1351
3 484 2077 1047
3 26 349 805
3 2048 1744 690
3 2098 972 946
3 1732 450 851
3 1903 1059 1353
3 608 2201 1150
3 1641 1915 674
3 1595 2015 707
3 2055 1877 1104
3 2213 1701 1103
3 2076 911 1099
3 1915 1641 1545
3 397 380 1200
3 2020 1626 1152
3 2204 1842 1263
3 548 1622 1092
3 1626 2020 870
3 1981 1956 633
3 540 2019 730
3 667 1835 983
3 236 2015 1261
3 2225 2133 1090
3 1592 1981 633
3 1589 1565 688
3 1565 1589 538
3 1912 437 1226
3 836 324 821
3 1823 1590 932
3 2222 1911 978
3 386 1724 744
3 1908 2226 1079
3 1965 2226 709
3 2019 1255 527
3 2141 638 776
3 1686 2200 1529
3 1967 2050 903
3 590 1661 1135
3 814 1872 668
3 521 1997 614
3 2198 1146 634
3 1848 575 981
3 1587 1933 1306
3 408 2130 1323
3 1596 1933 1132
3 2129 402 1324
3 20 287 490
3 2191 242 576
3 1895 1955 791
3 89 2097 1370
3 1810 789 951
3 2104 662 1288
3 364 1626 734
3 1663 418 1519
3 1659 1914 1204
3 2029 2047 799
3 759 1803 1231
3 420 1747 399
3 2201 1769 1150
3 1649 938 1300
3 437 1730 1226
3 1579 571 852
3 1933 1596 1112
3 2132 1572 492
3 574 1814 979
3 1589 371 746
3 360 1587 1173
3 372 1886 1487
3 577 1747 1302
3 590 1632 1020
3 1606 1042 610
3 1929 2224 750
3 367 1832 683
3 1945 386 744
3 279 15 432
3 1657 1987 401
3 353 1809 551
3 1661 1987 1163
3 999 1642 1047
3 1886 364 734
3 345 26 805
3 155 156 893
3 114 115 891
3 559 1645 373
3 2227 1898 523
3 1077 2142 1055
3 2146 620 1317
3 2036 1979 910
3 196 197 395
3 371 1900 746
3 1680 1157 1139
3 1599 476 1375
3 442 1601 632
3 2195 968 1390
3 1749 638 1450
3 620 2146 1458
3 2013 544 717
3 1900 383 1494
3 89 90 595
3 1600 1930 668
3 2079 1672 864
3 959 2035 522
3 275 11 757
3 47 1985 572
3 189 190 424
3 2229 1611 876
3 969 2042 1392
3 169 170 551
3 80 81 435
3 1813 960 1115
3 1628 2204 419
3 1971 1121 1191
3 2031 2223 1137
3 477 1723 1178
3 1875 427 840
3 1888 1058 882
3 544 1764 717
3 1592 2210 1532
3 1681 544 849
3 439 1890 1130
3 1775 959 522
3 1061 1903 1060
3 2047 1636 799
3 960 2149 1115
3 849 1735 1526
3 375 1792 595
3 1772 2233 908
3 1058 1888 1325
3 911 1822 1099
3 1666 2136 330
3 25 301 1207
3 1981 1686 534
3 556 1697 678
3 1903 1061 1059
3 284 1206 1522
3 2019 1065 1255
3 1065 2019 540
3 1949 2191 876
3 1962 1667 376
3 2074 1566 904
3 817 1993 1269
3 1741 556 678
3 2188 445 1117
3 213 214 347
3 2159 814 668
3 425 1613 720
3 1574 2032 1247
3 1914 1824 1204
3 1948 517 343
3 1865 496 1097
3 1835 509 655
3 2232 1819 814
3 13 276 781
3 1153 2151 1230
3 1979 2036 422
3 972 1871 946
3 273 9 779
3 67 2225 415
3 1206 2092 1522
3 1588 857 1542
3 413 1748 410
3 2223 1763 1137
3 308 524 1469
3 966 2161 1307
3 556 1942 857
3 2160 405 598
3 2142 360 1272
3 390 1757 1141
3 827 2143 993
3 1818 648 1411
3 2233 1755 908
3 704 1740 1365
3 2090 149 684
3 1723 1915 645
3 296 2036 910
3 1051 196 395
3 443 1679 1376
3 1720 2050 1403
3 1933 1587 1132
3 1882 637 1523
3 1890 439 844
3 578 1827 451
3 1133 364 1266
3 2232 1679 687
3 793 1818 1411
3 228 356 1040
3 1645 559 929
3 2212 1694 1310
3 1893 2206 506
3 758 1610 1185
3 1904 2109 1228
3 1921 1928 1512
3 509 2009 655
3 1959 1985 685
3 1042 1932 610
3 2027 2070 1513
3 637 1882 1467
3 704 1365 1517
3 1692 1297 1464
3 2220 2149 1433
3 1631 2055 952
3 371 991 770
3 412 1807 1333
3 1775 2138 1432
3 1883 2153 666
3 1667 1962 1408
3 1786 2225 1090
3 2002 833 1380
3 1959 2141 776
3 439 1700 844
3 1618 695 1395
3 2136 1846 330
3 387 1625 920
3 1685 2197 1067
3 2007 424 895
3 435 1612 631
3 2132 1637 1413
3 360 1744 1272
3 1862 530 1438
3 1067 2197 1340
3 1985 1749 780
3 903 372 1487
3 1609 2206 1117
3 1987 590 1020
3 1824 1914 1179
3 1967 1931 1267
3 1960 1731 1093
3 1813 737 960
3 743 1811 474
3 2226 1965 853
3 2174 2071 1248
3 2241 1794 748
3 2040 1962 376
3 28 271 0
3 638 2206 1450
3 1574 435 631
3 2104 2016 687
3 1919 348 1481
3 938 2082 1300
3 2026 673 1227
3 429 315 868
3 2025 1572 1311
3 385 623 438
3 1606 1816 736
3 1146 1742 634
3 1297 2021 1464
3 314 1855 1286
3 383 492 1494
3 1826 1569 1022
3 2082 1602 1155
3 1881 2102 1027
3 1773 429 520
3 1017 2176 546
3 1686 1981 615
3 966 1783 1001
3 328 1795 801
3 2136 1666 1418
3 279 432 708
3 1928 112 449
3 1676 2202 1030
3 239 328 801
3 158 2027 457
3 437 1912 731
3 1657 578 451
3 303 304 612
3 306 307 661
3 1969 933 819
3 2099 1952 1031
3 1642 486 1047
3 1786 2074 415
3 271 28 554
3 2012 596 1394
3 344 1759 659
3 897 1776 921
3 579 1809 593
3 1993 1829 788
3 348 2150 1481
3 2017 1606 1049
3 479 136 1498
3 2199 1732 564
3 446 1894 1030
3 1796 405 892
3 1994 233 567
3 1623 2090 1352
3 2238 357 838
3 236 237 984
3 239 240 328
3 1189 1673 650
3 1633 619 1458
3 270 271 554
3 1817 335 1119
3 1566 498 1281
3 282 18 453
3 2171 1244 1366
3 1570 437 731
3 2200 1635 1157
3 1977 689 581
3 109 110 571
3 160 161 574
3 291 292 729
3 381 1824 1179
3 275 757 436
3 2034 883 897
3 2164 925 1479
3 1615 2118 1200
3 486 1805 444
3 1964 2033 410
3 2216 652 1448
3 696 1862 1438
3 968 1577 1315
3 1971 1660 1121
3 577 1904 1228
3 2067 1983 1541
3 627 581 1349
3 424 2071 895
3 1988 400 1154
3 689 1665 581
3 1743 969 508
3 1690 829 1013
3 813 2156 1357
3 1665 387 920
3 2197 1685 1232
3 507 1652 636
3 450 1879 851
3 950 1630 884
3 2034 897 532
3 1819 2190 1201
3 2153 1768 1145
3 1626 364 1133
3 1700 498 539
3 779 1940 1516
3 2231 1687 332
3 288 536 1235
3 1874 641 671
3 1811 743 1166
3 933 1658 819
3 1648 344 659
3 106 402 966
3 408 164 405
3 244 245 703
3 2083 1610 1326
3 1855 27 1515
3 1688 2115 1243
3 1839 2197 1232
3 371 1589 991
3 737 14 960
3 2065 490 912
3 486 726 724
3 2105 781 1521
3 1569 1883 1022
3 780 1749 1450
3 321 1644 800
3 1986 462 1259
3 439 1130 1479
3 462 1899 1259
3 1913 1788 1335
3 976 1713 558
3 445 2064 1161
3 1981 1592 1224
3 2039 480 1073
3 1590 1823 1158
3 400 1758 1154
3 494 1756 807
3 411 2129 1549
3 1714 657 1484
3 1757 2212 1310
3 2208 3 1156
3 632 1966 320
3 2101 2083 1145
3 2130 573 1550
3 1823 1869 1158
3 2213 1627 1088
3 2134 1597 810
3 603 1861 1251
3 1597 2215 1316
3 1830 2158 826
3 2151 477 1071
3 1672 866 1343
3 603 1637 1551
3 1784 1993 788
3 1727 2100 950
3 1138 2054 785
3 1989 658 682
3 1034 1812 719
3 713 2103 1314
3 1627 2213 1103
3 1679 662 687
3 1960 447 835
3 2206 1893 1117
3 1724 386 900
3 621 1792 1074
3 652 1973 806
3 486 1604 1047
3 548 1836 472
3 1999 36 636
3 662 1834 1082
3 2190 1640 1201
3 2118 1615 502
3 477 1799 1071
3 3 2166 1156
3 2036 296 1208
3 1970 1913 1335
3 1677 1010 1246
3 1586 599 1012
3 825 1772 1329
3 496 1654 943
3 315 24 1023
3 1765 1766 1053
3 1720 1010 1540
3 207 208 853
3 933 2213 1088
3 1910 2043 1056
3 1620 2228 321
3 210 473 1079
3 297 2205 1208
3 1241 2180 1427
3 896 1596 1077
3 1836 548 721
3 2214 2054 1180
3 1090 2133 1555
3 2181 1359 1428
3 2047 2029 1543
3 1797 2214 1076
3 1748 413 1165
3 2158 2111 826
3 1676 1054 874
3 907 710 1495
3 657 2123 1298
3 536 2139 1235
3 2030 1950 1562
3 2106 784 917
3 611 2177 1245
3 1735 727 828
3 221 222 716
3 1194 420 399
3 308 309 524
3 541 1786 1090
3 834 1650 440
3 300 25 1510
3 49 50 811
3 1835 655 1320
3 581 1665 1349
3 214 215 841
3 798 1791 765
3 891 2180 1241
3 1687 348 1347
3 673 1584 1227
3 2095 1735 828
3 2223 2031 1554
3 386 1693 900
3 311 606 1536
3 623 477 1178
3 2181 893 1359
3 412 1929 1322
3 1881 727 518
3 1720 372 903
3 225 226 613
3 941 1778 1153
3 727 1970 828
3 387 1907 1107
3 442 2009 1089
3 2162 1085 1421
3 1027 1970 1457
3 2143 341 1327
3 1668 632 320
3 741 1588 1223
3 2111 1031 1473
3 2115 1821 831
3 741 1952 497
3 1014 212 1312
3 2146 575 694
3 2055 1631 1052
3 256 2048 808
3 2017 1621 927
3 2085 1761 1192
3 667 1951 514
3 664 1853 1217
3 383 1637 492
3 1040 1919 1481
3 2131 1962 1403
3 1783 402 411
3 408 1796 573
3 1962 1720 1403
3 1658 1088 1002
3 357 360 1173
3 2136 1737 1413
3 554 28 1558
3 1877 2055 1052
3 1996 849 1526
3 1637 2136 1413
3 2111 741 1223
3 1735 849 1348
3 614 1997 1094
3 1694 2212 1293
3 632 1601 874
3 1588 2116 1223
3 2215 25 1155
3 28 29 1558
3 1128 2002 407
3 1905 777 817
3 429 1773 1095
3 1164 1677 1423
3 1004 579 593
3 1718 335 550
3 2069 739 316
3 1636 2135 1264
3 469 2083 1326
3 1590 326 932
3 1761 2085 1116
3 1750 1928 1397
3 1763 2145 545
3 1948 646 403
3 2027 1936 1400
3 1660 1971 1260
3 1094 2175 1162
3 1274 2154 867
3 1767 412 1333
3 2096 1999 503
3 146 147 677
3 2067 1014 1312
3 829 281 468
3 2024 865 404
3 2076 1099 830
3 2134 1963 1195
3 857 2107 1542
3 507 38 1283
3 585 2035 959
3 2225 1786 415
3 544 2013 849
3 1861 1172 1430
3 36 1999 1140
3 1033 1960 835
3 1621 2017 1049
3 390 1581 936
3 664 2054 481
3 238 239 801
3 1077 1596 1109
3 2202 976 558
3 2219 1597 1316
3 857 1588 880
3 2072 2131 1167
3 1602 2219 1316
3 1889 637 1467
3 2075 630 1282
3 662 2104 687
3 2050 1967 1267
3 1610 2092 885
3 2093 1133 1266
3 1099 1837 830
3 109 571 888
3 1153 1778 1398
3 574 161 889
3 1737 1927 1174
3 991 2094 770
3 135 136 479
3 342 1631 952
3 2208 1715 875
3 78 2032 1016
3 1697 556 857
3 1884 1085 705
3 727 2013 518
3 1572 2132 1311
3 1737 2136 1418
3 646 1948 834
3 1704 1094 1162
3 282 453 1478
3 413 1798 1165
3 2240 61 491
3 2083 1628 794
3 629 1625 1274
3 60 2240 389
3 1573 2138 957
3 2131 2072 1408
3 1118 1909 765
3 1901 2017 927
3 2220 1638 1144
3 2190 1819 982
3 2072 1667 1408
3 1962 2131 1408
3 2103 394 1314
3 435 81 620
3 1913 1573 1419
3 1580 1271 337
3 931 1940 547
3 1853 323 1217
3 1966 632 874
3 1002 1088 1533
3 1816 1606 610
3 1697 741 497
3 315 1023 868
3 1638 2158 1420
3 844 1700 539
3 1927 1737 1418
3 1603 931 547
3 1196 1765 1390
3 2095 2059 336
3 203 204 702
3 490 1771 912
3 2230 119 569
3 641 1843 671
3 2105 327 639
3 777 1829 817
3 151 2168 1234
3 1666 1927 1418
3 490 287 786
3 1907 2022 1177
3 1569 1810 1122
3 1852 1075 1480
3 352 1902 914
3 2218 1963 761
3 2166 3 775
3 519 1885 1289
3 2043 423 1392
3 582 1992 451
3 1976 2089 902
3 327 1957 639
3 1612 435 620
3 394 1799 1314
3 261 262 686
3 281 17 468
3 1578 827 1509
3 1886 372 843
3 626 1793 464
3 2232 687 1475
3 292 293 997
3 2009 509 1089
3 1693 352 914
3 23 286 913
3 248 249 899
3 2127 637 557
3 2200 1157 1529
3 1950 2030 944
3 1827 582 451
3 1716 1393 1547
3 1962 2040 1010
3 2037 836 965
3 1640 412 1322
3 23 913 740
3 833 1751 1514
3 2112 2116 970
3 1846 2136 603
3 1616 630 1180
3 1999 2096 1140
3 525 1567 908
3 383 1900 466
3 1928 1750 1512
3 565 1662 373
3 1600 126 862
3 2204 469 1296
3 1936 2027 1513
3 227 228 1040
3 658 1639 682
3 1983 476 1541
3 473 1908 1079
3 437 2040 1170
3 865 1738 404
3 393 2207 1367
3 1846 462 670
3 2030 1800 944
3 1967 734 870
3 1730 437 1170
3 767 1968 943
3 531 1587 1306
3 252 2030 1562
3 8 585 959
3 462 1726 670
3 2054 1015 785
3 349 26 644
3 559 2133 1237
3 312 313 1036
3 746 1572 538
3 294 295 823
3 977 1847 1125
3 2003 883 605
3 235 512 845
3 1037 621 1074
3 362 1636 1264
3 142 2147 370
3 1883 766 478
3 836 1683 965
3 1707 2022 471
3 2171 987 986
3 97 98 755
3 2121 577 1302
3 553 1590 1026
3 881 1803 1175
3 693 1613 753
3 1581 2236 936
3 1934 1853 481
3 1715 465 1452
3 1971 2084 1295
3 1738 865 459
3 1828 2235 1162
3 1393 338 1547
3 177 178 760
3 1591 672 325
3 378 1763 545
3 335 1817 550
3 126 1600 1127
3 1606 2017 1042
3 2174 192 1084
3 2182 1958 1186
3 2051 1850 691
3 655 1955 1320
3 1729 1041 1538
3 1817 499 1035
3 571 1579 888
3 2022 1907 471
3 1814 574 889
3 1038 2195 1505
3 493 2058 919
3 1648 533 961
3 1097 496 1466
3 2028 2200 391
3 1715 2208 842
3 2042 747 1507
3 2069 528 739
3 1898 2227 1149
3 1659 693 924
3 640 2079 864
3 1630 950 858
3 2093 448 968
3 1788 1913 526
3 377 1680 1139
3 2241 282 1478
3 520 1895 791
3 129 130 769
3 1625 629 920
3 454 2094 969
3 1667 2072 831
3 1701 2231 1486
3 873 1967 870
3 1923 1021 745
3 203 702 918
3 1211 2003 605
3 1884 926 1085
3 548 1736 721
3 2158 1830 1160
3 693 2192 924
3 476 1599 1496
3 234 235 845
3 2060 526 1511
3 499 1624 1035
3 1572 877 538
3 1760 501 1069
3 1160 1978 1518
3 299 2134 1195
3 1681 2032 1221
3 2032 1574 1221
3 2231 1745 1486
3 1610 2083 1185
3 322 199 1181
3 2192 693 753
3 2224 1929 628
3 66 67 415
3 310 311 1536
3 402 1783 966
3 907 1789 710
3 1796 408 405
3 216 394 1301
3 1244 1710 1366
3 1819 2232 982
3 2174 1942 452
3 352 1660 1260
3 173 2047 1543
3 629 1708 920
3 2071 2174 452
3 1631 562 1338
3 702 2014 918
3 604 2026 1227
3 526 2234 1511
3 1947 829 468
3 352 1260 1149
3 1982 414 1119
3 1964 507 1283
3 1953 1067 1340
3 1755 525 908
3 2237 1160 1518
3 1601 442 846
3 2034 881 1175
3 353 171 1131
3 977 2014 368
3 2135 1636 464
3 1927 1666 625
3 146 677 911
3 1594 393 1367
3 2145 1763 1289
3 2147 142 1218
3 2206 638 506
3 714 2007 895
3 432 1864 580
3 1887 750 1561
3 375 91 361
3 244 703 1530
3 200 201 504
3 93 2223 1554
3 1873 611 1245
3 1834 465 680
3 625 2120 1559
3 823 1979 943
3 1878 886 1082
3 1771 490 786
3 1924 440 1013
3 1822 428 1099
3 380 1953 1340
3 766 1926 478
3 757 1868 995
3 424 190 1248
3 2014 534 368
3 1604 2221 1278
3 1842 512 1263
3 1004 2029 799
3 414 1817 1119
3 80 435 1247
3 613 226 1422
3 899 249 546
3 1852 318 1075
3 1600 2157 1127
3 2051 121 616
3 505 1994 332
3 119 2230 1011
3 2054 1138 481
3 995 1630 858
3 2168 151 772
3 1911 2222 1176
3 1871 972 660
3 1728 2222 1346
3 424 2007 1205
3 1929 412 628
3 427 1650 503
3 627 1926 581
3 2143 317 1492
3 1922 2221 1134
3 879 1824 381
3 199 322 1385
3 629 22 949
3 677 1822 911
3 1102 1724 602
3 1671 499 414
3 1741 714 895
3 642 2041 1100
3 1570 326 1423
3 1755 997 767
3 2083 2101 1185
3 2059 2095 1285
3 164 165 405
3 2236 1581 1075
3 105 106 966
3 427 1875 1190
3 372 1720 1540
3 2217 625 1559
3 453 1875 1182
3 1744 360 357
3 1608 1934 1138
3 2095 1706 1285
3 1032 1722 1046
3 1149 2227 1424
3 512 1595 1263
3 10 273 931
3 1968 823 943
3 818 1712 1520
3 331 2002 1497
3 276 12 327
3 1716 879 381
3 326 1891 1423
3 1921 571 1019
3 886 1699 1082
3 574 2070 1242
3 1696 380 1340
3 1644 321 1368
3 499 1817 414
3 575 1848 694
3 1157 2186 1529
3 1085 1674 705
3 1637 383 1551
3 64 65 904
3 2001 1102 602
3 1808 1068 530
3 1580 345 805
3 672 1591 1277
3 997 1968 767
3 1963 2134 810
3 581 1926 607
3 1612 706 631
3 710 2122 1495
3 362 1754 1446
3 2071 424 1248
3 1930 1600 862
3 2116 2112 1381
3 2032 1681 1355
3 2023 430 1356
3 1614 817 1269
3 342 1899 1430
3 1710 604 1366
3 535 1676 1030
3 1733 2116 1381
3 2117 965 1209
3 689 986 471
3 2017 1901 1229
3 435 1574 1247
3 108 109 888
3 161 162 889
3 1761 560 974
3 672 1906 1076
3 319 2080 396
3 1679 2232 1376
3 1037 2031 1137
3 1946 2236 793
3 1051 1740 1409
3 2227 1684 1174
3 1310 1694 1548
3 2126 342 1430
3 221 716 1412
3 560 1776 974
3 329 1808 1236
3 2085 1003 1310
3 1647 614 1447
3 378 1655 1474
3 843 372 1462
3 448 2060 1511
3 27 429 1095
3 2048 257 1055
3 1922 525 1294
3 1892 1168 732
3 398 1701 1486
3 1648 659 1033
3 2239 479 1498
3 1978 454 1518
3 143 144 963
3 69 70 559
3 1795 789 1528
3 706 1764 631
3 1711 448 1511
3 1275 1887 1561
3 537 285 939
3 1858 2089 848
3 2038 565 723
3 2236 1811 1388
3 916 1833 1299
3 454 1571 1518
3 1716 1306 1483
3 1935 1281 756
3 739 1797 316
3 1745 398 1486
3 1004 799 1446
3 926 1678 1085
3 1744 2238 690
3 338 1785 1547
3 1807 2190 1405
3 1902 1149 1424
3 383 466 1482
3 448 2093 1266
3 2006 716 1159
3 16 338 1393
3 1141 1757 1003
3 1054 1966 874
3 1636 362 799
3 1067 2125 1083
3 1607 586 1053
3 1779 642 1100
3 242 243 576
3 2000 494 1339
3 2059 553 1026
3 588 1753 1056
3 335 1718 1437
3 344 1648 961
3 580 1644 1368
3 1604 484 1047
3 2182 1856 1304
3 1654 525 767
3 2094 454 770
3 842 1736 1216
3 2166 1736 1156
3 175 176 1147
3 500 989 1437
3 1816 354 600
3 490 2065 601
3 525 1654 1294
3 1920 319 396
3 1576 897 921
3 1116 2139 1292
3 1788 827 993
3 1068 1734 530
3 501 1975 1069
3 446 1770 1020
3 1763 378 1137
3 898 278 671
3 496 1865 935
3 2196 568 953
3 1906 672 1277
3 591 2125 1067
3 571 110 1019
3 2061 1072 1489
3 160 574 1242
3 1942 2174 1358
3 15 278 898
3 599 188 1205
3 1977 581 607
3 901 274 682
3 1615 637 1453
3 2130 889 1323
3 888 2129 1324
3 354 1806 600
3 1773 520 320
3 1934 2144 1273
3 95 96 495
3 1236 1808 1309
3 1799 477 623
3 879 1716 1483
3 1847 977 937
3 1894 535 1030
3 480 1694 1073
3 757 1844 436
3 618 2187 542
3 414 1982 1143
3 2193 493 1395
3 751 2159 1184
3 425 266 996
3 11 274 901
3 432 1703 708
3 659 1960 1033
3 259 260 896
3 989 1670 1437
3 145 146 911
3 1744 2048 1272
3 2155 686 1154
3 1979 823 910
3 2124 453 1182
3 1827 578 752
3 833 1830 1380
3 450 1732 482
3 2165 2051 616
3 1607 511 852
3 681 1753 979
3 2230 2167 1011
3 2029 353 1131
3 2178 613 1422
3 42 43 992
3 913 2117 740
3 328 240 1214
3 2170 2168 772
3 1748 840 470
3 42 992 1265
3 1660 386 1476
3 604 2045 1366
3 450 1722 1032
3 489 2176 1203
3 1660 428 1121
3 400 1988 1503
3 982 2232 1475
3 458 230 1372
3 618 1602 938
3 562 2112 1338
3 677 147 346
3 317 1578 1252
3 398 1610 885
3 1850 2230 569
3 994 1643 1557
3 1875 1108 1190
3 1037 1137 1474
3 386 1945 1476
3 2031 375 361
3 2168 1863 1234
3 1762 318 605
3 349 2162 805
3 140 141 715
3 1820 322 1181
3 502 1615 1453
3 2221 1922 1294
3 2100 1844 858
3 1755 2233 729
3 557 637 1501
3 412 1767 628
3 121 2051 691
3 394 2103 1301
3 1751 331 382
3 398 1627 1103
3 2197 1696 1340
3 26 302 644
3 1646 2147 1218
3 202 203 918
3 703 2114 1530
3 288 289 536
3 1598 1731 566
3 20 490 601
3 2039 1032 1046
3 2062 2166 775
3 638 1749 776
3 364 1886 1252
3 889 2130 1374
3 2129 888 1371
3 295 296 910
3 29 30 379
3 1735 2095 1526
3 689 1977 986
3 131 132 735
3 925 1975 1479
3 509 1835 973
3 1715 751 1184
3 318 1852 605
3 1654 496 935
3 269 270 942
3 811 2199 564
3 22 285 949
3 2228 1703 1368
3 807 1941 1199
3 1900 371 382
3 1911 425 996
3 507 1964 718
3 789 1215 1528
3 2010 1211 1480
3 373 1662 1555
3 1568 982 1475
3 54 509 973
3 1587 360 1132
3 410 1748 470
3 1260 1898 1149
3 749 1867 719
3 716 2006 1412
3 1604 486 444
3 1578 364 1252
3 1736 548 1216
3 1918 584 433
3 614 1094 441
3 1130 2164 1479
3 511 1579 852
3 1814 681 979
3 1950 1017 1562
3 525 1755 767
3 599 2007 1012
3 1632 446 1020
3 1879 450 1032
3 2084 677 346
3 1658 933 1088
3 367 683 763
3 2116 1588 1542
3 112 113 449
3 157 158 457
3 1652 507 718
3 326 1570 731
3 1003 1757 1310
3 1795 328 333
3 2008 698 1194
3 371 1751 382
3 1754 579 1004
3 1731 1598 1093
3 2000 602 900
3 510 1682 489
3 2060 448 1509
3 384 2091 976
3 1662 541 1090
3 1902 352 1149
3 448 1266 1509
3 454 1978 1514
3 285 537 949
3 578 1713 752
3 334 183 1535
3 1584 467 1454
3 594 1686 615
3 185 186 928
3 1687 458 1372
3 768 1300 1410
3 2006 941 1412
3 292 997 729
3 977 2186 937
3 360 2142 1109
3 621 1655 1064
3 2147 2189 370
3 2029 1131 1543
3 1075 1581 1480
3 770 454 1514
3 1622 548 472
3 2031 361 1554
3 2187 675 1313
3 1939 608 1150
3 1747 420 1302
3 1581 390 1141
3 698 1672 1194
3 1832 367 1050
3 1949 328 1214
3 467 1897 1454
3 1674 349 809
3 1641 912 1545
3 1721 489 1203
3 442 57 846
3 1750 586 1512
3 588 1936 1513
3 1157 1635 1139
3 750 1695 824
3 76 782 1489
3 1039 1938 1375
3 1997 521 388
3 1899 342 1259
3 81 82 620
3 1932 1101 1557
3 324 2037 867
3 219 220 941
3 938 1649 821
3 2007 599 1205
3 444 1917 1134
3 704 194 1409
3 1687 505 332
3 462 1986 1330
3 1785 531 1547
3 784 2106 1096
3 356 229 1287
3 394 217 1230
3 465 1651 680
3 2154 675 324
3 1076 1906 316
3 233 234 567
3 183 184 1535
3 1794 2241 1250
3 329 1803 759
3 511 1607 522
3 46 47 572
3 1757 390 1560
3 2176 899 546
3 254 255 749
3 1753 681 1115
3 715 1884 705
3 1726 462 1330
3 387 1665 1078
3 1623 523 923
3 392 476 1496
3 1648 1033 761
3 1579 511 1018
3 681 1814 679
3 1721 510 489
3 19 748 1151
3 1723 477 1120
3 1716 381 1393
3 840 718 470
3 1772 560 1329
3 2040 437 1246
3 1781 584 1043
3 338 16 1239
3 1857 743 474
3 987 2171 1366
3 437 1570 1246
3 579 1754 513
3 602 2000 1339
3 861 1601 846
3 537 1708 949
3 1719 766 1122
3 1224 1592 1532
3 353 2029 593
3 610 1643 354
3 2011 590 1135
3 1655 621 1037
3 1799 385 1314
3 1895 1023 1046
3 1975 439 1479
3 1916 359 1159
3 364 1578 1266
3 396 698 1410
3 2239 1858 1401
3 1718 550 587
3 1582 418 724
3 1961 624 1007
3 1717 643 506
3 1722 450 988
3 2122 773 1086
3 703 245 1148
3 1605 420 1343
3 462 1846 1251
3 706 1612 619
3 1871 417 1396
3 1739 955 848
3 1751 371 770
3 1899 462 1251
3 1844 757 995
3 702 204 1257
3 956 1691 1304
3 1809 353 593
3 1956 702 1257
3 926 4 370
3 375 2031 1074
3 565 2038 1387
3 989 1585 1199
3 149 150 684
3 667 53 973
3 594 1756 391
3 1583 624 1048
3 75 76 1489
3 189 424 1205
3 529 2073 1355
3 2035 511 522
3 681 1813 1115
3 612 1384 1449
3 613 2178 1491
3 1701 398 1103
3 359 1641 1159
3 1662 565 1387
3 465 1834 1452
3 1625 387 1313
3 188 599 1488
3 1730 723 1226
3 1119 335 1534
3 637 1889 1453
3 263 784 1222
3 748 2024 1151
3 1771 568 645
3 1580 805 1271
3 1811 1166 1388
3 1703 432 580
3 723 2004 1226
3 696 2177 611
3 501 1760 1135
3 1894 446 860
3 839 1739 848
3 261 686 1416
3 1835 667 973
3 1824 400 1204
3 494 807 1339
3 1836 606 472
3 1670 989 1199
3 4 142 370
3 1008 2021 1297
3 1843 362 1264
3 119 120 569
3 1417 661 1469
3 150 151 1234
3 1671 847 1344
3 1725 336 1025
3 258 259 1077
3 272 8 959
3 14 277 960
3 578 1770 558
3 1384 1944 1449
3 1854 613 1491
3 1792 375 1074
3 422 2036 1546
3 2175 385 438
3 37 507 636
3 899 2176 489
3 664 1616 1180
3 1211 1852 1480
3 1023 2039 1046
3 380 1696 557
3 1676 535 1054
3 1812 749 719
3 230 458 1287
3 2011 856 1288
3 1895 429 868
3 755 806 1441
3 804 2137 1337
3 359 1916 1399
3 755 98 806
3 257 258 1055
3 528 2069 1519
3 760 1298 1451
3 1618 367 763
3 2148 570 1358
3 865 1794 795
3 447 1960 1093
3 1896 549 890
3 2221 935 1278
3 44 45 972
3 143 963 1218
3 1691 1024 1304
3 560 1761 1292
3 1718 597 500
3 1593 843 1462
3 1639 378 545
3 49 811 685
3 1963 533 761
3 477 2151 1398
3 760 178 1298
3 675 1746 324
3 1847 1270 967
3 194 195 1409
3 955 1858 848
3 1764 706 547
3 516 1825 946
3 1799 394 1071
3 1266 1578 1509
3 285 21 939
3 1033 2218 761
3 1856 956 1304
3 1682 899 489
3 369 1892 732
3 992 2041 1265
3 418 1805 724
3 2180 1325 1351
3 1751 770 1514
3 494 1709 1442
3 714 1741 639
3 369 2049 363
3 188 189 1205
3 2232 814 1376
3 1805 486 724
3 638 1717 506
3 548 1651 1216
3 1059 2181 1353
3 768 1649 1300
3 1892 369 363
3 1584 673 1391
3 1155 1602 1316
3 1642 999 1337
3 476 1983 1375
3 935 1865 1278
3 1878 680 663
3 970 1787 1045
3 205 596 1257
3 2155 896 1416
3 2222 978 1346
3 596 1956 1257
3 1984 1417 1469
3 466 1705 1482
3 1928 449 1397
3 1162 2235 1373
3 680 1651 663
3 457 2027 1400
3 604 1710 1219
3 1896 735 549
3 686 2155 1416
3 709 1908 1426
3 1770 578 401
3 1806 604 1219
3 609 1698 1201
3 671 278 1268
3 544 1681 1221
3 882 2167 1341
3 1675 804 1337
3 568 2196 1524
3 218 219 1153
3 682 274 958
3 1152 1626 1133
3 541 1890 844
3 1995 1152 1133
3 2239 1802 783
3 1672 420 1194
3 1993 650 1269
3 2170 1060 555
3 473 211 1014
3 2189 926 370
3 945 1791 1130
3 1613 425 1176
3 688 2063 991
3 1589 688 991
3 706 1603 547
3 384 1676 874
3 328 1949 333
3 1907 387 1078
3 533 1963 810
3 1617 374 1273
3 425 1911 1176
3 1987 1020 401
3 1957 714 639
3 1833 344 1299
3 504 2128 872
3 986 1707 471
3 1713 2240 752
3 911 2076 1563
3 1627 398 885
3 1979 496 943
3 553 2059 1285
3 1919 458 1347
3 533 1648 761
3 907 1621 1049
3 1756 594 1249
3 1948 343 463
3 650 1862 1269
3 1706 553 1285
3 1890 945 1130
3 458 1687 1347
3 1640 609 1201
3 262 263 1222
3 1756 494 1508
3 2240 1713 485
3 484 1865 863
3 2110 502 1453
3 594 2053 1249
3 2112 562 1381
3 2137 804 855
3 597 1839 500
3 1777 422 1546
3 562 1733 1381
3 45 46 660
3 1107 1907 1177
3 199 200 1181
3 2054 664 1180
3 683 1647 1029
3 192 193 1084
3 1745 1296 1326
3 176 177 1238
3 267 268 1008
3 96 97 340
3 521 1832 803
3 1689 524 1439
3 480 24 1235
3 406 1661 756
3 484 1604 1278
3 947 1969 819
3 612 1739 1384
3 2178 1040 1481
3 1616 664 1217
3 622 2175 1094
3 675 1625 1313
3 2011 1135 856
3 1704 1162 1373
3 686 1988 1154
3 1983 1039 1375
3 250 251 1017
3 1997 622 1094
3 231 232 505
3 1916 947 819
3 1612 620 1458
3 1296 469 1326
3 773 1682 1086
3 2088 560 1292
3 2065 1002 601
3 1691 661 1417
3 225 613 487
3 1730 1118 723
3 1155 25 1207
3 1942 556 452
3 198 199 1385
3 217 218 1230
3 69 559 1237
3 1929 750 824
3 498 1786 539
3 2165 540 730
3 1825 516 1161
3 10 728 958
3 1255 125 1127
3 247 773 1345
3 985 2121 1302
3 1118 2038 723
3 319 301 351
3 1867 749 808
3 223 224 651
3 1002 1656 601
3 77 78 1016
3 1782 869 818
3 1838 907 1049
3 2022 916 1177
3 341 1593 1164
3 1800 653 944
3 36 37 636
3 672 1974 325
3 1020 1770 401
3 224 225 487
3 1761 974 711
3 549 1689 890
3 417 1609 1396
3 14 737 1268
3 815 1624 1321
3 777 283 1151
3 1694 480 355
3 91 92 361
3 171 172 1131
3 420 1672 1343
3 1605 812 1029
3 1764 544 930
3 70 71 929
3 139 140 902
3 1891 341 1164
3 1667 831 488
3 1705 1128 1172
3 2082 1155 1207
3 851 1879 980
3 869 1986 434
3 714 1957 409
3 51 52 514
3 1804 683 1029
3 1988 784 1096
3 498 1700 1281
3 496 1979 1466
3 1712 869 434
3 1675 608 1063
3 1711 1196 1390
3 2154 324 867
3 897 1576 532
3 1976 715 705
3 132 133 1186
3 1052 1631 1338
3 265 720 917
3 586 1921 1512
3 1808 329 1429
3 926 2189 1502
3 2070 588 1513
3 1975 925 1069
3 541 1662 1062
3 423 1571 1392
3 2152 916 1299
3 1128 2126 1172
3 1815 409 1212
3 523 1898 923
3 1890 541 1062
3 499 1671 1344
3 211 212 1014
3 1826 707 754
3 200 504 1181
3 184 185 430
3 1713 578 558
3 827 2060 1509
3 2215 1155 1316
3 2068 1052 1338
3 1145 2083 794
3 528 1582 1500
3 829 1690 722
3 556 1741 1028
3 3 129 775
3 553 1706 1425
3 1622 1036 1092
3 1036 2057 1092
3 925 1923 1069
3 2194 583 1445
3 124 125 1255
3 62 63 582
3 116 117 1058
3 1978 833 1514
3 153 154 1061
3 1678 502 1421
3 126 127 862
3 643 1893 506
3 1736 2166 721
3 831 1821 488
3 142 143 1218
3 947 223 651
3 139 902 1253
3 939 2101 1537
3 1643 994 589
3 122 123 540
3 1733 562 1434
3 123 124 1065
3 1920 396 1410
3 117 118 882
3 1255 2157 527
3 823 1968 1070
3 152 153 1060
3 1865 484 1278
3 1135 1760 856
3 769 130 1114
3 108 888 1324
3 889 162 1323
3 637 1615 1501
3 522 1607 697
3 1753 1115 1256
3 1817 1035 550
3 259 896 1077
3 1933 1112 1483
3 743 2064 1166
3 1960 659 1142
3 896 260 1416
3 811 1959 685
3 115 116 1325
3 154 155 1059
3 2142 1077 1109
3 1816 610 354
3 1609 516 1396
3 1186 133 774
3 296 297 1208
3 403 646 1342
3 1802 2239 1401
3 127 128 1080
3 1673 1236 1309
3 812 1804 1029
3 568 2044 953
3 698 2008 1410
3 332 1994 1210
3 2113 329 1236
3 872 1847 967
3 145 911 1563
3 512 235 1261
3 1682 773 552
3 118 119 1011
3 696 1614 1269
3 151 152 772
3 2053 594 615
3 1988 686 1222
3 121 122 616
3 510 1721 543
3 418 1663 759
3 1786 541 539
3 1099 428 1336
3 280 16 1393
3 1651 465 1216
3 1590 1158 1026
3 495 2172 884
3 122 540 616
3 1585 807 1199
3 928 186 1280
3 773 247 552
3 1798 802 1250
3 266 267 996
3 2020 873 870
3 749 255 808
3 882 118 1011
3 881 1917 1231
3 1789 907 1044
3 152 1060 772
3 861 58 1553
3 1624 499 1321
3 1147 1925 800
3 230 231 1372
3 716 1916 1159
3 2041 642 1265
3 428 1822 1121
3 1825 725 1098
3 222 223 426
3 281 829 722
3 537 939 1537
3 1885 495 884
3 2120 625 771
3 1158 1937 1026
3 456 1669 948
3 1168 1810 732
3 1780 1018 1187
3 877 1565 538
3 1793 1147 800
3 643 1757 1560
3 58 861 846
3 975 1633 1057
3 725 2046 1098
3 71 72 592
3 656 2193 1395
3 578 1657 401
3 934 2011 1288
3 2109 792 1228
3 1839 1232 1291
3 1215 1826 754
3 1845 739 1500
3 625 1666 771
3 251 252 1562
3 181 1378 1484
3 1619 332 1210
3 723 565 1443
3 416 1582 726
3 48 49 685
3 1738 648 894
3 883 2003 897
3 53 54 973
3 246 247 1345
3 187 188 1488
3 101 1362 1448
3 355 2139 1548
3 1762 883 790
3 1873 837 611
3 676 1973 433
3 2139 1116 1548
3 274 10 958
3 620 82 1317
3 344 1833 859
3 318 1818 1075
3 1760 1069 1305
3 580 1864 1468
3 502 2110 1421
3 283 19 1151
3 735 1958 549
3 823 295 910
3 815 1599 803
3 1797 1076 316
3 59 60 389
3 584 2161 1001
3 278 14 1268
3 2160 579 892
3 2093 968 1315
3 673 2209 1391
3 737 1813 456
3 727 1881 1457
3 22 629 1274
3 504 1820 1181
3 695 2127 1395
3 1943 609 1322
3 941 220 1412
3 2097 813 1463
3 608 1880 1063
3 609 1640 1322
3 125 126 1127
3 1952 741 1473
3 969 2094 508
3 1576 1081 532
3 679 1669 456
3 2113 1290 790
3 739 528 1500
3 1708 537 762
3 1759 344 859
3 294 823 1070
3 1773 1054 1435
3 2156 621 1389
3 453 18 1108
3 802 1794 1250
3 642 41 1265
3 2085 1310 1548
3 357 1840 838
3 1124 1944 839
3 728 1603 975
3 814 1819 1111
3 602 1724 900
3 994 1939 589
3 720 1613 1379
3 1607 1053 697
3 1872 814 1111
3 64 904 699
3 1056 1753 1256
3 1085 1678 1421
3 648 1784 894
3 1650 427 1190
3 1608 785 905
3 58 59 1553
3 1678 926 1502
3 712 253 738
3 1790 1129 878
3 1954 1097 1466
3 1112 1758 1483
3 1862 696 1269
3 700 2123 1007
3 922 1591 1319
3 1832 815 803
3 1901 510 543
3 1973 676 1441
3 840 1652 718
3 946 1871 1396
3 606 311 1126
3 1875 840 1182
3 1129 2056 878
3 4 926 1009
3 223 947 426
3 883 2034 790
3 1992 887 451
3 1956 596 633
3 1768 627 762
3 1624 815 1050
3 876 1611 1406
3 582 1827 491
3 2012 906 1544
3 309 310 1220
3 995 1868 1477
3 1979 422 1466
3 837 1614 611
3 926 1884 1009
3 1815 1012 409
3 2240 491 752
3 565 373 1443
3 373 1645 1443
3 869 1712 818
3 2120 1308 1066
3 62 582 491
3 1698 609 527
3 35 36 1140
3 686 262 1222
3 1300 1920 1410
3 1909 1118 1170
3 1611 951 1406
3 1084 193 1225
3 520 1668 320
3 1118 1730 1170
3 907 1838 1044
3 599 1586 1488
3 623 1828 438
3 596 2012 1544
3 676 1727 1441
3 264 265 917
3 57 58 846
3 888 1579 1371
3 619 1633 975
3 446 1632 860
3 1814 889 1374
3 29 379 1558
3 856 2104 1288
3 715 141 1009
3 2203 421 744
3 1820 504 872
3 899 1682 552
3 613 1854 850
3 843 1593 1492
3 24 288 1235
3 1668 520 791
3 1708 629 949
3 1734 1068 561
3 2123 700 1451
3 624 2023 1356
3 1192 1761 711
3 1170 2040 376
3 1884 715 1009
3 1882 866 1467
3 804 1675 1063
3 963 1646 1218
3 1909 1170 376
3 1893 643 1560
3 627 1708 762
3 334 1714 1465
3 434 2055 1104
3 1598 566 863
3 1117 1893 1006
3 1712 434 1104
3 1916 716 426
3 1780 1187 1258
3 1947 915 1013
3 1705 466 1497
3 317 843 1492
3 2119 815 1321
3 1851 1038 1397
3 1298 2123 1451
3 806 1973 1441
3 1911 1008 1297
3 747 1859 1400
3 31 32 1146
3 377 1801 670
3 2128 918 1125
3 646 1728 1342
3 2211 828 1335
3 648 1738 1411
3 560 2088 1329
3 805 2162 1271
3 653 1800 1282
3 1196 1711 1511
3 1726 377 670
3 652 100 1448
3 245 246 1148
3 609 2019 527
3 1015 1797 739
3 129 769 775
3 2037 913 867
3 700 1620 1451
3 606 1991 1536
3 516 946 1396
3 1571 423 1518
3 466 331 1497
3 61 62 491
3 769 2062 775
3 1068 2069 561
3 1223 2169 826
3 657 180 1484
3 669 2183 1431
3 1916 819 1399
3 131 735 1114
3 1914 468 1179
3 2035 585 1187
3 1167 1634 1561
3 2224 1167 1561
3 585 8 1279
3 1984 1171 1024
3 311 312 1126
3 2125 591 1213
3 637 2127 1523
3 247 248 552
3 97 755 340
3 1846 670 330
3 177 760 1238
3 701 2120 1066
3 1888 1152 1351
3 670 1801 330
3 734 1967 1487
3 341 1891 1425
3 804 2144 855
3 510 1901 927
3 8 275 1279
3 1175 2113 790
3 1152 1995 1351
3 688 1903 1353
3 1068 1808 1429
3 235 236 1261
3 591 1629 1213
3 840 1748 1182
3 854 12 350
3 1930 1184 668
3 1946 793 1411
3 2188 1117 1006
3 1564 916 1106
3 2063 688 1353
3 2234 1196 1511
3 828 1970 1335
3 535 1972 1435
3 1572 746 1494
3 1080 2208 875
3 2151 1153 1398
3 784 1988 1222
3 423 2237 1518
3 207 853 1394
3 343 34 954
3 766 1719 607
3 1232 2001 1291
3 915 1924 1013
3 1823 932 1198
3 12 279 350
3 2111 1223 826
3 798 1821 1383
3 1213 1646 1284
3 887 1657 451
3 1974 909 325
3 1850 569 691
3 687 2016 1475
3 853 2012 1394
3 906 1592 1544
3 323 2185 1217
3 343 2096 463
3 1721 323 543
3 1566 887 1531
3 77 1016 1136
3 715 1976 902
3 1926 766 607
3 2126 1128 1434
3 1328 533 810
3 2053 461 1249
3 662 1679 443
3 194 704 1225
3 1184 2159 668
3 1748 1165 1182
3 2198 634 563
3 728 1989 958
3 1843 898 671
3 737 1874 1268
3 2024 404 1369
3 493 1618 1395
3 980 1879 1293
3 1845 1015 739
3 887 1992 1531
3 254 749 738
3 172 173 1543
3 461 1941 1249
3 1016 2073 1136
3 901 1639 1407
3 219 941 1153
3 1769 1276 1461
3 2148 1084 1225
3 100 101 1448
3 797 2216 1456
3 2108 796 1455
3 1639 901 682
3 2121 614 441
3 250 1017 546
3 1917 1081 1134
3 567 234 845
3 1834 662 443
3 303 612 1449
3 634 1692 563
3 180 181 1484
3 1437 1670 1534
3 92 93 1554
3 1152 1888 1341
3 1018 1780 1549
3 2020 1152 1341
3 1669 679 1550
3 1823 1198 1331
3 389 2240 485
3 1868 901 1407
3 735 1896 1114
3 140 715 902
3 1198 1790 1331
3 1821 475 1383
3 898 1843 1404
3 1722 983 1320
3 1903 688 555
3 661 307 1469
3 339 2000 900
3 1575 743 1091
3 447 1777 835
3 1597 1328 810
3 688 1565 555
3 468 17 1179
3 1879 1073 1293
3 582 63 699
3 1882 695 812
3 2045 604 1227
3 1613 693 1379
3 404 1829 1369
3 1864 898 1404
3 26 345 351
3 1008 1911 996
3 2019 609 730
3 2057 1123 663
3 530 1734 1438
3 542 1564 1106
3 609 1943 730
3 1812 712 738
3 614 2121 1447
3 716 222 426
3 1954 447 1382
3 866 2079 1467
3 449 113 1188
3 157 457 1318
3 505 1687 1372
3 1861 603 1551
3 951 1611 732
3 358 1850 665
3 735 132 1186
3 1887 358 665
3 932 1912 1198
3 1708 627 1349
3 1863 778 1233
3 1165 2124 1182
3 1896 769 1114
3 908 1567 1360
3 1094 1704 441
3 1958 735 1186
3 680 1878 1082
3 778 2140 1233
3 298 299 1195
3 1010 1677 1540
3 1875 453 1108
3 1101 1617 1273
3 390 936 1006
3 2014 702 692
3 1092 2057 663
3 283 777 1354
3 2106 720 1379
3 421 1945 744
3 1951 983 988
3 704 2148 1225
3 1905 817 1000
3 743 1857 1091
3 348 1919 1347
3 916 2152 1106
3 1810 951 732
3 1822 677 1191
3 1851 449 1188
3 796 167 1455
3 103 797 1456
3 1672 698 864
3 457 1859 1318
3 702 1956 692
3 2096 343 954
3 2085 1192 1003
3 1965 709 1143
3 695 1804 812
3 1992 582 699
3 1853 664 481
3 854 2086 1212
3 936 2236 1388
3 2041 992 1303
3 1702 841 713
3 253 254 738
3 677 2084 1191
3 749 1812 738
3 1021 1807 1405
3 1803 881 1231
3 1901 374 1229
3 336 2059 1025
3 1665 689 1078
3 6 182 1378
3 290 825 764
3 88 1 1370
3 841 2103 713
3 777 1905 1354
3 2088 825 1329
3 1988 1096 1503
3 168 5 1361
3 5 169 1361
3 101 2 1362
3 2 102 1362
3 16 283 1354
3 376 1667 488
3 1594 736 600
3 344 961 1299
3 1365 1787 1517
3 839 1944 1384
3 2095 336 1526
3 1986 952 434
3 684 150 1234
3 951 333 1406
3 416 1845 1500
3 825 2088 764
3 1909 376 488
3 782 76 1136
3 952 2055 434
3 817 1614 1000
3 1725 1364 1490
3 2236 1075 793
3 1909 488 798
3 1081 1922 1134
3 813 87 1463
3 1692 978 1297
3 720 2106 917
3 324 1746 821
3 1 89 1370
3 1959 811 564
3 1072 1869 871
3 743 1575 940
3 1613 1176 753
3 1371 1018 1549
3 2144 804 1527
3 972 45 660
3 751 1834 443
3 679 1374 1550
3 1785 837 1113
3 181 6 1378
3 693 1659 1415
3 1772 908 1360
3 970 2116 1542
3 1740 704 1409
3 1617 1042 1229
3 1806 820 600
3 769 1896 890
3 734 1626 870
3 789 1826 1215
3 698 2080 864
3 801 1795 1528
3 1683 768 1183
3 1069 1923 1305
3 2112 970 1045
3 428 1945 1336
3 1877 1051 395
3 1108 1690 1190
3 428 1660 1476
3 792 1747 1228
3 255 256 808
3 727 1735 1348
3 1039 1702 713
3 909 1664 1525
3 2073 782 1136
3 909 1980 325
3 1589 746 538
3 2144 1101 1273
3 392 1870 1541
3 1016 2032 1355
3 1042 2017 1229
3 1276 2209 1461
3 829 1947 1013
3 974 2003 711
3 289 290 764
3 329 759 1429
3 2004 1129 1254
3 1129 1790 1254
3 238 801 1436
3 2064 743 940
3 2052 1022 666
3 820 1806 1219
3 1764 547 717
3 837 1873 1113
3 1945 428 1476
3 2219 542 1106
3 34 35 954
3 1789 703 710
3 2148 704 1517
3 1666 330 771
3 110 111 1019
3 159 160 1242
3 946 1825 1303
3 1834 751 1452
3 1707 987 962
3 2013 727 1348
3 476 392 1541
3 736 1816 600
3 987 2045 962
3 648 1818 649
3 330 1801 771
3 1588 741 880
3 2004 723 1443
3 1671 709 1426
3 215 216 1301
3 1984 1024 1417
3 79 80 1247
3 190 191 1248
3 237 238 1436
3 512 1842 845
3 1967 903 1487
3 750 2224 1561
3 689 1907 1078
3 1802 955 1431
3 866 1882 812
3 1054 535 1435
3 1608 1138 785
3 1800 1034 1282
3 639 1741 678
3 147 148 346
3 1174 1927 1424
3 1829 777 1369
3 1831 1039 713
3 105 966 1307
3 405 165 598
3 1886 734 1487
3 2179 1189 649
3 492 1572 1494
3 741 1697 880
3 951 1795 333
3 2072 1167 1414
3 183 334 1465
3 453 2124 1478
3 902 2089 1253
3 981 2156 1389
3 1645 1129 1443
3 773 2122 1345
3 519 94 460
3 963 144 1563
3 746 1900 1494
3 1970 727 1457
3 1362 2216 1448
3 1051 1877 647
3 1378 1714 1484
3 547 1940 717
3 2210 906 1334
3 1176 2222 753
3 1582 416 1500
3 1646 963 830
3 1614 696 611
3 1876 585 1279
3 204 205 1257
3 374 1617 1229
3 301 26 351
3 1794 802 795
3 1740 1051 647
3 1980 909 1525
3 1834 680 1082
3 2076 963 1563
3 626 174 832
3 1782 818 967
3 1595 419 1263
3 2105 639 678
3 741 2111 1473
3 1907 689 471
3 906 1965 1334
3 2098 946 1303
3 963 2076 830
3 1848 981 1389
3 932 326 731
3 2086 854 350
3 2182 1186 774
3 1199 1941 1193
3 918 2014 1125
3 416 2137 905
3 956 1856 783
3 2157 1255 1127
3 2210 1334 1240
3 1404 2135 1468
3 947 1916 426
3 229 230 1287
3 699 904 1531
3 815 1832 1050
3 2091 861 1553
3 419 2204 1263
3 801 1866 1436
3 2080 698 396
3 114 891 1188
3 323 1853 1386
3 893 156 1318
3 335 1437 1534
3 1793 626 832
3 2062 769 890
3 374 1901 1386
3 1649 836 821
3 1022 1883 666
3 1034 2075 1282
3 802 1575 1091
3 782 2061 1489
3 1885 519 460
3 1577 1241 1427
3 1359 1743 1428
3 771 1801 1308
3 1670 1199 1193
3 768 2008 1183
3 2026 589 673
3 184 430 1535
3 18 281 722
3 94 95 460
3 928 1280 1377
3 479 2239 783
3 193 194 1225
3 313 314 1286
3 41 42 1265
3 2137 855 905
3 959 1775 1432
3 891 1851 1188
3 2149 960 1433
3 550 2058 587
3 782 2073 1490
3 1859 893 1318
3 922 1873 1245
3 1101 1880 1557
3 272 959 1432
3 960 277 1433
3 174 175 832
3 1591 922 1245
3 273 779 1516
3 807 1585 1339
3 524 309 1220
3 913 286 867
3 781 276 1521
3 1912 932 731
3 751 1715 1452
3 342 952 1259
3 1663 1068 1429
3 1611 369 732
3 1747 792 399
3 815 2119 1496
3 1233 1623 1352
3 1638 1420 1552
3 137 138 1169
3 834 1948 463
3 1419 1573 1472
3 1869 1072 365
3 726 1582 724
3 2049 820 1556
3 559 70 929
3 120 121 691
3 2118 1502 1504
3 467 1584 1391
3 976 2091 485
3 1098 2041 1303
3 1599 815 1496
3 134 135 1262
3 837 1785 617
3 820 1594 600
3 1072 2061 365
3 186 187 1280
3 76 77 1136
3 85 86 1357
3 1108 18 722
3 422 1954 1466
3 38 39 1283
3 583 1815 1445
3 1828 623 1178
3 1727 755 1441
3 1075 1818 793
3 1840 357 1173
3 1646 830 1284
3 240 241 1214
3 978 2078 1346
3 576 243 1530
3 895 2071 1028
3 1080 1930 862
3 1459 2241 1478
3 1407 2145 1477
3 209 210 1079
3 1629 591 397
3 1713 976 485
3 1620 760 1451
3 1605 866 812
3 1212 2086 1445
3 1198 1912 1254
3 563 1692 1464
3 98 99 806
3 952 1986 1259
3 248 899 552
3 1710 363 1556
3 287 23 654
3 2174 1084 1358
3 178 179 1298
3 27 1095 1515
3 997 1755 729
3 759 1663 1429
3 916 1564 1177
3 2087 379 563
3 1854 933 850
3 55 56 1089
3 792 1683 1183
3 1650 834 1402
3 933 1969 850
3 591 1953 397
3 2023 334 1535
3 1863 684 1234
3 1574 631 930
3 1866 801 1528
3 1791 945 765
3 2008 768 1410
3 379 2198 563
3 482 1951 988
3 945 2038 765
3 1741 895 1028
3 849 2013 1348
3 491 1827 752
3 390 1006 1560
3 883 1762 605
3 487 613 850
3 1630 995 1477
3 104 105 1307
3 165 166 598
3 212 213 1312
3 1697 857 880
3 1986 869 1330
3 1912 1226 1254
3 847 1671 1426
3 2208 1156 842
3 1908 847 1426
3 1699 934 1288
3 1644 580 1468
3 989 1839 1291
3 985 1605 1029
3 2029 1004 593
3 1949 876 1406
3 302 303 1449
3 113 114 1188
3 156 157 1318
3 881 2034 532
3 82 83 1317
3 1035 2058 550
3 814 2159 1376
3 1650 1190 440
3 631 1764 930
3 63 64 699
3 307 308 1469
3 1629 397 1504
3 1704 577 441
3 2114 576 1530
3 162 163 1323
3 107 108 1324
3 2062 1197 1202
3 1829 404 788
3 1840 922 1319
3 1614 837 1000
3 1306 1716 1547
3 540 2165 616
3 2186 977 368
3 2069 1068 1519
3 1420 2237 1552
3 2167 882 1011
3 531 1306 1547
3 68 69 1237
3 2234 1419 1472
3 1060 2170 772
3 1802 956 783
3 1858 955 1401
3 1758 879 1483
3 185 928 430
3 293 294 1070
3 2234 526 1419
3 955 2018 1431
3 534 1686 368
3 1010 2040 1246
3 919 1624 1050
3 2087 554 1558
3 1775 522 697
3 1006 1893 1560
3 1160 2237 1420
3 1894 860 1538
3 1115 2149 1256
3 1769 1142 1276
3 2031 1037 1074
3 1658 1002 1399
3 936 2188 1006
3 1564 1107 1177
3 1220 310 1536
3 404 1738 894
3 2211 1335 993
3 2127 695 1523
3 1290 2113 990
3 826 2169 1380
3 1601 384 874
3 397 2118 1504
3 1190 1690 440
3 213 347 1312
3 1846 603 1251
3 1035 1624 919
3 2125 1213 1284
3 367 919 1050
3 2058 1035 919
3 249 250 546
3 818 1820 967
3 2196 1178 1524
3 1308 1801 1139
3 577 2121 441
3 1219 1710 1556
3 72 73 1493
3 1591 1245 1277
3 1864 1404 1468
3 1865 1097 863
3 2124 1459 1478
3 999 2077 1005
3 1334 1982 1240
3 2235 1332 1373
3 843 317 1252
3 1096 2106 1415
3 1851 891 1241
3 893 1859 1359
3 2091 389 485
3 1068 1663 1519
3 1306 1933 1483
3 725 1825 1161
3 206 207 1394
3 1102 2203 744
3 2003 1211 711
3 1123 1878 663
3 920 1708 1349
3 1853 374 1386
3 2101 758 1185
3 1158 1869 365
3 21 284 1522
3 1621 907 1495
3 226 227 1422
3 197 198 1485
3 182 183 1465
3 1968 997 1070
3 331 466 382
3 87 88 1463
3 1129 2004 1443
3 1857 474 459
3 1937 1158 365
3 220 221 1412
3 1771 645 1545
3 1647 985 1029
3 2188 936 1388
3 167 168 1455
3 102 103 1456
3 945 1890 1062
3 260 261 1416
3 981 85 1357
3 1245 2177 1277
3 1162 2175 438
3 707 2015 754
3 2153 1145 794
3 1653 1119 1534
3 399 792 1183
3 144 145 1563
3 1651 1092 663
3 1930 1080 875
3 1053 1766 697
3 1910 1056 1256
3 1828 1162 438
3 141 4 1009
3 835 1777 1471
3 683 1804 763
3 377 1726 483
3 1680 377 483
3 135 479 1262
3 1656 1002 1533
3 2118 502 1502
3 1810 1168 1122
3 1598 1097 1382
3 1332 1904 1373
3 695 1882 1523
3 1715 1184 875
3 243 244 1530
3 1169 138 1253
3 912 1771 1545
3 138 139 1253
3 2057 1036 1286
3 130 131 1114
3 717 1940 518
3 2096 954 1140
3 1120 477 1398
3 621 1064 1389
3 133 134 774
3 134 1262 774
3 2013 717 518
3 978 1911 1297
3 1977 607 1110
3 1868 1407 1477
3 137 1169 1498
3 1839 989 500
3 2212 980 1293
3 2105 678 497
3 1206 1627 885
3 955 1802 1401
3 1971 923 1260
3 447 1093 1382
3 2079 640 337
3 1665 920 1349
3 987 1707 986
3 1586 583 1377
3 923 1898 1260
3 2044 740 733
3 703 1148 710
3 904 1566 1531
3 583 1990 1377
3 678 1697 497
3 1141 2010 1480
3 957 1766 1472
3 573 1669 1550
3 1780 411 1549
3 436 1876 1279
3 1163 1935 756
3 2177 696 1438
3 931 273 1516
3 1910 1144 1552
3 2010 1192 711
3 1021 1688 1243
3 997 293 1070
3 606 1126 472
3 467 1759 859
3 276 327 1521
3 474 1946 459
3 136 137 1498
3 1874 671 1268
3 2152 961 1328
3 534 2014 692
3 998 1789 1044
3 1073 1694 1293
3 480 1235 355
3 1807 1021 1243
3 2092 1206 885
3 1989 682 958
3 708 2086 350
3 2122 1086 1495
3 1969 947 651
3 363 1710 1244
3 961 533 1328
3 1211 2010 711
3 607 1719 1110
3 1940 931 1516
3 381 280 1393
3 577 1704 1373
3 740 2117 733
3 1097 1954 1382
3 1922 1081 1087
3 227 1040 1422
3 2008 399 1183
3 275 436 1279
3 1132 360 1109
3 327 2105 1521
3 1585 989 1291
3 1239 16 1354
3 1661 1163 756
3 388 521 803
3 2014 977 1125
3 1168 1892 635
3 1976 1124 839
3 1335 1788 993
3 2038 945 1387
3 127 1080 862
3 1941 461 1193
3 1964 410 470
3 1990 928 1377
3 1040 2178 1422
3 1830 826 1380
3 279 708 350
3 2010 1141 1003
3 950 2100 858
3 961 2152 1299
3 461 1653 1193
3 1502 2189 1504
3 1270 1782 967
3 2207 998 1044
3 640 1580 337
3 224 487 651
3 1015 1845 785
3 1766 1196 1472
3 914 1902 1470
3 645 1915 1545
3 2179 1290 990
3 1157 1680 937
3 1156 1736 842
3 2186 1157 937
3 2217 914 1470
3 1065 124 1255
3 1994 567 1210
3 423 1910 1552
3 1130 1791 1383
3 1877 1052 647
3 2088 536 764
3 2218 835 1471
3 758 2101 939
3 1052 2068 647
3 1178 1723 1524
3 1844 995 858
3 1048 624 1356
3 1703 580 1368
3 567 1842 1210
3 1239 1905 617
3 2164 1130 1383
3 1881 1027 1457
3 21 758 939
3 321 2228 1368
3 1290 1762 790
3 999 1675 1337
3 1095 1773 1435
3 1235 2139 355
3 1031 1952 1473
3 1972 1095 1435
3 1998 592 1493
3 592 72 1493
3 1719 1168 635
3 1147 1793 832
3 2118 397 1200
3 461 2053 1532
3 1689 1197 890
3 1124 1976 705
3 1023 1895 868
3 1904 577 1373
3 1673 1189 990
3 495 1885 460
3 1674 1124 705
3 1267 1634 1499
3 123 1065 540
3 1058 117 882
3 983 1835 1320
3 2050 1267 1499
3 1197 1991 1202
3 153 1061 1060
3 389 2091 1553
3 2064 445 1166
3 1696 656 557
3 841 215 1301
3 544 1221 930
3 1224 2053 615
3 1693 339 900
3 1043 584 1001
3 684 1863 1352
3 1684 1311 1506
3 1171 1958 1024
3 579 513 892
3 1311 2132 1506
3 1675 999 1005
3 536 289 764
3 2156 981 1357
3 2078 403 1342
3 387 1107 1313
3 1886 843 1252
3 1599 388 803
3 1995 1315 1427
3 635 1892 1244
3 2190 982 1405
3 1761 1116 1292
3 1126 1622 472
3 95 495 460
3 985 1647 1447
3 1189 2179 990
3 449 1851 1397
3 391 1756 1508
3 1856 479 783
3 466 1900 382
3 1859 457 1400
3 508 2063 1428
3 1138 1934 481
3 175 1147 832
3 866 1605 1343
3 116 1058 1325
3 1061 154 1059
3 777 1151 1369
3 1852 1211 605
3 1943 1322 824
3 2015 984 754
3 1322 1929 824
3 1927 625 1470
3 625 2217 1470
3 982 1568 1405
3 1200 380 1501
3 984 1866 754
3 2238 838 1525
3 1783 1043 1001
3 1036 313 1286
3 838 1980 1525
3 2045 987 1366
3 1201 1698 1111
3 2044 733 953
3 543 323 1386
3 267 1008 996
3 336 1996 1526
3 513 1796 892
3 1615 1200 1501
3 656 2127 557
3 2121 985 1447
3 1866 1215 754
3 1107 2187 1313
3 2090 684 1352
3 1685 1067 1083
3 831 2072 1440
3 2115 831 1440
3 1724 1102 744
3 984 237 1436
3 1972 1041 1105
3 1901 543 1386
3 855 1608 905
3 1793 800 1539
3 1759 467 1391
3 1819 1201 1111
3 1579 1018 1371
3 679 1814 1374
3 1718 500 1437
3 1041 1729 1105
3 2073 1016 1355
3 1995 1133 1315
3 2107 970 1542
3 452 556 1028
3 1097 1598 863
3 479 1856 1262
3 992 2098 1303
3 231 505 1372
3 991 2063 508
3 733 1752 953
3 316 1906 561
3 1150 1769 1461
3 1719 635 1110
3 1573 957 1472
3 719 1867 1460
3 1958 1171 549
3 1133 2093 1315
3 1885 884 1444
3 1144 1638 1552
3 2113 1236 990
3 2036 1208 1546
3 1892 363 1244
3 2094 991 508
3 983 1722 988
3 1880 994 1557
3 339 1693 742
3 1270 1680 483
3 2224 628 1414
3 628 1767 1414
3 1782 1270 483
3 464 1793 1539
3 830 1837 1284
3 1081 1576 1087
3 1990 1048 1356
3 530 1862 1309
3 1837 1099 1336
3 1752 733 1209
3 619 1612 1458
3 1119 1653 1240
3 1723 645 1524
3 2080 640 864
3 1982 1119 1240
3 1709 339 742
3 1026 1937 1025
3 725 2064 940
3 1754 1004 1446
3 1906 964 561
3 1289 1885 1444
3 1045 2068 1338
3 1862 650 1309
3 1315 1577 1427
3 2059 1026 1025
3 2112 1045 1338
3 2171 635 1244
3 2028 391 1508
3 1743 508 1428
3 1264 2135 1404
3 2110 1271 1421
3 503 1650 1402
3 1064 1848 1389
3 1121 1822 1191
3 1165 1798 1459
3 1965 1143 1334
3 2096 503 1402
3 1670 1193 1534
3 1197 1689 1439
3 379 2087 1558
3 2044 786 654
3 1192 2010 1003
3 23 740 654
3 1171 1689 549
3 2034 1175 790
3 1084 2148 1358
3 1017 251 1562
3 1221 1574 930
3 1197 2062 890
3 645 568 1524
3 1992 699 1531
3 1634 1275 1561
3 2101 1145 1537
3 1709 742 1559
3 1148 2122 710
3 349 644 809
3 1250 2241 1459
3 1124 1674 809
3 487 1969 651
3 1167 2224 1414
3 1953 591 1067
3 1295 1623 923
3 1971 1295 923
3 2122 1148 1345
3 1655 1037 1474
3 2227 1174 1424
3 1101 2144 1527
3 786 287 654
3 1690 1108 722
3 592 1998 878
3 1981 1224 615
3 2056 592 878
3 1284 1837 1363
3 2209 1276 1391
3 647 2068 1365
3 1740 647 1365
3 1838 736 1367
3 2064 725 1161
3 545 2145 1407
3 1596 1132 1109
3 1944 644 1449
3 2131 1403 1499
3 1969 487 850
3 2120 771 1308
3 2071 452 1028
3 1276 1759 1391
3 1867 690 1460
3 1880 1101 1527
3 1086 1621 1495
3 1767 1333 1440
3 1413 1737 1506
3 2218 1033 835
3 1333 2115 1440
3 541 844 539
3 1837 421 1363
3 1945 421 1336
3 1148 246 1345
3 569 120 691
3 2038 1118 765
3 1790 1198 1254
3 736 1594 1367
3 1801 377 1139
3 73 871 1493
3 2008 1194 399
3 1164 1593 1462
3 824 1695 1350
3 488 1821 798
3 1943 824 1350
3 1677 1164 1462
3 2092 758 1522
3 1798 1250 1459
3 1778 1120 1398
3 1705 1172 1482
3 1308 1635 1066
3 1172 1861 1482
3 1271 2162 1421
3 1662 1090 1555
3 1460 2238 1525
3 1659 1096 1415
3 1842 567 845
3 1095 1972 1515
3 1403 2050 1499
3 1093 1598 1382
3 1270 1847 937
3 1414 1767 1440
3 2072 1414 1440
3 2132 1413 1506
3 1184 1930 875
3 1088 1627 1533
3 1849 1385 1520
3 1385 322 1520
3 1280 1586 1377
3 1593 341 1492
3 733 2117 1209
3 718 1964 470
3 526 1913 1419
3 758 21 1522
3 1808 530 1309
3 1116 2085 1548
3 394 1230 1071
3 1226 2004 1254
3 1128 1705 1497
3 2158 1160 1420
3 1100 2041 1098
3 935 2221 1294
3 819 1658 1399
3 740 2044 654
3 1277 2177 964
3 1693 914 742
3 1902 1424 1470
3 59 389 1553
3 742 2217 1559
3 1939 1150 1461
3 2018 669 1431
3 1424 1927 1470
3 1863 1233 1352
3 1236 1673 990
3 341 2143 1492
3 1267 1931 1275
3 1096 1659 1503
3 1944 1124 809
3 1634 1267 1275
3 2120 701 1559
3 1168 1719 1122
3 1151 2024 1369
3 1906 1277 964
3 1820 872 967
3 2025 1311 515
3 2002 1128 1497
3 1311 1684 515
3 502 1678 1502
3 380 557 1501
3 1111 1698 816
3 2106 1379 1415
3 2021 942 1464
3 1477 2145 1444
3 942 2087 1464
3 1664 1460 1525
3 871 1998 1493
3 1790 878 1331
3 878 1998 1331
3 395 197 1485
3 1131 172 1543
3 1872 1111 816
3 1581 1141 1480
3 1849 395 1485
3 799 362 1446
3 2048 1055 1272
3 1379 693 1415
3 361 92 1554
3 1167 2131 1499
3 795 802 1091
3 1025 1937 1364
3 1055 2142 1272
3 2115 1333 1243
3 1737 1174 1506
3 1137 378 1474
3 1468 2135 1539
3 1041 1894 1538
3 2103 841 1301
3 1677 1462 1540
3 1891 1164 1423
3 587 2058 493
3 1462 372 1540
3 2046 1100 1098
3 363 2049 1556
3 1725 1025 1364
3 2193 587 493
3 1791 798 1383
3 1654 935 1294
3 650 1673 1309
3 1333 1807 1243
3 1857 795 1091
3 1327 2211 993
3 1937 365 1364
3 1172 2126 1430
3 365 2061 1364
3 383 1482 1551
3 1482 1861 1551
3 2068 1045 1365
3 1709 701 1442
3 2169 407 1380
3 2124 1165 1459
3 1038 1851 1241
3 701 2028 1442
3 1859 747 1359
3 1045 1787 1365
3 1738 459 1411
3 1145 1768 1537
3 1634 1167 1499
3 1659 1204 1503
3 1204 400 1503
3 1346 2078 1342
3 954 35 1140
3 1230 2151 1071
3 1825 1098 1303
3 1630 1477 1444
3 1577 1038 1241
3 2028 701 1066
3 1174 1684 1506
3 747 1743 1359
3 788 404 894
3 572 1985 780
3 1905 1239 1354
3 1644 1468 1539
3 430 2023 1535
3 1714 1378 1465
3 1728 1346 1342
3 2203 1083 1363
3 333 1949 1406
3 1586 1280 1488
3 964 1734 561
3 1378 182 1465
3 1083 2125 1363
3 2173 572 780
3 1370 2097 1463
3 88 1370 1463
3 1991 1220 1536
3 745 2016 1305
3 2069 316 561
3 2150 455 1491
3 459 1946 1411
3 455 1854 1491
3 644 302 1449
3 2073 529 1490
3 475 2164 1383
3 644 1944 809
3 168 1361 1455
3 1362 102 1456
3 745 1568 1475
3 633 596 1544
3 635 2171 1110
3 421 1837 1336
3 1361 2108 1455
3 2216 1362 1456
3 1680 1270 937
3 570 2148 1517
3 1208 2205 1546
3 2127 656 1395
3 1923 745 1305
3 1143 1982 1334
3 337 1889 1467
3 1664 719 1460
3 914 2217 742
3 1815 1212 1445
3 1196 2234 1472
3 1991 1197 1439
3 2237 423 1552
3 2129 1371 1549
3 1374 2130 1550
3 804 1063 1527
3 1087 1576 921
3 1319 1980 838
3 2016 745 1475
3 860 2163 1538
3 499 1344 1321
3 1344 2119 1321
3 1768 762 1537
3 701 1709 1559
3 762 537 1537
3 2053 1224 1532
3 529 1725 1490
3 450 482 988
3 1843 1264 1404
3 1784 788 894
3 964 2177 1438
3 1635 1308 1139
3 1734 964 1438
3 2079 337 1467
3 1639 545 1407
3 2125 1284 1363
3 527 2157 816
3 1698 527 816
3 690 2238 1460
3 368 1686 1529
3 2186 368 1529
3 1567 1087 921
3 2087 563 1464
3 2133 373 1555
3 1787 570 1517
3 2207 1044 1367
3 921 1776 1360
3 1351 1995 1427
3 1712 1104 1520
3 1840 1319 838
3 1104 1849 1520
3 2063 1353 1428
3 820 1219 1556
3 945 1062 1387
3 2020 1341 822
3 1062 1662 1387
3 1567 921 1360
3 421 2203 1363
3 2119 392 1496
3 555 1565 971
3 1694 355 1548
3 2195 1390 1505
3 1044 1838 1367
3 1392 2042 1507
3 2145 1289 1444
3 1215 1866 1528
3 1280 187 1488
3 1390 1765 1505
3 2135 464 1539
3 2043 1392 1507
3 1739 839 1384
3 2143 1327 993
3 2165 730 1350
3 730 1943 1350
3 2178 1481 1491
3 617 1905 1000
3 1220 1991 1439
3 837 617 1000
3 1341 2167 822
3 407 2002 1380
3 1866 984 1436
3 2170 555 971
3 800 1644 1539
3 1481 2150 1491
3 1024 1691 1417
3 1227 1584 1454
3 884 1630 1444
3 463 2096 1402
3 962 2045 1454
3 2045 1227 1454
3 524 1220 1439
3 1627 1206 1533
3 834 463 1402
3 1592 633 1544
3 1193 1653 1534
3 1206 1656 1533
3 2180 1351 1427
3 1353 2181 1428
3 1897 962 1454
3 1063 1880 1527
3 494 1442 1508
3 1385 1849 1485
3 198 1385 1485
3 1972 1105 1515
3 1442 2028 1508
3 1471 1777 1546
3 2205 1471 1546
3 1105 1855 1515
CELL_DATA 4176
SCALARS Von_Mises float 1
LOOKUP_TABLE default
9406687.624539139 10845244.603275165 24584768.4232752 13285421.623073924 57060744.81963985 57042765.918551974 55850909.42762369 32470534.196613636 31108236.214485925 33641333.35322742 32475492.432296332 47173216.99357805 31747367.52278064 31983380.058616035 23154775.16589168 20551777.893312104 32047181.508621924 26362077.74015838 22488745.948923018 36963467.3497873 20487559.65055353 31016301.28031087 630413.3036541934 31743789.069646236 24104504.28451183 31706254.970246345 37721853.48456575 19994325.280250795 36842876.914585404 3280153.9279398993 12417502.954861598 56559365.651662044 14085808.34638067 23320104.750244267 661263.2552219529 25136481.683532014 3438286.0821395745 22861154.214817964 46292834.79246434 1246640.6465286294 20643971.363161497 15627217.993288575 98532318.96307062 4502153.200247397 12526782.933999885 40779749.226188764 12412632.63814382 20548729.50221268 33634823.75725544 16911109.4630954 9596438.899968382 9707004.026023973 30896672.605104707 27146217.840060726 13065622.780346924 27118549.869770873 34265505.0590786 31635964.372410174 10121678.817972282 9018471.284347154 35973626.01072063 31591158.23908338 13104916.661292048 25373951.741620813 16315457.414718768 25322795.457019348 28225009.03066166 1748706.4006891376 12816497.04514899 34019209.786445454 25632194.238381535 11224022.20853667 26519328.44168186 23718536.006821334 8218226.476378857 3607156.3353012684 3423897.4750161963 12588948.172802128 20386607.00307704 3217435.058993169 12812435.469558079 27595456.099699285 2998951.2697056294 27607864.575993378 33430109.265840746 32034516.95445553 33046445.52853533 34028344.359755516 11308462.416017335 34861672.66729617 15795660.975125361 29439298.387405355 33647597.608282864 28589199.998915702 12663290.485508297 11347946.710542243 50003402.68083101 30500837.223909993 31067198.921980377 3653990.071923886 50006559.89896199 28604180.871134207 6452847.858425542 10304414.403601127 28677196.103420496 30100388.9861856 32961336.731655203 10564292.939789353 3666430.081551776 3910750.02477014 61318958.279898986 32306935.26001968 2885874.1093358207 26972114.864681017 35403887.77530349 22726866.991305906 15355353.734392105 9078967.492378926 28738212.43377614 42907313.936366595 12410136.886215687 23099702.08335137 15034037.234873539 32640693.856344573 32598220.106878847 2201171.6450101556 9223672.378057832 15206090.116556505 74347220.14266755 3815220.2048739316 7836133.41899523 44259250.63384584 53393833.54091382 18812792.407757707 34235724.89420707 22392845.968475245 32630404.214740563 13861145.435753549 10147267.892037073 67565554.78640383 44302238.725855514 26944420.506282877 41320705.48825926 29527122.018924117 22422166.45765032 34717811.851617396 31270643.487272892 34089654.7697568 25889799.547970936 1858021.2158395643 34612451.11576089 465057.40887869935 20493952.4020949 14049114.34433707 27492497.605649997 38176919.4047412 32657940.075242896 28001237.052918777 4744945.67630727 24495754.802034892 31864442.379007503 31578196.416526716 33574465.0280853 31988047.330344006 3155223.992898776 13348555.242072614 39662304.390351966 36224077.765346155 5184603.039923005 14654724.136646193 31554946.09592004 34984726.41726733 73007360.45973432 26767448.354166683 38402425.327027224 31923853.023123614 31863021.931045726 5069169.5175496545 29707011.392460607 18386611.807873804 27875483.120385684 23166518.219813038 58326706.956781134 32027514.726636097 28229735.904333312 25275458.81367647 31906816.880360387 30712017.82382589 4794753.872776788 5023234.725971882 20900454.850409064 29135741.352146424 31827029.602966946 30313382.942226492 26781654.404584665 32030249.443755757 14249711.720533593 22833679.725982346 15661993.732930593 61459037.471636415 37050048.164793685 35643034.42087993 23247251.871186458 12664678.561343264 36738835.08495741 61464005.946939975 9627124.799891576 29736290.561358623 30112799.69764975 19358193.609761003 5076648.459404285 19302914.46287412 21045412.586611133 4429485.853206222 30515422.75293412 5240399.991386391 5246677.458625165 31520766.2901308 8415741.986921823 23710855.738013104 22899989.504832704 31679647.21110457 33580847.98224663 12777949.04189915 22229750.085584007 12057315.991486292 22187783.885907788 26712811.233706072 12655671.373040643 18274498.760720525 32939136.982879505 15072684.711622631 30421362.58753212 18020444.177976955 32385481.29234196 13224599.918090982 39224629.95221052 11242829.173453912 18013251.956092246 15024790.687362539 23576248.29890592 26173378.170479108 23530294.965348728 26315985.540744912 33834632.83536818 19677588.30198244 9967286.2056269 28149656.15023193 31196111.034243286 43975385.65326757 32311241.837341774 23305857.048865728 11044451.803183217 44040479.660723634 24635256.40193486 31647509.67290907 31924022.477373134 13739156.24087268 19735499.595940486 29217193.920209706 16794022.148670435 30324220.588291883 10603445.315326652 11378675.54292683 24481111.436377645 28874001.751135353 10745549.687636325 21448968.03156771 35022252.25639873 8353012.780595077 10147635.878593368 80027427.7798539 32112864.248395078 35462358.05528405 26219928.2951197 2626356.752575229 6564150.207365009 36647498.812988296 30760879.6402061 34970981.4898258 32409472.594877183 3799062.2046019537 8197876.031969152 32085390.471512742 34474509.50297225 1066846.2805538177 23421534.171897396 45223774.52581104 35609401.90917339 41646580.58487366 29072466.22632673 8236597.964936032 8842141.74328656 2713777.613833576 5289770.111410306 24003291.22585089 28333540.903935764 30482765.4406056 15233718.125658395 32991620.90042537 4331492.9548919555 30481148.545900416 3790718.440529099 22839281.306026727 27738067.59672772 40120381.29478417 22143203.2950564 29023626.234408937 46028445.8790632 34784074.39595212 30472903.511269294 10916375.812281953 23450557.313524883 8329407.225318887 29351695.04597884 9167661.075698785 29519780.448021397 29366899.234251115 31123107.496160924 25382749.77672421 7146207.734720657 2708048.1601712187 22959320.794048406 13923087.817078777 8937734.241465535 35283216.68017762 13023482.847104587 20473519.36197164 61234832.74235719 32157661.094193187 14785287.14042044 25301212.664776474 23659253.134488925 9598276.230958031 31098617.291720934 15462164.572568929 19684630.821417667 31604186.019518964 24866619.629491374 20105672.384019945 10974984.800707044 13686125.35634134 13147518.658004066 24635585.966545768 46063003.69586627 11990594.44558326 8862372.275177198 29347715.21889315 37068550.52846836 13151549.955828005 29423781.887914255 31941615.40594581 8149237.008901764 32561054.09811955 8186277.835838473 34476052.80775963 30474313.83710499 34607629.21466158 40468565.45196279 36486260.910265625 34052746.18323319 22843883.67646081 32056043.14696402 30607605.1010568 11741783.403818287 31867361.80828102 31261347.911097936 43711306.921144664 31740032.154800024 30613710.289547946 36853271.650821246 19942467.959472757 28260460.50653633 28481759.376230035 31608930.07230971 33750576.24374941 8805656.362952618 14807172.674078587 32187192.069750864 32002141.87107986 13683369.35966597 14299664.385178816 8875821.01050694 50953716.06066216 77427035.3702177 18299235.47207475 31713111.485537067 8287874.159277986 28731305.442453295 15676059.75785434 27360642.95774668 12130372.909484709 28602847.784263365 39882397.54883927 24154823.467418805 24859170.715171505 15284915.87481023 33813278.89303193 23195120.01028016 44704197.1448333 32054334.006545726 19472626.505033433 44736735.89132136 19445835.33910136 19558934.38051377 30464256.580095403 14461337.464343954 32516201.10573856 43544665.73967881 6972111.580858173 12437558.67700227 51035202.69054416 15347949.854028156 51004279.23524498 32290485.56155052 23729448.789255183 20138906.831942767 20000494.121597998 12610963.63660923 23403083.081343688 15005649.430914303 35326426.085006095 8677540.19924226 32051055.590826888 14696369.424618656 31677583.23050314 10302584.83810648 10321987.56483018 23502114.697655592 30556801.680287164 32682579.304512892 33508375.04238726 35710558.71822385 19311865.15827429 12872830.306112899 31900383.874856226 31911067.664530132 31817807.816787537 45366893.68718617 14883647.654040694 32322737.992464285 23001770.03016544 21202489.133754466 32293374.804039776 32654913.868004553 19722578.5791818 60166732.97522398 55500748.98662579 61487131.97482856 55492174.23913096 33243500.836364787 8750771.308761446 15553928.969377201 31734084.465614833 30455447.975546308 20006153.370511923 14194317.494684195 40398301.698256806 8945216.377274098 41315191.93308489 61480272.43616617 7368614.280321824 26136917.17375189 2601149.703842086 2163194.5006314213 10372077.70386491 10372077.70386491 3774917.7732907464 35473277.40820396 27854025.871433113 32403435.996968213 33741432.01429468 33609722.86274121 18771999.73670035 4380211.130230573 32423156.241108697 26535067.18181224 12891121.327545876 10451970.753047151 31729999.536750723 30916947.600217845 2601359.670964727 15618536.211178826 27924937.84788639 41142552.11907481 4829825.2321854895 20123099.317656144 27910818.96340439 17552441.885378055 5320150.244250272 8253035.726201583 23915032.328823514 47282513.266965896 34052192.09469906 27290878.026232116 9288556.665603876 25150488.76915876 42575045.32372753 3656620.50858704 8476910.373360945 27796189.479735184 23245132.28350298 23342079.78177964 27792912.72075675 11912476.296047142 6620971.844505221 11924226.406162186 26934809.606991492 42534619.98295484 8907365.826198345 4482686.234938623 4560035.025036067 20241524.066050474 17679116.666407667 30364339.77880353 17460345.460567337 9886617.161163121 33168810.89859841 40378533.61658207 9055360.594810845 35088497.605484165 40400947.38973656 19821638.15030162 21947195.772693124 34699763.955993675 7406780.436970936 52651588.26227674 33270323.08506521 27723449.388926547 40420175.1356196 40289244.335896194 2547175.909134674 10630625.161346003 16500411.697787905 18585349.94743631 16849418.159581386 437070.8886275648 21111764.115192994 40305692.28494059 11495992.44707615 25721458.40569277 29596765.56761215 31567553.467766404 37097234.61599363 35602586.19045809 24561438.771894775 33072433.231911104 8892425.399632454 32500412.722689677 45555351.995354824 52956899.751711115 45105817.2876837 37643657.75447512 1934261.3276031401 45518497.18907623 4605548.87595213 31875180.76426913 22049738.4441513 16264418.879260737 41802202.262550265 29770532.094892185 11043771.020953685 27407380.205762736 14333613.385013029 32062987.94335265 34911235.7463976 37418305.56741141 24141233.55532237 24779829.507345933 25046056.53420879 24757480.27823471 2484898.662353111 20183077.56627554 7870066.737437723 13808296.113950215 13248133.941898167 28465945.024035405 31008397.808448207 40251018.68669192 30995501.515912995 37621411.39164018 20091697.628927257 32168421.942121867 5973428.670699206 13644834.557865107 8936334.96903687 17184238.279369522 33575904.99107128 20963364.29106206 5296024.3578610085 36495315.06601233 32003073.18640716 2981371.8096250817 25584956.30749166 2995503.560306326 33112017.32909903 3075496.6289054127 34284957.48840941 12775724.934860589 26611495.414166555 33548308.008269683 33818818.95284739 1920156.5057735916 46120227.19900097 6567349.32337524 20375570.524631355 38435735.29581012 25915286.368729565 31260717.057963323 11660718.749775035 27258803.08628215 761872.3599001104 8513514.094741603 35722525.57645054 11847477.92881255 18613975.859313443 6538436.283425834 6566414.989030516 21692351.437107008 9284759.995408885 36685929.973449126 24093059.81229075 8309392.183128139 1938197.710676878 35672664.80687626 34442449.869785115 44993115.31598096 39576446.19745869 30989309.05785115 50540112.71348386 35285978.941567354 27419998.268612824 2638078.788585958 23126900.398996532 31635300.11645064 19434286.84831149 13032013.845192023 33620417.10376348 387190.0944697413 36231875.05986891 25863348.5112813 30598113.851141732 26927071.29705197 26080820.718206435 20007982.9858746 37527029.33910148 35752915.07429855 29043787.382116344 57125020.23480423 1946530.1361327316 32214830.411713507 25084505.77579461 28356771.072846934 37102899.35628699 32754503.924308136 1564002.331463506 23452934.630362112 12748533.265455134 11838320.19229871 3984407.6373466733 26920671.40680327 37306196.91723522 7196907.353314396 34549862.7320231 19649386.75995219 22307427.678602103 33263313.19162625 695407.3887814962 3128104.2101273118 31699208.93696778 37212965.311182156 31034631.532431513 15814591.047016194 32495597.873304047 5949561.0325660845 31926816.339299005 22774515.30104519 38640341.5352698 19665831.215838764 24293432.82855509 30512055.529370002 5915226.879121951 20015021.753234275 32914891.07903723 31575943.124148082 31287330.837887943 41784812.56410709 29571616.205236055 15051123.31058399 5921084.343919868 1061250.3027650423 31101975.766703777 39024850.488455355 25076716.224737365 2349933.650512366 9103590.39470027 37831729.198314816 46085942.59960371 32792458.74097538 32184950.520580962 37830301.711844906 38539358.25186988 11454141.991793698 7241274.830889267 18092494.08546741 12579036.811675344 23350068.35110882 10823867.646834895 35891995.3374461 3216262.164934426 46025325.65419152 44703681.596798256 49818324.13962679 33126644.192233153 26311979.5369743 36012763.107863575 31092082.353547867 1761704.1842212817 13739425.377795858 33522791.6389931 31587449.35503359 48537624.544321425 24989327.678110335 25444059.431707293 33116014.191902164 30999848.55216397 14758781.065721035 21864165.356705382 31665534.22352651 32760529.76931596 48507077.26652826 20061356.128149617 52720275.938407816 38491678.23760342 52598583.53261376 11370943.044005541 39987939.01452923 13958437.80519928 34423544.33934532 23384316.184423484 35536131.501364455 61923781.92280318 30916960.29491865 33733553.73420262 28971868.82488863 42334343.09458522 35455991.6636628 30347713.856191244 20852027.07685258 1767123.4438408779 32070397.199816015 20338259.227274034 23751376.643618546 32431988.90900798 51419020.851545535 20004214.316548433 17226844.19139557 26861439.44784776 51378133.35812257 12929276.203918986 64877781.02307663 16417741.890118295 13185043.825807322 8293218.423345607 7571810.568917005 31637186.679786533 29348041.872729298 48244943.537174 32927924.45513972 38571268.483502 32062015.823868692 26364040.05454263 43605574.06948858 20375935.381355926 11342781.56957058 35779325.54927574 25700705.345154844 38851427.1464176 2543648.5801089113 6438845.59508972 4020125.9744039723 1169629.1627413908 24207763.607532885 33230356.10807461 24733484.67317418 31775676.341098454 36874456.73741104 33166410.583274677 15872399.232831597 33827624.76961259 18724275.333366927 31945783.726290945 21008852.902487595 37869491.43060109 31931401.06986164 14708199.202780003 5356419.260163734 36958662.26173659 32481780.269518092 32038943.7063684 19589924.001926556 8393027.6782798 23488580.16643491 26891943.89865705 18509840.255763423 8476775.855380932 31345087.282402117 78054957.78868565 1885990.54727344 20108050.35712207 5770060.924322669 25815267.72907897 34889684.78705044 16502875.859029312 54809975.08586597 23528776.40138531 32092725.457098003 32033080.294147555 37750619.73661184 13000942.42706689 12986547.15955806 31952101.963991784 1180382.2048679513 30335247.91027523 126687046.02256931 37705560.46643931 20126798.351930678 20119281.70974911 31561435.490223195 32170800.591053907 32928694.005120385 21705450.471348554 25045763.053601503 3800379.34685406 1435093.6983477604 17462608.358743742 17188211.814745817 29038619.027387075 18886568.67076144 1875043.4834347386 23697302.926646337 6339997.498024355 21313662.108833585 1856786.9469829123 1821962.7227480642 21285474.263737533 36893261.51536255 4196851.278954664 33318526.31744677 16003782.731416628 3763879.1601145314 33807571.35044843 15402703.75024389 19056986.286963772 22891553.405318335 21237534.570797294 3102318.466414207 1627662.4597137019 19493460.64394812 29039086.63279512 33375356.34343972 8663833.032682398 28729100.1905974 2979849.834948525 1856036.1868015658 40373744.334857546 30142470.21750514 3272496.9509567795 25860686.773395002 4184314.714972325 12733649.338548735 59034961.68730727 9932752.75245821 164751.28864051632 30281378.47734845 1351933.8584950843 6325542.882749418 26706106.531157378 39543102.009755634 21753428.37355157 21788119.990799192 5278941.735578477 24105193.052465137 33692658.009499066 32668184.531529352 37383224.35885631 15638658.89256519 12380504.755340185 38444895.070396096 30270142.95831321 10307063.283995487 32652020.75439345 22522037.182158418 1620454.5281579765 32370598.1860301 37374297.21748952 1189449.2249231744 30644120.997865677 31794663.380427014 11654211.000796977 14155839.947249442 17571186.119406354 12193258.2209269 30778667.760540303 27645962.83867044 27340341.91136802 14897753.594312359 16807916.29488937 13094050.384441288 27387216.702305257 9120891.189162167 32146644.444569178 32149818.80626095 30457138.798313197 23977731.150225744 146847318.07818866 17354582.302433413 15096749.982912567 2366271.5738745397 30583080.637139644 26070592.928545084 16327575.74903298 13828330.844943179 31741872.555376727 12977144.612314029 35771208.746520355 20635530.98643546 45820776.0990786 31998161.82569644 11956940.306409601 30553137.71365881 32483897.642776094 34227519.801948436 32120885.45520213 14959107.170442466 17673265.655735977 32181674.794615034 33147780.220033057 31996439.323587004 32354195.384634264 32551391.51896445 15560883.460134508 32533768.402599975 5602118.4870633185 29768414.291818507 37015832.89976182 34405151.93876639 32113874.117045302 8895151.58337044 31599442.97016969 33223402.511387557 34089181.951924965 31611263.27577622 18326444.181579143 2779264.2812391454 9964952.347433338 18096183.0352643 11217188.169135276 15521112.294304743 11227940.562445652 30299238.30995426 42084101.18878339 17988432.955859136 168688.09023795504 23883402.31266174 36887703.79435625 33684230.87515889 24381961.26472837 18441012.792046957 7681467.370152291 25368243.41682585 9606165.533383772 26704444.16937231 24351502.350045476 32572477.559517603 17646374.22027517 12367010.305056864 32551383.442558132 17680024.972105183 33453146.041972723 18582772.2113634 34276292.59166744 7065554.977693012 34595655.60912908 29678005.720258415 32015042.296014406 24291559.161617145 29392635.02236252 25448425.59102941 31934255.975480396 3623126.9350749613 32839554.0984931 24205995.65485125 33997352.21332303 106279698.46198642 27248937.901813615 27268794.328288704 31919978.206858635 31122706.61743545 12128357.63072592 13989146.242532345 20267806.347263172 30552691.84259281 33725205.03223932 31463461.05068253 28252770.449956506 24193348.145001687 33219291.6624191 13412279.45517944 13254665.400848066 33807558.43644768 33831080.117187455 935863.3282152393 31010099.525697872 27334893.243356522 24947151.059847616 26388781.3369276 7149583.610122655 14278375.581081523 29422317.248237338 33206810.491178066 941480.2377775537 14184613.76362198 24389042.108389877 11178660.672641687 31823836.37035305 7683810.189010523 8149287.950440334 14043790.17194153 30718498.63714736 27559803.50228227 31892422.5233492 29798882.38955295 32312215.56700507 39150952.83659607 30938418.163578726 7280043.537582496 39275962.18896871 33823650.5444987 3639295.2366917543 20962997.48791999 29806861.207325038 33210626.491056778 31377089.153730582 29053772.078311782 32818201.4105706 33818759.76221712 29912164.02363385 70062997.42448825 32431152.795916844 32456756.234705947 35782669.38732118 32778040.655557774 31988950.667652145 35945112.31706614 27616665.672614314 23341786.383016117 39624313.701774746 31772553.74520803 13479260.548535928 21900853.054482102 13573149.78304223 8351064.6993426755 21352475.762903303 16920114.300354786 32528575.090990975 63892169.26901561 31793835.851743475 22502803.06854432 14806077.562761948 63893397.80467554 32221904.327600386 43191262.282673515 33791116.34775574 21409663.3788758 7319248.288608607 5869455.318568673 7626078.453545501 29794561.257554978 7712017.33637354 16872951.585412584 27522570.975385807 38511662.36053762 35990565.77073445 20314353.187001992 29181095.4647101 33391512.37362853 12345164.20101994 22662194.73981093 30485836.487651236 34533849.2634084 33139032.679098107 17586991.950978573 33434774.84481812 32260426.550126176 30884308.243385274 34490457.9855698 34194478.52757405 35623782.904860124 106543.51087312707 32169957.257348586 26739475.839507475 18254528.292175297 40618162.91102731 6559930.1294343015 21405923.54016265 20796231.86742675 5005486.887652318 28564630.7221113 21364169.135978945 36045527.04654059 29230912.43262179 3677011.7288825684 51989888.403402634 32445869.106953267 34345058.23790208 32229180.71042559 51969028.90168566 10813541.719484076 32818605.160174794 32060286.640071746 38327971.81559059 8049453.000252338 32263656.29154134 30035160.080145337 31713487.11339472 15149094.290025428 35236956.872384176 17871584.751620624 18276128.163693104 32173046.106424883 16506929.380915817 26809090.700496197 34670222.03593313 8564089.041411797 33780526.4309317 18691375.938659593 33372299.252696693 33061664.190278552 32615635.90800681 25800734.37026151 21695277.81748764 32707955.97329876 36976628.865208745 21937321.246709112 51151628.254663914 32901255.86066347 53339.824004954 14301844.21951071 20509019.809861008 35211353.3761697 3220534.446633046 29121894.608333364 28060616.99728733 13508214.319829265 32080612.804183867 14739251.891237797 31334464.577252675 3060481.1356676384 3126546.81250262 44275906.27083692 33203010.94148463 14876825.821573673 60859294.55034485 48242994.945621595 27083794.969584856 34780888.75001313 31813773.243771147 8791337.063403536 33655828.83504248 31466256.117532097 30281714.22961177 23620850.945040118 28925543.56186481 35574459.210233115 23590125.341689616 32964976.98432715 30878557.100821387 191877.7416138913 8641583.463922024 8079434.784537168 48213947.97424965 23657776.39823022 32051010.947674457 34611.46428506977 36228230.21637916 34626411.54428018 25674299.327528454 3826583.3391813003 40802957.326631725 7982546.796180562 30497139.734005716 47207052.79134246 1914603.1117515361 33477728.475100737 9080366.77787295 6622870.498556557 32778908.191354636 20419695.436307624 26619928.79613254 42842426.17738476 32857932.746446867 15156712.253529383 269717.9038104888 30111788.29069939 32059805.96013692 60712745.27524399 23396722.783496417 33200303.99764103 30972789.734174795 18340335.912298024 13879276.640938928 13858407.389349878 18368035.369677253 8468189.683224957 31966251.144077666 27922912.73220298 32690508.731286857 52320776.95435347 25011248.392781265 15577560.459672308 2737405.6212614514 28257801.32536313 32134519.820550874 31759274.02576533 1878460.31714707 31138693.79521371 11605742.85604206 20524663.128797818 4054483.6757537867 16620143.070636678 32132713.038508542 9657051.235050758 4439595.238703193 15583556.567314627 31988558.75660661 13003126.108554414 4296599.619225459 15985449.390375948 27140935.77535227 31904886.683619585 7623997.226094799 32970118.310591962 32150359.08538073 48480460.656990655 10545311.97675589 28777840.375282083 10363838.585410539 30852830.950817354 8419734.362758076 42378223.34706608 9695310.565213587 9685001.198104903 47095153.69200206 29976454.439597085 72976166.15005672 32520298.155006353 32285811.51813215 32858978.12763761 32580718.019020356 21566805.65603824 25032942.633857846 48438249.17677064 14178750.924842417 10830733.177353757 16072046.474140322 32567461.761596788 32498005.860775538 32716955.91074836 42497470.06309081 28511949.580569685 24656840.776668623 33260094.10794431 14690221.491363563 31944253.30906911 4392255.779082134 29464732.324550416 12814031.631208697 2685104.9807370007 25679793.430575263 32251149.902727492 23070519.06136516 21580883.4081329 12685598.091049261 31624287.29911931 12344851.239321426 60082932.319581136 33047991.53199301 106375623.66546087 42411029.58569088 26184951.637577217 23938014.505420167 32993221.199406344 36947061.579391055 8075706.248995442 25726857.885687176 10242362.542650681 21359153.21952912 25104186.432812862 17546491.91707252 35679251.7966007 29785475.59144974 21345001.24134078 28977115.915640403 3690012.2954824497 3814649.913959946 24134522.643038 27644751.643870078 12681123.435151737 38761963.52951307 32083039.929579895 58112873.68637429 19952693.648632515 23523173.30194003 22494018.582151998 42063072.300747335 33776779.908944555 12839563.36927885 22649308.189692862 20344831.268789373 3659224.0934450864 31942249.23462895 33790775.16381618 39475823.0172814 11248199.023657888 31919553.62074355 8076750.652835103 37526667.32075442 27891311.947979413 28958319.41576019 9798549.268460961 24269379.838870306 23423477.309783183 32075342.968683667 28975476.437637646 9320913.331485638 24483341.216255497 21894814.39358992 41986180.91985038 27189956.843020555 36645122.56793081 3798293.8097841777 28891869.571399767 27629086.497630477 14894116.801148837 23271682.663815144 39498579.09111354 23154804.66244068 12558345.52621041 3559220.526776726 32149048.26003048 12992555.294223605 78441504.6268218 6940598.668974154 15783666.208116563 11970317.443569176 39482056.944949195 32348582.078552052 28872517.857048426 7499937.555814293 32131341.459177334 36732106.77572311 9335808.804787757 29345562.437643163 14871963.065419056 13982841.84655097 28914959.728191596 31985110.52479271 41546401.618625335 33869478.68669939 3895943.721749422 30224012.272895776 39841783.404143795 31931240.53799767 23987802.412391704 75707425.56219801 43365753.2160244 37113650.064089835 19684442.570379347 39437826.0891973 43313517.81192776 32429350.529510405 41499158.34346899 37225647.46719364 13227808.502840761 32005945.39514164 16739519.98746897 33510461.19720075 28740693.401599515 14829772.866713325 26010190.401671845 33187178.804632265 3763010.4710287405 32940935.40045228 10883622.072991727 10978003.70180327 33298735.147170257 10404162.858050881 19773295.48447597 31803157.784745578 303806.26821896783 31681474.547521435 33009368.715023823 32352472.237284828 39771080.66903083 36067610.20617979 14245732.202806702 21309734.35411475 22579681.71722472 36666169.39089725 171613428.76534718 320570.5945266984 36882674.969856456 38529529.16866756 26067096.942793243 34557425.46400119 2699737.510008611 29880317.64753556 24374113.52111257 12342945.34012136 20595690.63211796 32891999.307135403 30409262.1158438 24982243.12342936 12293411.554744951 6138682.912033003 24957688.626018543 30601055.056053862 9163214.698573947 23485432.683747567 32230474.684010886 11929076.886737406 37429567.341969214 37927882.77576421 37992461.17312037 48532723.620748386 32550842.232928723 39902257.3747208 33079428.54745356 13558333.999216344 24466864.334670775 32262901.95801108 32120286.45259309 34041151.27360203 12187602.231515145 30342889.77295456 30522712.681193143 28850499.3042738 24507734.20962734 39252679.419596165 11273056.469459167 29600937.41260412 74501582.5935374 36041086.61228134 32564412.48617459 78961473.72832818 40013324.082855195 24378824.77701961 35778259.43031581 32758053.716156505 42758548.68546491 33587571.604308255 33084107.71175768 15599555.947320918 22223710.338801194 15583225.500925079 31152527.378723484 33501554.581765525 45136025.242645554 32758503.476120602 32580241.601380024 23928554.421846017 32149250.80933324 61181749.637038074 40510312.32645089 32181049.552485917 31427297.11696718 8252041.490260713 10572530.307765283 41989061.60398827 29025429.648000482 29545041.67599078 15775784.908998532 11475436.88100965 28098654.566708874 52044866.619356446 32584360.07880983 32373317.096888613 29319197.662071496 52066163.38843059 32421705.6646332 32637521.543021146 32779077.95771303 29971467.49271138 15778256.812089741 46795590.00457498 48309059.37798284 37891013.67814068 27945671.896140523 24173941.4815638 12244723.990865689 28585061.028918773 40463653.050840065 8384493.035091308 46764470.67700721 32159913.78781588 31049867.344344728 23578187.859448273 33742254.57067667 33923521.3457209 35961151.07631396 10699766.757845767 31940199.984589193 3954277.838118626 37882629.649758875 42678041.95673022 32680271.042260394 31116913.968695235 26231449.553264193 38768978.02498194 17950907.335282627 31592898.85076678 30083027.00956155 43071976.534642495 28796299.602620378 16544820.079835042 33722212.17723148 31179191.438376166 56398506.57001481 24018181.374891892 15665886.635221882 24267922.306790326 13707241.783483772 30767838.237616796 37182835.09676247 34772936.702888235 16499046.192216637 33973853.31897137 17966508.282421134 21242409.060536705 29410364.695401676 33805722.71001531 39457714.94173688 38628292.01902774 31370567.421537776 29999628.734607503 30330422.088978667 10311772.109273458 33284188.95800021 11788089.941388585 31893256.134239636 47577347.55856216 37029314.3261717 33877334.914776735 32324314.02446166 27036503.777375538 12107023.42118483 21607176.845574204 34288901.65599168 24900929.314604122 32044259.18043263 31722880.995528374 14746865.39251586 24882960.467266545 3333768.371082772 4020403.2080509737 31693176.277687494 36594360.54423408 32824612.277643166 42412890.36033314 30720721.109697063 31990040.717799794 25857010.599761866 33156162.738179434 32703898.87482949 19419665.962595053 20240430.42383598 30327403.51843212 33787577.117806636 32015739.8352002 23342479.63993566 124417457.07589173 32187649.6863262 27016526.296666075 32825173.006009765 18881221.559076756 32650828.69813593 29666249.826811228 11806516.045181746 2650871.7146599484 7983378.468005174 39229672.25660663 12433070.664927062 9006870.178875433 29745979.528874137 23665605.019076552 14690357.100707075 10004611.131107658 33028026.48491901 26647615.595037706 10154343.604514645 31119408.46446193 26506773.427701745 35365338.20773535 32436892.906248376 42730427.47691509 5706349.664454894 20020657.70814508 14629809.728084851 22527665.472530402 8026928.087830804 29947627.31304415 32448867.142960537 29921602.931118224 24006084.091719817 23812951.556084923 32073609.898284744 15522846.970539076 41520450.19496861 30088001.643000897 15486838.222090773 29839893.523083217 15471907.227066305 31032367.68146229 29644916.968992576 49678662.52900497 21624649.404187255 30628744.26613954 31873993.72424301 31028539.193796948 25041056.376422435 30661090.840315312 15845822.968264086 31871343.331490852 12379884.526541002 33984397.120219156 42544985.46001428 31391246.88838 55730960.09756842 20622297.536836334 28700989.24810316 12162782.461695373 33934014.14990088 32502754.830179058 12074431.340083951 32470141.465621322 33131499.47182486 34498636.31615825 29678444.497674208 83096489.3658121 32877706.05838596 42459903.92714078 13198352.210783772 26535179.72508918 14125621.164715452 39622419.3272064 27850983.5873535 32236215.162098188 33759126.781172246 39551592.760627806 50391675.06152989 25649243.994263507 22022855.72558373 16070738.289108302 31500902.892013866 32737442.844357993 12694938.651662476 32115117.34765047 32653506.008338585 7198812.111042019 10001637.26290691 36175733.31016815 10010508.878853898 33755982.85949604 27248444.62721802 32590739.689610206 25744180.087951247 30696541.43096886 11566191.49617939 1408202.5070373046 22050412.52064415 32963797.20038735 34501378.58315089 31029201.451137215 41585613.49569406 12485793.259242494 30164107.665673107 31058585.22913768 13385811.993759837 39725217.52676006 20373205.17929737 41534816.086907305 24026116.43048515 27451000.65841919 6966691.599100417 32709434.611291397 14148141.35056108 30592332.077931933 36013172.714478746 32265151.132501297 14200566.717693249 40989394.91494575 16645511.634852165 19435916.191419456 25419594.877444692 32055446.767494045 6974873.315794231 42843752.11563256 33712456.93939539 11558604.540926086 23818464.20940094 38982773.84303517 30041188.876010206 19528124.32814082 41320004.58507763 13199310.053855337 8940719.821716245 32841725.687323127 39610754.679495394 11622987.87102752 25117600.752650693 18544836.87815455 32908887.114642907 21601339.546404283 8405834.514846649 3901272.7004349856 30581634.14267048 18534203.29418574 519422.9823955792 35024151.61179588 32130997.9561352 31501455.651662942 32455578.735405315 6122571.404980751 31452487.596622482 26101336.53979884 18919121.260212995 31855505.614268154 8421289.123154778 12840348.851264257 5129583.629807263 16582297.77599583 32007102.07352313 13436872.9674093 9941315.175908025 36773225.131487645 21887689.824337516 5625518.620356549 32013300.723553922 2799713.3751976844 35973194.89280892 29792269.780875176 30647328.657022573 22901127.75396879 17830510.820867207 33872894.67173399 19076023.73064966 24267782.52087492 35255183.601825245 8627571.262718748 31620570.75687793 8627747.84078753 14930916.332487136 33864422.1753744 30144760.83222345 17000375.86923863 19005341.38457785 27042669.443356927 35354138.98610201 2625221.0976386224 30659356.7603315 13123345.829807246 61321500.70014392 18988325.64770526 32192201.23418778 36482732.2836864 61662939.16847515 9456037.510465603 34452037.10660734 17561575.9087887 40259387.732100494 17549673.956817497 39888818.29343272 12406464.692482553 29759737.669445623 10372882.821297841 31525743.434646115 79860946.09369567 33138120.21124971 32145774.631418053 29881428.10382572 28042132.075505845 54022155.436078 23479273.45225593 18638943.87461699 58757034.68675367 15955711.194789164 19590150.76587811 37979648.73987064 1807457.651481542 17891142.35290769 31085255.855618503 35144770.4504591 25556163.759657193 5821070.718331822 30377921.618749227 33409256.570493583 26147298.155545358 30570526.309720527 35233869.197260015 20861457.948986012 24757040.127329476 31317529.088625096 17942105.318038315 12249646.517178128 12236632.874296466 27096982.67243466 23813957.882715054 24111863.866278574 34013397.62203879 3940002.092990314 33791432.783699706 29629681.378757544 31155679.812752552 27029658.06294016 34077366.06839987 24884549.746511735 27211884.220271144 27854907.571188826 28733485.39153427 17046948.29194254 1803349.514534363 34997430.32170226 38354732.88645565 45145964.0198213 11409219.767550746 21615695.189774744 21911898.64906768 17515234.172707032 34694839.793677874 42484891.970867805 38280782.02907032 46213902.61590087 32455737.29244031 27337624.301872034 22562889.56944789 36538340.4604789 32066367.652206037 16007061.55436078 51755298.35683147 32147406.17840578 30619316.456499573 43385443.06371537 36484910.27587582 15690837.172562199 32125797.812498786 24011305.026610337 23356712.745630354 2476146.9172922582 70080038.39335752 19716645.728683203 14887527.570523357 32445165.13974132 30321025.392773252 34510906.94144369 35415021.13586034 21934399.83429337 9809790.346165245 28717384.514846012 22340617.1355336 7424347.651477217 33992081.23762555 27396575.332980793 20267930.58190089 47811255.81040704 29224412.462116532 33373196.20285987 27351354.304966446 30387678.707592838 41346226.38392778 19096309.721880633 22906591.696403533 27660794.567762766 20326233.71676778 35315665.36126881 36364688.24055477 31603255.99935188 23805854.19261951 30800312.695593297 29866311.118909996 4014848.887806222 20099572.899825 19305759.295022935 25780645.126280952 29626902.608398806 40269532.9186636 25338917.53605934 33326084.369565956 33596082.824171774 7480422.003209886 28637783.98470531 21374185.7306195 8276146.025820802 22988958.62254234 37387220.42748499 18072228.098895136 29468320.54277516 18051108.71954036 25673993.433814615 25567532.18891543 14739721.656161716 15982586.28138765 28567253.448653076 48596085.818673536 13860807.262643175 13888151.496618707 27086764.785645235 19524934.421029713 28239257.105198234 23870801.87831882 29838492.134210702 17678169.806738514 12520528.911788616 32565797.96833122 32936454.41742364 28916657.362119343 5519535.69866941 43264487.78184746 31294955.199902833 31162744.157816403 33025492.9154211 9868528.739267694 25551652.119605932 5368885.964202798 35701960.5708079 1631139.3269201622 29688474.08707591 39475639.15720439 16824390.295168467 2662844.8823196287 19811493.619857274 31409610.02756669 30014844.699095152 40121557.153105736 2578014.046432766 32124007.633272517 22838825.117574684 22742835.726450924 31428433.93309423 4617219.696501338 1504516.3312749816 15926086.342941247 24380866.633590005 40891205.82893501 31812196.540616445 16532988.250486998 16382662.509522581 30340464.537571628 29643955.208128553 5104314.115850161 31394841.519218888 31074207.76148719 5723401.799211391 33038248.47988124 2368921.078538023 40764109.13512819 33289668.704650924 35049524.26155884 35957797.084643 32737449.02335734 31683644.069575492 29803709.769133046 14932361.435952134 2496126.910580474 29837930.880105156 4634701.934534218 32153392.6799686 31416275.06608658 84402717.22237521 108036318.43209437 32238835.82890218 54609014.30966931 21931383.824531607 10121748.89519725 19142352.714322258 42402669.22493599 32080782.895720996 32185357.07282979 30824782.23806467 35701324.51932234 20954210.974644892 36487512.39405715 48716841.46794808 32677111.67075212 35138143.505787276 42355647.77365412 24425323.963405944 25502271.34218806 5978009.724813359 5440157.561075168 15220129.596818978 8835775.881270256 34997443.04019465 13358704.043009449 13411195.297238927 20529684.247034084 469521.2505019689 36198812.40612854 22718189.193464976 27259598.756107148 32751522.945683178 20622237.18529522 32379103.792414166 31579638.04047024 19853479.974996913 736821.7861660038 5431321.079384466 29737866.84361923 9973811.583000185 29641876.95110991 34690486.37473233 8952144.290389948 14443965.024701089 21899583.95333778 30359172.044500384 32024191.725212615 33056884.35116194 19635648.38860258 18436278.704153534 16737569.267227363 30867707.0700433 20026266.624004263 21910838.084886085 22743818.567489993 35736481.966871455 32939814.64374332 4405738.074925832 13114196.899679137 32568330.40750114 19295564.590655327 19332293.144351155 32873248.470469464 19637488.296866193 16850670.35493246 34151218.69866077 6874939.287689941 35140191.317432456 9620789.090484325 25068704.412071317 36159491.83719362 21921977.82797495 21856706.438830603 13767864.023959335 33410957.52743219 27454339.726197857 30051013.518910907 13887956.763616486 35495883.14466314 3515967.79275631 26348483.31730629 28971947.434302226 35204622.428334795 37331121.748420514 26461063.936752222 32001899.538833227 30138322.16468024 35889124.73809427 37227836.94850074 28815210.21829348 29496189.647631392 4076206.075156255 34809176.37763279 31915724.164428186 8794296.108401367 1341389.7343637857 8638524.349539617 27875209.850842748 18477013.92646458 31979478.603063967 14395450.77823983 6832679.385189723 65032704.89078346 8387970.5193795385 31477998.85057984 35780387.59484762 28677703.808428705 8395319.258548219 28985919.962751586 29338139.263792243 8100888.712385353 29437521.68849333 18084168.4223971 25072100.760007318 36242341.54481427 32863920.963527642 79417437.60533902 14133537.015485879 33284242.912162904 25062217.934806317 26737007.279631782 26722115.683571413 31097482.285695877 31923807.80536773 28161473.393987346 27370138.852976803 19210418.22087861 33052196.42916441 12413487.925765395 28255027.049562752 15117955.977113437 36149967.69355393 20073043.165447243 13875886.34641008 23918628.709488947 28286905.163382374 3941861.3878624937 32238847.15378116 21206940.491031725 13451305.302144356 357986.68031671015 31469620.944377046 37539870.38410785 25421291.83652621 24096425.418799944 6982363.2703302745 3294473.4493930624 51009534.63210284 27550332.10344212 24264891.818672873 6938382.414029193 26987796.812743008 35404126.92657339 23019934.609824024 24151955.480932195 69852934.19228762 32020941.52423666 22848439.135114748 31637399.54381942 29641642.557095896 41778508.465397 17544685.351347707 17702350.996441998 30510154.347716402 61817302.1482933 18212701.532551695 11148433.419439338 16173918.983881999 24127728.10729676 33192363.18739178 6764213.1241089655 19610471.523646098 36174712.64273511 27423721.105965257 33372909.278699372 6830983.330139217 29727797.99753997 26195486.648306496 6974900.507125386 16238446.047104849 32265850.59740026 4779258.567956563 28157915.923917968 34970099.67266987 3418958.929823219 22265727.406532694 8208065.278103483 32621899.185543295 16509205.352411963 34893390.69595481 14275206.503237346 43602044.72760554 30458266.47187693 25012567.101824358 4352706.823501534 17195726.24169428 3468144.2516622073 37934956.887164064 41582719.236835875 17546916.956462782 32411078.058721025 18428365.04650672 16343141.811243901 29616893.271226875 34732097.19028882 32779386.363119155 22848058.428745978 35507966.96578523 20016968.188069973 1603135.849186492 35077549.01375723 75799589.2459598 4790011.251097875 32131755.358955007 29522523.092117745 33818408.90492925 18315591.91982326 30695346.4063614 6748350.467642699 27439195.401269846 15678781.999563688 26597808.21027711 25466891.862925645 25076358.910423398 15044462.996488068 2291553.8715611366 16883647.38194273 16063792.678478375 32083093.323449872 35394376.48027056 26104372.136767697 11991837.946807498 32304909.416807402 30385915.88245311 44577982.79855035 12196093.880157407 50794160.87809269 5323353.556481272 52467325.824908435 30466241.445593525 23241573.90779581 32215895.19234688 26434150.15576419 34185902.05629912 35715760.503784046 37510511.53078248 5890072.37153488 16157405.227359276 13727084.252919752 29936798.586714063 18426184.70266761 30487308.716553826 67558820.44126435 5427110.021540418 9528031.200070705 32090405.88269398 7460323.808944498 32842686.12337405 32018689.853546683 32056493.502862003 6458423.707363208 62345040.843436584 61636191.455073945 30565099.336391192 35675050.925741754 4895510.229000808 1634265.2552797585 22522849.338975333 12434684.978358572 12813676.782167401 34905902.959358476 24441769.849922232 30850265.528103974 8942125.647674898 38826324.950736895 26025898.58740815 22415808.853738815 560861.4177436457 36282512.20023887 15878380.926576931 9863633.277153078 26021029.071905106 11748939.042930381 8661790.521356195 11935364.511119535 24839365.686152734 9823042.055557005 25336232.485823683 26865609.539445028 45852353.16523329 28192433.573707387 13672331.716293814 22059173.2143413 13439726.046889199 38725339.63622304 16295305.279110564 27909498.55093192 31462319.99449221 35319697.59341772 9461140.962726686 249826.32527887114 44177650.80886819 21236178.937507417 8627996.470051514 25691133.428442564 32484421.464517 27520478.736619305 35428097.593936786 23515229.268300917 19474507.01836979 27444377.160066128 36669928.69038875 37238258.14924616 35313361.24538277 21244355.598357413 34169431.696880996 26396976.037263926 16555050.811725833 25371073.97391625 28842058.627163153 36517071.00912841 29301272.760723744 23284401.082306903 28449150.272862174 12134283.279598704 32583311.92508723 23234987.769384462 16408969.525448915 33810422.65136825 28880827.787507016 17175672.0278602 23975493.06992983 31142165.15956664 88331000.21248506 24230157.86317739 27968138.14111695 21209314.40543333 40355971.8178258 32145158.20764403 35755550.09741572 4160615.8495030166 5185819.670198434 35699894.883471645 8701329.858165076 34868741.36971819 23329907.257231552 1148655.294343558 40475623.760111414 23298135.39638468 27293026.268359825 18540328.471454687 6204362.594321714 33820108.69205897 31750571.229984757 29386234.72776038 31892939.82161607 2627508.8015564866 27223780.160072125 31261156.907076295 24305853.718066394 8719856.992194997 38739974.93178795 2547957.520254982 32624463.932112765 32094327.774550803 31645690.329346534 31316249.775234234 13477857.423533188 32359981.96470969 31561715.167425916 36755259.52277275 69138145.94520706 32304528.03822893 9278414.626319813 31656438.050390553 32544380.80156861 25501137.908037003 24399428.22935295 35773573.729442134 24010911.082003616 47929652.68142069 27225022.305112917 9492750.824295493 32972558.37668833 25309946.654175665 43497050.88403146 33442184.43606389 26878109.476252783 29583774.103731785 36572766.730751626 23021999.51592579 19531708.678116284 34857901.56659633 1841512.379777715 41250822.32573821 34801498.5097287 30586915.54052786 8810923.50252845 32193134.21285952 34980517.56848184 32270463.05626095 4529412.698162122 31767382.994709212 19220232.766002607 30212725.648761317 28229355.629064713 22448723.700127814 57788164.76484058 31143411.877243046 34743910.317056425 24251767.96608825 30814329.25806947 26064651.414632306 34854909.74609656 10564140.233607206 31417769.567226313 33007500.389635775 26950516.2671748 21688417.06966656 22562795.089630574 18540868.00809557 20314134.11335503 6395747.467421713 20367235.28569853 21256258.07490029 4803642.606828323 47055944.64921585 32878653.013652757 23268974.436235327 7323780.343643456 19156297.13009563 1761740.4054707529 28265639.243803024 16551258.260984968 25351885.717772745 35596413.56734562 5888076.722279395 5618283.854799788 27600379.7962492 34712995.44615985 16390773.597258618 2954459.3745256225 11088715.727316223 16663322.752108043 21757349.1537295 37068297.84812497 25943953.45827412 9988620.039309416 10143880.996809185 2717568.2694243044 32364368.46015971 107546189.11996399 27275318.894153327 32367832.647356052 40083549.93547536 32289137.381336283 31953975.53839227 31956653.58406956 32212086.77134594 19935110.17911842 8862008.999092417 32471154.228951514 40151927.799844936 12777304.362700114 32250424.46277479 11153072.08399814 21255513.74323104 5194365.946053086 18070488.50966094 22433073.750502676 32051125.982173555 31543789.191176377 38055496.68839286 35507838.74763567 28184593.572009504 12121299.924012959 24351014.94485063 31920219.38356779 1614407.9629635573 28745457.14371538 14458899.519502668 16637768.536372906 8726915.977164803 27057053.433805287 60137468.01460195 30511454.892202355 8617899.243469441 8629647.493953597 21269586.507564887 22002192.792622786 27658358.171360318 32171361.886850495 98478660.19262119 35555230.63554578 32541449.78242004 35122699.114596955 60353603.711592734 11464991.486476084 32162203.65056483 18873683.31627148 17028969.223671593 21621843.119621005 8946120.607016353 32061076.348891545 21239218.054903142 31989477.19267214 24606387.061068412 36407008.71982717 29063004.05653669 25496944.31023931 59552294.945197314 28991185.985458232 32423258.58400222 13731200.162919821 22929364.736929122 28531686.706343427 81431767.7951153 22889892.550712824 33077719.514000416 32088876.795206465 36383859.50367458 52705222.2950569 35187496.97787652 16817714.803630386 31379438.88278659 32145852.161254324 30398036.139786933 40993180.55161554 14981973.59092865 32865827.623437997 6426884.448671516 30255508.40896524 38599821.234673046 95160041.2243406 31788539.182709664 13451352.226873098 25742668.320311867 4402997.58121016 27711620.828137584 29890413.40425022 35680807.37097958 34533229.981465966 34020475.89006901 33179428.09308486 12170834.160346262 33232259.772052348 30949441.34532142 30107461.72757683 38475107.21250274 30200067.486271996 68530453.53425066 33951844.23286021 21601427.885787938 30280101.582360014 32454196.28848123 49421389.50827574 6904468.904723345 71258850.66266322 22070138.667345278 27993451.655865204 32920801.387423247 35459088.10410191 33182488.808232 4154573.050962663 31015689.957990505 31918680.928593345 18353134.686077874 31252496.064073365 22464173.07218195 34763415.02031154 22377169.406142488 12626124.46813043 12609366.375704335 45670704.64508117 30618498.028813533 30550358.232274946 28915116.23369672 3769309.004077754 14142268.206191177 29852934.125713434 29591700.622220006 4761402.920637795 1301442.0800571518 28640835.249440342 28652865.08549622 13799989.007406209 28340033.712835263 19308995.48768501 28987503.308911063 25234475.323091768 2161559.7598992316 33323699.090178084 34277836.00415442 29556336.176168848 24970420.765042376 23776889.986889813 8118393.889168999 5806711.2283053575 29806486.412612412 32485251.982936334 38975821.57009581 19261228.903455593 37990992.655605786 31796872.705127865 30179410.72427421 32313978.870115124 31185120.265715692 7615482.451341386 32729057.116524514 32627528.20491513 26083244.968239997 31991221.576365963 31024165.88870056 16726524.10323503 38146704.90662353 32471486.09915758 15311079.134013226 32452250.52964138 30108168.96702152 9972428.134725329 39124489.20809598 38225049.01258666 11265213.95133671 32250566.20516048 18212400.202964325 31088570.561393112 24411679.22821908 34511900.95087384 31411213.159294486 26846078.755973857 29172129.83635289 15319878.053772384 3269705.0266172616 15558908.068875149 17212381.644525003 31919453.306665126 20963517.62187481 13223416.600353718 10276215.77904532 12327206.316593118 15537515.785919685 30420535.416041307 31747511.512298435 14782906.962728254 23312602.542368095 15639196.311876915 32184056.507356774 15509268.400264204 24112997.453148436 25513354.797065027 15037176.927573439 24566214.263276845 31843848.977491766 32270319.531252354 31625654.89411812 37660893.286800906 7596604.472869549 30615523.783141162 21113624.520684112 25683401.852107618 30757704.76735622 31986877.14541087 911314.4925361369 10542105.914828947 32100535.289499026 24380668.60571167 2105929.260327602 39144790.91762033 28011028.781063464 23726270.794916548 44818873.91822678 11456441.12003296 878481.5282057748 30264437.79669754 29953016.14064073 23289398.15819761 2121434.0001592464 31349602.23851172 15418156.915997216 12741430.464309864 39439891.220095724 33532994.368269715 33988486.42799089 22982116.344980795 63188059.34857747 63080840.88055843 18595790.461500134 20093200.554997414 25042310.099587906 23051945.52019937 27971577.3079685 7385134.259249885 15343999.470561044 7252673.43107815 33151235.11257823 31247040.267453533 22399538.343905047 45639356.00475882 8473384.155613676 33017668.805746377 31080448.313470904 31908723.152834475 26983516.840850774 2707277.7513922825 27318485.93941164 31914193.576391082 33458730.19234068 45580769.23717205 33104493.583553858 25511518.135701407 15466853.468982596 30010997.253776543 23261382.62760635 5382115.608052714 41966181.94010198 18709060.816620212 23297445.489077248 7196332.211651597 24608120.547070324 43067801.97496359 16277043.036186589 29595761.082231194 20917060.866088215 52210249.350686654 22524139.90236492 31804491.52914893 29649821.682807155 27132852.86649933 11551446.244857298 29871825.13209772 31845492.738883268 31487495.26538313 29840295.78374476 75376668.75561126 38329086.23833389 13595344.402230687 25934292.47158125 27147087.079051767 76539446.54019047 24412985.45839709 31847660.3851051 21481833.71832727 8842605.747902717 28036008.57448491 2133898.342698054 20768877.83377028 24801605.715460688 30199685.66420615 6331132.262569357 13414091.262765612 16149697.89852212 14850606.46704638 18314091.568134945 31665178.18066546 81848011.20394717 13549522.052434215 28761093.994898684 31081356.548478704 34783913.22529447 5318838.702485976 27395719.939443666 32483370.912428513 30388869.43923732 34429430.86763346 1287046.7878157415 22992877.22689191 20753992.90292337 26797221.599574782 66657355.92570085 15075663.312104205 29111237.516182587 31985460.50364209 32044645.855332453 32048832.00236054 30560621.36200995 30274277.892931957 31770729.92434354 12946766.876975972 11050220.103743609 18837512.318537395 32515064.74291045 27301841.92953459 25534906.6885415 22852044.209478676 32478079.57151772 34795674.75894551 13988999.28186486 11019652.27191273 35762618.75691873 7421862.528704428 20248849.977727342 26723438.756867375 16160404.756790569 16947543.323031172 36054793.58342959 16138054.576748293 520947.0441857686 36661971.4947684 80861062.68657541 29626559.762719553 32655560.631135263 38241932.702074885 4801099.227622305 36069974.31525363 30968296.68110134 17362938.10048914 19057253.15543923 26019532.670423955 6316855.44699495 7170294.452362162 29678701.337710623 32864332.20508261 78412449.56729586 32045195.223274533 26332245.447945062 40175351.13127685 32582605.013362616 22479886.940406553 4265473.018075047 2849484.6960211084 31866947.985836565 24615421.486219563 22721931.655728288 32057639.70002894 17311977.26131381 13574867.264841387 3659618.659095348 35701748.09108401 36292695.8838582 27487317.582315862 26336127.52913455 5611581.117109261 5631387.335619509 5414930.940689948 26320935.46594076 5059228.1550400555 31514189.520872008 33690819.3644413 2129084.856744951 39115902.918221146 38845752.20264047 24414518.877977174 73137939.67129913 23978363.249961387 37568502.246435 31726776.070236 1938087.682648414 46559851.4430498 31897078.420647804 25577057.66862598 17908454.612280082 15567564.520538189 7415906.237407414 10711055.2405878 17685557.087911036 37526238.95285017 35971577.0762714 30014168.332580358 21242642.695340235 25277019.10636835 39015978.392895944 1875092.4142412455 11279799.314989096 9507737.767123364 23149146.640338864 22177969.329356574 21050041.458917867 32325986.971911903 32198066.809998702 8908278.169879247 12400562.128914358 18339010.48510684 36757021.78764096 36582019.02361074 42162359.30889781 12589468.560962683 31806877.43270153 12562910.996183831 30080286.63976238 30369532.630889446 31425582.138073318 33306397.497985017 35337879.03610625 25882812.868264586 31775740.047946993 14572824.860374976 29380449.157581907 31457370.34099516 30427040.749334875 26711905.475416396 21063696.755008437 41864954.85388248 17634690.04518117 8589247.682196328 30958312.47336713 35373301.51067655 25707613.303962134 54195131.38109584 31492050.04674479 39073282.42843192 42630207.38282621 31808685.286661405 32934132.02117972 28438976.287429452 27397748.769441687 13158648.336922966 39037050.11916821 37216773.21097579 11239935.773399342 17409020.865582883 30534339.395469807 4334815.565709987 32240058.854283094 14901955.938021922 42546846.15825218 32422018.296405338 32458466.38019091 31378596.520080116 21581996.45038312 32113295.67496618 34188564.35740154 37036853.113233045 33421086.31323497 27464703.54267195 11356062.992515983 28123315.789414827 31654857.218359724 25476897.730517752 77896999.27706076 14146189.93084323 35080577.657482445 58845003.605566494 30662197.111808795 35653575.96761299 26339452.345049746 31245174.579801336 23297860.373683766 1064242.2400564002 14989361.677934473 5653099.537402393 15134364.280807381 45707564.59624969 29560478.2801151 12913692.845115144 23664427.58518188 31422774.888766874 21568532.387897667 15263355.11768762 30948110.704389427 25162469.30191372 22508273.123044994 28992465.482964355 28394538.981758915 25203695.5373493 1055955.0888624121 2871101.3756315927 2693575.4744908125 5380768.860253146 12313975.136943989 32777861.684855893 23280489.59346448 10334169.172154268 35926275.621228665 9623701.286608635 2264392.1315708584 1034196.5702957545 30073770.4826174 15248780.880930997 31195876.71385714 16941700.85005329 31476051.211391497 16803676.904015467 31823970.888566013 28671955.75752174 23628557.470757958 22203858.6995492 73899244.64332902 31877291.337490685 32450724.712844826 22345782.989673108 12214451.664117675 31349148.024490964 8654548.842815608 29554826.866925623 33468912.66410788 26819123.977017123 58149739.44947997 31496504.446883276 55343367.44994216 17757589.81129416 31094278.88073929 29606833.817724176 26555240.559764978 14331868.213127468 45784726.95110834 23894304.771056104 88878362.4547095 7951262.309485435 32058379.408900585 42147721.96883603 27321850.517627068 45660706.451152936 31843195.4407536 24385185.119153395 13640011.383622155 15696749.13501955 23622004.76893444 30478332.86443098 25249113.77998889 25225317.194172733 4579511.22240557 33007458.408154152 27933157.806983285 31829729.431682665 24696992.966938633 31939450.93465708 32428640.06657884 2598824.203453587 32150809.83570147 24943847.88910724 19226242.505916968 22182115.1077216 6950432.265501893 23690755.673355013 41278994.34830613 32132219.066409327 39844689.993889034 33797932.13720081 17539240.9859317 27542392.799177933 28202076.065400135 33657110.89068947 40375314.92466948 52664652.09761892 13673048.364748001 30594023.05374859 10535940.745777443 27721787.89197301 34508070.318982825 35094925.9927358 5257258.153419457 48867300.25578371 22998360.012697067 33443869.11729444 24911832.38054319 1922430.402919122 1997531.8065454948 21823041.06544895 24882429.06767511 34531235.3902857 10091275.126607155 29483128.619149573 34563703.49039962 27157403.349226065 30926939.93605701 28592570.951959677 12655821.542453032 29687216.62722637 17773330.00811918 31945185.500499435 26949781.50024934 33660312.46854525 23631128.28901294 32593695.65088884 26737178.226501573 27823006.013992026 32969589.790065944 21304617.293652 302460.2638574274 20809862.69487279 131815.87533791413 29954383.87124726 48511855.85312138 22860150.148979448 11620790.655624345 109638.60436252896 330440.831071003 402700.5745795548 289362.7349824965 60966366.52226525 32591312.894902837 30895070.15771184 49449995.966637395 29877356.743096735 29306546.05848898 34110224.39680744 32273138.68232728 32977539.774727967 30533261.482912444 23258600.448981225 23249239.75069366 32574815.028013103 26276008.853743907 32237103.6126586 31441851.248351227 29754569.672312904 33545882.82247154 32447281.8642957 23569349.798185848 1937060.3178960516 3178611.4235639577 13932888.70870743 24758967.55054925 333310.0407561507 2125733.9914688147 30221368.28390991 29993298.8308938 11790644.458427351 14613572.870520895 25655092.591609262 12403176.409404187 35787619.54815321 14521865.695792196 23894825.203893833 367830.72273068887 13754812.678559242 22691554.99628485 34031122.93999377 28326394.856193457 27934324.680760954 29728967.1416302 18691965.599953067 32766682.30616629 21023099.085478697 28822666.269815058 27005843.849812698 7261048.201332036 33483494.731152024 32854753.50586384 31121696.29518314 30382534.35525608 12640857.492376478 30467005.946656168 2758169.369434175 19921059.945758343 36507304.54317984 27181131.368479162 22157883.380909316 27616256.79625055 23248349.58744482 32595971.985238776 25802105.555114128 32493854.949187614 23616598.41934337 29269852.76702459 32060512.550051805 12854030.062941788 28443533.808899064 21645742.518069223 26459339.797248203 32002144.625998233 31875870.956205264 31764846.879615225 28491724.582359537 13256071.716934977 26772408.079701077 29941479.803585812 23008770.313844554 29832995.89934895 60079735.37614607 12985695.005652016 40230045.52052281 27473990.6233444 31048061.19888215 15732518.020624625 15693621.889042562 17486729.29247746 35555697.0902422 27830659.561241552 36368112.65816316 29249771.406734187 27749995.089913182 30329456.24457318 36368550.12164196 31117815.773861926 36463645.9606362 32038053.228079967 33733161.75770945 40749227.176660575 9535742.284720939 16150888.543344136 16239511.08623245 34290820.132451184 12524428.101240413 33570019.97297297 32086510.26229662 22518230.388902936 25588213.0578945 27219079.596022032 31346974.831273444 23961609.680268418 26121752.5772316 29986986.111412216 36055901.91653039 30833485.177369066 46518637.41924272 26939466.76147513 6473840.680602528 6539307.806881724 33901961.93312217 33555330.07120501 33060117.120862298 36335683.93056886 28760995.165059082 32379230.108520675 1732187.7336305103 34389342.058623396 73668391.21308297 6449129.283376456 31858189.59212995 39002295.032107875 18119341.51838358 39139994.762206465 33507251.63089489 43959155.70674493 1138489.8959631831 30930310.19073322 1123227.7126121847 31483008.16259678 32532291.479324874 7717649.7416992225 24994537.17643415 32947558.192887805 25455234.493592795 16903411.762750447 37014968.06983414 29292079.18885794 37535515.28882576 42339459.24185542 29719078.21853623 21586993.59480656 38528408.96420419 37951698.892377906 18091270.35889476 32303230.779728413 11350868.41388922 31535813.461565223 43905557.02610058 30795910.71361678 34167459.78894089 17220111.793771777 36735998.273988694 9123235.469696537 33220087.002048627 17270586.710900895 27097377.56455494 30500285.55731862 33377344.651899554 23193799.72684126 29555991.090948336 32530344.436783932 32265324.583268195 17880548.941742457 10776640.744869009 2605880.236262684 31705247.07251932 24486057.565070335 25852938.29997614 10084336.189854287 31748026.972666766 17456098.415182404 25895495.233426437 28475764.57101487 25877224.543251865 29804629.70807267 15426352.735760566 12789680.936005149 30253265.144578867 19748263.814047933 9818389.833534852 24545219.279884685 36705478.131894514 28176835.34237003 15427550.862574382 30230301.500474636 30264850.479634184 30913557.232171133 29783552.845013916 5587624.799610066 29935783.722484395 5352265.76211745 8505212.191684425 24977565.99271111 10003296.534162987 37583397.72653769 25364617.74964083 34114014.9537961 15420154.67857009 26370837.260667253 40747685.05282084 26999588.70815062 40807786.728007145 29660397.97515187 27439500.724363763 27000804.465091888 21213145.972275797 27560086.692544527 52001879.729802035 51874927.46484979 24975930.17835278 23385904.19447876 58283450.69281247 29315542.918105893 2944935.9384788605 25835599.46158696 58279959.432296805 32690900.335473403 35541917.8725205 32930826.229856618 25758115.408867314 25115031.22292125 7733548.764530328 28238439.29503242 32139617.765143298 45346508.10189781 67934753.34288743 9096173.33185029 45366900.420070834 30777154.528000053 24246823.959048707 28486936.431175932 32069225.77984241 32527693.627142563 64292821.159324154 32714054.13571113 27808075.145803776 18183661.029906113 26076908.292646617 37758522.1471887 20077870.938863315 27578492.31232352 29594016.221337922 10402942.134294542 25285760.4172126 6245038.740649813 3455739.9005900193 22913766.503048122 11715927.933440268 15540576.04424478 5573787.475780096 7617637.051322573 33538093.442906912 20493174.969962437 34650960.835022435 46896283.132511705 2177887.0615679296 44396827.456808046 21469155.986096594 31054309.835581973 45231294.47269567 17917558.009940594 41115067.245577306 43929862.59076959 28897342.563428428 7589807.374212943 25665293.73908132 16805189.400573727 32193431.28460373 1460880.6858606827 8922643.178432714 32489469.841983303 36722755.29987646 27663046.7327714 51145381.16800053 23629349.737803742 8874825.6752332 69551634.77702348 18807091.415533107 26678222.46160219 42793019.31837422 490910.13389022736 5851159.121405623 26289885.55268779 8533253.75974081 10252790.034301797 6256700.935659936 43226547.30512261 3581866.2038967437 33059601.16763139 21532362.69263855 26577138.0647865 32305258.553818285 10242938.495121038 1792140.726084233 4756588.265101841 32225201.75441338 22953145.383107863 35914672.57788766 30057672.38795491 25711106.56019896 29966353.195862014 2411465.7833183385 17779383.826261003 6125967.697091974 6081543.905809357 41196228.90854327 35892678.105568245 32154738.084876537 32411343.402124427 32489767.80127687 35548608.236304 32641606.200063996 38328329.43530808 17915078.842222467 30461187.040295355 20261727.46709945 3195516.997150676 32966459.04901074 15402717.508967204 24733643.415963087 24672553.15457258 27022590.790815692 10981707.65512266 29970229.618394453 32638176.268373255 12458250.534722677 22937210.600521464 31696140.101090096 7325821.605937749 52138333.92238805 9154900.145113533 41505615.51897757 10895228.15310905 10893087.060808174 11077945.517913828 41175138.67283021 22562962.353487372 25740105.978688985 19597696.565634634 32509223.01686717 32329147.144297607 24512556.602287523 41908624.048364915 30999961.94081036 17824229.223495465 32691964.34743459 41935512.920676604 31251593.780602638 24468857.649585888 36717177.04441779 10411872.296015026 8568330.021554954 18133781.6653531 43358329.41479517 16264932.352140445 32310674.818238992 33250711.165185887 26237236.5827149 312971.6472447619 33435265.520052385 25098351.530626006 43312784.74895159 37717525.69204115 33417188.31612825 33025899.048920583 3169052.453533576 10540999.80925583 26126104.804860286 42987648.624159016 7014943.106216133 42895135.61203747 40152840.182397515 35698789.6494207 31228839.824357644 40025525.74240493 25465406.20188775 54150514.93375456 14171927.729799964 36911500.61498177 32375936.105835587 29023076.97764308 34892773.33941044 27669270.223679353 27901984.06555145 37877805.081451304 32190506.077348825 810877.437045121 31006886.821191058 7550391.298742708 26100323.06497524 31247719.693373527 22080598.31590551 26210530.660169363 22769534.6266171 36083936.98794851 25976169.374341704 31537674.01814206 2859794.6029890045 36140883.615517065 11925958.592272138 27234485.70690043 27236350.257042125 27463079.221602373 26653183.803868577 16564317.943395957 23296104.62041118 39047952.98566566 30606060.18594337 29627597.15215154 43127901.15323443 5971753.112104798 26555350.067704067 37079185.68165823 30820771.41101186 57464983.73305728 33331040.39997144 5774360.258954784 31571103.811666947 839492.3249385614 18464198.21022028 35820726.506650336 860785.9571753718 32037440.198126283 36224447.116762795 31432435.50505845 31989873.454191737 14174984.19071943 17848676.10759815 28828345.954252083 821458.4158957923 799135.2955282817 32167358.662763026 7666614.869102097 6503352.2019614205 24313009.49298981 13070819.014963405 20466795.05106079 13233273.591798587 30957436.386748005 3645221.372209308 43684989.71342439 36789596.61563085 30283066.500999697 36331804.33631853 36322576.683292545 5490469.774549851 126890681.89795034 29737859.281869356 25741278.02281436 31720011.102260925 31742398.5452034 35842311.26555839 16260812.766414309 65110583.98677361 19460404.829889122 23206285.77101664 6700070.509300108 31684099.25553815 32073477.963938683 49233321.81438701 62487977.2760999 16390596.869210202 85354100.25187244 38280265.09219377 29080233.240281317 41401531.97511635 12218977.735894537 17807782.198350336 6305804.9551252825 32800251.407731503 32438189.06699115 34939514.551325 6314543.724601033 20400327.665854853 26054274.47659466 51962063.55683922 30909442.810836576 19947377.713027313 41346959.47707722 33297748.437180568 26357029.74693775 31554883.71850466 26479692.559152253 35433429.72124824 10294119.91506415 27685685.481909186 12480469.005433857 30811921.125277422 32077279.481797926 41654537.25056566 31513439.010050174 9710083.456814472 34932513.57269883 30221770.86605514 44238557.53586656 12929562.938960088 13072746.186347999 4766749.768253342 32452073.21369801 25079019.811668262 50647581.66493123 44257590.958687685 29465561.42680584 32595648.482804514 18074683.180715103 22528656.688544247 37364486.95001516 50565634.42076097 37162712.29881998 55031208.10166202 2986357.7888875213 61695198.34657425 33652166.416641355 37392322.31628026 19366840.902316906 33252791.636390775 32582320.760756396 34424129.303545125 2931357.65176648 4192618.0677638156 35525791.284502916 9097208.597423857 24315061.26478807 48855033.93147947 29788124.08585873 17351705.778244454 40539074.34018191 4096031.6184178786 2702665.695109828 40338409.57441977 24667492.001783922 23046031.15572294 1297618.3336065977 8381670.340389718 4829379.430995341 16054774.452698778 40421157.61921967 30309687.259919185 42894538.08590127 32737556.39831973 22948928.175061993 33404361.44181144 23543566.491344973 43823278.05045132 40014727.89152792 32147427.282412082 31139174.639698155 30057729.61579378 17381786.34340051 10999667.417730784 293991.7233463178 39885285.21409092 2520149.3692207634 29285091.963882685 9893809.301883405 46642651.72809834 30985909.71332892 64856652.30538205 32015349.412960112 34244014.90309423 38926714.84592694 5076257.453334108 25326838.734920654 38320083.76177214 29801433.38616632 9638997.172032252 31747270.229238573 31530661.13605507 32355020.086421043 31978067.708082456 30031355.947517034 32563131.50128577 5865009.172385744 38306063.32163808 32377308.86135619 30916740.83872623 23162292.306394596 30985877.670356806 23643728.101766217 31506222.576766152 7478269.46803242 11577571.849846411 6033683.959632813 11611320.613910824 8454690.252663618 30767092.128033604 32448279.55091248 45540776.40039166 53584832.85448068 9852830.67048425 30772350.86561026 25644018.84253268 30807449.974067304 35524190.940113425 45486092.01641217 37391361.77302923 31386560.92999894 31166077.785844646 19450150.756559316 18674708.740964938 53674053.709305905 31413545.274932273 9895557.980600467 62568961.86210949 7826066.388463339 877334.6908439825 31904971.5972311 18708917.19621121 54902056.87027164 32513353.36007957 32568888.72502743 30227479.27617628 11466693.863598116 32733599.6914402 13126781.219382742 30396137.196814336 27414486.65428564 26308973.965854097 37732954.53451076 34881142.65498485 24761117.370258246 31873389.322279204 29138354.780214358 6210355.807220493 32644102.30274194 31647605.967803344 14189199.344549648 6126622.385225057 31862426.65556772 24249283.477482215 23774914.42173078 7646862.018338093 2008681.3979171936 26136286.955569603 35228049.408045806 22015135.961814806 31374732.14876306 22031153.93025923 32378478.643265862 28044885.56553597 23302632.80071996 18198737.810567662 16899948.598507017 33576781.350214295 26348406.07327989 29977162.274878535 29616271.68576752 34887591.53942909 26342709.313245937 31397318.19068334 25158363.43512086 18194359.739787806 20573845.540285453 29921838.551608287 30055277.76085887 50639166.47022239 31044838.04732046 31908682.038097747 19282980.93940067 31894789.868420616 30542023.82952366 29940883.40539291 32794794.92404436 46001063.25244369 25555698.31823011 20808936.7132062 9355987.94914136 30753048.84836223 21945866.043284867 25463901.401562415 31628983.386383094 32995855.227019235 29844635.38406297 6805012.587679802 32929472.77111456 9093852.09118072 48875144.48216124 35075612.63369811 13185795.069875387 20361562.69418309 37999551.76647933 33627874.06077599 32780591.882362686 32436003.470367607 32396129.844509162 29096647.872762524 31616144.077299282 42695741.470879875 28925925.939486817 24086590.758379616 16653728.737800814 33818355.55947374 31998790.284142092 16337454.08085585 16322033.977403391 29668869.000304896 47474957.52071835 26438968.86357409 31799911.693459537 32524156.145526897 24813847.716277633 23659169.044756323 36705732.9161638 16143641.270456444 885811.5726779774 31772262.941307724 20516528.2237286 24212561.15089921 30025841.862738863 21361003.837149516 44451198.622214474 21885633.08094175 15843871.323217846 33124042.342991866 16682701.548996087 44457378.47315538 29985220.940253977 25624654.039732248 26179237.498908993 33084875.245051127 8107161.265067926 25729331.916060135 29322170.13380065 31730750.178910732 32167057.571562685 32195100.167153835 32058524.124781843 14377538.200968223 31082810.958557423 24339171.380439635 8796913.361004306 29852245.419406474 30982972.08510618 26242185.20608047 16432976.035243636 30361378.045697533 4243802.930487444 34233697.00719724 31724419.86643029 29369748.479017194 31874877.01394582 27422892.09973231 3621401.139888832 24317150.25971932 14407990.606378771 31885910.53062095 29538077.101981707 30785338.29932904 32659415.936388727 32650690.284791406 24990329.91130612 30295963.346794046 30782330.34136272 18610767.040265158 61034102.81401712 12474343.974356199 8859469.460968051 33415452.306487404 31882395.538896535 32538529.875596896 12328158.845746374 30539526.834160753 10974406.08266672 978993.6484027009 33048118.13548807 29631413.821434665 36769651.76072486 9967446.259742746 28209580.629725393 26648712.643600285 30337374.728295583 24446498.39866393 15253433.269942716 5875592.866622957 31273875.575998772 32221926.94905343 12787619.227440333 29727143.132233445 39018099.41276562 78286533.90372114 41606662.57438569 71384823.88022892 4113157.237828172 32320634.41358439 38328444.516415015 32290829.748352673 31862933.860944152 41655240.370001756 3596750.0121691893 30846922.268757213 27651404.39111516 67593242.07313132 12481207.555370854 31299033.090297993 32189974.41544541 31805808.35370105 32399502.758345407 30418446.633880593 30470858.088364843 30440373.238857817 33081896.95019312 24063406.957940914 19045088.980253387 15115614.421479288 31526080.48223363 32847740.944668327 5639772.939133563 30609709.148887105 24559634.822077934 34537680.9134607 18741172.693997882 25601205.786906146 36359371.58845518 32266518.385316256 31718355.754309043 35078212.28366527 32376125.61168569 32115777.113410525 30374558.10287561 29836332.06187436 40598100.21917431 32087258.836888693 32289600.05280581 32030998.848477848 29023450.11864714 31341402.643891674 30970318.232653096 8096937.907613141 35309432.86003591 31965054.11858687 32457862.253845423 31887710.887660682 34584022.95716761 64502951.83189225 39201428.95414222 23258811.19036072 34858837.823247775 30476749.735511847 34045722.94577823 65614387.96507791 32117548.34466679 20783631.639332376 15913471.341584437 7421085.369734109 40958757.65670005 32852598.1072993 25814747.687600527 32046251.74776349 32257589.265736308 32368182.61754622 31964342.294893157 30324250.157042615 16839608.79615021 31572513.816147022 32345593.646032434 11906648.05177726 36230170.38405121 20544759.180233482 14621187.897132348 43495027.19796179 41998736.23274787 27438485.53738444 28799764.31989721 31306351.102353033 32126068.20034885 35885300.46804229 43442663.084228955 20339058.23372092 20758473.450733975 8152236.620876772 54450494.23439254 23690902.530118745 29706635.936684296 30357145.033200018 27184210.68878958 29699725.084341537 27175120.568373322 11786313.206342995 30380679.188601494 32702145.388138864 31542668.063150797 37115163.737782836 32360234.31480605 10369975.925646322 47577406.705486 32445619.64926546 30191778.358839538 20151726.300595257 53150040.780618966 24314278.3740901 32729847.95070279 31887932.83747866 36834066.43888372 31604367.05637292 71264724.02904738 41817874.85969172 31734946.495486207 13805347.727605151 2830505.1559749823 17571238.51721784 1380548.534102298 22450077.22987188 30710759.901215598 31556075.47972061 31599532.412490755 31277223.331488386 9272522.34313551 31354841.970924143 29971557.888144936 30955986.78410327 2454082.4314619214 16917499.565306805 12692492.199455092 9285762.268340103 32585573.700509157 37681321.932877876 31386480.725258444 12480449.4395632 32401168.13519468 31403418.58320236 2493215.8155457415 17460212.419041008 40760787.575686164 34056142.71553685 34408116.619576074 34592607.36398831 29284471.333173208 34385492.77034642 21081153.27153462 25414782.501962874 30859979.463546347 30988321.495998546 32379639.60685596 21083649.09912384 31948645.201910622 32378759.710460287 38827085.1523056 38283312.21887413 30426727.006570384 34179979.85901862 30367674.08898045 33773660.31257852 33796539.850527726 31428625.192302782 29927179.25925652 38120650.63311359 34723668.62533759 28599737.917349964 29811286.991796996 28619745.512403253 30267876.172490075 38808599.46292027 9945254.776218107 32491163.69470199 13770371.695941499 8437769.503533095 2123680.4108215994 11770493.413021404 25695648.827799067 20246306.505647447 19324958.767641112 29112044.786260925 30385651.954513334 31327391.589247722 29112013.306881554 40606912.40601197 5513044.77611036 32623574.596985884 19470233.37512464 6343960.580208529 824067.0182503607 793369.7507848957 31120730.24627951 31047972.07560332 11415983.811006527 25105084.053267878 1067148.6134604707 33042143.888980914 9856944.225722304 1086559.8696095836 917774.3816227178 6835856.200374861 33861131.59552369 24409529.595934313 8359724.001714412 37293593.587020196 5509378.646777783 43048117.32985657 28744463.969919648 32496056.405327242 70700559.79067276 905846.2733221449 1211447.4259392538 33235790.285893045 34405616.582626596 20758780.876746446 31485330.523701247 1044228.5747370978 793714.3992486994 32051012.904231075 28885787.476046324 25293588.11410021 33542353.507052008 33515253.374852896 32905572.12449532 40159958.55762635 20767967.796446137 29629323.20863379 13291844.508436361 41877957.49930432 7275378.307384324 41861636.2662666 15271219.30535562 15202995.516193302 25456812.809609137 24273244.384339858 21650976.33765037 33853915.3001319 39745741.06589607 28819927.171535898 29922751.46745543 4374673.040650659 29746113.312148947 6907217.017893525 31799116.09151648 28984151.09133526 5828087.908035104 10787220.259856308 39493249.79265154 25723142.94706758 30959091.52892813 24958075.603047542 34410202.55426315 10890600.802644609 31938764.87632399 31833033.501819976 31659514.809299465 20560467.708212253 31576011.36216657 31959954.415675353 23355320.889980387 1939449.4349189613 31976331.485144895 29919217.906815924 34602630.65991185 24905667.95708944 30398235.95790436 31722102.71733484 21068793.8715638 31911487.2723147 30418323.485842917 28908418.13939489 32157527.437548768 31566566.450280093 32050253.037694078 23672774.96151631 31360818.884325936 28050010.533378176 31722782.636499368 31309308.4135423 31679345.769228578 31719730.318263378 31670641.050473742 16269705.417060418 26519066.261126973 11559298.441252595 32612810.075195413 15963945.070414959 32594841.042776465 33445014.584474955 38828104.60169292 32055896.300504707 32022345.136815336 4465374.62420408 27803391.675305653 5843233.429983287 27999552.049975455 31185967.39403999 38640370.47409654 26451747.8031356 31345150.155475453 14797260.113385666 4420771.371766293 14844846.008748101 29481735.496572297 14748559.103960514 10257920.235983826 28052637.589318663 31874384.501150113 5351393.331790306 18731916.793215856 11383703.955826133 34506822.842757516 29972698.809632227 18548958.15086191 30294655.959095098 30372256.356331516 34461103.43445287 27210718.588949695 29800044.84875233 31771076.21265246 31544844.486036953 57080502.96821876 30089891.454370573 26236048.64016516 30768089.585079376 52286478.96817373